<?xml version="1.0"?>
<VTKFile type="UnstructuredGrid" version="0.1" byte_order="LittleEndian">
<UnstructuredGrid>
<Piece NumberOfPoints="29884" NumberOfCells="10491">
<Points>
<DataArray type="Float64" NumberOfComponents="3" format="ascii">
-0.49999999999999728 -0.48567482214534557 0 -0.48242457629161117 -0.48219088160376078 0 -0.48156055977020351 -0.48893869789357108 0 -0.49999999999999728 -0.48567482214534557 0 -0.49175923356371221 -0.49283741107267359 0 -0.48156055977020351 -0.48893869789357108 0 -0.5 -0.5 0 -0.49175923356371221 -0.49283741107267359 0 -0.48014422782550209 -0.50000000000000466 0 -0.5 -0.5 0 -0.49999999999999728 -0.48567482214534557 0 -0.49175923356371221 -0.49283741107267359 0 -0.49999999999999728 -0.48567482214534557 0 -0.48156055977020351 -0.48893869789357108 0 -0.49175923356371221 -0.49283741107267359 0 -0.48014422782550209 -0.50000000000000466 0 -0.48156055977020351 -0.48893869789357108 0 -0.49999999999999728 -0.48567482214534557 0 -0.49168167874632962 -0.46991569689222118 0 -0.48242457629161117 -0.48219088160376078 0 -0.49999999999999728 -0.48567482214534557 0 -0.48242457629161117 -0.48219088160376078 0 -0.49168167874632962 -0.46991569689222118 0 -0.48242457629161117 -0.48219088160376078 0 -0.48585977045628959 -0.45536262245728037 0 -0.49999999999999728 -0.48567482214534557 0 -0.49168167874632962 -0.46991569689222118 0 -0.5 -0.45776971426505808 0 -0.48242457629161117 -0.48219088160376078 0 -0.48585977045628959 -0.45536262245728037 0 -0.48014422782550209 -0.50000000000000466 0 -0.48156055977020351 -0.48893869789357108 0 -0.46073008757611872 -0.49262579859571409 0 -0.48242457629161117 -0.48219088160376078 0 -0.48156055977020351 -0.48893869789357108 0 -0.46073008757611872 -0.49262579859571409 0 -0.48156055977020351 -0.48893869789357108 0 -0.46073008757611872 -0.49262579859571409 0 -0.48014422782550209 -0.50000000000000466 0 -0.48156055977020351 -0.48893869789357108 0 -0.48242457629161117 -0.48219088160376078 0 -0.48156055977020351 -0.48893869789357108 0 -0.48014422782550209 -0.50000000000000466 0 -0.45978586627965101 -0.5 0 -0.46073008757611872 -0.49262579859571409 0 -0.45978586627965101 -0.5 0 -0.46073008757611872 -0.49262579859571409 0 -0.43989961538203359 -0.49631289929785632 0 -0.48242457629161117 -0.48219088160376078 0 -0.45436142617639858 -0.47799815694279679 0 -0.46543336013811221 -0.46017180654679879 0 -0.48242457629161117 -0.48219088160376078 0 -0.46073008757611872 -0.49262579859571409 0 -0.45436142617639858 -0.47799815694279679 0 -0.48242457629161117 -0.48219088160376078 0 -0.45436142617639858 -0.47799815694279679 0 -0.45436142617639858 -0.47799815694279679 0 -0.42629827606118598 -0.47380543228183292 0 -0.45436142617639858 -0.47799815694279679 0 -0.43989961538203359 -0.49631289929785632 0 -0.42629827606118598 -0.47380543228183292 0 -0.46073008757611872 -0.49262579859571409 0 -0.43989961538203359 -0.49631289929785632 0 -0.46073008757611872 -0.49262579859571409 0 -0.45436142617639858 -0.47799815694279679 0 -0.43989961538203359 -0.49631289929785632 0 -0.45978586627965101 -0.5 0 -0.43942750473379988 -0.5 0 -0.43989961538203359 -0.49631289929785632 0 -0.43875724065578298 -0.45112130999906541 0 -0.45998704374879568 -0.44223444774246001 0 -0.44065958185515192 -0.42114166380953921 0 -0.45436142617639858 -0.47799815694279679 0 -0.43875724065578298 -0.45112130999906541 0 -0.42629827606118598 -0.47380543228183292 0 -0.45436142617639858 -0.47799815694279679 0 -0.43875724065578298 -0.45112130999906541 0 -0.46543336013811221 -0.46017180654679879 0 -0.43875724065578298 -0.45112130999906541 0 -0.46543336013811221 -0.46017180654679879 0 -0.45998704374879568 -0.44223444774246001 0 -0.45998704374879568 -0.44223444774246001 0 -0.48585977045628959 -0.45536262245728037 0 -0.47093679288560958 -0.4280425788944241 0 -0.46543336013811221 -0.46017180654679879 0 -0.45998704374879568 -0.44223444774246001 0 -0.48585977045628959 -0.45536262245728037 0 -0.48242457629161117 -0.48219088160376078 0 -0.46543336013811221 -0.46017180654679879 0 -0.48585977045628959 -0.45536262245728037 0 -0.49168167874632962 -0.46991569689222118 0 -0.48585977045628959 -0.45536262245728037 0 -0.5 -0.45776971426505808 0 -0.48585977045628959 -0.45536262245728037 0 -0.48929496462097211 -0.42853436331080053 0 -0.48585977045628959 -0.45536262245728037 0 -0.5 -0.45776971426505808 0 -0.5 -0.43072272223787611 0 -0.48585977045628959 -0.45536262245728037 0 -0.48929496462097211 -0.42853436331080053 0 -0.5 -0.43072272223787611 0 -0.48929496462097211 -0.42853436331080053 0 -0.48226978601481008 -0.41384948043645797 0 -0.49273015878565402 -0.40170610416432068 0 -0.48929496462097211 -0.42853436331080053 0 -0.49273015878565402 -0.40170610416432068 0 -0.48929496462097211 -0.42853436331080053 0 -0.49273015878565402 -0.40170610416432068 0 -0.49999999999999939 -0.40367573021069408 0 -0.48929496462097211 -0.42853436331080053 0 -0.5 -0.43072272223787611 0 -0.49999999999999939 -0.40367573021069408 0 -0.48226978601481008 -0.41384948043645797 0 -0.49273015878565402 -0.40170610416432068 0 -0.46615519659856097 -0.41127766959410827 0 -0.49273015878565402 -0.40170610416432068 0 -0.46615519659856097 -0.41127766959410827 0 -0.48226978601481008 -0.41384948043645797 0 -0.47093679288560958 -0.4280425788944241 0 -0.46615519659856097 -0.41127766959410827 0 -0.48585977045628959 -0.45536262245728037 0 -0.48929496462097211 -0.42853436331080053 0 -0.47093679288560958 -0.4280425788944241 0 -0.48929496462097211 -0.42853436331080053 0 -0.48226978601481008 -0.41384948043645797 0 -0.47093679288560958 -0.4280425788944241 0 -0.49999999999999822 -0.39818345914521303 0 -0.5 -0.37155669430044652 0 -0.49641290531991911 -0.37294450477415192 0 -0.48477655570725581 -0.38563093746246568 0 -0.49273015878565402 -0.40170610416432068 0 -0.49641290531991911 -0.37294450477415192 0 -0.49273015878565402 -0.40170610416432068 0 -0.49641290531991911 -0.37294450477415192 0 -0.49999999999999822 -0.39818345914521303 0 -0.49273015878565402 -0.40170610416432068 0 -0.49641290531991911 -0.37294450477415192 0 -0.49999999999999822 -0.39818345914521303 0 -0.49273015878565402 -0.40170610416432068 0 -0.49999999999999939 -0.40367573021069408 0 -0.49999999999999822 -0.39818345914521303 0 -0.49273015878565402 -0.40170610416432068 0 -0.49273015878565402 -0.40170610416432068 0 -0.49999999999999939 -0.40367573021069408 0 -0.49273015878565402 -0.40170610416432068 0 -0.47087523446960761 -0.39578492557113282 0 -0.46615519659856097 -0.41127766959410827 0 -0.49273015878565402 -0.40170610416432068 0 -0.47087523446960761 -0.39578492557113282 0 -0.48477655570725581 -0.38563093746246568 0 -0.49273015878565402 -0.40170610416432068 0 -0.47087523446960761 -0.39578492557113282 0 -0.48477655570725581 -0.38563093746246568 0 -0.47087523446960761 -0.39578492557113282 0 -0.46307095556835959 -0.38450731210042433 0 -0.48477655570725581 -0.38563093746246568 0 -0.46307095556835959 -0.38450731210042433 0 -0.46604790494897919 -0.36916237409430708 0 -0.46307095556835959 -0.38450731210042433 0 -0.45009965759724491 -0.39015617576358708 0 -0.4500061896768186 -0.37322964101757261 0 -0.46307095556835959 -0.38450731210042433 0 -0.46604790494897919 -0.36916237409430708 0 -0.4500061896768186 -0.37322964101757261 0 -0.47087523446960761 -0.39578492557113282 0 -0.46307095556835959 -0.38450731210042433 0 -0.45009965759724491 -0.39015617576358708 0 -0.47087523446960761 -0.39578492557113282 0 -0.45009965759724491 -0.39015617576358708 0 -0.47087523446960761 -0.39578492557113282 0 -0.44872417206340498 -0.40297223803845411 0 -0.46615519659856097 -0.41127766959410827 0 -0.47087523446960761 -0.39578492557113282 0 -0.44872417206340498 -0.40297223803845411 0 -0.45009965759724491 -0.39015617576358708 0 -0.44872417206340498 -0.40297223803845411 0 -0.43470790178407243 -0.39519073789670589 0 -0.43383997094574223 -0.40525315004638268 0 -0.44872417206340498 -0.40297223803845411 0 -0.45009965759724491 -0.39015617576358708 0 -0.43470790178407243 -0.39519073789670589 0 -0.45009965759724491 -0.39015617576358708 0 -0.42932408072488232 -0.38452742595604139 0 -0.45009965759724491 -0.39015617576358708 0 -0.44043179471547139 -0.38064414994799489 0 -0.4500061896768186 -0.37322964101757261 0 -0.45009965759724491 -0.39015617576358708 0 -0.42932408072488232 -0.38452742595604139 0 -0.43470790178407243 -0.39519073789670589 0 -0.45009965759724491 -0.39015617576358708 0 -0.44043179471547139 -0.38064414994799489 0 -0.42932408072488232 -0.38452742595604139 0 -0.44043179471547139 -0.38064414994799489 0 -0.44040505831245891 -0.37204456248795159 0 -0.4500061896768186 -0.37322964101757261 0 -0.44043179471547139 -0.38064414994799489 0 -0.43482401941346482 -0.37731644853977248 0 -0.44040505831245891 -0.37204456248795159 0 -0.45998704374879568 -0.44223444774246001 0 -0.47093679288560958 -0.4280425788944241 0 -0.44065958185515192 -0.42114166380953921 0 -0.46615519659856097 -0.41127766959410827 0 -0.44065958185515192 -0.42114166380953921 0 -0.47093679288560958 -0.4280425788944241 0 -0.46615519659856097 -0.41127766959410827 0 -0.44065958185515192 -0.42114166380953921 0 -0.44872417206340498 -0.40297223803845411 0 -0.46615519659856097 -0.41127766959410827 0 -0.44065958185515192 -0.42114166380953921 0 -0.44872417206340498 -0.40297223803845411 0 -0.44065958185515192 -0.42114166380953921 0 -0.43383997094574223 -0.40525315004638268 0 -0.43875724065578298 -0.45112130999906541 0 -0.44065958185515192 -0.42114166380953921 0 -0.41516396711174258 -0.43100565802497021 0 -0.44065958185515192 -0.42114166380953921 0 -0.41516396711174258 -0.43100565802497021 0 -0.44065958185515192 -0.42114166380953921 0 -0.42172136568086149 -0.4110569882830799 0 -0.41516396711174258 -0.43100565802497021 0 -0.44065958185515192 -0.42114166380953921 0 -0.42172136568086149 -0.4110569882830799 0 -0.43383997094574223 -0.40525315004638268 0 -0.42172136568086149 -0.4110569882830799 0 -0.41107523071731522 -0.40012420769218271 0 -0.40519348169515601 -0.41736105793405681 0 -0.42172136568086149 -0.4110569882830799 0 -0.41516396711174258 -0.43100565802497021 0 -0.40519348169515601 -0.41736105793405681 0 -0.42966134635291658 -0.37838218409471791 0 -0.42587069996439758 -0.38323076590749849 0 -0.42329143794914492 -0.37340038206799969 0 -0.42966134635291658 -0.37838218409471791 0 -0.42932408072488232 -0.38452742595604139 0 -0.42587069996439758 -0.38323076590749849 0 -0.42966134635291658 -0.37838218409471791 0 -0.43482401941346482 -0.37731644853977248 0 -0.43099078574550448 -0.3710997472098852 0 -0.44043179471547139 -0.38064414994799489 0 -0.43482401941346482 -0.37731644853977248 0 -0.42932408072488232 -0.38452742595604139 0 -0.42966134635291658 -0.37838218409471791 0 -0.43482401941346482 -0.37731644853977248 0 -0.42932408072488232 -0.38452742595604139 0 -0.42932408072488232 -0.38452742595604139 0 -0.42550928134869731 -0.38944033416108759 0 -0.43470790178407243 -0.39519073789670589 0 -0.42550928134869731 -0.38944033416108759 0 -0.42338683334521993 -0.39590412220413418 0 -0.41957479326400099 -0.38608712622450869 0 -0.42932408072488232 -0.38452742595604139 0 -0.42587069996439758 -0.38323076590749849 0 -0.42550928134869731 -0.38944033416108759 0 -0.42587069996439758 -0.38323076590749849 0 -0.42550928134869731 -0.38944033416108759 0 -0.41957479326400099 -0.38608712622450869 0 -0.42550928134869731 -0.38944033416108759 0 -0.42338683334521993 -0.39590412220413418 0 -0.43470790178407243 -0.39519073789670589 0 -0.42338683334521993 -0.39590412220413418 0 -0.43470790178407243 -0.39519073789670589 0 -0.43383997094574223 -0.40525315004638268 0 -0.42172136568086149 -0.4110569882830799 0 -0.42338683334521993 -0.39590412220413418 0 -0.43383997094574223 -0.40525315004638268 0 -0.42172136568086149 -0.4110569882830799 0 -0.42338683334521993 -0.39590412220413418 0 -0.41107523071731522 -0.40012420769218271 0 -0.41107523071731522 -0.40012420769218271 0 -0.41154495104060129 -0.3873900099822013 0 -0.4015272445000202 -0.39114872053598809 0 -0.42338683334521993 -0.39590412220413418 0 -0.41107523071731522 -0.40012420769218271 0 -0.41154495104060129 -0.3873900099822013 0 -0.42338683334521993 -0.39590412220413418 0 -0.41957479326400099 -0.38608712622450869 0 -0.41154495104060129 -0.3873900099822013 0 -0.41154495104060129 -0.3873900099822013 0 -0.40069714978860799 -0.38068238975077417 0 -0.41156220062108861 -0.37447039886762212 0 -0.42587069996439758 -0.38323076590749849 0 -0.41156220062108861 -0.37447039886762212 0 -0.41957479326400099 -0.38608712622450869 0 -0.41154495104060129 -0.3873900099822013 0 -0.41156220062108861 -0.37447039886762212 0 -0.42587069996439758 -0.38323076590749849 0 -0.42329143794914492 -0.37340038206799969 0 -0.41156220062108861 -0.37447039886762212 0 -0.42587069996439758 -0.38323076590749849 0 -0.41957479326400099 -0.38608712622450869 0 -0.41156220062108861 -0.37447039886762212 0 -0.38577405778701102 -0.38693385488870219 0 -0.39725370127777959 -0.36571003182774547 0 -0.40069714978860799 -0.38068238975077417 0 -0.4015272445000202 -0.39114872053598809 0 -0.38577405778701102 -0.38693385488870219 0 -0.40069714978860799 -0.38068238975077417 0 -0.38577405778701102 -0.38693385488870219 0 -0.39725370127777959 -0.36571003182774547 0 -0.41154495104060129 -0.3873900099822013 0 -0.40069714978860799 -0.38068238975077417 0 -0.4015272445000202 -0.39114872053598809 0 -0.41107523071731522 -0.40012420769218271 0 -0.39476018345023239 -0.40480788621306052 0 -0.4015272445000202 -0.39114872053598809 0 -0.39476018345023239 -0.40480788621306052 0 -0.4015272445000202 -0.39114872053598809 0 -0.38577405778701102 -0.38693385488870219 0 -0.37666724842483601 -0.40302518674921428 0 -0.38577405778701102 -0.38693385488870219 0 -0.3643117663842948 -0.39166050175397038 0 -0.39476018345023239 -0.40480788621306052 0 -0.37666724842483601 -0.40302518674921428 0 -0.38577405778701102 -0.38693385488870219 0 -0.41516396711174258 -0.43100565802497021 0 -0.39713268217675918 -0.43466959710013292 0 -0.40519348169515601 -0.41736105793405681 0 -0.39130746103402542 -0.42250201029091411 0 -0.39713268217675918 -0.43466959710013292 0 -0.40519348169515601 -0.41736105793405681 0 -0.39130746103402542 -0.42250201029091411 0 -0.39713268217675918 -0.43466959710013292 0 -0.38470214189995688 -0.43409845733971059 0 -0.39476018345023239 -0.40480788621306052 0 -0.39130746103402542 -0.42250201029091411 0 -0.40519348169515601 -0.41736105793405681 0 -0.41107523071731522 -0.40012420769218271 0 -0.39476018345023239 -0.40480788621306052 0 -0.40519348169515601 -0.41736105793405681 0 -0.39476018345023239 -0.40480788621306052 0 -0.37666724842483601 -0.40302518674921428 0 -0.38300460864029701 -0.41350426803185092 0 -0.39130746103402542 -0.42250201029091411 0 -0.38300460864029701 -0.41350426803185092 0 -0.37680886741348901 -0.42324480024816818 0 -0.39476018345023239 -0.40480788621306052 0 -0.39130746103402542 -0.42250201029091411 0 -0.38300460864029701 -0.41350426803185092 0 -0.37666724842483601 -0.40302518674921428 0 -0.38300460864029701 -0.41350426803185092 0 -0.37120016843128661 -0.41371132266011479 0 -0.38300460864029701 -0.41350426803185092 0 -0.37680886741348901 -0.42324480024816818 0 -0.37120016843128661 -0.41371132266011479 0 -0.37680886741348901 -0.42324480024816818 0 -0.37349042162212681 -0.44433239160403692 0 -0.37680886741348901 -0.42324480024816818 0 -0.38470214189995688 -0.43409845733971059 0 -0.37349042162212681 -0.44433239160403692 0 -0.39130746103402542 -0.42250201029091411 0 -0.37680886741348901 -0.42324480024816818 0 -0.38470214189995688 -0.43409845733971059 0 -0.38470214189995688 -0.43409845733971059 0 -0.38953573945672543 -0.44440604698532149 0 -0.37349042162212681 -0.44433239160403692 0 -0.38953573945672543 -0.44440604698532149 0 -0.38576444898608209 -0.45706879121211508 0 -0.37349042162212681 -0.44433239160403692 0 -0.39713268217675918 -0.43466959710013292 0 -0.38470214189995688 -0.43409845733971059 0 -0.38953573945672543 -0.44440604698532149 0 -0.39713268217675918 -0.43466959710013292 0 -0.38953573945672543 -0.44440604698532149 0 -0.40658900259870151 -0.45186099767061227 0 -0.38953573945672543 -0.44440604698532149 0 -0.38576444898608209 -0.45706879121211508 0 -0.40658900259870151 -0.45186099767061227 0 -0.38576444898608209 -0.45706879121211508 0 -0.39823512594597371 -0.46961270762086887 0 -0.40658900259870151 -0.45186099767061227 0 -0.38576444898608209 -0.45706879121211508 0 -0.39823512594597371 -0.46961270762086887 0 -0.37017197583076122 -0.46541998295990522 0 -0.38576444898608209 -0.45706879121211508 0 -0.37017197583076122 -0.46541998295990522 0 -0.37349042162212681 -0.44433239160403692 0 -0.39823512594597371 -0.46961270762086887 0 -0.37017197583076122 -0.46541998295990522 0 -0.3844544705556287 -0.48557865685357149 0 -0.39823512594597371 -0.46961270762086887 0 -0.37017197583076122 -0.46541998295990522 0 -0.3844544705556287 -0.48557865685357149 0 -0.39527799785330953 -0.5 0 -0.37148685251867031 -0.50000000000000011 0 -0.3844544705556287 -0.48557865685357149 0 -0.39527799785330953 -0.5 0 -0.40717357052062841 -0.4858200811425808 0 -0.3844544705556287 -0.48557865685357149 0 -0.39823512594597371 -0.46961270762086887 0 -0.40717357052062841 -0.4858200811425808 0 -0.39823512594597371 -0.46961270762086887 0 -0.40717357052062841 -0.4858200811425808 0 -0.42629827606118598 -0.47380543228183292 0 -0.39823512594597371 -0.46961270762086887 0 -0.42629827606118598 -0.47380543228183292 0 -0.40717357052062841 -0.4858200811425808 0 -0.41906914318794869 -0.49999999999999928 0 -0.42629827606118598 -0.47380543228183292 0 -0.39527799785330953 -0.5 0 -0.40717357052062841 -0.4858200811425808 0 -0.41906914318794869 -0.49999999999999928 0 -0.43989961538203359 -0.49631289929785632 0 -0.41906914318794869 -0.49999999999999928 0 -0.43989961538203359 -0.49631289929785632 0 -0.41906914318794869 -0.49999999999999928 0 -0.42629827606118598 -0.47380543228183292 0 -0.43942750473379988 -0.5 0 -0.43989961538203359 -0.49631289929785632 0 -0.41906914318794869 -0.49999999999999928 0 -0.43875724065578298 -0.45112130999906541 0 -0.41516396711174258 -0.43100565802497021 0 -0.40658900259870151 -0.45186099767061227 0 -0.43875724065578298 -0.45112130999906541 0 -0.42629827606118598 -0.47380543228183292 0 -0.40658900259870151 -0.45186099767061227 0 -0.41516396711174258 -0.43100565802497021 0 -0.39713268217675918 -0.43466959710013292 0 -0.40658900259870151 -0.45186099767061227 0 -0.39823512594597371 -0.46961270762086887 0 -0.42629827606118598 -0.47380543228183292 0 -0.40658900259870151 -0.45186099767061227 0 -0.45338096328327421 -0.27233046869005478 0 -0.43007144492491212 -0.26042808306076759 0 -0.44333334693581128 -0.24613510590064661 0 -0.45338096328327421 -0.27233046869005478 0 -0.46058649106810318 -0.2465615638616751 0 -0.44333334693581128 -0.24613510590064661 0 -0.45338096328327421 -0.27233046869005478 0 -0.43081729642490751 -0.28627127288288667 0 -0.43007144492491212 -0.26042808306076759 0 -0.45338096328327421 -0.27233046869005478 0 -0.43007144492491212 -0.26042808306076759 0 -0.45338096328327421 -0.27233046869005478 0 -0.4766904816416363 -0.28423285431934198 0 -0.45338096328327421 -0.27233046869005478 0 -0.47807803357678641 -0.25745616139102451 0 -0.46058649106810318 -0.2465615638616751 0 -0.47807803357678641 -0.25745616139102451 0 -0.5 -0.267779545629796 0 -0.5 -0.23942385131096319 0 -0.47807803357678641 -0.25745616139102451 0 -0.5 -0.267779545629796 0 -0.4766904816416363 -0.28423285431934198 0 -0.45338096328327421 -0.27233046869005478 0 -0.47807803357678641 -0.25745616139102451 0 -0.4766904816416363 -0.28423285431934198 0 -0.4766904816416363 -0.28423285431934198 0 -0.48197982610857609 -0.30793510301237648 0 -0.46446645577977069 -0.2962829687941681 0 -0.5 -0.267779545629796 0 -0.4766904816416363 -0.28423285431934198 0 -0.49999999999999872 -0.29613523994862878 0 -0.4766904816416363 -0.28423285431934198 0 -0.49999999999999872 -0.29613523994862878 0 -0.48197982610857609 -0.30793510301237648 0 -0.4766904816416363 -0.28423285431934198 0 -0.49999999999999872 -0.29613523994862878 0 -0.49999999999999872 -0.29613523994862878 0 -0.48197982610857609 -0.30793510301237648 0 -0.5 -0.3205325847021544 0 -0.48197982610857609 -0.30793510301237648 0 -0.46446645577977069 -0.2962829687941681 0 -0.46408124046134608 -0.31488549358109308 0 -0.46446645577977069 -0.2962829687941681 0 -0.44619976740402101 -0.30203092436797419 0 -0.46408124046134608 -0.31488549358109308 0 -0.45338096328327421 -0.27233046869005478 0 -0.46446645577977069 -0.2962829687941681 0 -0.44619976740402101 -0.30203092436797419 0 -0.45338096328327421 -0.27233046869005478 0 -0.4766904816416363 -0.28423285431934198 0 -0.46446645577977069 -0.2962829687941681 0 -0.45338096328327421 -0.27233046869005478 0 -0.44619976740402101 -0.30203092436797419 0 -0.43081729642490751 -0.28627127288288667 0 -0.44619976740402101 -0.30203092436797419 0 -0.44593354524786161 -0.31880366080297229 0 -0.42643889851045169 -0.31175178281390648 0 -0.44619976740402101 -0.30203092436797419 0 -0.44593354524786161 -0.31880366080297229 0 -0.46408124046134608 -0.31488549358109308 0 -0.44593354524786161 -0.31880366080297229 0 -0.4563173526333778 -0.33188956442559742 0 -0.43663046723011129 -0.33346053882629018 0 -0.44761239840430561 -0.34329987818173979 0 -0.4563173526333778 -0.33188956442559742 0 -0.43663046723011129 -0.33346053882629018 0 -0.44761239840430561 -0.34329987818173979 0 -0.43317133861080798 -0.34935782562221368 0 -0.43663046723011129 -0.33346053882629018 0 -0.44761239840430561 -0.34329987818173979 0 -0.4563173526333778 -0.33188956442559742 0 -0.46597649774379091 -0.34820513018641258 0 -0.4563173526333778 -0.33188956442559742 0 -0.47870998338614129 -0.33277717526785111 0 -0.46597649774379091 -0.34820513018641258 0 -0.4563173526333778 -0.33188956442559742 0 -0.46408124046134608 -0.31488549358109308 0 -0.47870998338614129 -0.33277717526785111 0 -0.44593354524786161 -0.31880366080297229 0 -0.4563173526333778 -0.33188956442559742 0 -0.46408124046134608 -0.31488549358109308 0 -0.48197982610857609 -0.30793510301237648 0 -0.46408124046134608 -0.31488549358109308 0 -0.47870998338614129 -0.33277717526785111 0 -0.48197982610857609 -0.30793510301237648 0 -0.5 -0.3205325847021544 0 -0.47870998338614129 -0.33277717526785111 0 -0.5 -0.3205325847021544 0 -0.47870998338614129 -0.33277717526785111 0 -0.49999999999999828 -0.34492992945567991 0 -0.48171895765493961 -0.36000148313379787 0 -0.46604790494897919 -0.36916237409430708 0 -0.46597649774379091 -0.34820513018641258 0 -0.47870998338614129 -0.33277717526785111 0 -0.48171895765493961 -0.36000148313379787 0 -0.46597649774379091 -0.34820513018641258 0 -0.47870998338614129 -0.33277717526785111 0 -0.49999999999999828 -0.34492992945567991 0 -0.48171895765493961 -0.36000148313379787 0 -0.49999999999999828 -0.34492992945567991 0 -0.49641290531991911 -0.37294450477415192 0 -0.48171895765493961 -0.36000148313379787 0 -0.49999999999999828 -0.34492992945567991 0 -0.49641290531991911 -0.37294450477415192 0 -0.49999999999999828 -0.34492992945567991 0 -0.5 -0.37155669430044652 0 -0.49641290531991911 -0.37294450477415192 0 -0.48477655570725581 -0.38563093746246568 0 -0.49641290531991911 -0.37294450477415192 0 -0.48171895765493961 -0.36000148313379787 0 -0.48477655570725581 -0.38563093746246568 0 -0.48171895765493961 -0.36000148313379787 0 -0.46604790494897919 -0.36916237409430708 0 -0.46604790494897919 -0.36916237409430708 0 -0.45132962853298958 -0.35657791678675138 0 -0.4500061896768186 -0.37322964101757261 0 -0.46604790494897919 -0.36916237409430708 0 -0.46597649774379091 -0.34820513018641258 0 -0.45132962853298958 -0.35657791678675138 0 -0.44761239840430561 -0.34329987818173979 0 -0.46597649774379091 -0.34820513018641258 0 -0.45132962853298958 -0.35657791678675138 0 -0.44761239840430561 -0.34329987818173979 0 -0.45132962853298958 -0.35657791678675138 0 -0.43317133861080798 -0.34935782562221368 0 -0.45132962853298958 -0.35657791678675138 0 -0.43610150458593999 -0.36123017994267098 0 -0.43317133861080798 -0.34935782562221368 0 -0.45132962853298958 -0.35657791678675138 0 -0.44493723061351881 -0.36456183687579358 0 -0.43610150458593999 -0.36123017994267098 0 -0.45132962853298958 -0.35657791678675138 0 -0.44493723061351881 -0.36456183687579358 0 -0.4500061896768186 -0.37322964101757261 0 -0.44493723061351881 -0.36456183687579358 0 -0.44040505831245891 -0.37204456248795159 0 -0.43610150458593999 -0.36123017994267098 0 -0.44493723061351881 -0.36456183687579358 0 -0.44040505831245891 -0.37204456248795159 0 -0.4500061896768186 -0.37322964101757261 0 -0.43099078574550448 -0.3710997472098852 0 -0.43610150458593999 -0.36123017994267098 0 -0.42169447540513072 -0.36246017557690441 0 -0.42329143794914492 -0.37340038206799969 0 -0.43099078574550448 -0.3710997472098852 0 -0.42169447540513072 -0.36246017557690441 0 -0.42966134635291658 -0.37838218409471791 0 -0.42329143794914492 -0.37340038206799969 0 -0.43099078574550448 -0.3710997472098852 0 -0.44040505831245891 -0.37204456248795159 0 -0.43099078574550448 -0.3710997472098852 0 -0.43610150458593999 -0.36123017994267098 0 -0.43482401941346482 -0.37731644853977248 0 -0.44040505831245891 -0.37204456248795159 0 -0.43099078574550448 -0.3710997472098852 0 -0.43317133861080798 -0.34935782562221368 0 -0.41698256868611278 -0.35282385451731157 0 -0.42169447540513072 -0.36246017557690441 0 -0.43610150458593999 -0.36123017994267098 0 -0.43317133861080798 -0.34935782562221368 0 -0.42169447540513072 -0.36246017557690441 0 -0.43317133861080798 -0.34935782562221368 0 -0.41698256868611278 -0.35282385451731157 0 -0.42085031131997791 -0.34235966723198369 0 -0.4050701554098447 -0.35125879563767792 0 -0.42085031131997791 -0.34235966723198369 0 -0.41698256868611278 -0.35282385451731157 0 -0.40914954419304639 -0.36222385075565311 0 -0.42169447540513072 -0.36246017557690441 0 -0.41698256868611278 -0.35282385451731157 0 -0.4050701554098447 -0.35125879563767792 0 -0.42085031131997791 -0.34235966723198369 0 -0.41698256868611278 -0.35282385451731157 0 -0.40914954419304639 -0.36222385075565311 0 -0.4050701554098447 -0.35125879563767792 0 -0.40914954419304639 -0.36222385075565311 0 -0.42169447540513072 -0.36246017557690441 0 -0.41156220062108861 -0.37447039886762212 0 -0.42329143794914492 -0.37340038206799969 0 -0.42169447540513072 -0.36246017557690441 0 -0.41156220062108861 -0.37447039886762212 0 -0.41156220062108861 -0.37447039886762212 0 -0.39725370127777959 -0.36571003182774547 0 -0.40914954419304639 -0.36222385075565311 0 -0.41156220062108861 -0.37447039886762212 0 -0.39725370127777959 -0.36571003182774547 0 -0.40069714978860799 -0.38068238975077417 0 -0.41156220062108861 -0.37447039886762212 0 -0.39725370127777959 -0.36571003182774547 0 -0.40914954419304639 -0.36222385075565311 0 -0.39725370127777959 -0.36571003182774547 0 -0.4050701554098447 -0.35125879563767792 0 -0.39725370127777959 -0.36571003182774547 0 -0.38871497684945799 -0.36048220476847731 0 -0.38577405778701102 -0.38693385488870219 0 -0.39725370127777959 -0.36571003182774547 0 -0.38871497684945799 -0.36048220476847731 0 -0.38577405778701102 -0.38693385488870219 0 -0.38871497684945799 -0.36048220476847731 0 -0.36888023191221092 -0.37166789539763961 0 -0.38871497684945799 -0.36048220476847731 0 -0.37160248058860262 -0.35000509290533222 0 -0.36888023191221092 -0.37166789539763961 0 -0.38871497684945799 -0.36048220476847731 0 -0.36888023191221092 -0.37166789539763961 0 -0.38871497684945799 -0.36048220476847731 0 -0.39141479972497623 -0.34615718852081012 0 -0.37160248058860262 -0.35000509290533222 0 -0.39141479972497623 -0.34615718852081012 0 -0.38040823827904718 -0.33748719751123329 0 -0.37160248058860262 -0.35000509290533222 0 -0.38871497684945799 -0.36048220476847731 0 -0.37160248058860262 -0.35000509290533222 0 -0.39725370127777959 -0.36571003182774547 0 -0.38871497684945799 -0.36048220476847731 0 -0.4050701554098447 -0.35125879563767792 0 -0.38871497684945799 -0.36048220476847731 0 -0.39141479972497623 -0.34615718852081012 0 -0.4050701554098447 -0.35125879563767792 0 -0.38871497684945799 -0.36048220476847731 0 -0.4050701554098447 -0.35125879563767792 0 -0.39725370127777959 -0.36571003182774547 0 -0.4050701554098447 -0.35125879563767792 0 -0.39141479972497623 -0.34615718852081012 0 -0.4050701554098447 -0.35125879563767792 0 -0.40216517161215132 -0.33681487712092451 0 -0.39141479972497623 -0.34615718852081012 0 -0.40216517161215132 -0.33681487712092451 0 -0.39315414057886999 -0.32853904522096028 0 -0.40216517161215132 -0.33681487712092451 0 -0.39315414057886999 -0.32853904522096028 0 -0.40376275658738142 -0.32803595542436731 0 -0.39141479972497623 -0.34615718852081012 0 -0.39315414057886999 -0.32853904522096028 0 -0.38040823827904718 -0.33748719751123329 0 -0.39315414057886999 -0.32853904522096028 0 -0.38040823827904718 -0.33748719751123329 0 -0.38159438037238591 -0.32613847039433608 0 -0.38040823827904718 -0.33748719751123329 0 -0.38159438037238591 -0.32613847039433608 0 -0.36964501155237439 -0.32448854214261991 0 -0.39315414057886999 -0.32853904522096028 0 -0.38159438037238591 -0.32613847039433608 0 -0.38480003877699648 -0.3094491032430462 0 -0.38159438037238591 -0.32613847039433608 0 -0.38480003877699648 -0.3094491032430462 0 -0.36964501155237439 -0.32448854214261991 0 -0.38480003877699648 -0.3094491032430462 0 -0.36964501155237439 -0.32448854214261991 0 -0.39315414057886999 -0.32853904522096028 0 -0.40397718719835568 -0.31528461012979209 0 -0.38480003877699648 -0.3094491032430462 0 -0.39315414057886999 -0.32853904522096028 0 -0.40376275658738142 -0.32803595542436731 0 -0.40397718719835568 -0.31528461012979209 0 -0.40376275658738142 -0.32803595542436731 0 -0.40397718719835568 -0.31528461012979209 0 -0.41575452696014847 -0.33150528922579231 0 -0.41575452696014847 -0.33150528922579231 0 -0.42643889851045169 -0.31175178281390648 0 -0.40397718719835568 -0.31528461012979209 0 -0.41575452696014847 -0.33150528922579231 0 -0.42643889851045169 -0.31175178281390648 0 -0.4050701554098447 -0.35125879563767792 0 -0.42085031131997791 -0.34235966723198369 0 -0.41575452696014847 -0.33150528922579231 0 -0.4050701554098447 -0.35125879563767792 0 -0.40216517161215132 -0.33681487712092451 0 -0.41575452696014847 -0.33150528922579231 0 -0.4050701554098447 -0.35125879563767792 0 -0.41575452696014847 -0.33150528922579231 0 -0.40216517161215132 -0.33681487712092451 0 -0.40376275658738142 -0.32803595542436731 0 -0.41575452696014847 -0.33150528922579231 0 -0.43317133861080798 -0.34935782562221368 0 -0.42085031131997791 -0.34235966723198369 0 -0.43663046723011129 -0.33346053882629018 0 -0.42085031131997791 -0.34235966723198369 0 -0.43663046723011129 -0.33346053882629018 0 -0.42085031131997791 -0.34235966723198369 0 -0.41575452696014847 -0.33150528922579231 0 -0.43663046723011129 -0.33346053882629018 0 -0.41575452696014847 -0.33150528922579231 0 -0.43663046723011129 -0.33346053882629018 0 -0.42643889851045169 -0.31175178281390648 0 -0.44593354524786161 -0.31880366080297229 0 -0.43663046723011129 -0.33346053882629018 0 -0.42643889851045169 -0.31175178281390648 0 -0.44619976740402101 -0.30203092436797419 0 -0.42643889851045169 -0.31175178281390648 0 -0.43081729642490751 -0.28627127288288667 0 -0.42643889851045169 -0.31175178281390648 0 -0.43081729642490751 -0.28627127288288667 0 -0.40918244418095989 -0.2953484659559506 0 -0.43081729642490751 -0.28627127288288667 0 -0.41575266644158232 -0.28256163353847069 0 -0.40918244418095989 -0.2953484659559506 0 -0.40397718719835568 -0.31528461012979209 0 -0.42643889851045169 -0.31175178281390648 0 -0.40918244418095989 -0.2953484659559506 0 -0.40397718719835568 -0.31528461012979209 0 -0.38480003877699648 -0.3094491032430462 0 -0.39149010023063058 -0.29599583021984888 0 -0.40397718719835568 -0.31528461012979209 0 -0.40918244418095989 -0.2953484659559506 0 -0.39149010023063058 -0.29599583021984888 0 -0.38480003877699648 -0.3094491032430462 0 -0.39149010023063058 -0.29599583021984888 0 -0.37123748030068121 -0.28992364925056457 0 -0.39149010023063058 -0.29599583021984888 0 -0.39309937664040812 -0.2810573662182515 0 -0.37123748030068121 -0.28992364925056457 0 -0.40918244418095989 -0.2953484659559506 0 -0.39149010023063058 -0.29599583021984888 0 -0.39309937664040812 -0.2810573662182515 0 -0.41575266644158232 -0.28256163353847069 0 -0.40918244418095989 -0.2953484659559506 0 -0.39309937664040812 -0.2810573662182515 0 -0.41575266644158232 -0.28256163353847069 0 -0.39309937664040812 -0.2810573662182515 0 -0.40820839867698078 -0.2690047709037704 0 -0.39227172778063663 -0.26946406765019798 0 -0.39309937664040812 -0.2810573662182515 0 -0.40820839867698078 -0.2690047709037704 0 -0.39227172778063663 -0.26946406765019798 0 -0.39181821364261937 -0.25866888314461478 0 -0.40820839867698078 -0.2690047709037704 0 -0.3810099138347755 -0.26597782743924608 0 -0.37123748030068121 -0.28992364925056457 0 -0.39309937664040812 -0.2810573662182515 0 -0.3810099138347755 -0.26597782743924608 0 -0.37123748030068121 -0.28992364925056457 0 -0.39227172778063663 -0.26946406765019798 0 -0.39309937664040812 -0.2810573662182515 0 -0.3810099138347755 -0.26597782743924608 0 -0.39181821364261937 -0.25866888314461478 0 -0.37542802860825603 -0.24833299538546241 0 -0.39181821364261937 -0.25866888314461478 0 -0.38951901904390118 -0.2452315012451301 0 -0.37542802860825603 -0.24833299538546241 0 -0.3810099138347755 -0.26597782743924608 0 -0.39181821364261937 -0.25866888314461478 0 -0.37542802860825603 -0.24833299538546241 0 -0.39227172778063663 -0.26946406765019798 0 -0.3810099138347755 -0.26597782743924608 0 -0.39181821364261937 -0.25866888314461478 0 -0.39739132068953892 -0.25079990818587689 0 -0.39181821364261937 -0.25866888314461478 0 -0.40820839867698078 -0.2690047709037704 0 -0.39739132068953892 -0.25079990818587689 0 -0.39181821364261937 -0.25866888314461478 0 -0.38951901904390118 -0.2452315012451301 0 -0.39181821364261937 -0.25866888314461478 0 -0.40820839867698078 -0.2690047709037704 0 -0.39739132068953892 -0.25079990818587689 0 -0.40820839867698078 -0.2690047709037704 0 -0.40676192656655002 -0.2485256974314804 0 -0.40820839867698078 -0.2690047709037704 0 -0.43007144492491212 -0.26042808306076759 0 -0.40676192656655002 -0.2485256974314804 0 -0.43007144492491212 -0.26042808306076759 0 -0.40676192656655002 -0.2485256974314804 0 -0.41575266644158232 -0.28256163353847069 0 -0.40820839867698078 -0.2690047709037704 0 -0.43007144492491212 -0.26042808306076759 0 -0.43081729642490751 -0.28627127288288667 0 -0.41575266644158232 -0.28256163353847069 0 -0.43007144492491212 -0.26042808306076759 0 -0.32670140352060539 -0.25905795775612728 0 -0.30233809097677983 -0.26442043894145839 0 -0.32670140352060539 -0.25905795775612728 0 -0.30233809097677983 -0.26442043894145839 0 -0.31804971823469458 -0.24337248609776899 0 -0.32670140352060539 -0.25905795775612728 0 -0.3287939415849776 -0.27573800329879922 0 -0.30233809097677983 -0.26442043894145839 0 -0.3287939415849776 -0.27573800329879922 0 -0.31735869207820039 -0.28621797014955902 0 -0.30233809097677983 -0.26442043894145839 0 -0.32670140352060539 -0.25905795775612728 0 -0.3287939415849776 -0.27573800329879922 0 -0.34238209159198563 -0.27474441635696101 0 -0.3287939415849776 -0.27573800329879922 0 -0.34238209159198563 -0.27474441635696101 0 -0.33201831434651352 -0.29024443487507218 0 -0.32670140352060539 -0.25905795775612728 0 -0.35106471606443101 -0.25369547657079622 0 -0.3408649618656755 -0.24214856715109739 0 -0.32670140352060539 -0.25905795775612728 0 -0.35106471606443101 -0.25369547657079622 0 -0.32670140352060539 -0.25905795775612728 0 -0.34238209159198563 -0.27474441635696101 0 -0.35106471606443101 -0.25369547657079622 0 -0.35106471606443101 -0.25369547657079622 0 -0.36723703104937871 -0.26027681199844183 0 -0.36144546569005159 -0.27310094859825979 0 -0.3810099138347755 -0.26597782743924608 0 -0.36723703104937871 -0.26027681199844183 0 -0.37542802860825603 -0.24833299538546241 0 -0.35106471606443101 -0.25369547657079622 0 -0.37542802860825603 -0.24833299538546241 0 -0.35106471606443101 -0.25369547657079622 0 -0.36723703104937871 -0.26027681199844183 0 -0.37542802860825603 -0.24833299538546241 0 -0.3810099138347755 -0.26597782743924608 0 -0.36144546569005159 -0.27310094859825979 0 -0.37123748030068121 -0.28992364925056457 0 -0.3810099138347755 -0.26597782743924608 0 -0.36723703104937871 -0.26027681199844183 0 -0.36144546569005159 -0.27310094859825979 0 -0.34238209159198563 -0.27474441635696101 0 -0.35106471606443101 -0.25369547657079622 0 -0.36144546569005159 -0.27310094859825979 0 -0.34238209159198563 -0.27474441635696101 0 -0.36144546569005159 -0.27310094859825979 0 -0.35296552807264858 -0.29623050530522338 0 -0.36144546569005159 -0.27310094859825979 0 -0.35296552807264858 -0.29623050530522338 0 -0.37123748030068121 -0.28992364925056457 0 -0.35296552807264858 -0.29623050530522338 0 -0.37123748030068121 -0.28992364925056457 0 -0.36146504676658681 -0.31386947106188318 0 -0.37123748030068121 -0.28992364925056457 0 -0.36146504676658681 -0.31386947106188318 0 -0.38480003877699648 -0.3094491032430462 0 -0.37123748030068121 -0.28992364925056457 0 -0.36146504676658681 -0.31386947106188318 0 -0.35296552807264858 -0.29623050530522338 0 -0.34787174408120891 -0.31446480116133962 0 -0.36146504676658681 -0.31386947106188318 0 -0.35296552807264858 -0.29623050530522338 0 -0.33521955080303112 -0.30575615199505751 0 -0.34787174408120891 -0.31446480116133962 0 -0.35296552807264858 -0.29623050530522338 0 -0.33521955080303112 -0.30575615199505751 0 -0.33201831434651352 -0.29024443487507218 0 -0.34238209159198563 -0.27474441635696101 0 -0.35296552807264858 -0.29623050530522338 0 -0.33201831434651352 -0.29024443487507218 0 -0.33201831434651352 -0.29024443487507218 0 -0.31735869207820039 -0.28621797014955902 0 -0.31669384017607738 -0.29867734115650751 0 -0.3287939415849776 -0.27573800329879922 0 -0.33201831434651352 -0.29024443487507218 0 -0.31735869207820039 -0.28621797014955902 0 -0.33521955080303112 -0.30575615199505751 0 -0.31669384017607738 -0.29867734115650751 0 -0.31555549889782508 -0.31569037412820239 0 -0.33521955080303112 -0.30575615199505751 0 -0.33201831434651352 -0.29024443487507218 0 -0.31669384017607738 -0.29867734115650751 0 -0.33521955080303112 -0.30575615199505751 0 -0.31555549889782508 -0.31569037412820239 0 -0.32850125166179661 -0.32361640068756892 0 -0.31135640401856418 -0.33171649314631507 0 -0.31555549889782508 -0.31569037412820239 0 -0.32850125166179661 -0.32361640068756892 0 -0.31135640401856418 -0.33171649314631507 0 -0.33521955080303112 -0.30575615199505751 0 -0.31555549889782508 -0.31569037412820239 0 -0.32850125166179661 -0.32361640068756892 0 -0.31555549889782508 -0.31569037412820239 0 -0.32850125166179661 -0.32361640068756892 0 -0.32120066902947342 -0.34065946560766619 0 -0.33414578422633379 -0.33976697347085988 0 -0.32850125166179661 -0.32361640068756892 0 -0.32120066902947342 -0.34065946560766619 0 -0.32850125166179661 -0.32361640068756892 0 -0.31135640401856418 -0.33171649314631507 0 -0.32120066902947342 -0.34065946560766619 0 -0.30921012034922551 -0.34783768027174711 0 -0.31135640401856418 -0.33171649314631507 0 -0.32850125166179661 -0.32361640068756892 0 -0.35169261323248763 -0.33781529287319978 0 -0.33414578422633379 -0.33976697347085988 0 -0.35169261323248763 -0.33781529287319978 0 -0.34021844316034039 -0.34620131547580152 0 -0.33414578422633379 -0.33976697347085988 0 -0.32850125166179661 -0.32361640068756892 0 -0.35169261323248763 -0.33781529287319978 0 -0.32120066902947342 -0.34065946560766619 0 -0.33414578422633379 -0.33976697347085988 0 -0.32975788565468739 -0.35052389548562718 0 -0.32850125166179661 -0.32361640068756892 0 -0.34787174408120891 -0.31446480116133962 0 -0.35169261323248763 -0.33781529287319978 0 -0.33521955080303112 -0.30575615199505751 0 -0.32850125166179661 -0.32361640068756892 0 -0.34787174408120891 -0.31446480116133962 0 -0.32850125166179661 -0.32361640068756892 0 -0.34787174408120891 -0.31446480116133962 0 -0.34787174408120891 -0.31446480116133962 0 -0.36146504676658681 -0.31386947106188318 0 -0.35169261323248763 -0.33781529287319978 0 -0.36146504676658681 -0.31386947106188318 0 -0.35169261323248763 -0.33781529287319978 0 -0.38480003877699648 -0.3094491032430462 0 -0.36146504676658681 -0.31386947106188318 0 -0.36964501155237439 -0.32448854214261991 0 -0.36146504676658681 -0.31386947106188318 0 -0.36964501155237439 -0.32448854214261991 0 -0.35169261323248763 -0.33781529287319978 0 -0.36866523847184568 -0.33788809285111432 0 -0.3544899843277467 -0.33952798104218768 0 -0.37160248058860262 -0.35000509290533222 0 -0.38040823827904718 -0.33748719751123329 0 -0.36866523847184568 -0.33788809285111432 0 -0.37160248058860262 -0.35000509290533222 0 -0.38040823827904718 -0.33748719751123329 0 -0.36964501155237439 -0.32448854214261991 0 -0.36866523847184568 -0.33788809285111432 0 -0.36964501155237439 -0.32448854214261991 0 -0.3544899843277467 -0.33952798104218768 0 -0.36964501155237439 -0.32448854214261991 0 -0.36866523847184568 -0.33788809285111432 0 -0.3544899843277467 -0.33952798104218768 0 -0.36964501155237439 -0.32448854214261991 0 -0.3544899843277467 -0.33952798104218768 0 -0.35169261323248763 -0.33781529287319978 0 -0.3544899843277467 -0.33952798104218768 0 -0.35169261323248763 -0.33781529287319978 0 -0.3544899843277467 -0.33952798104218768 0 -0.35169261323248763 -0.33781529287319978 0 -0.3486138661217818 -0.34535928173308378 0 -0.35169261323248763 -0.33781529287319978 0 -0.3486138661217818 -0.34535928173308378 0 -0.34021844316034039 -0.34620131547580152 0 -0.35169261323248763 -0.33781529287319978 0 -0.3486138661217818 -0.34535928173308378 0 -0.3544899843277467 -0.33952798104218768 0 -0.3486138661217818 -0.34535928173308378 0 -0.3486138661217818 -0.34535928173308378 0 -0.34290860296423548 -0.35933913787441141 0 -0.35149829503372348 -0.35481689085741619 0 -0.35063945082549741 -0.36099549738637149 0 -0.34290860296423548 -0.35933913787441141 0 -0.3486138661217818 -0.34535928173308378 0 -0.35149829503372348 -0.35481689085741619 0 -0.34290860296423548 -0.35933913787441141 0 -0.35149829503372348 -0.35481689085741619 0 -0.35833957571249198 -0.35923834365395457 0 -0.35690884035686993 -0.3497895180383947 0 -0.35149829503372348 -0.35481689085741619 0 -0.35833957571249198 -0.35923834365395457 0 -0.35063945082549741 -0.36099549738637149 0 -0.3486138661217818 -0.34535928173308378 0 -0.35149829503372348 -0.35481689085741619 0 -0.35690884035686993 -0.3497895180383947 0 -0.3544899843277467 -0.33952798104218768 0 -0.3486138661217818 -0.34535928173308378 0 -0.35690884035686993 -0.3497895180383947 0 -0.3544899843277467 -0.33952798104218768 0 -0.35690884035686993 -0.3497895180383947 0 -0.37160248058860262 -0.35000509290533222 0 -0.3544899843277467 -0.33952798104218768 0 -0.37160248058860262 -0.35000509290533222 0 -0.35833957571249198 -0.35923834365395457 0 -0.35690884035686993 -0.3497895180383947 0 -0.37160248058860262 -0.35000509290533222 0 -0.35833957571249198 -0.35923834365395457 0 -0.37160248058860262 -0.35000509290533222 0 -0.36888023191221092 -0.37166789539763961 0 -0.35833957571249198 -0.35923834365395457 0 -0.36888023191221092 -0.37166789539763961 0 -0.35034490382963979 -0.36915935182661708 0 -0.36888023191221092 -0.37166789539763961 0 -0.35034490382963979 -0.36915935182661708 0 -0.34904548697496501 -0.38285358602680392 0 -0.35833957571249198 -0.35923834365395457 0 -0.35063945082549741 -0.36099549738637149 0 -0.35034490382963979 -0.36915935182661708 0 -0.35063945082549741 -0.36099549738637149 0 -0.35034490382963979 -0.36915935182661708 0 -0.34290860296423548 -0.35933913787441141 0 -0.35034490382963979 -0.36915935182661708 0 -0.33852582343124488 -0.36650458167970151 0 -0.34290860296423548 -0.35933913787441141 0 -0.35034490382963979 -0.36915935182661708 0 -0.33852582343124488 -0.36650458167970151 0 -0.33490648091399738 -0.3776120456949642 0 -0.33852582343124488 -0.36650458167970151 0 -0.32654447092522759 -0.36726035229466197 0 -0.33490648091399738 -0.3776120456949642 0 -0.33757916852350422 -0.35630981701387238 0 -0.32654447092522759 -0.36726035229466197 0 -0.33852582343124488 -0.36650458167970151 0 -0.33757916852350422 -0.35630981701387238 0 -0.32654447092522759 -0.36726035229466197 0 -0.33852582343124488 -0.36650458167970151 0 -0.34290860296423548 -0.35933913787441141 0 -0.33757916852350422 -0.35630981701387238 0 -0.3486138661217818 -0.34535928173308378 0 -0.34290860296423548 -0.35933913787441141 0 -0.33757916852350422 -0.35630981701387238 0 -0.33757916852350422 -0.35630981701387238 0 -0.32975788565468739 -0.35052389548562718 0 -0.32654447092522759 -0.36726035229466197 0 -0.3486138661217818 -0.34535928173308378 0 -0.33757916852350422 -0.35630981701387238 0 -0.34021844316034039 -0.34620131547580152 0 -0.3486138661217818 -0.34535928173308378 0 -0.33757916852350422 -0.35630981701387238 0 -0.33414578422633379 -0.33976697347085988 0 -0.34021844316034039 -0.34620131547580152 0 -0.32975788565468739 -0.35052389548562718 0 -0.33757916852350422 -0.35630981701387238 0 -0.34021844316034039 -0.34620131547580152 0 -0.32975788565468739 -0.35052389548562718 0 -0.32975788565468739 -0.35052389548562718 0 -0.31983067087774308 -0.35346017561960391 0 -0.32654447092522759 -0.36726035229466197 0 -0.31983067087774308 -0.35346017561960391 0 -0.31312935244872081 -0.36588550433145201 0 -0.30921012034922551 -0.34783768027174711 0 -0.32120066902947342 -0.34065946560766619 0 -0.32975788565468739 -0.35052389548562718 0 -0.31983067087774308 -0.35346017561960391 0 -0.32120066902947342 -0.34065946560766619 0 -0.31983067087774308 -0.35346017561960391 0 -0.30921012034922551 -0.34783768027174711 0 -0.31983067087774308 -0.35346017561960391 0 -0.31312935244872081 -0.36588550433145201 0 -0.32654447092522759 -0.36726035229466197 0 -0.31312935244872081 -0.36588550433145201 0 -0.32654447092522759 -0.36726035229466197 0 -0.31960329906431167 -0.38171326491248803 0 -0.29926636995038453 -0.36161937949842732 0 -0.30432118352543219 -0.38342217339178358 0 -0.31312935244872081 -0.36588550433145201 0 -0.29926636995038453 -0.36161937949842732 0 -0.30432118352543219 -0.38342217339178358 0 -0.31312935244872081 -0.36588550433145201 0 -0.29926636995038453 -0.36161937949842732 0 -0.30921012034922551 -0.34783768027174711 0 -0.29926636995038453 -0.36161937949842732 0 -0.30921012034922551 -0.34783768027174711 0 -0.29421155637533658 -0.33981658560507122 0 -0.29926636995038453 -0.36161937949842732 0 -0.29421155637533658 -0.33981658560507122 0 -0.29926636995038453 -0.36161937949842732 0 -0.27922191266923868 -0.34689845080852921 0 -0.29421155637533658 -0.33981658560507122 0 -0.29926636995038453 -0.36161937949842732 0 -0.27690627480464342 -0.36242020802770442 0 -0.27922191266923868 -0.34689845080852921 0 -0.29926636995038453 -0.36161937949842732 0 -0.27690627480464342 -0.36242020802770442 0 -0.27761788023245298 -0.38106992066859158 0 -0.27690627480464342 -0.36242020802770442 0 -0.26419294220799933 -0.36853297315098549 0 -0.27761788023245298 -0.38106992066859158 0 -0.27690627480464342 -0.36242020802770442 0 -0.26419294220799933 -0.36853297315098549 0 -0.26423226896314128 -0.35398031601198832 0 -0.26419294220799933 -0.36853297315098549 0 -0.25096635219791052 -0.37858920093515108 0 -0.24120664824001389 -0.35325119838455749 0 -0.26423226896314128 -0.35398031601198832 0 -0.266324501849941 -0.34056173140837831 0 -0.24120664824001389 -0.35325119838455749 0 -0.266324501849941 -0.34056173140837831 0 -0.24120664824001389 -0.35325119838455749 0 -0.26419294220799933 -0.36853297315098549 0 -0.26423226896314128 -0.35398031601198832 0 -0.24120664824001389 -0.35325119838455749 0 -0.26423226896314128 -0.35398031601198832 0 -0.27922191266923868 -0.34689845080852921 0 -0.26423226896314128 -0.35398031601198832 0 -0.27922191266923868 -0.34689845080852921 0 -0.266324501849941 -0.34056173140837831 0 -0.27690627480464342 -0.36242020802770442 0 -0.26423226896314128 -0.35398031601198832 0 -0.27922191266923868 -0.34689845080852921 0 -0.27922191266923868 -0.34689845080852921 0 -0.266324501849941 -0.34056173140837831 0 -0.29144235545986369 -0.32787226443219047 0 -0.266324501849941 -0.34056173140837831 0 -0.29144235545986369 -0.32787226443219047 0 -0.266324501849941 -0.34056173140837831 0 -0.27320522421067478 -0.32149726918731242 0 -0.29144235545986369 -0.32787226443219047 0 -0.266324501849941 -0.34056173140837831 0 -0.26042313626179991 -0.32794591850982707 0 -0.27320522421067478 -0.32149726918731242 0 -0.266324501849941 -0.34056173140837831 0 -0.24120664824001389 -0.35325119838455749 0 -0.2467964807588969 -0.33082673622383912 0 -0.266324501849941 -0.34056173140837831 0 -0.26042313626179991 -0.32794591850982707 0 -0.2467964807588969 -0.33082673622383912 0 -0.26042313626179991 -0.32794591850982707 0 -0.25969661587362391 -0.31322843366373238 0 -0.2427135184859335 -0.31612194679779931 0 -0.26042313626179991 -0.32794591850982707 0 -0.25969661587362391 -0.31322843366373238 0 -0.27320522421067478 -0.32149726918731242 0 -0.25969661587362391 -0.31322843366373238 0 -0.27320522421067478 -0.32149726918731242 0 -0.27354260799986507 -0.30720430042101698 0 -0.27320522421067478 -0.32149726918731242 0 -0.28780212781895792 -0.3121709666887289 0 -0.27354260799986507 -0.30720430042101698 0 -0.29144235545986369 -0.32787226443219047 0 -0.2998586995379372 -0.30608002153673608 0 -0.28780212781895792 -0.3121709666887289 0 -0.29144235545986369 -0.32787226443219047 0 -0.28780212781895792 -0.3121709666887289 0 -0.27320522421067478 -0.32149726918731242 0 -0.29144235545986369 -0.32787226443219047 0 -0.28780212781895792 -0.3121709666887289 0 -0.27922191266923868 -0.34689845080852921 0 -0.29144235545986369 -0.32787226443219047 0 -0.29421155637533658 -0.33981658560507122 0 -0.27922191266923868 -0.34689845080852921 0 -0.29421155637533658 -0.33981658560507122 0 -0.29144235545986369 -0.32787226443219047 0 -0.29421155637533658 -0.33981658560507122 0 -0.29421155637533658 -0.33981658560507122 0 -0.31135640401856418 -0.33171649314631507 0 -0.29144235545986369 -0.32787226443219047 0 -0.29421155637533658 -0.33981658560507122 0 -0.31135640401856418 -0.33171649314631507 0 -0.30921012034922551 -0.34783768027174711 0 -0.29421155637533658 -0.33981658560507122 0 -0.31135640401856418 -0.33171649314631507 0 -0.31555549889782508 -0.31569037412820239 0 -0.29144235545986369 -0.32787226443219047 0 -0.2998586995379372 -0.30608002153673608 0 -0.31555549889782508 -0.31569037412820239 0 -0.29144235545986369 -0.32787226443219047 0 -0.31135640401856418 -0.33171649314631507 0 -0.31555549889782508 -0.31569037412820239 0 -0.29144235545986369 -0.32787226443219047 0 -0.31555549889782508 -0.31569037412820239 0 -0.2998586995379372 -0.30608002153673608 0 -0.31669384017607738 -0.29867734115650751 0 -0.31555549889782508 -0.31569037412820239 0 -0.2998586995379372 -0.30608002153673608 0 -0.31669384017607738 -0.29867734115650751 0 -0.2998586995379372 -0.30608002153673608 0 -0.30037863230751111 -0.28736290311061341 0 -0.31735869207820039 -0.28621797014955902 0 -0.31669384017607738 -0.29867734115650751 0 -0.30037863230751111 -0.28736290311061341 0 -0.30037863230751111 -0.28736290311061341 0 -0.28416190017805071 -0.29646966894526761 0 -0.27797477843295437 -0.26978292012679111 0 -0.2998586995379372 -0.30608002153673608 0 -0.30037863230751111 -0.28736290311061341 0 -0.28416190017805071 -0.29646966894526761 0 -0.28416190017805071 -0.29646966894526761 0 -0.28780212781895792 -0.3121709666887289 0 -0.27354260799986507 -0.30720430042101698 0 -0.2998586995379372 -0.30608002153673608 0 -0.28416190017805071 -0.29646966894526761 0 -0.28780212781895792 -0.3121709666887289 0 -0.28416190017805071 -0.29646966894526761 0 -0.28780212781895792 -0.3121709666887289 0 -0.2998586995379372 -0.30608002153673608 0 -0.28416190017805071 -0.29646966894526761 0 -0.25969661587362391 -0.31322843366373238 0 -0.25844920224857842 -0.29607563257681158 0 -0.24122980758798621 -0.29795334053351491 0 -0.25969661587362391 -0.31322843366373238 0 -0.27354260799986507 -0.30720430042101698 0 -0.25844920224857842 -0.29607563257681158 0 -0.25844920224857842 -0.29607563257681158 0 -0.26731295998648807 -0.28615391907035542 0 -0.2504640197949245 -0.2758381691954449 0 -0.25844920224857842 -0.29607563257681158 0 -0.2504640197949245 -0.2758381691954449 0 -0.24122980758798621 -0.29795334053351491 0 -0.28416190017805071 -0.29646966894526761 0 -0.26731295998648807 -0.28615391907035542 0 -0.27797477843295437 -0.26978292012679111 0 -0.27354260799986507 -0.30720430042101698 0 -0.25844920224857842 -0.29607563257681158 0 -0.26731295998648807 -0.28615391907035542 0 -0.28416190017805071 -0.29646966894526761 0 -0.27354260799986507 -0.30720430042101698 0 -0.26731295998648807 -0.28615391907035542 0 -0.28416190017805071 -0.29646966894526761 0 -0.27797477843295437 -0.26978292012679111 0 -0.28416190017805071 -0.29646966894526761 0 -0.26731295998648807 -0.28615391907035542 0 -0.26731295998648807 -0.28615391907035542 0 -0.27797477843295437 -0.26978292012679111 0 -0.2504640197949245 -0.2758381691954449 0 -0.26731295998648807 -0.28615391907035542 0 -0.2504640197949245 -0.2758381691954449 0 -0.27797477843295437 -0.26978292012679111 0 -0.2504640197949245 -0.2758381691954449 0 -0.27797477843295437 -0.26978292012679111 0 -0.2504640197949245 -0.2758381691954449 0 -0.26343885733075428 -0.26052765998072552 0 -0.2504640197949245 -0.2758381691954449 0 -0.26343885733075428 -0.26052765998072552 0 -0.25293660618197089 -0.24686546530093051 0 -0.26343885733075428 -0.26052765998072552 0 -0.27241923097273302 -0.24582032399111781 0 -0.25293660618197089 -0.24686546530093051 0 -0.27797477843295437 -0.26978292012679111 0 -0.27241923097273302 -0.24582032399111781 0 -0.27797477843295437 -0.26978292012679111 0 -0.26343885733075428 -0.26052765998072552 0 -0.27241923097273302 -0.24582032399111781 0 -0.27797477843295437 -0.26978292012679111 0 -0.29523447460371371 -0.24459640504444061 0 -0.27241923097273302 -0.24582032399111781 0 -0.27797477843295437 -0.26978292012679111 0 -0.30233809097677983 -0.26442043894145839 0 -0.29523447460371371 -0.24459640504444061 0 -0.30037863230751111 -0.28736290311061341 0 -0.27797477843295437 -0.26978292012679111 0 -0.30233809097677983 -0.26442043894145839 0 -0.27797477843295437 -0.26978292012679111 0 -0.30233809097677983 -0.26442043894145839 0 -0.31735869207820039 -0.28621797014955902 0 -0.30037863230751111 -0.28736290311061341 0 -0.30233809097677983 -0.26442043894145839 0 -0.30233809097677983 -0.26442043894145839 0 -0.29523447460371371 -0.24459640504444061 0 -0.31804971823469458 -0.24337248609776899 0 -0.33773745911926012 -0.46057416210499541 0 -0.33382695378127891 -0.45179453643311851 0 -0.32117878360866409 -0.45613361461399771 0 -0.33773745911926012 -0.46057416210499541 0 -0.32117878360866409 -0.45613361461399771 0 -0.32708017686274771 -0.48158793827842861 0 -0.33773745911926012 -0.46057416210499541 0 -0.32708017686274771 -0.48158793827842861 0 -0.34512623991516062 -0.46167806966099473 0 -0.33773745911926012 -0.46057416210499541 0 -0.34512623991516062 -0.46167806966099473 0 -0.33773745911926012 -0.46057416210499541 0 -0.34312560824618937 -0.44978928618053232 0 -0.34512623991516062 -0.46167806966099473 0 -0.33773745911926012 -0.46057416210499541 0 -0.34312560824618937 -0.44978928618053232 0 -0.33382695378127891 -0.45179453643311851 0 -0.34312560824618937 -0.44978928618053232 0 -0.33326596415100201 -0.44068108283294871 0 -0.34966252451145091 -0.43195449517686629 0 -0.34312560824618937 -0.44978928618053232 0 -0.33326596415100201 -0.44068108283294871 0 -0.33382695378127891 -0.45179453643311851 0 -0.33326596415100201 -0.44068108283294871 0 -0.33382695378127891 -0.45179453643311851 0 -0.32117878360866409 -0.45613361461399771 0 -0.32117878360866409 -0.45613361461399771 0 -0.31527739035457197 -0.4306792909495688 0 -0.30393240128014981 -0.44301332140797439 0 -0.33326596415100201 -0.44068108283294871 0 -0.32117878360866409 -0.45613361461399771 0 -0.31527739035457197 -0.4306792909495688 0 -0.32117878360866409 -0.45613361461399771 0 -0.31527739035457197 -0.4306792909495688 0 -0.32117878360866409 -0.45613361461399771 0 -0.32708017686274771 -0.48158793827842861 0 -0.32117878360866409 -0.45613361461399771 0 -0.32708017686274771 -0.48158793827842861 0 -0.30449830909525782 -0.47945039212324048 0 -0.32708017686274771 -0.48158793827842861 0 -0.3313488747181722 -0.49999999999998229 0 -0.31041529881700891 -0.4999739724761329 0 -0.32708017686274771 -0.48158793827842861 0 -0.31041529881700891 -0.4999739724761329 0 -0.32708017686274771 -0.48158793827842861 0 -0.31041529881700891 -0.4999739724761329 0 -0.30449830909525782 -0.47945039212324048 0 -0.32708017686274771 -0.48158793827842861 0 -0.3313488747181722 -0.49999999999998229 0 -0.33969423013998912 -0.49021110558881681 0 -0.3313488747181722 -0.49999999999998229 0 -0.34803958556178111 -0.5 0 -0.32708017686274771 -0.48158793827842861 0 -0.33969423013998912 -0.49021110558881681 0 -0.3313488747181722 -0.49999999999998229 0 -0.32708017686274771 -0.48158793827842861 0 -0.34512623991516062 -0.46167806966099473 0 -0.32708017686274771 -0.48158793827842861 0 -0.33969423013998912 -0.49021110558881681 0 -0.34919062106897031 -0.47911274238680718 0 -0.32708017686274771 -0.48158793827842861 0 -0.34919062106897031 -0.47911274238680718 0 -0.34512623991516062 -0.46167806966099473 0 -0.34919062106897031 -0.47911274238680718 0 -0.36695420955156272 -0.48586779034947231 0 -0.35990392896076728 -0.46388590381501282 0 -0.33969423013998912 -0.49021110558881681 0 -0.34919062106897031 -0.47911274238680718 0 -0.35541440438079908 -0.49129720677276129 0 -0.34803958556178111 -0.5 0 -0.35541440438079908 -0.49129720677276129 0 -0.36473029640539001 -0.50000000000000067 0 -0.33969423013998912 -0.49021110558881681 0 -0.34803958556178111 -0.5 0 -0.35541440438079908 -0.49129720677276129 0 -0.34919062106897031 -0.47911274238680718 0 -0.35541440438079908 -0.49129720677276129 0 -0.36695420955156272 -0.48586779034947231 0 -0.3844544705556287 -0.48557865685357149 0 -0.36695420955156272 -0.48586779034947231 0 -0.37148685251867031 -0.50000000000000011 0 -0.36473029640539001 -0.50000000000000067 0 -0.36695420955156272 -0.48586779034947231 0 -0.35541440438079908 -0.49129720677276129 0 -0.36473029640539001 -0.50000000000000067 0 -0.36695420955156272 -0.48586779034947231 0 -0.36695420955156272 -0.48586779034947231 0 -0.37148685251867031 -0.50000000000000011 0 -0.36473029640539001 -0.50000000000000067 0 -0.36695420955156272 -0.48586779034947231 0 -0.37148685251867031 -0.50000000000000011 0 -0.36695420955156272 -0.48586779034947231 0 -0.37017197583076122 -0.46541998295990522 0 -0.35990392896076728 -0.46388590381501282 0 -0.3844544705556287 -0.48557865685357149 0 -0.36695420955156272 -0.48586779034947231 0 -0.37017197583076122 -0.46541998295990522 0 -0.36695420955156272 -0.48586779034947231 0 -0.35990392896076728 -0.46388590381501282 0 -0.36695420955156272 -0.48586779034947231 0 -0.37017197583076122 -0.46541998295990522 0 -0.37017197583076122 -0.46541998295990522 0 -0.36477119495736682 -0.45596270550559209 0 -0.37349042162212681 -0.44433239160403692 0 -0.37017197583076122 -0.46541998295990522 0 -0.37349042162212681 -0.44433239160403692 0 -0.36477119495736682 -0.45596270550559209 0 -0.35990392896076728 -0.46388590381501282 0 -0.35551845341581179 -0.45021254364341512 0 -0.37017197583076122 -0.46541998295990522 0 -0.35990392896076728 -0.46388590381501282 0 -0.37017197583076122 -0.46541998295990522 0 -0.36477119495736682 -0.45596270550559209 0 -0.35990392896076728 -0.46388590381501282 0 -0.35990392896076728 -0.46388590381501282 0 -0.34512623991516062 -0.46167806966099473 0 -0.34919062106897031 -0.47911274238680718 0 -0.35990392896076728 -0.46388590381501282 0 -0.34512623991516062 -0.46167806966099473 0 -0.35990392896076728 -0.46388590381501282 0 -0.34512623991516062 -0.46167806966099473 0 -0.35551845341581179 -0.45021254364341512 0 -0.35990392896076728 -0.46388590381501282 0 -0.35551845341581179 -0.45021254364341512 0 -0.34512623991516062 -0.46167806966099473 0 -0.35551845341581179 -0.45021254364341512 0 -0.34312560824618937 -0.44978928618053232 0 -0.34512623991516062 -0.46167806966099473 0 -0.35551845341581179 -0.45021254364341512 0 -0.34312560824618937 -0.44978928618053232 0 -0.35551845341581179 -0.45021254364341512 0 -0.34966252451145091 -0.43195449517686629 0 -0.35551845341581179 -0.45021254364341512 0 -0.34966252451145091 -0.43195449517686629 0 -0.35551845341581179 -0.45021254364341512 0 -0.37052103761873939 -0.43366048574942728 0 -0.34966252451145091 -0.43195449517686629 0 -0.36477119495736682 -0.45596270550559209 0 -0.35551845341581179 -0.45021254364341512 0 -0.37349042162212681 -0.44433239160403692 0 -0.35551845341581179 -0.45021254364341512 0 -0.37349042162212681 -0.44433239160403692 0 -0.37052103761873939 -0.43366048574942728 0 -0.35551845341581179 -0.45021254364341512 0 -0.37052103761873939 -0.43366048574942728 0 -0.37052103761873939 -0.43366048574942728 0 -0.36193378392320918 -0.42137067115961541 0 -0.34966252451145091 -0.43195449517686629 0 -0.37680886741348901 -0.42324480024816818 0 -0.37349042162212681 -0.44433239160403692 0 -0.37052103761873939 -0.43366048574942728 0 -0.37680886741348901 -0.42324480024816818 0 -0.37052103761873939 -0.43366048574942728 0 -0.36193378392320918 -0.42137067115961541 0 -0.37680886741348901 -0.42324480024816818 0 -0.37120016843128661 -0.41371132266011479 0 -0.36193378392320918 -0.42137067115961541 0 -0.37666724842483601 -0.40302518674921428 0 -0.37120016843128661 -0.41371132266011479 0 -0.36112619012938318 -0.40772792248174511 0 -0.37120016843128661 -0.41371132266011479 0 -0.36112619012938318 -0.40772792248174511 0 -0.36193378392320918 -0.42137067115961541 0 -0.36112619012938318 -0.40772792248174511 0 -0.36193378392320918 -0.42137067115961541 0 -0.3504506603714842 -0.41642054383625082 0 -0.3504506603714842 -0.41642054383625082 0 -0.34966252451145091 -0.43195449517686629 0 -0.33449801353669539 -0.41586318771496761 0 -0.3504506603714842 -0.41642054383625082 0 -0.34787065450967419 -0.40171665227595932 0 -0.33449801353669539 -0.41586318771496761 0 -0.36112619012938318 -0.40772792248174511 0 -0.3504506603714842 -0.41642054383625082 0 -0.34787065450967419 -0.40171665227595932 0 -0.36193378392320918 -0.42137067115961541 0 -0.3504506603714842 -0.41642054383625082 0 -0.34966252451145091 -0.43195449517686629 0 -0.38577405778701102 -0.38693385488870219 0 -0.36888023191221092 -0.37166789539763961 0 -0.3643117663842948 -0.39166050175397038 0 -0.36888023191221092 -0.37166789539763961 0 -0.3643117663842948 -0.39166050175397038 0 -0.34904548697496501 -0.38285358602680392 0 -0.37666724842483601 -0.40302518674921428 0 -0.36112619012938318 -0.40772792248174511 0 -0.3643117663842948 -0.39166050175397038 0 -0.3643117663842948 -0.39166050175397038 0 -0.34787065450967419 -0.40171665227595932 0 -0.34904548697496501 -0.38285358602680392 0 -0.36112619012938318 -0.40772792248174511 0 -0.3643117663842948 -0.39166050175397038 0 -0.34787065450967419 -0.40171665227595932 0 -0.36888023191221092 -0.37166789539763961 0 -0.34904548697496501 -0.38285358602680392 0 -0.35034490382963979 -0.36915935182661708 0 -0.34904548697496501 -0.38285358602680392 0 -0.33490648091399738 -0.3776120456949642 0 -0.34904548697496501 -0.38285358602680392 0 -0.32921074203771911 -0.39403927665596827 0 -0.34904548697496501 -0.38285358602680392 0 -0.33490648091399738 -0.3776120456949642 0 -0.32921074203771911 -0.39403927665596827 0 -0.34787065450967419 -0.40171665227595932 0 -0.34904548697496501 -0.38285358602680392 0 -0.32921074203771911 -0.39403927665596827 0 -0.34787065450967419 -0.40171665227595932 0 -0.32921074203771911 -0.39403927665596827 0 -0.33449801353669539 -0.41586318771496761 0 -0.32921074203771911 -0.39403927665596827 0 -0.31960329906431167 -0.38171326491248803 0 -0.30937599710047747 -0.40522496728514029 0 -0.32921074203771911 -0.39403927665596827 0 -0.30937599710047747 -0.40522496728514029 0 -0.32921074203771911 -0.39403927665596827 0 -0.33449801353669539 -0.41586318771496761 0 -0.30937599710047747 -0.40522496728514029 0 -0.33490648091399738 -0.3776120456949642 0 -0.32921074203771911 -0.39403927665596827 0 -0.31960329906431167 -0.38171326491248803 0 -0.32654447092522759 -0.36726035229466197 0 -0.33490648091399738 -0.3776120456949642 0 -0.31960329906431167 -0.38171326491248803 0 -0.33326596415100201 -0.44068108283294871 0 -0.34966252451145091 -0.43195449517686629 0 -0.33449801353669539 -0.41586318771496761 0 -0.33449801353669539 -0.41586318771496761 0 -0.31527739035457197 -0.4306792909495688 0 -0.30937599710047747 -0.40522496728514029 0 -0.33326596415100201 -0.44068108283294871 0 -0.33449801353669539 -0.41586318771496761 0 -0.31527739035457197 -0.4306792909495688 0 -0.31527739035457197 -0.4306792909495688 0 -0.29746043795765409 -0.41597062626766229 0 -0.29463401319627902 -0.42823709577968899 0 -0.31527739035457197 -0.4306792909495688 0 -0.29463401319627902 -0.42823709577968899 0 -0.30393240128014981 -0.44301332140797439 0 -0.29463401319627902 -0.42823709577968899 0 -0.29285940971287139 -0.44118772659146882 0 -0.30393240128014981 -0.44301332140797439 0 -0.31527739035457197 -0.4306792909495688 0 -0.30466318313018032 -0.40788273168952938 0 -0.30937599710047747 -0.40522496728514029 0 -0.31527739035457197 -0.4306792909495688 0 -0.30466318313018032 -0.40788273168952938 0 -0.29746043795765409 -0.41597062626766229 0 -0.31527739035457197 -0.4306792909495688 0 -0.30937599710047747 -0.40522496728514029 0 -0.30466318313018032 -0.40788273168952938 0 -0.30937599710047747 -0.40522496728514029 0 -0.30466318313018032 -0.40788273168952938 0 -0.29746043795765409 -0.41597062626766229 0 -0.29596581461135713 -0.40837024688987472 0 -0.28793561594022887 -0.41081588648143302 0 -0.27642585097174027 -0.40432122032053969 0 -0.2808340843760771 -0.42273884302234033 0 -0.28793561594022887 -0.41081588648143302 0 -0.29463401319627902 -0.42823709577968899 0 -0.2808340843760771 -0.42273884302234033 0 -0.29746043795765409 -0.41597062626766229 0 -0.28793561594022887 -0.41081588648143302 0 -0.29463401319627902 -0.42823709577968899 0 -0.29746043795765409 -0.41597062626766229 0 -0.29596581461135713 -0.40837024688987472 0 -0.28793561594022887 -0.41081588648143302 0 -0.285526986541498 -0.43438376205826218 0 -0.29463401319627902 -0.42823709577968899 0 -0.2808340843760771 -0.42273884302234033 0 -0.285526986541498 -0.43438376205826218 0 -0.29463401319627902 -0.42823709577968899 0 -0.29285940971287139 -0.44118772659146882 0 -0.31312935244872081 -0.36588550433145201 0 -0.31960329906431167 -0.38171326491248803 0 -0.30432118352543219 -0.38342217339178358 0 -0.31960329906431167 -0.38171326491248803 0 -0.30432118352543219 -0.38342217339178358 0 -0.30937599710047747 -0.40522496728514029 0 -0.30432118352543219 -0.38342217339178358 0 -0.30937599710047747 -0.40522496728514029 0 -0.30432118352543219 -0.38342217339178358 0 -0.30937599710047747 -0.40522496728514029 0 -0.29380402141736511 -0.39881174312087397 0 -0.30466318313018032 -0.40788273168952938 0 -0.29596581461135713 -0.40837024688987472 0 -0.29380402141736511 -0.39881174312087397 0 -0.30466318313018032 -0.40788273168952938 0 -0.30937599710047747 -0.40522496728514029 0 -0.29380402141736511 -0.39881174312087397 0 -0.29380402141736511 -0.39881174312087397 0 -0.27761788023245298 -0.38106992066859158 0 -0.27642585097174027 -0.40432122032053969 0 -0.28793561594022887 -0.41081588648143302 0 -0.29380402141736511 -0.39881174312087397 0 -0.27642585097174027 -0.40432122032053969 0 -0.29596581461135713 -0.40837024688987472 0 -0.28793561594022887 -0.41081588648143302 0 -0.29380402141736511 -0.39881174312087397 0 -0.30432118352543219 -0.38342217339178358 0 -0.29380402141736511 -0.39881174312087397 0 -0.27761788023245298 -0.38106992066859158 0 -0.29926636995038453 -0.36161937949842732 0 -0.30432118352543219 -0.38342217339178358 0 -0.27761788023245298 -0.38106992066859158 0 -0.27761788023245298 -0.38106992066859158 0 -0.27642585097174027 -0.40432122032053969 0 -0.25765422385869791 -0.40071778481416009 0 -0.27761788023245298 -0.38106992066859158 0 -0.25765422385869791 -0.40071778481416009 0 -0.25096635219791052 -0.37858920093515108 0 -0.26419294220799933 -0.36853297315098549 0 -0.27761788023245298 -0.38106992066859158 0 -0.25096635219791052 -0.37858920093515108 0 -0.26610639841621248 -0.42295499720591612 0 -0.2753512148254823 -0.43495919229060609 0 -0.26588169910714721 -0.44923350558498859 0 -0.285526986541498 -0.43438376205826218 0 -0.2753512148254823 -0.43495919229060609 0 -0.2808340843760771 -0.42273884302234033 0 -0.26610639841621248 -0.42295499720591612 0 -0.2753512148254823 -0.43495919229060609 0 -0.2808340843760771 -0.42273884302234033 0 -0.27642585097174027 -0.40432122032053969 0 -0.26610639841621248 -0.42295499720591612 0 -0.2808340843760771 -0.42273884302234033 0 -0.27642585097174027 -0.40432122032053969 0 -0.25765422385869791 -0.40071778481416009 0 -0.26610639841621248 -0.42295499720591612 0 -0.25765422385869791 -0.40071778481416009 0 -0.26610639841621248 -0.42295499720591612 0 -0.25004178141927669 -0.42550160485940652 0 -0.25004178141927669 -0.42550160485940652 0 -0.26588169910714721 -0.44923350558498859 0 -0.26610639841621248 -0.42295499720591612 0 -0.25004178141927669 -0.42550160485940652 0 -0.26588169910714721 -0.44923350558498859 0 -0.25004178141927669 -0.42550160485940652 0 -0.26588169910714721 -0.44923350558498859 0 -0.23894119135230779 -0.43474369187758921 0 -0.26588169910714721 -0.44923350558498859 0 -0.24079540641091429 -0.45441843103501089 0 -0.26330638515443677 -0.45817352566414238 0 -0.26588169910714721 -0.44923350558498859 0 -0.24079540641091429 -0.45441843103501089 0 -0.26330638515443677 -0.45817352566414238 0 -0.245955195823821 -0.47251917234617319 0 -0.26330638515443677 -0.45817352566414238 0 -0.245955195823821 -0.47251917234617319 0 -0.24079540641091429 -0.45441843103501089 0 -0.26330638515443677 -0.45817352566414238 0 -0.2727531254309945 -0.46441102008220497 0 -0.26581522878824521 -0.47887402822282898 0 -0.2727531254309945 -0.46441102008220497 0 -0.26588169910714721 -0.44923350558498859 0 -0.27856012876489228 -0.44661308201763361 0 -0.2727531254309945 -0.46441102008220497 0 -0.27856012876489228 -0.44661308201763361 0 -0.28591020797915051 -0.47330654100881703 0 -0.26330638515443677 -0.45817352566414238 0 -0.2727531254309945 -0.46441102008220497 0 -0.26588169910714721 -0.44923350558498859 0 -0.2753512148254823 -0.43495919229060609 0 -0.26588169910714721 -0.44923350558498859 0 -0.27856012876489228 -0.44661308201763361 0 -0.26588169910714721 -0.44923350558498859 0 -0.27856012876489228 -0.44661308201763361 0 -0.2753512148254823 -0.43495919229060609 0 -0.27856012876489228 -0.44661308201763361 0 -0.2753512148254823 -0.43495919229060609 0 -0.27856012876489228 -0.44661308201763361 0 -0.28454513454737862 -0.44537607943714452 0 -0.27856012876489228 -0.44661308201763361 0 -0.28454513454737862 -0.44537607943714452 0 -0.29559114975991962 -0.45649364482990701 0 -0.285526986541498 -0.43438376205826218 0 -0.29285940971287139 -0.44118772659146882 0 -0.28454513454737862 -0.44537607943714452 0 -0.285526986541498 -0.43438376205826218 0 -0.2753512148254823 -0.43495919229060609 0 -0.28454513454737862 -0.44537607943714452 0 -0.29285940971287139 -0.44118772659146882 0 -0.28454513454737862 -0.44537607943714452 0 -0.29559114975991962 -0.45649364482990701 0 -0.27856012876489228 -0.44661308201763361 0 -0.28454513454737862 -0.44537607943714452 0 -0.27856012876489228 -0.44661308201763361 0 -0.28591020797915051 -0.47330654100881703 0 -0.27856012876489228 -0.44661308201763361 0 -0.29559114975991962 -0.45649364482990701 0 -0.28591020797915051 -0.47330654100881703 0 -0.32117878360866409 -0.45613361461399771 0 -0.29559114975991962 -0.45649364482990701 0 -0.30449830909525782 -0.47945039212324048 0 -0.32117878360866409 -0.45613361461399771 0 -0.29559114975991962 -0.45649364482990701 0 -0.30393240128014981 -0.44301332140797439 0 -0.29285940971287139 -0.44118772659146882 0 -0.29559114975991962 -0.45649364482990701 0 -0.30393240128014981 -0.44301332140797439 0 -0.31041529881700891 -0.4999739724761329 0 -0.30449830909525782 -0.47945039212324048 0 -0.29326028719340858 -0.50000000000000022 0 -0.29559114975991962 -0.45649364482990701 0 -0.30449830909525782 -0.47945039212324048 0 -0.28591020797915051 -0.47330654100881703 0 -0.30449830909525782 -0.47945039212324048 0 -0.28591020797915051 -0.47330654100881703 0 -0.29326028719340858 -0.50000000000000022 0 -0.28591020797915051 -0.47330654100881703 0 -0.29326028719340858 -0.50000000000000022 0 -0.28591020797915051 -0.47330654100881703 0 -0.29326028719340858 -0.50000000000000022 0 -0.27352457787317508 -0.5 0 -0.2727531254309945 -0.46441102008220497 0 -0.28591020797915051 -0.47330654100881703 0 -0.26581522878824521 -0.47887402822282898 0 -0.28591020797915051 -0.47330654100881703 0 -0.27352457787317508 -0.5 0 -0.26581522878824521 -0.47887402822282898 0 -0.26330638515443677 -0.45817352566414238 0 -0.26581522878824521 -0.47887402822282898 0 -0.245955195823821 -0.47251917234617319 0 -0.26581522878824521 -0.47887402822282898 0 -0.25378886855294158 -0.49999999999999922 0 -0.245955195823821 -0.47251917234617319 0 -0.27352457787317508 -0.5 0 -0.26581522878824521 -0.47887402822282898 0 -0.25378886855294158 -0.49999999999999922 0 -0.25378886855294158 -0.49999999999999922 0 -0.23325287746666601 -0.5 0 -0.22933604110210501 -0.48625958617308418 0 -0.25378886855294158 -0.49999999999999922 0 -0.245955195823821 -0.47251917234617319 0 -0.25378886855294158 -0.49999999999999922 0 -0.245955195823821 -0.47251917234617319 0 -0.22933604110210501 -0.48625958617308418 0 -0.245955195823821 -0.47251917234617319 0 -0.22933604110210501 -0.48625958617308418 0 -0.245955195823821 -0.47251917234617319 0 -0.22976860595027621 -0.4707525160641991 0 -0.22933604110210501 -0.48625958617308418 0 -0.22976860595027621 -0.4707525160641991 0 -0.2176883485995825 -0.48306691018217912 0 -0.21790719293473421 -0.47113777346888891 0 -0.22976860595027621 -0.4707525160641991 0 -0.22933604110210501 -0.48625958617308418 0 -0.2176883485995825 -0.48306691018217912 0 -0.23325287746666601 -0.5 0 -0.22933604110210501 -0.48625958617308418 0 -0.21271688638039041 -0.499999999999997 0 -0.22933604110210501 -0.48625958617308418 0 -0.21271688638039041 -0.499999999999997 0 -0.22933604110210501 -0.48625958617308418 0 -0.21271688638039041 -0.499999999999997 0 -0.2176883485995825 -0.48306691018217912 0 -0.26588169910714721 -0.44923350558498859 0 -0.2393031412888951 -0.44918350713021471 0 -0.24079540641091429 -0.45441843103501089 0 -0.26588169910714721 -0.44923350558498859 0 -0.2393031412888951 -0.44918350713021471 0 -0.23894119135230779 -0.43474369187758921 0 -0.2393031412888951 -0.44918350713021471 0 -0.2332621536389137 -0.44354340019731192 0 -0.23894119135230779 -0.43474369187758921 0 -0.2393031412888951 -0.44918350713021471 0 -0.24079540641091429 -0.45441843103501089 0 -0.2393031412888951 -0.44918350713021471 0 -0.24079540641091429 -0.45441843103501089 0 -0.229169954841552 -0.44988429061227891 0 -0.245955195823821 -0.47251917234617319 0 -0.22976860595027621 -0.4707525160641991 0 -0.24079540641091429 -0.45441843103501089 0 -0.245955195823821 -0.47251917234617319 0 -0.24079540641091429 -0.45441843103501089 0 -0.22976860595027621 -0.4707525160641991 0 -0.24079540641091429 -0.45441843103501089 0 -0.2231499102253707 -0.45806546582642282 0 -0.24079540641091429 -0.45441843103501089 0 -0.2231499102253707 -0.45806546582642282 0 -0.229169954841552 -0.44988429061227891 0 -0.24079540641091429 -0.45441843103501089 0 -0.2231499102253707 -0.45806546582642282 0 -0.22976860595027621 -0.4707525160641991 0 -0.2231499102253707 -0.45806546582642282 0 -0.21790719293473421 -0.47113777346888891 0 -0.229169954841552 -0.44988429061227891 0 -0.2256343270728999 -0.44036211116916468 0 -0.21222782872587659 -0.44973175091172279 0 -0.2231499102253707 -0.45806546582642282 0 -0.229169954841552 -0.44988429061227891 0 -0.21222782872587659 -0.44973175091172279 0 -0.2393031412888951 -0.44918350713021471 0 -0.229169954841552 -0.44988429061227891 0 -0.2332621536389137 -0.44354340019731192 0 -0.229169954841552 -0.44988429061227891 0 -0.2256343270728999 -0.44036211116916468 0 -0.2332621536389137 -0.44354340019731192 0 -0.2256343270728999 -0.44036211116916468 0 -0.2332621536389137 -0.44354340019731192 0 -0.23894119135230779 -0.43474369187758921 0 -0.2256343270728999 -0.44036211116916468 0 -0.21222782872587659 -0.44973175091172279 0 -0.20518754197786071 -0.43587314206498801 0 -0.21222782872587659 -0.44973175091172279 0 -0.1987613546141162 -0.44701205542171241 0 -0.20518754197786071 -0.43587314206498801 0 -0.21222782872587659 -0.44973175091172279 0 -0.20431414382501389 -0.45505982409936502 0 -0.1987613546141162 -0.44701205542171241 0 -0.2231499102253707 -0.45806546582642282 0 -0.20550441403982711 -0.46171250061783459 0 -0.2231499102253707 -0.45806546582642282 0 -0.21132596346986601 -0.46739581039886241 0 -0.20550441403982711 -0.46171250061783459 0 -0.2231499102253707 -0.45806546582642282 0 -0.21222782872587659 -0.44973175091172279 0 -0.20550441403982711 -0.46171250061783459 0 -0.20431414382501389 -0.45505982409936502 0 -0.20550441403982711 -0.46171250061783459 0 -0.2004584497667791 -0.46463961122927921 0 -0.21222782872587659 -0.44973175091172279 0 -0.20431414382501389 -0.45505982409936502 0 -0.20550441403982711 -0.46171250061783459 0 -0.2231499102253707 -0.45806546582642282 0 -0.21132596346986601 -0.46739581039886241 0 -0.21790719293473421 -0.47113777346888891 0 -0.21132596346986601 -0.46739581039886241 0 -0.20550441403982711 -0.46171250061783459 0 -0.20229213856429359 -0.4698964358993542 0 -0.20431414382501389 -0.45505982409936502 0 -0.2004584497667791 -0.46463961122927921 0 -0.1987613546141162 -0.44701205542171241 0 -0.2004584497667791 -0.46463961122927921 0 -0.187970762135311 -0.47640499385338442 0 -0.1821191195136132 -0.45355318873734851 0 -0.2004584497667791 -0.46463961122927921 0 -0.1987613546141162 -0.44701205542171241 0 -0.20550441403982711 -0.46171250061783459 0 -0.2004584497667791 -0.46463961122927921 0 -0.20229213856429359 -0.4698964358993542 0 -0.2004584497667791 -0.46463961122927921 0 -0.20229213856429359 -0.4698964358993542 0 -0.2004584497667791 -0.46463961122927921 0 -0.1987613546141162 -0.44701205542171241 0 -0.19099022843233721 -0.43749608526124822 0 -0.2004584497667791 -0.46463961122927921 0 -0.19099022843233721 -0.43749608526124822 0 -0.2004584497667791 -0.46463961122927921 0 -0.1821191195136132 -0.45355318873734851 0 -0.19099022843233721 -0.43749608526124822 0 -0.1987613546141162 -0.44701205542171241 0 -0.19099022843233721 -0.43749608526124822 0 -0.20518754197786071 -0.43587314206498801 0 -0.20828983101193821 -0.49065174951936652 0 -0.21271688638039041 -0.499999999999997 0 -0.2176883485995825 -0.48306691018217912 0 -0.20828983101193821 -0.49065174951936652 0 -0.20386277564350189 -0.50000000000000178 0 -0.20216061270514041 -0.4823198056146405 0 -0.20828983101193821 -0.49065174951936652 0 -0.20386277564350189 -0.50000000000000178 0 -0.21271688638039041 -0.499999999999997 0 -0.2176883485995825 -0.48306691018217912 0 -0.21790719293473421 -0.47113777346888891 0 -0.2099440145475924 -0.47741141418054861 0 -0.20828983101193821 -0.49065174951936652 0 -0.2176883485995825 -0.48306691018217912 0 -0.2099440145475924 -0.47741141418054861 0 -0.21132596346986601 -0.46739581039886241 0 -0.21790719293473421 -0.47113777346888891 0 -0.2099440145475924 -0.47741141418054861 0 -0.21132596346986601 -0.46739581039886241 0 -0.2099440145475924 -0.47741141418054861 0 -0.20229213856429359 -0.4698964358993542 0 -0.2099440145475924 -0.47741141418054861 0 -0.20216061270514041 -0.4823198056146405 0 -0.20229213856429359 -0.4698964358993542 0 -0.20828983101193821 -0.49065174951936652 0 -0.2099440145475924 -0.47741141418054861 0 -0.20216061270514041 -0.4823198056146405 0 -0.2004584497667791 -0.46463961122927921 0 -0.20216061270514041 -0.4823198056146405 0 -0.20229213856429359 -0.4698964358993542 0 -0.2004584497667791 -0.46463961122927921 0 -0.20216061270514041 -0.4823198056146405 0 -0.187970762135311 -0.47640499385338442 0 -0.2004584497667791 -0.46463961122927921 0 -0.20216061270514041 -0.4823198056146405 0 -0.20386277564350189 -0.50000000000000178 0 -0.20216061270514041 -0.4823198056146405 0 -0.19382240475700871 -0.50000000000000111 0 -0.20386277564350189 -0.50000000000000178 0 -0.20216061270514041 -0.4823198056146405 0 -0.187970762135311 -0.47640499385338442 0 -0.19382240475700871 -0.50000000000000111 0 -0.187970762135311 -0.47640499385338442 0 -0.19382240475700871 -0.50000000000000111 0 -0.18225521291651969 -0.48863227679910037 0 -0.20216061270514041 -0.4823198056146405 0 -0.187970762135311 -0.47640499385338442 0 -0.19382240475700871 -0.50000000000000111 0 -0.1748466623039657 -0.5 0 -0.18225521291651969 -0.48863227679910037 0 -0.17238102246979331 -0.47886731437359692 0 -0.19382240475700871 -0.50000000000000111 0 -0.1748466623039657 -0.5 0 -0.18225521291651969 -0.48863227679910037 0 -0.1748466623039657 -0.5 0 -0.15635909638318499 -0.48565380731355379 0 -0.17238102246979331 -0.47886731437359692 0 -0.1748466623039657 -0.5 0 -0.15635909638318499 -0.48565380731355379 0 -0.1458305489644296 -0.5 0 -0.17238102246979331 -0.47886731437359692 0 -0.16790951796866721 -0.45972850391364389 0 -0.1554798338163379 -0.46893689283632228 0 -0.15635909638318499 -0.48565380731355379 0 -0.17238102246979331 -0.47886731437359692 0 -0.1554798338163379 -0.46893689283632228 0 -0.187970762135311 -0.47640499385338442 0 -0.17238102246979331 -0.47886731437359692 0 -0.17759510552184621 -0.46713850021949338 0 -0.187970762135311 -0.47640499385338442 0 -0.18225521291651969 -0.48863227679910037 0 -0.17238102246979331 -0.47886731437359692 0 -0.187970762135311 -0.47640499385338442 0 -0.1821191195136132 -0.45355318873734851 0 -0.17759510552184621 -0.46713850021949338 0 -0.17238102246979331 -0.47886731437359692 0 -0.17759510552184621 -0.46713850021949338 0 -0.16790951796866721 -0.45972850391364389 0 -0.187970762135311 -0.47640499385338442 0 -0.1821191195136132 -0.45355318873734851 0 -0.1821191195136132 -0.45355318873734851 0 -0.17759510552184621 -0.46713850021949338 0 -0.16790951796866721 -0.45972850391364389 0 -0.1821191195136132 -0.45355318873734851 0 -0.17626747689191541 -0.43070138362131272 0 -0.19099022843233721 -0.43749608526124822 0 -0.1821191195136132 -0.45355318873734851 0 -0.16942786480312891 -0.44570703306859649 0 -0.17626747689191541 -0.43070138362131272 0 -0.1821191195136132 -0.45355318873734851 0 -0.17626747689191541 -0.43070138362131272 0 -0.1821191195136132 -0.45355318873734851 0 -0.16942786480312891 -0.44570703306859649 0 -0.16790951796866721 -0.45972850391364389 0 -0.16942786480312891 -0.44570703306859649 0 -0.15637922875635751 -0.45032972277314331 0 -0.16790951796866721 -0.45972850391364389 0 -0.16942786480312891 -0.44570703306859649 0 -0.15637922875635751 -0.45032972277314331 0 -0.16058899989523459 -0.43539792759658041 0 -0.15637922875635751 -0.45032972277314331 0 -0.16790951796866721 -0.45972850391364389 0 -0.1554798338163379 -0.46893689283632228 0 -0.1343300981653657 -0.45361536828713672 0 -0.13325741436139851 -0.48046482935785018 0 -0.1554798338163379 -0.46893689283632228 0 -0.15637922875635751 -0.45032972277314331 0 -0.1343300981653657 -0.45361536828713672 0 -0.1554798338163379 -0.46893689283632228 0 -0.15637922875635751 -0.45032972277314331 0 -0.14403620268604361 -0.44092632941395588 0 -0.16058899989523459 -0.43539792759658041 0 -0.15637922875635751 -0.45032972277314331 0 -0.14403620268604361 -0.44092632941395588 0 -0.1343300981653657 -0.45361536828713672 0 -0.14403620268604361 -0.44092632941395588 0 -0.1343300981653657 -0.45361536828713672 0 -0.1217541368355627 -0.43157086676615442 0 -0.1343300981653657 -0.45361536828713672 0 -0.13325741436139851 -0.48046482935785018 0 -0.1157543313304665 -0.46669024811541238 0 -0.13325741436139851 -0.48046482935785018 0 -0.1458305489644296 -0.5 0 -0.11681443562489351 -0.5 0 -0.15635909638318499 -0.48565380731355379 0 -0.13325741436139851 -0.48046482935785018 0 -0.1458305489644296 -0.5 0 -0.15635909638318499 -0.48565380731355379 0 -0.13325741436139851 -0.48046482935785018 0 -0.1554798338163379 -0.46893689283632228 0 -0.15624877040472271 -0.39248917797593819 0 -0.13895486704154231 -0.39133099588456732 0 -0.15175900584775889 -0.40900404849319422 0 -0.13895486704154231 -0.39133099588456732 0 -0.13134798534608361 -0.41160778855568247 0 -0.15175900584775889 -0.40900404849319422 0 -0.15624877040472271 -0.39248917797593819 0 -0.13895486704154231 -0.39133099588456732 0 -0.148060359100641 -0.37105223367146661 0 -0.13895486704154231 -0.39133099588456732 0 -0.12560614545958559 -0.36807092425949089 0 -0.1184681697666351 -0.39347916455845677 0 -0.13895486704154231 -0.39133099588456732 0 -0.148060359100641 -0.37105223367146661 0 -0.12560614545958559 -0.36807092425949089 0 -0.13895486704154231 -0.39133099588456732 0 -0.13134798534608361 -0.41160778855568247 0 -0.1184681697666351 -0.39347916455845677 0 -0.14403620268604361 -0.44092632941395588 0 -0.14623245194190049 -0.42550936483788943 0 -0.1217541368355627 -0.43157086676615442 0 -0.13134798534608361 -0.41160778855568247 0 -0.14623245194190049 -0.42550936483788943 0 -0.1217541368355627 -0.43157086676615442 0 -0.14403620268604361 -0.44092632941395588 0 -0.14623245194190049 -0.42550936483788943 0 -0.16058899989523459 -0.43539792759658041 0 -0.14623245194190049 -0.42550936483788943 0 -0.16182774996737681 -0.42145734835104148 0 -0.16058899989523459 -0.43539792759658041 0 -0.14623245194190049 -0.42550936483788943 0 -0.15175900584775889 -0.40900404849319422 0 -0.16182774996737681 -0.42145734835104148 0 -0.13134798534608361 -0.41160778855568247 0 -0.14623245194190049 -0.42550936483788943 0 -0.15175900584775889 -0.40900404849319422 0 -0.15175900584775889 -0.40900404849319422 0 -0.1704158342702177 -0.40784957850527698 0 -0.16182774996737681 -0.42145734835104148 0 -0.1704158342702177 -0.40784957850527698 0 -0.16182774996737681 -0.42145734835104148 0 -0.17626747689191541 -0.43070138362131272 0 -0.16942786480312891 -0.44570703306859649 0 -0.16058899989523459 -0.43539792759658041 0 -0.17626747689191541 -0.43070138362131272 0 -0.16182774996737681 -0.42145734835104148 0 -0.16058899989523459 -0.43539792759658041 0 -0.17626747689191541 -0.43070138362131272 0 -0.17626747689191541 -0.43070138362131272 0 -0.1815220070978954 -0.41035255929321712 0 -0.19099022843233721 -0.43749608526124822 0 -0.1815220070978954 -0.41035255929321712 0 -0.19099022843233721 -0.43749608526124822 0 -0.1704158342702177 -0.40784957850527698 0 -0.17626747689191541 -0.43070138362131272 0 -0.1815220070978954 -0.41035255929321712 0 -0.1704158342702177 -0.40784957850527698 0 -0.17626747689191541 -0.43070138362131272 0 -0.1815220070978954 -0.41035255929321712 0 -0.17205378576345351 -0.38320903332518591 0 -0.1704158342702177 -0.40784957850527698 0 -0.1815220070978954 -0.41035255929321712 0 -0.17205378576345351 -0.38320903332518591 0 -0.1815220070978954 -0.41035255929321712 0 -0.17205378576345351 -0.38320903332518591 0 -0.19410994575095519 -0.39821380926316019 0 -0.15624877040472271 -0.39248917797593819 0 -0.15175900584775889 -0.40900404849319422 0 -0.1704158342702177 -0.40784957850527698 0 -0.15624877040472271 -0.39248917797593819 0 -0.1704158342702177 -0.40784957850527698 0 -0.17205378576345351 -0.38320903332518591 0 -0.15624877040472271 -0.39248917797593819 0 -0.17205378576345351 -0.38320903332518591 0 -0.148060359100641 -0.37105223367146661 0 -0.17834775508998291 -0.37713965831015778 0 -0.19410994575095519 -0.39821380926316019 0 -0.17834775508998291 -0.37713965831015778 0 -0.17205378576345351 -0.38320903332518591 0 -0.19410994575095519 -0.39821380926316019 0 -0.1908120844710032 -0.38012849281406808 0 -0.20057780646786769 -0.37963963956669239 0 -0.19021283057520719 -0.36552086411626228 0 -0.17834775508998291 -0.37713965831015778 0 -0.1908120844710032 -0.38012849281406808 0 -0.19410994575095519 -0.39821380926316019 0 -0.1908120844710032 -0.38012849281406808 0 -0.20057780646786769 -0.37963963956669239 0 -0.19410994575095519 -0.39821380926316019 0 -0.20057780646786769 -0.37963963956669239 0 -0.19410994575095519 -0.39821380926316019 0 -0.21390722760196329 -0.4000611294207988 0 -0.19410994575095519 -0.39821380926316019 0 -0.21390722760196329 -0.4000611294207988 0 -0.20987213641192751 -0.41928796021616238 0 -0.20057780646786769 -0.37963963956669239 0 -0.21390722760196329 -0.4000611294207988 0 -0.2183619460435359 -0.37803780340824178 0 -0.1815220070978954 -0.41035255929321712 0 -0.19099022843233721 -0.43749608526124822 0 -0.1955658018415701 -0.42056019070265849 0 -0.19099022843233721 -0.43749608526124822 0 -0.1955658018415701 -0.42056019070265849 0 -0.20518754197786071 -0.43587314206498801 0 -0.1815220070978954 -0.41035255929321712 0 -0.19410994575095519 -0.39821380926316019 0 -0.1955658018415701 -0.42056019070265849 0 -0.19410994575095519 -0.39821380926316019 0 -0.1955658018415701 -0.42056019070265849 0 -0.20987213641192751 -0.41928796021616238 0 -0.19410994575095519 -0.39821380926316019 0 -0.20987213641192751 -0.41928796021616238 0 -0.21390722760196329 -0.4000611294207988 0 -0.20987213641192751 -0.41928796021616238 0 -0.2287664212649636 -0.42028770027949092 0 -0.2256343270728999 -0.44036211116916468 0 -0.20987213641192751 -0.41928796021616238 0 -0.20518754197786071 -0.43587314206498801 0 -0.1955658018415701 -0.42056019070265849 0 -0.20987213641192751 -0.41928796021616238 0 -0.20518754197786071 -0.43587314206498801 0 -0.2256343270728999 -0.44036211116916468 0 -0.20987213641192751 -0.41928796021616238 0 -0.2256343270728999 -0.44036211116916468 0 -0.2287664212649636 -0.42028770027949092 0 -0.23894119135230779 -0.43474369187758921 0 -0.2256343270728999 -0.44036211116916468 0 -0.20987213641192751 -0.41928796021616238 0 -0.2287664212649636 -0.42028770027949092 0 -0.21390722760196329 -0.4000611294207988 0 -0.2287664212649636 -0.42028770027949092 0 -0.2342018637314062 -0.40176970413382401 0 -0.25004178141927669 -0.42550160485940652 0 -0.2287664212649636 -0.42028770027949092 0 -0.2342018637314062 -0.40176970413382401 0 -0.25004178141927669 -0.42550160485940652 0 -0.2342018637314062 -0.40176970413382401 0 -0.25765422385869791 -0.40071778481416009 0 -0.25004178141927669 -0.42550160485940652 0 -0.2342018637314062 -0.40176970413382401 0 -0.25004178141927669 -0.42550160485940652 0 -0.2287664212649636 -0.42028770027949092 0 -0.23894119135230779 -0.43474369187758921 0 -0.25096635219791052 -0.37858920093515108 0 -0.2342018637314062 -0.40176970413382401 0 -0.23485571484056389 -0.37031859914148341 0 -0.2183619460435359 -0.37803780340824178 0 -0.2342018637314062 -0.40176970413382401 0 -0.23485571484056389 -0.37031859914148341 0 -0.2183619460435359 -0.37803780340824178 0 -0.2342018637314062 -0.40176970413382401 0 -0.21390722760196329 -0.4000611294207988 0 -0.2183619460435359 -0.37803780340824178 0 -0.2342018637314062 -0.40176970413382401 0 -0.25765422385869791 -0.40071778481416009 0 -0.25096635219791052 -0.37858920093515108 0 -0.2342018637314062 -0.40176970413382401 0 -0.25096635219791052 -0.37858920093515108 0 -0.23485571484056389 -0.37031859914148341 0 -0.24120664824001389 -0.35325119838455749 0 -0.2183619460435359 -0.37803780340824178 0 -0.23485571484056389 -0.37031859914148341 0 -0.21021360230332459 -0.36473732962906003 0 -0.23485571484056389 -0.37031859914148341 0 -0.2211242370252198 -0.34536174199040681 0 -0.21021360230332459 -0.36473732962906003 0 -0.23485571484056389 -0.37031859914148341 0 -0.2211242370252198 -0.34536174199040681 0 -0.24120664824001389 -0.35325119838455749 0 -0.2211242370252198 -0.34536174199040681 0 -0.24120664824001389 -0.35325119838455749 0 -0.2467964807588969 -0.33082673622383912 0 -0.26042313626179991 -0.32794591850982707 0 -0.2467964807588969 -0.33082673622383912 0 -0.2427135184859335 -0.31612194679779931 0 -0.2467964807588969 -0.33082673622383912 0 -0.2427135184859335 -0.31612194679779931 0 -0.22641784836461709 -0.32302769264695902 0 -0.2427135184859335 -0.31612194679779931 0 -0.22641784836461709 -0.32302769264695902 0 -0.22171722206867689 -0.30374955920892349 0 -0.2211242370252198 -0.34536174199040681 0 -0.2467964807588969 -0.33082673622383912 0 -0.22641784836461709 -0.32302769264695902 0 -0.2211242370252198 -0.34536174199040681 0 -0.22641784836461709 -0.32302769264695902 0 -0.2058216627088256 -0.33429264586375212 0 -0.2211242370252198 -0.34536174199040681 0 -0.2058216627088256 -0.33429264586375212 0 -0.19614907886755351 -0.34954532955127321 0 -0.22641784836461709 -0.32302769264695902 0 -0.19937921305504 -0.31752405069958128 0 -0.22171722206867689 -0.30374955920892349 0 -0.22641784836461709 -0.32302769264695902 0 -0.19937921305504 -0.31752405069958128 0 -0.22641784836461709 -0.32302769264695902 0 -0.2058216627088256 -0.33429264586375212 0 -0.19937921305504 -0.31752405069958128 0 -0.2058216627088256 -0.33429264586375212 0 -0.19614907886755351 -0.34954532955127321 0 -0.17880220821840859 -0.33596567981168768 0 -0.2058216627088256 -0.33429264586375212 0 -0.19937921305504 -0.31752405069958128 0 -0.17880220821840859 -0.33596567981168768 0 -0.19614907886755351 -0.34954532955127321 0 -0.19021283057520719 -0.36552086411626228 0 -0.17984720650750341 -0.35474395056497487 0 -0.19614907886755351 -0.34954532955127321 0 -0.19021283057520719 -0.36552086411626228 0 -0.21021360230332459 -0.36473732962906003 0 -0.20057780646786769 -0.37963963956669239 0 -0.19021283057520719 -0.36552086411626228 0 -0.21021360230332459 -0.36473732962906003 0 -0.20057780646786769 -0.37963963956669239 0 -0.2183619460435359 -0.37803780340824178 0 -0.21021360230332459 -0.36473732962906003 0 -0.2211242370252198 -0.34536174199040681 0 -0.19614907886755351 -0.34954532955127321 0 -0.21021360230332459 -0.36473732962906003 0 -0.2291396656801972 -0.26278235080028989 0 -0.2078153115654659 -0.24972653240514139 0 -0.2298773244578784 -0.2406797823852983 0 -0.2291396656801972 -0.26278235080028989 0 -0.2298773244578784 -0.2406797823852983 0 -0.25293660618197089 -0.24686546530093051 0 -0.2504640197949245 -0.2758381691954449 0 -0.2291396656801972 -0.26278235080028989 0 -0.25293660618197089 -0.24686546530093051 0 -0.2504640197949245 -0.2758381691954449 0 -0.2235635111325954 -0.2817590993365473 0 -0.2504640197949245 -0.2758381691954449 0 -0.2291396656801972 -0.26278235080028989 0 -0.2235635111325954 -0.2817590993365473 0 -0.2504640197949245 -0.2758381691954449 0 -0.2291396656801972 -0.26278235080028989 0 -0.2291396656801972 -0.26278235080028989 0 -0.2235635111325954 -0.2817590993365473 0 -0.21760868275167741 -0.2689124525951912 0 -0.2235635111325954 -0.2817590993365473 0 -0.21507809367898231 -0.27595773366319082 0 -0.21760868275167741 -0.2689124525951912 0 -0.2235635111325954 -0.2817590993365473 0 -0.21976903002233639 -0.28179168452041958 0 -0.21507809367898231 -0.27595773366319082 0 -0.2235635111325954 -0.2817590993365473 0 -0.24122980758798621 -0.29795334053351491 0 -0.22171722206867689 -0.30374955920892349 0 -0.2504640197949245 -0.2758381691954449 0 -0.2235635111325954 -0.2817590993365473 0 -0.24122980758798621 -0.29795334053351491 0 -0.2427135184859335 -0.31612194679779931 0 -0.24122980758798621 -0.29795334053351491 0 -0.22171722206867689 -0.30374955920892349 0 -0.25969661587362391 -0.31322843366373238 0 -0.2427135184859335 -0.31612194679779931 0 -0.24122980758798621 -0.29795334053351491 0 -0.19937921305504 -0.31752405069958128 0 -0.22171722206867689 -0.30374955920892349 0 -0.19666300247026411 -0.2876800294776396 0 -0.19937921305504 -0.31752405069958128 0 -0.19666300247026411 -0.2876800294776396 0 -0.18511572648209079 -0.30149199592855519 0 -0.1933549413010146 -0.28547021308348652 0 -0.18902301238997449 -0.28108923912200301 0 -0.18200518914176039 -0.28329972876744303 0 -0.1933549413010146 -0.28547021308348652 0 -0.19502352844688881 -0.27969009338273682 0 -0.18902301238997449 -0.28108923912200301 0 -0.21976903002233639 -0.28179168452041958 0 -0.1933549413010146 -0.28547021308348652 0 -0.2235635111325954 -0.2817590993365473 0 -0.22171722206867689 -0.30374955920892349 0 -0.19666300247026411 -0.2876800294776396 0 -0.21976903002233639 -0.28179168452041958 0 -0.19666300247026411 -0.2876800294776396 0 -0.1933549413010146 -0.28547021308348652 0 -0.21976903002233639 -0.28179168452041958 0 -0.1933549413010146 -0.28547021308348652 0 -0.20408146462996191 -0.27820619888781989 0 -0.2235635111325954 -0.2817590993365473 0 -0.19666300247026411 -0.2876800294776396 0 -0.2235635111325954 -0.2817590993365473 0 -0.21976903002233639 -0.28179168452041958 0 -0.19666300247026411 -0.2876800294776396 0 -0.21976903002233639 -0.28179168452041958 0 -0.21507809367898231 -0.27595773366319082 0 -0.20408146462996191 -0.27820619888781989 0 -0.21507809367898231 -0.27595773366319082 0 -0.21760868275167741 -0.2689124525951912 0 -0.20455276452034329 -0.26920351006442228 0 -0.21507809367898231 -0.27595773366319082 0 -0.20455276452034329 -0.26920351006442228 0 -0.20408146462996191 -0.27820619888781989 0 -0.1933549413010146 -0.28547021308348652 0 -0.20408146462996191 -0.27820619888781989 0 -0.19502352844688881 -0.27969009338273682 0 -0.20408146462996191 -0.27820619888781989 0 -0.1974822160610693 -0.27585001168193118 0 -0.19502352844688881 -0.27969009338273682 0 -0.20455276452034329 -0.26920351006442228 0 -0.20408146462996191 -0.27820619888781989 0 -0.1974822160610693 -0.27585001168193118 0 -0.1974822160610693 -0.27585001168193118 0 -0.19117600785242339 -0.27783480413844353 0 -0.1895654871446818 -0.27087401166252351 0 -0.1974822160610693 -0.27585001168193118 0 -0.19502352844688881 -0.27969009338273682 0 -0.19117600785242339 -0.27783480413844353 0 -0.19502352844688881 -0.27969009338273682 0 -0.19117600785242339 -0.27783480413844353 0 -0.18902301238997449 -0.28108923912200301 0 -0.19117600785242339 -0.27783480413844353 0 -0.1895654871446818 -0.27087401166252351 0 -0.1843271814586491 -0.27787740930717258 0 -0.19117600785242339 -0.27783480413844353 0 -0.18902301238997449 -0.28108923912200301 0 -0.1843271814586491 -0.27787740930717258 0 -0.20455276452034329 -0.26920351006442228 0 -0.1974822160610693 -0.27585001168193118 0 -0.1895654871446818 -0.27087401166252351 0 -0.20455276452034329 -0.26920351006442228 0 -0.19007068518330361 -0.25533957047612732 0 -0.2078153115654659 -0.24972653240514139 0 -0.20455276452034329 -0.26920351006442228 0 -0.1895654871446818 -0.27087401166252351 0 -0.19007068518330361 -0.25533957047612732 0 -0.2291396656801972 -0.26278235080028989 0 -0.2078153115654659 -0.24972653240514139 0 -0.2291396656801972 -0.26278235080028989 0 -0.21760868275167741 -0.2689124525951912 0 -0.2078153115654659 -0.24972653240514139 0 -0.21760868275167741 -0.2689124525951912 0 -0.20455276452034329 -0.26920351006442228 0 -0.2078153115654659 -0.24972653240514139 0 -0.1629602218102211 -0.25842399884076228 0 -0.17688570001795129 -0.2627444027810969 0 -0.17230380865566611 -0.24634023907900679 0 -0.1629602218102211 -0.25842399884076228 0 -0.17688570001795129 -0.2627444027810969 0 -0.16764017395986569 -0.27398957005091579 0 -0.19007068518330361 -0.25533957047612732 0 -0.17688570001795129 -0.2627444027810969 0 -0.17230380865566611 -0.24634023907900679 0 -0.1895654871446818 -0.27087401166252351 0 -0.19007068518330361 -0.25533957047612732 0 -0.17688570001795129 -0.2627444027810969 0 -0.17688570001795129 -0.2627444027810969 0 -0.17852466424471669 -0.27287460642502281 0 -0.16764017395986569 -0.27398957005091579 0 -0.1895654871446818 -0.27087401166252351 0 -0.17688570001795129 -0.2627444027810969 0 -0.17852466424471669 -0.27287460642502281 0 -0.1843271814586491 -0.27787740930717258 0 -0.17514955796775381 -0.28039373207288237 0 -0.18200518914176039 -0.28329972876744303 0 -0.1895654871446818 -0.27087401166252351 0 -0.17852466424471669 -0.27287460642502281 0 -0.1843271814586491 -0.27787740930717258 0 -0.18902301238997449 -0.28108923912200301 0 -0.1843271814586491 -0.27787740930717258 0 -0.18200518914176039 -0.28329972876744303 0 -0.17852466424471669 -0.27287460642502281 0 -0.1843271814586491 -0.27787740930717258 0 -0.17514955796775381 -0.28039373207288237 0 -0.17852466424471669 -0.27287460642502281 0 -0.17514955796775381 -0.28039373207288237 0 -0.16764017395986569 -0.27398957005091579 0 -0.17514955796775381 -0.28039373207288237 0 -0.1678889747612361 -0.28099702890310141 0 -0.16764017395986569 -0.27398957005091579 0 -0.1678889747612361 -0.28099702890310141 0 -0.16764017395986569 -0.27398957005091579 0 -0.16182531453763199 -0.28045607184205412 0 -0.1629602218102211 -0.25842399884076228 0 -0.16764017395986569 -0.27398957005091579 0 -0.15479401794677769 -0.26965672956645331 0 -0.16182531453763199 -0.28045607184205412 0 -0.15237234032629821 -0.28337285115415212 0 -0.15479401794677769 -0.26965672956645331 0 -0.16764017395986569 -0.27398957005091579 0 -0.16182531453763199 -0.28045607184205412 0 -0.15479401794677769 -0.26965672956645331 0 -0.16976249380793279 -0.29360095961873178 0 -0.14286198514560139 -0.2995218897598233 0 -0.16976249380793279 -0.29360095961873178 0 -0.16694085257969279 -0.28914874164655319 0 -0.14286198514560139 -0.2995218897598233 0 -0.16182531453763199 -0.28045607184205412 0 -0.16694085257969279 -0.28914874164655319 0 -0.15237234032629821 -0.28337285115415212 0 -0.17514955796775381 -0.28039373207288237 0 -0.1678889747612361 -0.28099702890310141 0 -0.16694085257969279 -0.28914874164655319 0 -0.1678889747612361 -0.28099702890310141 0 -0.16182531453763199 -0.28045607184205412 0 -0.16694085257969279 -0.28914874164655319 0 -0.17514955796775381 -0.28039373207288237 0 -0.16694085257969279 -0.28914874164655319 0 -0.18200518914176039 -0.28329972876744303 0 -0.1933549413010146 -0.28547021308348652 0 -0.16694085257969279 -0.28914874164655319 0 -0.18200518914176039 -0.28329972876744303 0 -0.19666300247026411 -0.2876800294776396 0 -0.1933549413010146 -0.28547021308348652 0 -0.16976249380793279 -0.29360095961873178 0 -0.1933549413010146 -0.28547021308348652 0 -0.16976249380793279 -0.29360095961873178 0 -0.16694085257969279 -0.28914874164655319 0 -0.19666300247026411 -0.2876800294776396 0 -0.16976249380793279 -0.29360095961873178 0 -0.18511572648209079 -0.30149199592855519 0 -0.1933549413010146 -0.28547021308348652 0 -0.16694085257969279 -0.28914874164655319 0 -0.19666300247026411 -0.2876800294776396 0 -0.16976249380793279 -0.29360095961873178 0 -0.16976249380793279 -0.29360095961873178 0 -0.18511572648209079 -0.30149199592855519 0 -0.17234057774546299 -0.3120204087522036 0 -0.19937921305504 -0.31752405069958128 0 -0.18511572648209079 -0.30149199592855519 0 -0.17234057774546299 -0.3120204087522036 0 -0.17234057774546299 -0.3120204087522036 0 -0.14530194243588421 -0.30651676680483397 0 -0.15994690005961659 -0.31896088281274132 0 -0.16976249380793279 -0.29360095961873178 0 -0.17234057774546299 -0.3120204087522036 0 -0.14530194243588421 -0.30651676680483397 0 -0.17234057774546299 -0.3120204087522036 0 -0.14530194243588421 -0.30651676680483397 0 -0.16976249380793279 -0.29360095961873178 0 -0.14286198514560139 -0.2995218897598233 0 -0.14530194243588421 -0.30651676680483397 0 -0.14286198514560139 -0.2995218897598233 0 -0.14530194243588421 -0.30651676680483397 0 -0.14530194243588421 -0.30651676680483397 0 -0.12752338449106629 -0.30289798885436298 0 -0.14286198514560139 -0.2995218897598233 0 -0.14530194243588421 -0.30651676680483397 0 -0.12752338449106629 -0.30289798885436298 0 -0.14530194243588421 -0.30651676680483397 0 -0.12752338449106629 -0.30289798885436298 0 -0.13651811770857741 -0.32121316233978697 0 -0.12752338449106629 -0.30289798885436298 0 -0.13651811770857741 -0.32121316233978697 0 -0.1234843943483612 -0.30378698983110253 0 -0.1258884178067512 -0.29850478987489593 0 -0.12752338449106629 -0.30289798885436298 0 -0.13123100589625261 -0.29784713077776648 0 -0.12752338449106629 -0.30289798885436298 0 -0.1234843943483612 -0.30378698983110253 0 -0.1258884178067512 -0.29850478987489593 0 -0.12752338449106629 -0.30289798885436298 0 -0.1219747443270144 -0.30176857797958151 0 -0.14286198514560139 -0.2995218897598233 0 -0.12752338449106629 -0.30289798885436298 0 -0.14286198514560139 -0.2995218897598233 0 -0.12752338449106629 -0.30289798885436298 0 -0.13123100589625261 -0.29784713077776648 0 -0.14286198514560139 -0.2995218897598233 0 -0.13123100589625261 -0.29784713077776648 0 -0.1339448797377677 -0.29374388895016712 0 -0.1405267638583711 -0.29282727020961991 0 -0.1339448797377677 -0.29374388895016712 0 -0.14286198514560139 -0.2995218897598233 0 -0.1405267638583711 -0.29282727020961991 0 -0.1339448797377677 -0.29374388895016712 0 -0.1405267638583711 -0.29282727020961991 0 -0.12918205511461281 -0.28442357416337621 0 -0.1318833792375059 -0.26804838866248881 0 -0.1405267638583711 -0.29282727020961991 0 -0.1339448797377677 -0.29374388895016712 0 -0.12918205511461281 -0.28442357416337621 0 -0.1339448797377677 -0.29374388895016712 0 -0.12646628263408061 -0.29373266366083461 0 -0.12918205511461281 -0.28442357416337621 0 -0.12646628263408061 -0.29373266366083461 0 -0.12918205511461281 -0.28442357416337621 0 -0.12081262900699991 -0.28930778953141129 0 -0.13123100589625261 -0.29784713077776648 0 -0.1339448797377677 -0.29374388895016712 0 -0.12646628263408061 -0.29373266366083461 0 -0.1258884178067512 -0.29850478987489593 0 -0.13123100589625261 -0.29784713077776648 0 -0.12646628263408061 -0.29373266366083461 0 -0.1405267638583711 -0.29282727020961991 0 -0.15237234032629821 -0.28337285115415212 0 -0.1318833792375059 -0.26804838866248881 0 -0.16694085257969279 -0.28914874164655319 0 -0.1405267638583711 -0.29282727020961991 0 -0.16694085257969279 -0.28914874164655319 0 -0.14286198514560139 -0.2995218897598233 0 -0.1405267638583711 -0.29282727020961991 0 -0.16694085257969279 -0.28914874164655319 0 -0.1405267638583711 -0.29282727020961991 0 -0.15237234032629821 -0.28337285115415212 0 -0.14286198514560139 -0.2995218897598233 0 -0.1405267638583711 -0.29282727020961991 0 -0.15237234032629821 -0.28337285115415212 0 -0.15479401794677769 -0.26965672956645331 0 -0.1318833792375059 -0.26804838866248881 0 -0.1405267638583711 -0.29282727020961991 0 -0.1318833792375059 -0.26804838866248881 0 -0.12918205511461281 -0.28442357416337621 0 -0.1318833792375059 -0.26804838866248881 0 -0.1190784673095009 -0.27788844828483589 0 -0.1318833792375059 -0.26804838866248881 0 -0.12323999461664301 -0.24326950711535689 0 -0.1318833792375059 -0.26804838866248881 0 -0.14994205404014471 -0.25708707865060992 0 -0.13891150835118321 -0.2498250236822683 0 -0.1318833792375059 -0.26804838866248881 0 -0.12323999461664301 -0.24326950711535689 0 -0.13891150835118321 -0.2498250236822683 0 -0.14994205404014471 -0.25708707865060992 0 -0.15518972565553621 -0.2449679894448776 0 -0.13891150835118321 -0.2498250236822683 0 -0.15479401794677769 -0.26965672956645331 0 -0.1318833792375059 -0.26804838866248881 0 -0.14994205404014471 -0.25708707865060992 0 -0.1629602218102211 -0.25842399884076228 0 -0.15479401794677769 -0.26965672956645331 0 -0.14994205404014471 -0.25708707865060992 0 -0.1629602218102211 -0.25842399884076228 0 -0.14994205404014471 -0.25708707865060992 0 -0.15518972565553621 -0.2449679894448776 0 -0.17205378576345351 -0.38320903332518591 0 -0.16258556442901109 -0.35606550735715509 0 -0.17834775508998291 -0.37713965831015778 0 -0.16258556442901109 -0.35606550735715509 0 -0.17205378576345351 -0.38320903332518591 0 -0.16258556442901109 -0.35606550735715509 0 -0.148060359100641 -0.37105223367146661 0 -0.17834775508998291 -0.37713965831015778 0 -0.17205378576345351 -0.38320903332518591 0 -0.16258556442901109 -0.35606550735715509 0 -0.17834775508998291 -0.37713965831015778 0 -0.16258556442901109 -0.35606550735715509 0 -0.17984720650750341 -0.35474395056497487 0 -0.17834775508998291 -0.37713965831015778 0 -0.19021283057520719 -0.36552086411626228 0 -0.17984720650750341 -0.35474395056497487 0 -0.17834775508998291 -0.37713965831015778 0 -0.1908120844710032 -0.38012849281406808 0 -0.19021283057520719 -0.36552086411626228 0 -0.16258556442901109 -0.35606550735715509 0 -0.17984720650750341 -0.35474395056497487 0 -0.17880220821840859 -0.33596567981168768 0 -0.19614907886755351 -0.34954532955127321 0 -0.17984720650750341 -0.35474395056497487 0 -0.17880220821840859 -0.33596567981168768 0 -0.19937921305504 -0.31752405069958128 0 -0.17234057774546299 -0.3120204087522036 0 -0.17234057774546299 -0.3120204087522036 0 -0.17880220821840859 -0.33596567981168768 0 -0.16749324835911819 -0.32548471879568452 0 -0.19937921305504 -0.31752405069958128 0 -0.17234057774546299 -0.3120204087522036 0 -0.17880220821840859 -0.33596567981168768 0 -0.17234057774546299 -0.3120204087522036 0 -0.16749324835911819 -0.32548471879568452 0 -0.15994690005961659 -0.31896088281274132 0 -0.16749324835911819 -0.32548471879568452 0 -0.15994690005961659 -0.31896088281274132 0 -0.15394375343244601 -0.33129113708099511 0 -0.16258556442901109 -0.35606550735715509 0 -0.17880220821840859 -0.33596567981168768 0 -0.15394375343244601 -0.33129113708099511 0 -0.16258556442901109 -0.35606550735715509 0 -0.15394375343244601 -0.33129113708099511 0 -0.17880220821840859 -0.33596567981168768 0 -0.16749324835911819 -0.32548471879568452 0 -0.15394375343244601 -0.33129113708099511 0 -0.14955184106879391 -0.3386393348484712 0 -0.13651811770857741 -0.32121316233978697 0 -0.16258556442901109 -0.35606550735715509 0 -0.14955184106879391 -0.3386393348484712 0 -0.15394375343244601 -0.33129113708099511 0 -0.14955184106879391 -0.3386393348484712 0 -0.15394375343244601 -0.33129113708099511 0 -0.13651811770857741 -0.32121316233978697 0 -0.14530194243588421 -0.30651676680483397 0 -0.15394375343244601 -0.33129113708099511 0 -0.13651811770857741 -0.32121316233978697 0 -0.14530194243588421 -0.30651676680483397 0 -0.15994690005961659 -0.31896088281274132 0 -0.15394375343244601 -0.33129113708099511 0 -0.14530194243588421 -0.30651676680483397 0 -0.15394375343244601 -0.33129113708099511 0 -0.13651811770857741 -0.32121316233978697 0 -0.1234843943483612 -0.30378698983110253 0 -0.13651811770857741 -0.32121316233978697 0 -0.11661341182566549 -0.32251337405102309 0 -0.1234843943483612 -0.30378698983110253 0 -0.13651811770857741 -0.32121316233978697 0 -0.12745584365103371 -0.33548932481661531 0 -0.11661341182566549 -0.32251337405102309 0 -0.14955184106879391 -0.3386393348484712 0 -0.12745584365103371 -0.33548932481661531 0 -0.13509974539308189 -0.3505725735487929 0 -0.14955184106879391 -0.3386393348484712 0 -0.13651811770857741 -0.32121316233978697 0 -0.12745584365103371 -0.33548932481661531 0 -0.14955184106879391 -0.3386393348484712 0 -0.13509974539308189 -0.3505725735487929 0 -0.14897470008523689 -0.35265830615524207 0 -0.16258556442901109 -0.35606550735715509 0 -0.14955184106879391 -0.3386393348484712 0 -0.13509974539308189 -0.3505725735487929 0 -0.14897470008523689 -0.35265830615524207 0 -0.148060359100641 -0.37105223367146661 0 -0.16258556442901109 -0.35606550735715509 0 -0.14955184106879391 -0.3386393348484712 0 -0.14897470008523689 -0.35265830615524207 0 -0.16258556442901109 -0.35606550735715509 0 -0.14897470008523689 -0.35265830615524207 0 -0.148060359100641 -0.37105223367146661 0 -0.13509974539308189 -0.3505725735487929 0 -0.148060359100641 -0.37105223367146661 0 -0.12560614545958559 -0.36807092425949089 0 -0.1111873119861205 -0.34470285850721522 0 -0.089853510777823442 -0.35908369539435298 0 -0.10641496837540459 -0.37660554229221599 0 -0.12560614545958559 -0.36807092425949089 0 -0.1111873119861205 -0.34470285850721522 0 -0.10641496837540459 -0.37660554229221599 0 -0.1111873119861205 -0.34470285850721522 0 -0.087274878579158999 -0.33883314346563742 0 -0.089853510777823442 -0.35908369539435298 0 -0.13509974539308189 -0.3505725735487929 0 -0.1111873119861205 -0.34470285850721522 0 -0.13509974539308189 -0.3505725735487929 0 -0.12560614545958559 -0.36807092425949089 0 -0.1111873119861205 -0.34470285850721522 0 -0.12745584365103371 -0.33548932481661531 0 -0.1111873119861205 -0.34470285850721522 0 -0.11661341182566549 -0.32251337405102309 0 -0.12745584365103371 -0.33548932481661531 0 -0.13509974539308189 -0.3505725735487929 0 -0.1111873119861205 -0.34470285850721522 0 -0.11661341182566549 -0.32251337405102309 0 -0.1122584579115628 -0.31321191377718111 0 -0.1234843943483612 -0.30378698983110253 0 -0.11661341182566549 -0.32251337405102309 0 -0.1122584579115628 -0.31321191377718111 0 -0.1046508884525008 -0.31654868447788909 0 -0.11661341182566549 -0.32251337405102309 0 -0.1046508884525008 -0.31654868447788909 0 -0.099226104232513504 -0.32578695593536672 0 -0.1122584579115628 -0.31321191377718111 0 -0.1046508884525008 -0.31654868447788909 0 -0.1025147921090593 -0.30840249920692542 0 -0.1046508884525008 -0.31654868447788909 0 -0.099226104232513504 -0.32578695593536672 0 -0.092641676183702684 -0.31282867941894937 0 -0.1046508884525008 -0.31654868447788909 0 -0.092641676183702684 -0.31282867941894937 0 -0.1025147921090593 -0.30840249920692542 0 -0.1111873119861205 -0.34470285850721522 0 -0.087274878579158999 -0.33883314346563742 0 -0.1111873119861205 -0.34470285850721522 0 -0.11661341182566549 -0.32251337405102309 0 -0.099226104232513504 -0.32578695593536672 0 -0.1111873119861205 -0.34470285850721522 0 -0.099226104232513504 -0.32578695593536672 0 -0.087274878579158999 -0.33883314346563742 0 -0.099226104232513504 -0.32578695593536672 0 -0.092641676183702684 -0.31282867941894937 0 -0.078563618837912616 -0.31699908627031032 0 -0.099226104232513504 -0.32578695593536672 0 -0.087274878579158999 -0.33883314346563742 0 -0.078563618837912616 -0.31699908627031032 0 -0.078563618837912616 -0.31699908627031032 0 -0.063362445172197662 -0.33296342842405968 0 -0.056735559762812263 -0.31491093212256033 0 -0.087274878579158999 -0.33883314346563742 0 -0.063362445172197662 -0.33296342842405968 0 -0.087274878579158999 -0.33883314346563742 0 -0.063362445172197662 -0.33296342842405968 0 -0.069071391613985109 -0.35518777780400851 0 -0.087274878579158999 -0.33883314346563742 0 -0.078563618837912616 -0.31699908627031032 0 -0.063362445172197662 -0.33296342842405968 0 -0.069071391613985109 -0.35518777780400851 0 -0.052873372266946619 -0.36875879132834338 0 -0.075319003334447993 -0.38008915490268808 0 -0.069071391613985109 -0.35518777780400851 0 -0.089853510777823442 -0.35908369539435298 0 -0.075319003334447993 -0.38008915490268808 0 -0.089853510777823442 -0.35908369539435298 0 -0.10641496837540459 -0.37660554229221599 0 -0.075319003334447993 -0.38008915490268808 0 -0.087274878579158999 -0.33883314346563742 0 -0.069071391613985109 -0.35518777780400851 0 -0.089853510777823442 -0.35908369539435298 0 -0.1049486961196195 -0.26225922562716492 0 -0.093380860726043707 -0.26215594422976252 0 -0.093991234394203094 -0.24772009294180761 0 -0.1049486961196195 -0.26225922562716492 0 -0.1089015517090148 -0.24999116988465059 0 -0.093991234394203094 -0.24772009294180761 0 -0.11608359043881 -0.26296101672693312 0 -0.12323999461664301 -0.24326950711535689 0 -0.1089015517090148 -0.24999116988465059 0 -0.1318833792375059 -0.26804838866248881 0 -0.11608359043881 -0.26296101672693312 0 -0.12323999461664301 -0.24326950711535689 0 -0.1049486961196195 -0.26225922562716492 0 -0.11608359043881 -0.26296101672693312 0 -0.1089015517090148 -0.24999116988465059 0 -0.1049486961196195 -0.26225922562716492 0 -0.11608359043881 -0.26296101672693312 0 -0.10764607411179559 -0.27608545567978099 0 -0.1318833792375059 -0.26804838866248881 0 -0.11608359043881 -0.26296101672693312 0 -0.1190784673095009 -0.27788844828483589 0 -0.11608359043881 -0.26296101672693312 0 -0.1190784673095009 -0.27788844828483589 0 -0.10764607411179559 -0.27608545567978099 0 -0.1190784673095009 -0.27788844828483589 0 -0.10764607411179559 -0.27608545567978099 0 -0.1108955359712237 -0.28708369770431019 0 -0.1049486961196195 -0.26225922562716492 0 -0.10764607411179559 -0.27608545567978099 0 -0.095866602768228809 -0.2728027907852929 0 -0.1049486961196195 -0.26225922562716492 0 -0.095866602768228809 -0.2728027907852929 0 -0.093380860726043707 -0.26215594422976252 0 -0.10764607411179559 -0.27608545567978099 0 -0.095866602768228809 -0.2728027907852929 0 -0.10056821248045671 -0.28616763994750399 0 -0.095866602768228809 -0.2728027907852929 0 -0.10056821248045671 -0.28616763994750399 0 -0.089177189739573337 -0.28146012148628857 0 -0.10056821248045671 -0.28616763994750399 0 -0.1005053174171182 -0.29739853351636869 0 -0.089147163100660939 -0.29277383505388432 0 -0.10056821248045671 -0.28616763994750399 0 -0.1108955359712237 -0.28708369770431019 0 -0.1099443074190655 -0.29406283056191551 0 -0.10056821248045671 -0.28616763994750399 0 -0.1099443074190655 -0.29406283056191551 0 -0.1005053174171182 -0.29739853351636869 0 -0.10764607411179559 -0.27608545567978099 0 -0.10056821248045671 -0.28616763994750399 0 -0.1108955359712237 -0.28708369770431019 0 -0.1190784673095009 -0.27788844828483589 0 -0.1108955359712237 -0.28708369770431019 0 -0.12081262900699991 -0.28930778953141129 0 -0.12918205511461281 -0.28442357416337621 0 -0.1190784673095009 -0.27788844828483589 0 -0.12081262900699991 -0.28930778953141129 0 -0.1258884178067512 -0.29850478987489593 0 -0.12646628263408061 -0.29373266366083461 0 -0.1222466716853407 -0.29627758810193161 0 -0.12646628263408061 -0.29373266366083461 0 -0.1222466716853407 -0.29627758810193161 0 -0.12081262900699991 -0.28930778953141129 0 -0.1222466716853407 -0.29627758810193161 0 -0.12081262900699991 -0.28930778953141129 0 -0.117392317668619 -0.29564184387217007 0 -0.1108955359712237 -0.28708369770431019 0 -0.12081262900699991 -0.28930778953141129 0 -0.117392317668619 -0.29564184387217007 0 -0.1108955359712237 -0.28708369770431019 0 -0.117392317668619 -0.29564184387217007 0 -0.1099443074190655 -0.29406283056191551 0 -0.117392317668619 -0.29564184387217007 0 -0.1099443074190655 -0.29406283056191551 0 -0.1219747443270144 -0.30176857797958151 0 -0.1099443074190655 -0.29406283056191551 0 -0.1219747443270144 -0.30176857797958151 0 -0.1005053174171182 -0.29739853351636869 0 -0.1234843943483612 -0.30378698983110253 0 -0.1025147921090593 -0.30840249920692542 0 -0.1122584579115628 -0.31321191377718111 0 -0.1234843943483612 -0.30378698983110253 0 -0.1025147921090593 -0.30840249920692542 0 -0.1219747443270144 -0.30176857797958151 0 -0.1234843943483612 -0.30378698983110253 0 -0.1025147921090593 -0.30840249920692542 0 -0.1219747443270144 -0.30176857797958151 0 -0.1005053174171182 -0.29739853351636869 0 -0.1222466716853407 -0.29627758810193161 0 -0.117392317668619 -0.29564184387217007 0 -0.1219747443270144 -0.30176857797958151 0 -0.117392317668619 -0.29564184387217007 0 -0.1219747443270144 -0.30176857797958151 0 -0.12752338449106629 -0.30289798885436298 0 -0.1219747443270144 -0.30176857797958151 0 -0.12752338449106629 -0.30289798885436298 0 -0.1219747443270144 -0.30176857797958151 0 -0.1234843943483612 -0.30378698983110253 0 -0.1219747443270144 -0.30176857797958151 0 -0.1234843943483612 -0.30378698983110253 0 -0.1258884178067512 -0.29850478987489593 0 -0.1222466716853407 -0.29627758810193161 0 -0.1219747443270144 -0.30176857797958151 0 -0.1219747443270144 -0.30176857797958151 0 -0.1025147921090593 -0.30840249920692542 0 -0.1005053174171182 -0.29739853351636869 0 -0.1005053174171182 -0.29739853351636869 0 -0.094838228092505958 -0.3041188831959839 0 -0.089147163100660939 -0.29277383505388432 0 -0.1025147921090593 -0.30840249920692542 0 -0.1005053174171182 -0.29739853351636869 0 -0.094838228092505958 -0.3041188831959839 0 -0.092641676183702684 -0.31282867941894937 0 -0.1025147921090593 -0.30840249920692542 0 -0.094838228092505958 -0.3041188831959839 0 -0.092641676183702684 -0.31282867941894937 0 -0.094838228092505958 -0.3041188831959839 0 -0.086248156454773281 -0.3022508172206877 0 -0.094838228092505958 -0.3041188831959839 0 -0.086248156454773281 -0.3022508172206877 0 -0.089147163100660939 -0.29277383505388432 0 -0.086248156454773281 -0.3022508172206877 0 -0.076208113044185427 -0.30347781541244528 0 -0.074535341215556758 -0.29278396689835812 0 -0.092641676183702684 -0.31282867941894937 0 -0.078563618837912616 -0.31699908627031032 0 -0.086248156454773281 -0.3022508172206877 0 -0.078563618837912616 -0.31699908627031032 0 -0.086248156454773281 -0.3022508172206877 0 -0.076208113044185427 -0.30347781541244528 0 -0.078563618837912616 -0.31699908627031032 0 -0.06548533566849904 -0.30187739126042529 0 -0.076208113044185427 -0.30347781541244528 0 -0.078563618837912616 -0.31699908627031032 0 -0.06548533566849904 -0.30187739126042529 0 -0.056735559762812263 -0.31491093212256033 0 -0.06548533566849904 -0.30187739126042529 0 -0.076208113044185427 -0.30347781541244528 0 -0.074535341215556758 -0.29278396689835812 0 -0.06548533566849904 -0.30187739126042529 0 -0.065922290113118495 -0.29002495949491891 0 -0.059510776587642839 -0.29078486111326879 0 -0.06548533566849904 -0.30187739126042529 0 -0.074535341215556758 -0.29278396689835812 0 -0.065922290113118495 -0.29002495949491891 0 -0.065922290113118495 -0.29002495949491891 0 -0.068904550290101951 -0.28066431805799191 0 -0.061175446803791958 -0.28401426014455022 0 -0.074535341215556758 -0.29278396689835812 0 -0.065922290113118495 -0.29002495949491891 0 -0.068904550290101951 -0.28066431805799191 0 -0.074535341215556758 -0.29278396689835812 0 -0.079772287073747117 -0.28298302332235598 0 -0.068904550290101951 -0.28066431805799191 0 -0.086248156454773281 -0.3022508172206877 0 -0.074535341215556758 -0.29278396689835812 0 -0.089147163100660939 -0.29277383505388432 0 -0.074535341215556758 -0.29278396689835812 0 -0.079772287073747117 -0.28298302332235598 0 -0.089147163100660939 -0.29277383505388432 0 -0.10056821248045671 -0.28616763994750399 0 -0.089147163100660939 -0.29277383505388432 0 -0.089177189739573337 -0.28146012148628857 0 -0.079772287073747117 -0.28298302332235598 0 -0.089147163100660939 -0.29277383505388432 0 -0.089177189739573337 -0.28146012148628857 0 -0.095866602768228809 -0.2728027907852929 0 -0.079478583431884076 -0.2686883577412566 0 -0.093380860726043707 -0.26215594422976252 0 -0.095866602768228809 -0.2728027907852929 0 -0.089177189739573337 -0.28146012148628857 0 -0.079478583431884076 -0.2686883577412566 0 -0.079772287073747117 -0.28298302332235598 0 -0.089177189739573337 -0.28146012148628857 0 -0.079478583431884076 -0.2686883577412566 0 -0.079478583431884076 -0.2686883577412566 0 -0.064935533732991879 -0.27214266747622479 0 -0.056270350538933603 -0.27630901197144131 0 -0.079772287073747117 -0.28298302332235598 0 -0.079478583431884076 -0.2686883577412566 0 -0.068904550290101951 -0.28066431805799191 0 -0.079478583431884076 -0.2686883577412566 0 -0.056270350538933603 -0.27630901197144131 0 -0.079478583431884076 -0.2686883577412566 0 -0.068904550290101951 -0.28066431805799191 0 -0.056270350538933603 -0.27630901197144131 0 -0.079478583431884076 -0.2686883577412566 0 -0.064935533732991879 -0.27214266747622479 0 -0.06988951990305084 -0.26346430692382172 0 -0.079478583431884076 -0.2686883577412566 0 -0.06988951990305084 -0.26346430692382172 0 -0.072084071547233758 -0.25343826461772639 0 -0.06988951990305084 -0.26346430692382172 0 -0.072084071547233758 -0.25343826461772639 0 -0.055039144887476299 -0.25771268634847172 0 -0.064935533732991879 -0.27214266747622479 0 -0.06988951990305084 -0.26346430692382172 0 -0.055039144887476299 -0.25771268634847172 0 -0.072084071547233758 -0.25343826461772639 0 -0.08442031290411689 -0.25465150433581729 0 -0.07952034442494442 -0.24201587550467099 0 -0.079478583431884076 -0.2686883577412566 0 -0.08442031290411689 -0.25465150433581729 0 -0.093380860726043707 -0.26215594422976252 0 -0.079478583431884076 -0.2686883577412566 0 -0.072084071547233758 -0.25343826461772639 0 -0.08442031290411689 -0.25465150433581729 0 -0.08442031290411689 -0.25465150433581729 0 -0.093380860726043707 -0.26215594422976252 0 -0.093991234394203094 -0.24772009294180761 0 -0.036185217467124497 -0.25367686163614822 0 -0.033071365819008623 -0.26057111815761369 0 -0.028730439154924511 -0.2570770402195125 0 -0.033071365819008623 -0.26057111815761369 0 -0.036825871482429773 -0.26567351296061509 0 -0.030704102222063628 -0.26692083231660579 0 -0.033071365819008623 -0.26057111815761369 0 -0.038844252056558143 -0.25947228416732748 0 -0.036825871482429773 -0.26567351296061509 0 -0.036185217467124497 -0.25367686163614822 0 -0.033071365819008623 -0.26057111815761369 0 -0.038844252056558143 -0.25947228416732748 0 -0.038844252056558143 -0.25947228416732748 0 -0.042123366139717747 -0.26368651508858798 0 -0.04467085872921496 -0.2569866570401465 0 -0.038844252056558143 -0.25947228416732748 0 -0.042123366139717747 -0.26368651508858798 0 -0.036825871482429773 -0.26567351296061509 0 -0.042123366139717747 -0.26368651508858798 0 -0.04467085872921496 -0.2569866570401465 0 -0.049338254626559018 -0.26466024899869278 0 -0.036185217467124497 -0.25367686163614822 0 -0.038844252056558143 -0.25947228416732748 0 -0.04467085872921496 -0.2569866570401465 0 -0.036185217467124497 -0.25367686163614822 0 -0.04467085872921496 -0.2569866570401465 0 -0.045142756041961718 -0.2432827052207179 0 -0.04467085872921496 -0.2569866570401465 0 -0.055039144887476299 -0.25771268634847172 0 -0.045142756041961718 -0.2432827052207179 0 -0.055039144887476299 -0.25771268634847172 0 -0.045142756041961718 -0.2432827052207179 0 -0.064935533732991879 -0.27214266747622479 0 -0.055039144887476299 -0.25771268634847172 0 -0.04467085872921496 -0.2569866570401465 0 -0.055039144887476299 -0.25771268634847172 0 -0.049338254626559018 -0.26466024899869278 0 -0.055039144887476299 -0.25771268634847172 0 -0.049338254626559018 -0.26466024899869278 0 -0.055429712833516692 -0.27070498009351418 0 -0.049338254626559018 -0.26466024899869278 0 -0.0496744321108629 -0.2713374072517486 0 -0.045205412695289222 -0.26866568724517692 0 -0.056270350538933603 -0.27630901197144131 0 -0.053171873147618849 -0.27577926799680968 0 -0.033062117645983172 -0.28392966620162602 0 -0.0496744321108629 -0.2713374072517486 0 -0.047160567980614833 -0.2755023645823183 0 -0.04540436149173064 -0.27265211108213738 0 -0.0496744321108629 -0.2713374072517486 0 -0.055429712833516692 -0.27070498009351418 0 -0.053171873147618849 -0.27577926799680968 0 -0.049338254626559018 -0.26466024899869278 0 -0.0496744321108629 -0.2713374072517486 0 -0.055429712833516692 -0.27070498009351418 0 -0.064935533732991879 -0.27214266747622479 0 -0.055429712833516692 -0.27070498009351418 0 -0.056270350538933603 -0.27630901197144131 0 -0.064935533732991879 -0.27214266747622479 0 -0.055039144887476299 -0.25771268634847172 0 -0.055429712833516692 -0.27070498009351418 0 -0.068904550290101951 -0.28066431805799191 0 -0.056270350538933603 -0.27630901197144131 0 -0.061175446803791958 -0.28401426014455022 0 -0.055429712833516692 -0.27070498009351418 0 -0.056270350538933603 -0.27630901197144131 0 -0.053171873147618849 -0.27577926799680968 0 -0.053171873147618849 -0.27577926799680968 0 -0.047160567980614833 -0.2755023645823183 0 -0.043940525547310393 -0.2768228747267838 0 -0.0496744321108629 -0.2713374072517486 0 -0.053171873147618849 -0.27577926799680968 0 -0.047160567980614833 -0.2755023645823183 0 -0.056270350538933603 -0.27630901197144131 0 -0.033062117645983172 -0.28392966620162602 0 -0.053171873147618849 -0.27577926799680968 0 -0.031512878950325819 -0.28366479421431012 0 -0.053171873147618849 -0.27577926799680968 0 -0.033062117645983172 -0.28392966620162602 0 -0.031512878950325819 -0.28366479421431012 0 -0.053171873147618849 -0.27577926799680968 0 -0.038899654729429037 -0.27919968552380342 0 -0.031512878950325819 -0.28366479421431012 0 -0.053171873147618849 -0.27577926799680968 0 -0.043940525547310393 -0.2768228747267838 0 -0.038899654729429037 -0.27919968552380342 0 -0.039915724625228542 -0.27710849297280871 0 -0.043940525547310393 -0.2768228747267838 0 -0.038899654729429037 -0.27919968552380342 0 -0.039915724625228542 -0.27710849297280871 0 -0.041102536124859528 -0.27568640656397581 0 -0.043940525547310393 -0.2768228747267838 0 -0.041102536124859528 -0.27568640656397581 0 -0.042875868990820402 -0.27376989776826038 0 -0.041432170913946548 -0.27145845666569968 0 -0.041102536124859528 -0.27568640656397581 0 -0.037960318964953998 -0.27282792576023801 0 -0.038227508950149668 -0.27581199648400623 0 -0.039915724625228542 -0.27710849297280871 0 -0.041102536124859528 -0.27568640656397581 0 -0.038227508950149668 -0.27581199648400623 0 -0.041102536124859528 -0.27568640656397581 0 -0.042875868990820402 -0.27376989776826038 0 -0.043940525547310393 -0.2768228747267838 0 -0.047160567980614833 -0.2755023645823183 0 -0.042875868990820402 -0.27376989776826038 0 -0.04540436149173064 -0.27265211108213738 0 -0.047160567980614833 -0.2755023645823183 0 -0.042875868990820402 -0.27376989776826038 0 -0.043940525547310393 -0.2768228747267838 0 -0.0496744321108629 -0.2713374072517486 0 -0.04540436149173064 -0.27265211108213738 0 -0.045205412695289222 -0.26866568724517692 0 -0.04540436149173064 -0.27265211108213738 0 -0.045205412695289222 -0.26866568724517692 0 -0.041432170913946548 -0.27145845666569968 0 -0.042875868990820402 -0.27376989776826038 0 -0.04540436149173064 -0.27265211108213738 0 -0.041432170913946548 -0.27145845666569968 0 -0.042123366139717747 -0.26368651508858798 0 -0.049338254626559018 -0.26466024899869278 0 -0.045205412695289222 -0.26866568724517692 0 -0.045205412695289222 -0.26866568724517692 0 -0.040494506014980919 -0.26764328638354662 0 -0.041432170913946548 -0.27145845666569968 0 -0.042123366139717747 -0.26368651508858798 0 -0.045205412695289222 -0.26866568724517692 0 -0.040494506014980919 -0.26764328638354662 0 -0.042123366139717747 -0.26368651508858798 0 -0.040494506014980919 -0.26764328638354662 0 -0.036825871482429773 -0.26567351296061509 0 -0.040494506014980919 -0.26764328638354662 0 -0.041432170913946548 -0.27145845666569968 0 -0.037926260816718092 -0.26928419017602151 0 -0.041102536124859528 -0.27568640656397581 0 -0.041432170913946548 -0.27145845666569968 0 -0.037960318964953998 -0.27282792576023801 0 -0.041432170913946548 -0.27145845666569968 0 -0.037960318964953998 -0.27282792576023801 0 -0.037926260816718092 -0.26928419017602151 0 -0.037960318964953998 -0.27282792576023801 0 -0.034432717777818332 -0.27021350812369038 0 -0.03531460300186208 -0.27512335391175091 0 -0.037960318964953998 -0.27282792576023801 0 -0.037926260816718092 -0.26928419017602151 0 -0.034432717777818332 -0.27021350812369038 0 -0.037926260816718092 -0.26928419017602151 0 -0.036825871482429773 -0.26567351296061509 0 -0.034432717777818332 -0.27021350812369038 0 -0.040494506014980919 -0.26764328638354662 0 -0.037926260816718092 -0.26928419017602151 0 -0.036825871482429773 -0.26567351296061509 0 -0.036825871482429773 -0.26567351296061509 0 -0.034432717777818332 -0.27021350812369038 0 -0.030704102222063628 -0.26692083231660579 0 -0.034432717777818332 -0.27021350812369038 0 -0.030852501617639329 -0.27038579559672171 0 -0.030704102222063628 -0.26692083231660579 0 -0.034432717777818332 -0.27021350812369038 0 -0.03531460300186208 -0.27512335391175091 0 -0.03107217404498518 -0.27380363609712782 0 -0.034432717777818332 -0.27021350812369038 0 -0.03107217404498518 -0.27380363609712782 0 -0.030852501617639329 -0.27038579559672171 0 -0.032842060813056073 -0.27712205925630201 0 -0.03531460300186208 -0.27512335391175091 0 -0.03107217404498518 -0.27380363609712782 0 -0.032842060813056073 -0.27712205925630201 0 -0.035362754847294793 -0.27849286189578021 0 -0.03531460300186208 -0.27512335391175091 0 -0.032842060813056073 -0.27712205925630201 0 -0.032944769335019108 -0.28015594974562258 0 -0.029516002836119201 -0.27803449463122848 0 -0.032944769335019108 -0.28015594974562258 0 -0.038899654729429037 -0.27919968552380342 0 -0.031512878950325819 -0.28366479421431012 0 -0.032842060813056073 -0.27712205925630201 0 -0.032944769335019108 -0.28015594974562258 0 -0.035362754847294793 -0.27849286189578021 0 -0.032944769335019108 -0.28015594974562258 0 -0.035362754847294793 -0.27849286189578021 0 -0.038899654729429037 -0.27919968552380342 0 -0.035362754847294793 -0.27849286189578021 0 -0.038899654729429037 -0.27919968552380342 0 -0.037477607701128117 -0.27757546921453302 0 -0.039915724625228542 -0.27710849297280871 0 -0.038899654729429037 -0.27919968552380342 0 -0.037477607701128117 -0.27757546921453302 0 -0.039915724625228542 -0.27710849297280871 0 -0.037477607701128117 -0.27757546921453302 0 -0.038227508950149668 -0.27581199648400623 0 -0.037960318964953998 -0.27282792576023801 0 -0.038227508950149668 -0.27581199648400623 0 -0.03531460300186208 -0.27512335391175091 0 -0.035362754847294793 -0.27849286189578021 0 -0.037477607701128117 -0.27757546921453302 0 -0.03531460300186208 -0.27512335391175091 0 -0.037477607701128117 -0.27757546921453302 0 -0.038227508950149668 -0.27581199648400623 0 -0.03531460300186208 -0.27512335391175091 0 -0.056270350538933603 -0.27630901197144131 0 -0.033062117645983172 -0.28392966620162602 0 -0.046723963139390839 -0.28638602610700531 0 -0.033062117645983172 -0.28392966620162602 0 -0.033070553487676312 -0.29173581592965409 0 -0.038460916418082802 -0.29094918380595802 0 -0.033070553487676312 -0.29173581592965409 0 -0.035486007032681573 -0.29731925222371181 0 -0.025273172853957731 -0.29474516148732077 0 -0.033070553487676312 -0.29173581592965409 0 -0.038460916418082802 -0.29094918380595802 0 -0.035486007032681573 -0.29731925222371181 0 -0.038460916418082802 -0.29094918380595802 0 -0.044590211678169837 -0.29584591225089718 0 -0.046723963139390839 -0.28638602610700531 0 -0.038460916418082802 -0.29094918380595802 0 -0.044590211678169837 -0.29584591225089718 0 -0.035486007032681573 -0.29731925222371181 0 -0.033062117645983172 -0.28392966620162602 0 -0.038460916418082802 -0.29094918380595802 0 -0.046723963139390839 -0.28638602610700531 0 -0.056270350538933603 -0.27630901197144131 0 -0.046723963139390839 -0.28638602610700531 0 -0.055272031084790521 -0.28534275315570168 0 -0.046723963139390839 -0.28638602610700531 0 -0.055272031084790521 -0.28534275315570168 0 -0.052484173218821401 -0.2922620317857455 0 -0.056270350538933603 -0.27630901197144131 0 -0.055272031084790521 -0.28534275315570168 0 -0.061175446803791958 -0.28401426014455022 0 -0.065922290113118495 -0.29002495949491891 0 -0.061175446803791958 -0.28401426014455022 0 -0.059510776587642839 -0.29078486111326879 0 -0.055272031084790521 -0.28534275315570168 0 -0.061175446803791958 -0.28401426014455022 0 -0.059510776587642839 -0.29078486111326879 0 -0.06548533566849904 -0.30187739126042529 0 -0.059510776587642839 -0.29078486111326879 0 -0.057147939878946293 -0.29734324250686672 0 -0.055272031084790521 -0.28534275315570168 0 -0.059510776587642839 -0.29078486111326879 0 -0.052484173218821401 -0.2922620317857455 0 -0.059510776587642839 -0.29078486111326879 0 -0.052484173218821401 -0.2922620317857455 0 -0.057147939878946293 -0.29734324250686672 0 -0.044590211678169837 -0.29584591225089718 0 -0.046723963139390839 -0.28638602610700531 0 -0.052484173218821401 -0.2922620317857455 0 -0.044590211678169837 -0.29584591225089718 0 -0.052484173218821401 -0.2922620317857455 0 -0.052227923141436643 -0.30314799715340313 0 -0.052484173218821401 -0.2922620317857455 0 -0.052227923141436643 -0.30314799715340313 0 -0.057147939878946293 -0.29734324250686672 0 -0.06548533566849904 -0.30187739126042529 0 -0.052227923141436643 -0.30314799715340313 0 -0.057147939878946293 -0.29734324250686672 0 -0.06548533566849904 -0.30187739126042529 0 -0.052227923141436643 -0.30314799715340313 0 -0.056735559762812263 -0.31491093212256033 0 -0.052227923141436643 -0.30314799715340313 0 -0.043061519194813269 -0.30783630809614121 0 -0.056735559762812263 -0.31491093212256033 0 -0.044590211678169837 -0.29584591225089718 0 -0.043061519194813269 -0.30783630809614121 0 -0.035486007032681573 -0.29731925222371181 0 -0.044590211678169837 -0.29584591225089718 0 -0.052227923141436643 -0.30314799715340313 0 -0.043061519194813269 -0.30783630809614121 0 -0.043061519194813269 -0.30783630809614121 0 -0.035486007032681573 -0.29731925222371181 0 -0.029879401788542901 -0.30870004144379271 0 -0.035486007032681573 -0.29731925222371181 0 -0.029879401788542901 -0.30870004144379271 0 -0.025273172853957731 -0.29474516148732077 0 -0.029879401788542901 -0.30870004144379271 0 -0.016071393856498549 -0.30683016741977781 0 -0.025273172853957731 -0.29474516148732077 0 -0.016071393856498549 -0.30683016741977781 0 -0.0098538847530327718 -0.29155032043181067 0 -0.025273172853957731 -0.29474516148732077 0 -0.016071393856498549 -0.30683016741977781 0 -0.0043544913837039621 -0.30743275831670741 0 -0.0098538847530327718 -0.29155032043181067 0 -0.0043544913837039621 -0.30743275831670741 0 -0.0098538847530327718 -0.29155032043181067 0 0.010288348066557471 -0.29816422302620438 0 -0.016071393856498549 -0.30683016741977781 0 -0.0043544913837039621 -0.30743275831670741 0 -0.0041260757890620343 -0.31844599871806473 0 -0.0043544913837039621 -0.30743275831670741 0 -0.0041260757890620343 -0.31844599871806473 0 0.0061083325726071017 -0.31012780829298919 0 -0.0098538847530327718 -0.29155032043181067 0 -0.023013747682353321 -0.28010529976295828 0 -0.01080201701148977 -0.27523564728697009 0 -0.0098538847530327718 -0.29155032043181067 0 -0.01080201701148977 -0.27523564728697009 0 -0.001149090829619368 -0.27997961742707711 0 -0.0098538847530327718 -0.29155032043181067 0 -0.001149090829619368 -0.27997961742707711 0 0.0075183014580197634 -0.28723613560314082 0 -0.031512878950325819 -0.28366479421431012 0 -0.0098538847530327718 -0.29155032043181067 0 -0.023013747682353321 -0.28010529976295828 0 -0.033062117645983172 -0.28392966620162602 0 -0.031512878950325819 -0.28366479421431012 0 -0.0098538847530327718 -0.29155032043181067 0 -0.033062117645983172 -0.28392966620162602 0 -0.0098538847530327718 -0.29155032043181067 0 -0.033062117645983172 -0.28392966620162602 0 -0.0098538847530327718 -0.29155032043181067 0 -0.025273172853957731 -0.29474516148732077 0 -0.031512878950325819 -0.28366479421431012 0 -0.0098538847530327718 -0.29155032043181067 0 -0.033062117645983172 -0.28392966620162602 0 -0.033070553487676312 -0.29173581592965409 0 -0.025273172853957731 -0.29474516148732077 0 -0.031512878950325819 -0.28366479421431012 0 -0.029246849700954359 -0.28049013458852989 0 -0.023013747682353321 -0.28010529976295828 0 -0.032944769335019108 -0.28015594974562258 0 -0.031512878950325819 -0.28366479421431012 0 -0.029246849700954359 -0.28049013458852989 0 -0.026362175401128389 -0.2748108847682908 0 -0.021007940016494069 -0.2715057875006765 0 -0.023013747682353321 -0.28010529976295828 0 -0.029246849700954359 -0.28049013458852989 0 -0.029516002836119201 -0.27803449463122848 0 -0.023013747682353321 -0.28010529976295828 0 -0.026362175401128389 -0.2748108847682908 0 -0.029516002836119201 -0.27803449463122848 0 -0.023013747682353321 -0.28010529976295828 0 -0.032944769335019108 -0.28015594974562258 0 -0.029246849700954359 -0.28049013458852989 0 -0.029516002836119201 -0.27803449463122848 0 -0.026362175401128389 -0.2748108847682908 0 -0.029516002836119201 -0.27803449463122848 0 -0.03107217404498518 -0.27380363609712782 0 -0.032842060813056073 -0.27712205925630201 0 -0.029516002836119201 -0.27803449463122848 0 -0.03107217404498518 -0.27380363609712782 0 -0.03107217404498518 -0.27380363609712782 0 -0.030852501617639329 -0.27038579559672171 0 -0.027201012425690171 -0.27060520584946279 0 -0.026362175401128389 -0.2748108847682908 0 -0.03107217404498518 -0.27380363609712782 0 -0.027201012425690171 -0.27060520584946279 0 -0.030704102222063628 -0.26692083231660579 0 -0.024747773732506081 -0.26653561638609202 0 -0.027201012425690171 -0.27060520584946279 0 -0.030852501617639329 -0.27038579559672171 0 -0.030704102222063628 -0.26692083231660579 0 -0.027201012425690171 -0.27060520584946279 0 -0.026362175401128389 -0.2748108847682908 0 -0.027201012425690171 -0.27060520584946279 0 -0.021007940016494069 -0.2715057875006765 0 -0.024747773732506081 -0.26653561638609202 0 -0.027201012425690171 -0.27060520584946279 0 -0.021007940016494069 -0.2715057875006765 0 -0.024747773732506081 -0.26653561638609202 0 -0.021007940016494069 -0.2715057875006765 0 -0.01944289713085769 -0.26283894804799068 0 -0.021007940016494069 -0.2715057875006765 0 -0.01449750311711878 -0.26791957652276421 0 -0.01944289713085769 -0.26283894804799068 0 -0.021007940016494069 -0.2715057875006765 0 -0.023013747682353321 -0.28010529976295828 0 -0.01080201701148977 -0.27523564728697009 0 -0.01080201701148977 -0.27523564728697009 0 -0.001149090829619368 -0.27997961742707711 0 -0.00068688953370720375 -0.27251861061258548 0 -0.00068688953370720375 -0.27251861061258548 0 -0.0078955219930033575 -0.26513502983488701 0 0.0066946339514107906 -0.2670245035962967 0 -0.01080201701148977 -0.27523564728697009 0 -0.00068688953370720375 -0.27251861061258548 0 -0.0078955219930033575 -0.26513502983488701 0 -0.01080201701148977 -0.27523564728697009 0 -0.01449750311711878 -0.26791957652276421 0 -0.0078955219930033575 -0.26513502983488701 0 -0.021007940016494069 -0.2715057875006765 0 -0.01080201701148977 -0.27523564728697009 0 -0.01449750311711878 -0.26791957652276421 0 -0.01449750311711878 -0.26791957652276421 0 -0.01498460241989214 -0.26260831827729592 0 -0.0078955219930033575 -0.26513502983488701 0 -0.0035151632729158761 -0.26031510391047552 0 -0.018034779653118789 -0.2543742392445309 0 0.0066946339514107906 -0.2670245035962967 0 -0.0078955219930033575 -0.26513502983488701 0 -0.018034779653118789 -0.2543742392445309 0 0.0066946339514107906 -0.2670245035962967 0 -0.01498460241989214 -0.26260831827729592 0 -0.0078955219930033575 -0.26513502983488701 0 -0.018034779653118789 -0.2543742392445309 0 -0.018034779653118789 -0.2543742392445309 0 0.0066946339514107906 -0.2670245035962967 0 -0.0035151632729158761 -0.26031510391047552 0 -0.0073484280457504856 -0.24831973741600649 0 0.0027424099200005921 -0.2488067507453634 0 -0.0035151632729158761 -0.26031510391047552 0 -0.018034779653118789 -0.2543742392445309 0 -0.014340942132374581 -0.2497701290103469 0 -0.0035151632729158761 -0.26031510391047552 0 -0.014340942132374581 -0.2497701290103469 0 -0.0073484280457504856 -0.24831973741600649 0 -0.0035151632729158761 -0.26031510391047552 0 -0.018034779653118789 -0.2543742392445309 0 -0.018034779653118789 -0.2543742392445309 0 -0.024328959657438708 -0.25179890456559662 0 -0.014340942132374581 -0.2497701290103469 0 -0.018034779653118789 -0.2543742392445309 0 -0.024328959657438708 -0.25179890456559662 0 -0.018034779653118789 -0.2543742392445309 0 -0.024328959657438708 -0.25179890456559662 0 -0.02344508148588725 -0.25745035446590381 0 -0.018034779653118789 -0.2543742392445309 0 -0.01944289713085769 -0.26283894804799068 0 -0.02344508148588725 -0.25745035446590381 0 -0.01498460241989214 -0.26260831827729592 0 -0.018034779653118789 -0.2543742392445309 0 -0.01944289713085769 -0.26283894804799068 0 -0.01449750311711878 -0.26791957652276421 0 -0.01498460241989214 -0.26260831827729592 0 -0.01944289713085769 -0.26283894804799068 0 -0.01944289713085769 -0.26283894804799068 0 -0.026621571345163471 -0.2618879622723001 0 -0.02344508148588725 -0.25745035446590381 0 -0.026621571345163471 -0.2618879622723001 0 -0.028730439154924511 -0.2570770402195125 0 -0.02344508148588725 -0.25745035446590381 0 -0.024747773732506081 -0.26653561638609202 0 -0.01944289713085769 -0.26283894804799068 0 -0.026621571345163471 -0.2618879622723001 0 -0.030704102222063628 -0.26692083231660579 0 -0.024747773732506081 -0.26653561638609202 0 -0.026621571345163471 -0.2618879622723001 0 -0.033071365819008623 -0.26057111815761369 0 -0.030704102222063628 -0.26692083231660579 0 -0.026621571345163471 -0.2618879622723001 0 -0.033071365819008623 -0.26057111815761369 0 -0.026621571345163471 -0.2618879622723001 0 -0.028730439154924511 -0.2570770402195125 0 -0.036185217467124497 -0.25367686163614822 0 -0.028730439154924511 -0.2570770402195125 0 -0.024328959657438708 -0.25179890456559662 0 -0.028730439154924511 -0.2570770402195125 0 -0.024328959657438708 -0.25179890456559662 0 -0.02344508148588725 -0.25745035446590381 0 -0.045355704124949527 -0.34909950497630882 0 -0.028844558276044509 -0.35332005779630937 0 -0.029869123079059801 -0.37033126793300031 0 -0.045355704124949527 -0.34909950497630882 0 -0.052873372266946619 -0.36875879132834338 0 -0.029869123079059801 -0.37033126793300031 0 -0.045355704124949527 -0.34909950497630882 0 -0.029869123079059801 -0.37033126793300031 0 -0.063362445172197662 -0.33296342842405968 0 -0.069071391613985109 -0.35518777780400851 0 -0.045355704124949527 -0.34909950497630882 0 -0.069071391613985109 -0.35518777780400851 0 -0.045355704124949527 -0.34909950497630882 0 -0.052873372266946619 -0.36875879132834338 0 -0.063362445172197662 -0.33296342842405968 0 -0.039450011765236402 -0.32709371338248189 0 -0.063362445172197662 -0.33296342842405968 0 -0.045355704124949527 -0.34909950497630882 0 -0.039450011765236402 -0.32709371338248189 0 -0.063362445172197662 -0.33296342842405968 0 -0.056735559762812263 -0.31491093212256033 0 -0.039450011765236402 -0.32709371338248189 0 -0.043061519194813269 -0.30783630809614121 0 -0.029879401788542901 -0.30870004144379271 0 -0.039450011765236402 -0.32709371338248189 0 -0.043061519194813269 -0.30783630809614121 0 -0.056735559762812263 -0.31491093212256033 0 -0.039450011765236402 -0.32709371338248189 0 -0.045355704124949527 -0.34909950497630882 0 -0.039450011765236402 -0.32709371338248189 0 -0.028844558276044509 -0.35332005779630937 0 -0.039450011765236402 -0.32709371338248189 0 -0.01573019852014107 -0.34243683347890369 0 -0.018363968451861268 -0.32345207259593001 0 -0.039450011765236402 -0.32709371338248189 0 -0.01573019852014107 -0.34243683347890369 0 -0.028844558276044509 -0.35332005779630937 0 -0.029879401788542901 -0.30870004144379271 0 -0.039450011765236402 -0.32709371338248189 0 -0.018363968451861268 -0.32345207259593001 0 -0.029879401788542901 -0.30870004144379271 0 -0.016071393856498549 -0.30683016741977781 0 -0.018363968451861268 -0.32345207259593001 0 -0.016071393856498549 -0.30683016741977781 0 -0.018363968451861268 -0.32345207259593001 0 -0.0041260757890620343 -0.31844599871806473 0 -0.018363968451861268 -0.32345207259593001 0 -0.0041260757890620343 -0.31844599871806473 0 -0.001577102863922367 -0.33709986954692472 0 -0.01573019852014107 -0.34243683347890369 0 -0.018363968451861268 -0.32345207259593001 0 -0.001577102863922367 -0.33709986954692472 0 -0.001577102863922367 -0.33709986954692472 0 -0.0122343223436675 -0.35642059330529108 0 0.0071591267287209621 -0.35899339303477862 0 -0.01573019852014107 -0.34243683347890369 0 -0.001577102863922367 -0.33709986954692472 0 -0.0122343223436675 -0.35642059330529108 0 -0.01573019852014107 -0.34243683347890369 0 -0.0122343223436675 -0.35642059330529108 0 -0.028844558276044509 -0.35332005779630937 0 -0.0122343223436675 -0.35642059330529108 0 -0.028844558276044509 -0.35332005779630937 0 -0.029869123079059801 -0.37033126793300031 0 -0.0122343223436675 -0.35642059330529108 0 -0.0045440780515582074 -0.37634213804182948 0 0.0071591267287209621 -0.35899339303477862 0 -0.0122343223436675 -0.35642059330529108 0 -0.029869123079059801 -0.37033126793300031 0 -0.0045440780515582074 -0.37634213804182948 0 -0.0045440780515582074 -0.37634213804182948 0 -0.01438254203317009 -0.39156303088969169 0 0.0042832968027116938 -0.39390729120956841 0 -0.01438254203317009 -0.39156303088969169 0 -0.020584247704917631 -0.41370173308790759 0 0.001104039012719632 -0.41279479384638318 0 -0.01438254203317009 -0.39156303088969169 0 0.0042832968027116938 -0.39390729120956841 0 0.001104039012719632 -0.41279479384638318 0 -0.01438254203317009 -0.39156303088969169 0 0.001104039012719632 -0.41279479384638318 0 -0.01438254203317009 -0.39156303088969169 0 -0.032384085253717963 -0.39701028306694758 0 -0.020584247704917631 -0.41370173308790759 0 -0.029869123079059801 -0.37033126793300031 0 -0.01438254203317009 -0.39156303088969169 0 -0.032384085253717963 -0.39701028306694758 0 -0.029869123079059801 -0.37033126793300031 0 -0.0045440780515582074 -0.37634213804182948 0 -0.01438254203317009 -0.39156303088969169 0 -0.029869123079059801 -0.37033126793300031 0 -0.01438254203317009 -0.39156303088969169 0 -0.052873372266946619 -0.36875879132834338 0 -0.029869123079059801 -0.37033126793300031 0 -0.050205250512372158 -0.38947730668394592 0 -0.029869123079059801 -0.37033126793300031 0 -0.032384085253717963 -0.39701028306694758 0 -0.050205250512372158 -0.38947730668394592 0 -0.032384085253717963 -0.39701028306694758 0 -0.050205250512372158 -0.38947730668394592 0 -0.043639441416800172 -0.41495896384786601 0 -0.050205250512372158 -0.38947730668394592 0 -0.043639441416800172 -0.41495896384786601 0 -0.068282646750360776 -0.40579684895362911 0 -0.052873372266946619 -0.36875879132834338 0 -0.050205250512372158 -0.38947730668394592 0 -0.075319003334447993 -0.38008915490268808 0 -0.048187644656238912 -0.43831885572460982 0 -0.072724119292296718 -0.44171612268942678 0 -0.062576906557348544 -0.4258154529974173 0 -0.043639441416800172 -0.41495896384786601 0 -0.048187644656238912 -0.43831885572460982 0 -0.062576906557348544 -0.4258154529974173 0 -0.043639441416800172 -0.41495896384786601 0 -0.068282646750360776 -0.40579684895362911 0 -0.062576906557348544 -0.4258154529974173 0 -0.032384085253717963 -0.39701028306694758 0 -0.043639441416800172 -0.41495896384786601 0 -0.020584247704917631 -0.41370173308790759 0 -0.043639441416800172 -0.41495896384786601 0 -0.02658370555108909 -0.43510477714595708 0 -0.048187644656238912 -0.43831885572460982 0 -0.02658370555108909 -0.43510477714595708 0 -0.020584247704917631 -0.41370173308790759 0 -0.0056355393443281322 -0.43417850540682151 0 -0.043639441416800172 -0.41495896384786601 0 -0.02658370555108909 -0.43510477714595708 0 -0.020584247704917631 -0.41370173308790759 0 -0.020584247704917631 -0.41370173308790759 0 -0.0056355393443281322 -0.43417850540682151 0 0.001104039012719632 -0.41279479384638318 0 -0.0056355393443281322 -0.43417850540682151 0 -0.01303452505482738 -0.45548710658409941 0 0.0095213380248362935 -0.45537271317193212 0 -0.02658370555108909 -0.43510477714595708 0 -0.0056355393443281322 -0.43417850540682151 0 -0.01303452505482738 -0.45548710658409941 0 -0.01303452505482738 -0.45548710658409941 0 0.0095213380248362935 -0.45537271317193212 0 0.00083854738960830876 -0.47283466759869652 0 -0.01303452505482738 -0.45548710658409941 0 0.0095213380248362935 -0.45537271317193212 0 -0.01303452505482738 -0.45548710658409941 0 -0.035590388134491092 -0.45560149999626659 0 -0.01303452505482738 -0.45548710658409941 0 -0.02459484821228872 -0.46564988752113312 0 -0.035590388134491092 -0.45560149999626659 0 -0.01303452505482738 -0.45548710658409941 0 -0.02459484821228872 -0.46564988752113312 0 -0.016198375893222049 -0.47832619108175373 0 -0.02658370555108909 -0.43510477714595708 0 -0.01303452505482738 -0.45548710658409941 0 -0.035590388134491092 -0.45560149999626659 0 -0.00074998226674904966 -0.5 0 -0.016198375893222049 -0.47832619108175373 0 -0.029766095606285181 -0.5 0 -0.00074998226674904966 -0.5 0 -0.016198375893222049 -0.47832619108175373 0 0.00083854738960830876 -0.47283466759869652 0 -0.01303452505482738 -0.45548710658409941 0 -0.016198375893222049 -0.47832619108175373 0 0.00083854738960830876 -0.47283466759869652 0 -0.016198375893222049 -0.47832619108175373 0 -0.029766095606285181 -0.5 0 -0.037348064160066911 -0.4732549328091219 0 -0.02459484821228872 -0.46564988752113312 0 -0.016198375893222049 -0.47832619108175373 0 -0.037348064160066911 -0.4732549328091219 0 -0.029766095606285181 -0.5 0 -0.051287712529111122 -0.48144748607240212 0 -0.058782208945821257 -0.5 0 -0.029766095606285181 -0.5 0 -0.037348064160066911 -0.4732549328091219 0 -0.051287712529111122 -0.48144748607240212 0 -0.051287712529111122 -0.48144748607240212 0 -0.055036091726181818 -0.45748552774927442 0 -0.075506102207200471 -0.4764969698036145 0 -0.037348064160066911 -0.4732549328091219 0 -0.051287712529111122 -0.48144748607240212 0 -0.055036091726181818 -0.45748552774927442 0 -0.051287712529111122 -0.48144748607240212 0 -0.058782208945821257 -0.5 0 -0.075506102207200471 -0.4764969698036145 0 -0.035590388134491092 -0.45560149999626659 0 -0.055036091726181818 -0.45748552774927442 0 -0.048187644656238912 -0.43831885572460982 0 -0.02658370555108909 -0.43510477714595708 0 -0.035590388134491092 -0.45560149999626659 0 -0.048187644656238912 -0.43831885572460982 0 -0.037348064160066911 -0.4732549328091219 0 -0.035590388134491092 -0.45560149999626659 0 -0.055036091726181818 -0.45748552774927442 0 -0.02459484821228872 -0.46564988752113312 0 -0.037348064160066911 -0.4732549328091219 0 -0.035590388134491092 -0.45560149999626659 0 -0.037348064160066911 -0.4732549328091219 0 -0.055036091726181818 -0.45748552774927442 0 -0.055036091726181818 -0.45748552774927442 0 -0.048187644656238912 -0.43831885572460982 0 -0.072724119292296718 -0.44171612268942678 0 -0.055036091726181818 -0.45748552774927442 0 -0.072724119292296718 -0.44171612268942678 0 -0.082306231574997488 -0.45836011443178248 0 -0.055036091726181818 -0.45748552774927442 0 -0.072724119292296718 -0.44171612268942678 0 -0.055036091726181818 -0.45748552774927442 0 -0.082306231574997488 -0.45836011443178248 0 -0.075506102207200471 -0.4764969698036145 0 -0.082306231574997488 -0.45836011443178248 0 -0.075506102207200471 -0.4764969698036145 0 -0.098731438136661936 -0.46585083981905451 0 -0.072724119292296718 -0.44171612268942678 0 -0.082306231574997488 -0.45836011443178248 0 -0.1028114220947537 -0.44901012926717121 0 -0.072724119292296718 -0.44171612268942678 0 -0.1028114220947537 -0.44901012926717121 0 -0.090412146858411688 -0.42594671762957931 0 -0.058782208945821257 -0.5 0 -0.075506102207200471 -0.4764969698036145 0 -0.087798322285357389 -0.5 0 -0.075506102207200471 -0.4764969698036145 0 -0.1029147960302688 -0.48475339760562081 0 -0.098731438136661936 -0.46585083981905451 0 -0.075506102207200471 -0.4764969698036145 0 -0.087798322285357389 -0.5 0 -0.1029147960302688 -0.48475339760562081 0 -0.087798322285357389 -0.5 0 -0.1029147960302688 -0.48475339760562081 0 -0.11681443562489351 -0.5 0 -0.1029147960302688 -0.48475339760562081 0 -0.098731438136661936 -0.46585083981905451 0 -0.1157543313304665 -0.46669024811541238 0 -0.13325741436139851 -0.48046482935785018 0 -0.1029147960302688 -0.48475339760562081 0 -0.1157543313304665 -0.46669024811541238 0 -0.13325741436139851 -0.48046482935785018 0 -0.1029147960302688 -0.48475339760562081 0 -0.11681443562489351 -0.5 0 -0.1343300981653657 -0.45361536828713672 0 -0.1028114220947537 -0.44901012926717121 0 -0.1217541368355627 -0.43157086676615442 0 -0.1343300981653657 -0.45361536828713672 0 -0.1028114220947537 -0.44901012926717121 0 -0.1157543313304665 -0.46669024811541238 0 -0.082306231574997488 -0.45836011443178248 0 -0.1028114220947537 -0.44901012926717121 0 -0.098731438136661936 -0.46585083981905451 0 -0.1028114220947537 -0.44901012926717121 0 -0.098731438136661936 -0.46585083981905451 0 -0.1157543313304665 -0.46669024811541238 0 -0.1028114220947537 -0.44901012926717121 0 -0.1217541368355627 -0.43157086676615442 0 -0.090412146858411688 -0.42594671762957931 0 -0.1217541368355627 -0.43157086676615442 0 -0.1081001744245267 -0.41017731256973161 0 -0.090412146858411688 -0.42594671762957931 0 -0.1081001744245267 -0.41017731256973161 0 -0.090412146858411688 -0.42594671762957931 0 -0.1081001744245267 -0.41017731256973161 0 -0.091853427028060736 -0.39869464947661432 0 -0.090412146858411688 -0.42594671762957931 0 -0.13134798534608361 -0.41160778855568247 0 -0.1217541368355627 -0.43157086676615442 0 -0.1081001744245267 -0.41017731256973161 0 -0.13134798534608361 -0.41160778855568247 0 -0.1081001744245267 -0.41017731256973161 0 -0.1184681697666351 -0.39347916455845677 0 -0.12560614545958559 -0.36807092425949089 0 -0.1184681697666351 -0.39347916455845677 0 -0.10641496837540459 -0.37660554229221599 0 -0.1184681697666351 -0.39347916455845677 0 -0.10641496837540459 -0.37660554229221599 0 -0.091853427028060736 -0.39869464947661432 0 -0.1081001744245267 -0.41017731256973161 0 -0.1184681697666351 -0.39347916455845677 0 -0.091853427028060736 -0.39869464947661432 0 -0.091853427028060736 -0.39869464947661432 0 -0.075319003334447993 -0.38008915490268808 0 -0.068282646750360776 -0.40579684895362911 0 -0.10641496837540459 -0.37660554229221599 0 -0.091853427028060736 -0.39869464947661432 0 -0.075319003334447993 -0.38008915490268808 0 -0.050205250512372158 -0.38947730668394592 0 -0.075319003334447993 -0.38008915490268808 0 -0.068282646750360776 -0.40579684895362911 0 -0.068282646750360776 -0.40579684895362911 0 -0.062576906557348544 -0.4258154529974173 0 -0.090412146858411688 -0.42594671762957931 0 -0.072724119292296718 -0.44171612268942678 0 -0.062576906557348544 -0.4258154529974173 0 -0.090412146858411688 -0.42594671762957931 0 -0.072724119292296718 -0.44171612268942678 0 -0.090412146858411688 -0.42594671762957931 0 -0.091853427028060736 -0.39869464947661432 0 -0.068282646750360776 -0.40579684895362911 0 -0.090412146858411688 -0.42594671762957931 0 -0.073864844863472556 -0.070184788028707784 0 -0.077574431934277516 -0.085974087213298078 0 -0.094856308506299364 -0.078412660411263324 0 -0.0893268951544407 -0.08825440383077747 0 -0.077574431934277516 -0.085974087213298078 0 -0.094856308506299364 -0.078412660411263324 0 -0.0893268951544407 -0.08825440383077747 0 -0.077574431934277516 -0.085974087213298078 0 -0.086632472710796618 -0.096765463486541109 0 -0.0893268951544407 -0.08825440383077747 0 -0.086632472710796618 -0.096765463486541109 0 -0.09824436746638926 -0.091865404212007368 0 -0.073864844863472556 -0.070184788028707784 0 -0.094856308506299364 -0.078412660411263324 0 -0.087292198409198607 -0.054522775598545313 0 -0.073864844863472556 -0.070184788028707784 0 -0.094856308506299364 -0.078412660411263324 0 -0.073864844863472556 -0.070184788028707784 0 -0.077574431934277516 -0.085974087213298078 0 -0.05810128174356112 -0.077955503573252816 0 -0.073864844863472556 -0.070184788028707784 0 -0.052873381220645693 -0.06195691564615223 0 -0.077574431934277516 -0.085974087213298078 0 -0.05810128174356112 -0.077955503573252816 0 -0.061856559798842838 -0.09460275383904404 0 -0.077574431934277516 -0.085974087213298078 0 -0.073881069614697092 -0.1017671894972919 0 -0.061856559798842838 -0.09460275383904404 0 -0.073881069614697092 -0.1017671894972919 0 -0.063466289807052809 -0.1097833579942778 0 -0.061856559798842838 -0.09460275383904404 0 -0.063466289807052809 -0.1097833579942778 0 -0.079443569050233739 -0.1177137799436323 0 -0.056446284994124123 -0.12581931825358911 0 -0.073881069614697092 -0.1017671894972919 0 -0.063466289807052809 -0.1097833579942778 0 -0.079443569050233739 -0.1177137799436323 0 -0.073881069614697092 -0.1017671894972919 0 -0.079443569050233739 -0.1177137799436323 0 -0.079443569050233739 -0.1177137799436323 0 -0.084681319570406616 -0.1069939240512657 0 -0.093903486922334023 -0.1125020658324677 0 -0.079443569050233739 -0.1177137799436323 0 -0.089156499713309995 -0.1241060883691468 0 -0.093903486922334023 -0.1125020658324677 0 -0.089156499713309995 -0.1241060883691468 0 -0.093903486922334023 -0.1125020658324677 0 -0.097847756430963689 -0.1260695450338177 0 -0.077574431934277516 -0.085974087213298078 0 -0.073881069614697092 -0.1017671894972919 0 -0.086632472710796618 -0.096765463486541109 0 -0.073881069614697092 -0.1017671894972919 0 -0.079443569050233739 -0.1177137799436323 0 -0.084681319570406616 -0.1069939240512657 0 -0.073881069614697092 -0.1017671894972919 0 -0.084681319570406616 -0.1069939240512657 0 -0.086632472710796618 -0.096765463486541109 0 -0.084681319570406616 -0.1069939240512657 0 -0.096629318984752591 -0.1033185747212426 0 -0.093903486922334023 -0.1125020658324677 0 -0.084681319570406616 -0.1069939240512657 0 -0.086632472710796618 -0.096765463486541109 0 -0.096629318984752591 -0.1033185747212426 0 -0.086632472710796618 -0.096765463486541109 0 -0.096629318984752591 -0.1033185747212426 0 -0.09824436746638926 -0.091865404212007368 0 -0.096629318984752591 -0.1033185747212426 0 -0.10564904087382811 -0.098659827252604748 0 -0.09824436746638926 -0.091865404212007368 0 -0.096629318984752591 -0.1033185747212426 0 -0.10564904087382811 -0.098659827252604748 0 -0.093903486922334023 -0.1125020658324677 0 -0.10564904087382811 -0.098659827252604748 0 -0.093903486922334023 -0.1125020658324677 0 -0.10564904087382811 -0.098659827252604748 0 -0.093903486922334023 -0.1125020658324677 0 -0.10690431613617039 -0.1140800913509127 0 -0.093903486922334023 -0.1125020658324677 0 -0.10690431613617039 -0.1140800913509127 0 -0.097847756430963689 -0.1260695450338177 0 -0.10690431613617039 -0.1140800913509127 0 -0.097847756430963689 -0.1260695450338177 0 -0.10993600967695499 -0.12528712981586759 0 -0.1185880756222225 -0.1183208525496777 0 -0.10993600967695499 -0.12528712981586759 0 -0.1176795372985653 -0.13053017044787199 0 -0.10690431613617039 -0.1140800913509127 0 -0.1185880756222225 -0.1183208525496777 0 -0.10993600967695499 -0.12528712981586759 0 -0.10690431613617039 -0.1140800913509127 0 -0.1185880756222225 -0.1183208525496777 0 -0.1160605453498742 -0.1084992007385016 0 -0.1185880756222225 -0.1183208525496777 0 -0.1160605453498742 -0.1084992007385016 0 -0.12681483396540519 -0.1098867467418902 0 -0.10564904087382811 -0.098659827252604748 0 -0.13095273053306089 -0.1000355178382047 0 -0.10564904087382811 -0.098659827252604748 0 -0.1198692876805421 -0.1042703231428003 0 -0.13095273053306089 -0.1000355178382047 0 -0.10564904087382811 -0.098659827252604748 0 -0.1158477721491263 -0.086640532793818475 0 -0.13095273053306089 -0.1000355178382047 0 -0.10564904087382811 -0.098659827252604748 0 -0.1160605453498742 -0.1084992007385016 0 -0.1198692876805421 -0.1042703231428003 0 -0.10564904087382811 -0.098659827252604748 0 -0.10690431613617039 -0.1140800913509127 0 -0.1160605453498742 -0.1084992007385016 0 -0.1160605453498742 -0.1084992007385016 0 -0.1198692876805421 -0.1042703231428003 0 -0.12681483396540519 -0.1098867467418902 0 -0.1158477721491263 -0.086640532793818475 0 -0.13303678585259171 -0.093377986338771729 0 -0.1158477721491263 -0.086640532793818475 0 -0.13009665225305461 -0.069848102338090801 0 -0.10564904087382811 -0.098659827252604748 0 -0.1158477721491263 -0.086640532793818475 0 -0.1158477721491263 -0.086640532793818475 0 -0.094856308506299364 -0.078412660411263324 0 -0.09824436746638926 -0.091865404212007368 0 -0.10564904087382811 -0.098659827252604748 0 -0.1158477721491263 -0.086640532793818475 0 -0.09824436746638926 -0.091865404212007368 0 -0.1158477721491263 -0.086640532793818475 0 -0.094856308506299364 -0.078412660411263324 0 -0.1138311080050675 -0.070487816918234608 0 -0.1158477721491263 -0.086640532793818475 0 -0.094856308506299364 -0.078412660411263324 0 -0.0893268951544407 -0.08825440383077747 0 -0.094856308506299364 -0.078412660411263324 0 -0.09824436746638926 -0.091865404212007368 0 -0.094856308506299364 -0.078412660411263324 0 -0.108378291514605 -0.054846670183877892 0 -0.087292198409198607 -0.054522775598545313 0 -0.094856308506299364 -0.078412660411263324 0 -0.1138311080050675 -0.070487816918234608 0 -0.108378291514605 -0.054846670183877892 0 -0.1138311080050675 -0.070487816918234608 0 -0.1247848445325743 -0.056307850212848037 0 -0.13009665225305461 -0.069848102338090801 0 -0.1158477721491263 -0.086640532793818475 0 -0.1138311080050675 -0.070487816918234608 0 -0.13009665225305461 -0.069848102338090801 0 -0.1247848445325743 -0.056307850212848037 0 -0.108378291514605 -0.054846670183877892 0 -0.1277328082622505 -0.037713570700293603 0 -0.1138311080050675 -0.070487816918234608 0 -0.1247848445325743 -0.056307850212848037 0 -0.108378291514605 -0.054846670183877892 0 -0.108378291514605 -0.054846670183877892 0 -0.10694000649222 -0.028824135111864359 0 -0.1277328082622505 -0.037713570700293603 0 -0.108378291514605 -0.054846670183877892 0 -0.10694000649222 -0.028824135111864359 0 -0.087292198409198607 -0.054522775598545313 0 -0.1225176250232036 -0.0078700669593853856 0 -0.1068076453563892 -0.0055775227136052579 0 -0.1239055540856334 0.012388859614741119 0 -0.1225176250232036 -0.0078700669593853856 0 -0.10694000649222 -0.028824135111864359 0 -0.1068076453563892 -0.0055775227136052579 0 -0.10694000649222 -0.028824135111864359 0 -0.13541840610261691 -0.019155779285672421 0 -0.1277328082622505 -0.037713570700293603 0 -0.1225176250232036 -0.0078700669593853856 0 -0.10694000649222 -0.028824135111864359 0 -0.13541840610261691 -0.019155779285672421 0 -0.10694000649222 -0.028824135111864359 0 -0.1068076453563892 -0.0055775227136052579 0 -0.088128472691064594 -0.016058375862841409 0 -0.1068076453563892 -0.0055775227136052579 0 -0.088128472691064594 -0.016058375862841409 0 -0.091979118021767892 0.01322932767534655 0 -0.10694000649222 -0.028824135111864359 0 -0.088128472691064594 -0.016058375862841409 0 -0.074122445752908633 -0.037007731192680422 0 -0.069456955178992599 -0.0047126937669436757 0 -0.074122445752908633 -0.037007731192680422 0 -0.046934792336217182 -0.022654715209234001 0 -0.088128472691064594 -0.016058375862841409 0 -0.069456955178992599 -0.0047126937669436757 0 -0.074122445752908633 -0.037007731192680422 0 -0.088128472691064594 -0.016058375862841409 0 -0.069456955178992599 -0.0047126937669436757 0 -0.091979118021767892 0.01322932767534655 0 -0.10694000649222 -0.028824135111864359 0 -0.087292198409198607 -0.054522775598545313 0 -0.074122445752908633 -0.037007731192680422 0 -0.074122445752908633 -0.037007731192680422 0 -0.067939320868425801 -0.05408279603168116 0 -0.051394633957195637 -0.044259778005347993 0 -0.073864844863472556 -0.070184788028707784 0 -0.087292198409198607 -0.054522775598545313 0 -0.067939320868425801 -0.05408279603168116 0 -0.087292198409198607 -0.054522775598545313 0 -0.074122445752908633 -0.037007731192680422 0 -0.067939320868425801 -0.05408279603168116 0 -0.073864844863472556 -0.070184788028707784 0 -0.067939320868425801 -0.05408279603168116 0 -0.052873381220645693 -0.06195691564615223 0 -0.067939320868425801 -0.05408279603168116 0 -0.052873381220645693 -0.06195691564615223 0 -0.051394633957195637 -0.044259778005347993 0 -0.074122445752908633 -0.037007731192680422 0 -0.051394633957195637 -0.044259778005347993 0 -0.046934792336217182 -0.022654715209234001 0 -0.046934792336217182 -0.022654715209234001 0 -0.02441262949344182 -0.040596736651524287 0 -0.051394633957195637 -0.044259778005347993 0 -0.046934792336217182 -0.022654715209234001 0 -0.02441262949344182 -0.040596736651524287 0 -0.051394633957195637 -0.044259778005347993 0 -0.03605693154674873 -0.057156805995164553 0 -0.02441262949344182 -0.040596736651524287 0 -0.052873381220645693 -0.06195691564615223 0 -0.051394633957195637 -0.044259778005347993 0 -0.03605693154674873 -0.057156805995164553 0 -0.069456955178992599 -0.0047126937669436757 0 -0.046934792336217182 -0.022654715209234001 0 -0.049878246708470478 0.0024770775972122409 0 -0.069456955178992599 -0.0047126937669436757 0 -0.046934792336217182 -0.022654715209234001 0 -0.046934792336217182 -0.022654715209234001 0 -0.028885176352328928 -0.0016442082084496101 0 -0.049878246708470478 0.0024770775972122409 0 -0.046934792336217182 -0.022654715209234001 0 -0.028885176352328928 -0.0016442082084496101 0 -0.01529010885661245 -0.02031569622661402 0 -0.046934792336217182 -0.022654715209234001 0 -0.01529010885661245 -0.02031569622661402 0 -0.02441262949344182 -0.040596736651524287 0 -0.028885176352328928 -0.0016442082084496101 0 -0.01529010885661245 -0.02031569622661402 0 -0.005955033776784309 -0.00065162974896590398 0 -0.01529010885661245 -0.02031569622661402 0 -0.00043252118046987418 -0.034611490377770067 0 0.0055755829353018836 -0.0141155314523333 0 -0.01529010885661245 -0.02031569622661402 0 -0.005955033776784309 -0.00065162974896590398 0 0.0055755829353018836 -0.0141155314523333 0 -0.005955033776784309 -0.00065162974896590398 0 0.0055755829353018836 -0.0141155314523333 0 -0.03605693154674873 -0.057156805995164553 0 -0.02441262949344182 -0.040596736651524287 0 -0.015737193464539299 -0.0691849616649646 0 -0.02441262949344182 -0.040596736651524287 0 -0.00043252118046987418 -0.034611490377770067 0 -0.001750364537067637 -0.056664560840608419 0 -0.01529010885661245 -0.02031569622661402 0 -0.02441262949344182 -0.040596736651524287 0 -0.00043252118046987418 -0.034611490377770067 0 -0.02441262949344182 -0.040596736651524287 0 -0.001750364537067637 -0.056664560840608419 0 -0.015737193464539299 -0.0691849616649646 0 -0.001750364537067637 -0.056664560840608419 0 -0.0002514379893186573 -0.075417423269466988 0 -0.015737193464539299 -0.0691849616649646 0 -0.0002514379893186573 -0.075417423269466988 0 -0.021811847483507878 -0.093581613891085713 0 -0.0015874377870618421 -0.095350665785740515 0 -0.0002514379893186573 -0.075417423269466988 0 -0.021811847483507878 -0.093581613891085713 0 -0.015737193464539299 -0.0691849616649646 0 -0.021811847483507878 -0.093581613891085713 0 -0.015737193464539299 -0.0691849616649646 0 -0.021811847483507878 -0.093581613891085713 0 -0.015737193464539299 -0.0691849616649646 0 -0.036528651087805147 -0.073772281236862428 0 -0.03605693154674873 -0.057156805995164553 0 -0.015737193464539299 -0.0691849616649646 0 -0.036528651087805147 -0.073772281236862428 0 -0.052873381220645693 -0.06195691564615223 0 -0.03605693154674873 -0.057156805995164553 0 -0.036528651087805147 -0.073772281236862428 0 -0.021811847483507878 -0.093581613891085713 0 -0.036528651087805147 -0.073772281236862428 0 -0.046215360362537053 -0.088947336193189647 0 -0.036528651087805147 -0.073772281236862428 0 -0.046215360362537053 -0.088947336193189647 0 -0.05810128174356112 -0.077955503573252816 0 -0.046215360362537053 -0.088947336193189647 0 -0.05810128174356112 -0.077955503573252816 0 -0.061856559798842838 -0.09460275383904404 0 -0.073864844863472556 -0.070184788028707784 0 -0.052873381220645693 -0.06195691564615223 0 -0.05810128174356112 -0.077955503573252816 0 -0.052873381220645693 -0.06195691564615223 0 -0.036528651087805147 -0.073772281236862428 0 -0.05810128174356112 -0.077955503573252816 0 -0.063466289807052809 -0.1097833579942778 0 -0.04570396557736621 -0.1090137484378317 0 -0.056446284994124123 -0.12581931825358911 0 -0.046215360362537053 -0.088947336193189647 0 -0.061856559798842838 -0.09460275383904404 0 -0.04570396557736621 -0.1090137484378317 0 -0.063466289807052809 -0.1097833579942778 0 -0.061856559798842838 -0.09460275383904404 0 -0.04570396557736621 -0.1090137484378317 0 -0.021811847483507878 -0.093581613891085713 0 -0.04570396557736621 -0.1090137484378317 0 -0.027886501502473949 -0.11797826611720739 0 -0.021811847483507878 -0.093581613891085713 0 -0.046215360362537053 -0.088947336193189647 0 -0.04570396557736621 -0.1090137484378317 0 -0.04570396557736621 -0.1090137484378317 0 -0.027886501502473949 -0.11797826611720739 0 -0.056446284994124123 -0.12581931825358911 0 -0.027886501502473949 -0.11797826611720739 0 -0.056446284994124123 -0.12581931825358911 0 -0.027886501502473949 -0.11797826611720739 0 -0.008133696638513193 -0.1125551587318412 0 -0.027886501502473949 -0.11797826611720739 0 -0.016050595310812859 -0.122780548154297 0 -0.008133696638513193 -0.1125551587318412 0 -0.021811847483507878 -0.093581613891085713 0 -0.027886501502473949 -0.11797826611720739 0 -0.021811847483507878 -0.093581613891085713 0 -0.027886501502473949 -0.11797826611720739 0 -0.008133696638513193 -0.1125551587318412 0 -0.021811847483507878 -0.093581613891085713 0 -0.0015874377870618421 -0.095350665785740515 0 -0.008133696638513193 -0.1125551587318412 0 -0.016050595310812859 -0.122780548154297 0 -0.008133696638513193 -0.1125551587318412 0 -0.0052050146446535051 -0.12567854354915689 0 -0.008133696638513193 -0.1125551587318412 0 -0.0052050146446535051 -0.12567854354915689 0 0.0032915990406413471 -0.12013876224904881 0 -0.0052050146446535051 -0.12567854354915689 0 -0.0089921698897633476 -0.13706810539267611 0 0.0034005497264944389 -0.13210390337836719 0 -0.0089921698897633476 -0.13706810539267611 0 -0.001640428291223236 -0.14298893116563871 0 0.0034005497264944389 -0.13210390337836719 0 -0.0089921698897633476 -0.13706810539267611 0 -0.01971668945117374 -0.13456330460048921 0 -0.018058283833674141 -0.14307941648005179 0 -0.016050595310812859 -0.122780548154297 0 -0.0052050146446535051 -0.12567854354915689 0 -0.01971668945117374 -0.13456330460048921 0 -0.0052050146446535051 -0.12567854354915689 0 -0.0089921698897633476 -0.13706810539267611 0 -0.01971668945117374 -0.13456330460048921 0 -0.0052050146446535051 -0.12567854354915689 0 -0.01971668945117374 -0.13456330460048921 0 -0.01971668945117374 -0.13456330460048921 0 -0.018058283833674141 -0.14307941648005179 0 -0.034228364257698277 -0.14344806565181431 0 -0.027886501502473949 -0.11797826611720739 0 -0.016050595310812859 -0.122780548154297 0 -0.01971668945117374 -0.13456330460048921 0 -0.027886501502473949 -0.11797826611720739 0 -0.034228364257698277 -0.14344806565181431 0 -0.027886501502473949 -0.11797826611720739 0 -0.01971668945117374 -0.13456330460048921 0 -0.034228364257698277 -0.14344806565181431 0 -0.01971668945117374 -0.13456330460048921 0 -0.034228364257698277 -0.14344806565181431 0 -0.018058283833674141 -0.14307941648005179 0 -0.018020843150231971 -0.1569286158232221 0 -0.03393411981121297 -0.1565621721919058 0 -0.018058283833674141 -0.14307941648005179 0 -0.03393411981121297 -0.1565621721919058 0 -0.018058283833674141 -0.14307941648005179 0 -0.03393411981121297 -0.1565621721919058 0 -0.034228364257698277 -0.14344806565181431 0 -0.018058283833674141 -0.14307941648005179 0 -0.0090535424768835165 -0.15175983061208609 0 -0.018020843150231971 -0.1569286158232221 0 -0.018058283833674141 -0.14307941648005179 0 -0.0090535424768835165 -0.15175983061208609 0 -0.0097902968251612418 -0.1439263000845159 0 -0.0089921698897633476 -0.13706810539267611 0 -0.018058283833674141 -0.14307941648005179 0 -0.0097902968251612418 -0.1439263000845159 0 -0.0090535424768835165 -0.15175983061208609 0 -0.0097902968251612418 -0.1439263000845159 0 -0.001640428291223236 -0.14298893116563871 0 -0.0089921698897633476 -0.13706810539267611 0 -0.0097902968251612418 -0.1439263000845159 0 -0.001640428291223236 -0.14298893116563871 0 -0.0090535424768835165 -0.15175983061208609 0 -0.001640428291223236 -0.14298893116563871 0 0.00045122637493126582 -0.1517854916873472 0 -0.0027688611566753511 -0.16547946392012511 0 -0.026289408472713851 -0.1677621959119418 0 -0.0090535424768835165 -0.15175983061208609 0 -0.0027688611566753511 -0.16547946392012511 0 0.00045122637493126582 -0.1517854916873472 0 -0.0027688611566753511 -0.16547946392012511 0 -0.0038820050864728159 -0.17438656047261319 0 0.0034042302756566991 -0.17156407370405879 0 -0.0090535424768835165 -0.15175983061208609 0 -0.0027688611566753511 -0.16547946392012511 0 -0.018020843150231971 -0.1569286158232221 0 -0.0027688611566753511 -0.16547946392012511 0 -0.01064650726193766 -0.17677351182160461 0 -0.01913698868844212 -0.17357060608529171 0 -0.0031096235657068231 -0.1832290674025823 0 -0.007342579300516656 -0.1892231862614738 0 0.003257493952261509 -0.18147577808863569 0 -0.0067288664204063434 -0.18491785183369891 0 -0.0092164902495854503 -0.18711137100755079 0 -0.007342579300516656 -0.1892231862614738 0 -0.0067288664204063434 -0.18491785183369891 0 -0.0031096235657068231 -0.1832290674025823 0 -0.007342579300516656 -0.1892231862614738 0 -0.0031096235657068231 -0.1832290674025823 0 -0.00017808415058946159 -0.180051680557515 0 0.003257493952261509 -0.18147577808863569 0 -0.0031096235657068231 -0.1832290674025823 0 -0.00017808415058946159 -0.180051680557515 0 -0.0050353349133082041 -0.1798768221728208 0 -0.0067288664204063434 -0.18491785183369891 0 -0.0031096235657068231 -0.1832290674025823 0 -0.0050353349133082041 -0.1798768221728208 0 -0.0067288664204063434 -0.18491785183369891 0 -0.0050353349133082041 -0.1798768221728208 0 -0.010168146529277441 -0.18290725334923361 0 -0.0027688611566753511 -0.16547946392012511 0 -0.0038820050864728159 -0.17438656047261319 0 -0.01064650726193766 -0.17677351182160461 0 -0.0050353349133082041 -0.1798768221728208 0 -0.0038820050864728159 -0.17438656047261319 0 -0.01064650726193766 -0.17677351182160461 0 -0.0050353349133082041 -0.1798768221728208 0 -0.0006421463779544927 -0.17749117828634089 0 -0.0038820050864728159 -0.17438656047261319 0 -0.00017808415058946159 -0.180051680557515 0 -0.0050353349133082041 -0.1798768221728208 0 -0.0006421463779544927 -0.17749117828634089 0 -0.0006421463779544927 -0.17749117828634089 0 -0.0038820050864728159 -0.17438656047261319 0 0.0034042302756566991 -0.17156407370405879 0 -0.01064650726193766 -0.17677351182160461 0 -0.014919332477866649 -0.18214913508033209 0 -0.018614881981521059 -0.17904474167081569 0 -0.0050353349133082041 -0.1798768221728208 0 -0.01064650726193766 -0.17677351182160461 0 -0.010168146529277441 -0.18290725334923361 0 -0.01064650726193766 -0.17677351182160461 0 -0.010168146529277441 -0.18290725334923361 0 -0.014919332477866649 -0.18214913508033209 0 -0.010168146529277441 -0.18290725334923361 0 -0.014919332477866649 -0.18214913508033209 0 -0.012279160971385209 -0.18720193315791761 0 -0.014919332477866649 -0.18214913508033209 0 -0.012279160971385209 -0.18720193315791761 0 -0.016772175557186731 -0.18802732735185021 0 -0.010168146529277441 -0.18290725334923361 0 -0.012279160971385209 -0.18720193315791761 0 -0.0092164902495854503 -0.18711137100755079 0 -0.0067288664204063434 -0.18491785183369891 0 -0.010168146529277441 -0.18290725334923361 0 -0.0092164902495854503 -0.18711137100755079 0 -0.02073394578081407 -0.18500573308868171 0 -0.026936604270934909 -0.18607830366580941 0 -0.02141147142097545 -0.18982890238356309 0 -0.014919332477866649 -0.18214913508033209 0 -0.02073394578081407 -0.18500573308868171 0 -0.016772175557186731 -0.18802732735185021 0 -0.014919332477866649 -0.18214913508033209 0 -0.02073394578081407 -0.18500573308868171 0 -0.018614881981521059 -0.17904474167081569 0 -0.02073394578081407 -0.18500573308868171 0 -0.018614881981521059 -0.17904474167081569 0 -0.02568792105375681 -0.17919338719032971 0 -0.01064650726193766 -0.17677351182160461 0 -0.018614881981521059 -0.17904474167081569 0 -0.01913698868844212 -0.17357060608529171 0 -0.018614881981521059 -0.17904474167081569 0 -0.01913698868844212 -0.17357060608529171 0 -0.02568792105375681 -0.17919338719032971 0 -0.02568792105375681 -0.17919338719032971 0 -0.026289408472713851 -0.1677621959119418 0 -0.03192460903298143 -0.1756515462436932 0 -0.01913698868844212 -0.17357060608529171 0 -0.02568792105375681 -0.17919338719032971 0 -0.026289408472713851 -0.1677621959119418 0 -0.02568792105375681 -0.17919338719032971 0 -0.03200085465948186 -0.18100246420087121 0 -0.03192460903298143 -0.1756515462436932 0 -0.02073394578081407 -0.18500573308868171 0 -0.02568792105375681 -0.17919338719032971 0 -0.026936604270934909 -0.18607830366580941 0 -0.02568792105375681 -0.17919338719032971 0 -0.026936604270934909 -0.18607830366580941 0 -0.03200085465948186 -0.18100246420087121 0 -0.026936604270934909 -0.18607830366580941 0 -0.033183369547345201 -0.18656951182620299 0 -0.03200085465948186 -0.18100246420087121 0 -0.026936604270934909 -0.18607830366580941 0 -0.033183369547345201 -0.18656951182620299 0 -0.02978272146277474 -0.18976693007477111 0 -0.018020843150231971 -0.1569286158232221 0 -0.026289408472713851 -0.1677621959119418 0 -0.03393411981121297 -0.1565621721919058 0 -0.0027688611566753511 -0.16547946392012511 0 -0.018020843150231971 -0.1569286158232221 0 -0.026289408472713851 -0.1677621959119418 0 -0.0027688611566753511 -0.16547946392012511 0 -0.01913698868844212 -0.17357060608529171 0 -0.026289408472713851 -0.1677621959119418 0 -0.026289408472713851 -0.1677621959119418 0 -0.04980995578875233 -0.17004492790375911 0 -0.026289408472713851 -0.1677621959119418 0 -0.03393411981121297 -0.1565621721919058 0 -0.04980995578875233 -0.17004492790375911 0 -0.03393411981121297 -0.1565621721919058 0 -0.04980995578875233 -0.17004492790375911 0 -0.026289408472713851 -0.1677621959119418 0 -0.037904366820075731 -0.17269607160636111 0 -0.04980995578875233 -0.17004492790375911 0 -0.03393411981121297 -0.1565621721919058 0 -0.045228189205806929 -0.16209044188425409 0 -0.037185348172140351 -0.1553237227630378 0 -0.03393411981121297 -0.1565621721919058 0 -0.045228189205806929 -0.16209044188425409 0 -0.04980995578875233 -0.17004492790375911 0 -0.045228189205806929 -0.16209044188425409 0 -0.046817800716654617 -0.15983703296686019 0 -0.037185348172140351 -0.1553237227630378 0 -0.037015057127136097 -0.18335055848230039 0 -0.041369936233003703 -0.1854726361307498 0 -0.037414156169678199 -0.18869402392146281 0 -0.033183369547345201 -0.18656951182620299 0 -0.037015057127136097 -0.18335055848230039 0 -0.037414156169678199 -0.18869402392146281 0 -0.033183369547345201 -0.18656951182620299 0 -0.03200085465948186 -0.18100246420087121 0 -0.037015057127136097 -0.18335055848230039 0 -0.03200085465948186 -0.18100246420087121 0 -0.037015057127136097 -0.18335055848230039 0 -0.037740494158878923 -0.17760361230896221 0 -0.037015057127136097 -0.18335055848230039 0 -0.037740494158878923 -0.17760361230896221 0 -0.041854603540123492 -0.18044201644421179 0 -0.026289408472713851 -0.1677621959119418 0 -0.03192460903298143 -0.1756515462436932 0 -0.037904366820075731 -0.17269607160636111 0 -0.03200085465948186 -0.18100246420087121 0 -0.037740494158878923 -0.17760361230896221 0 -0.03192460903298143 -0.1756515462436932 0 -0.037740494158878923 -0.17760361230896221 0 -0.03192460903298143 -0.1756515462436932 0 -0.037904366820075731 -0.17269607160636111 0 -0.037904366820075731 -0.17269607160636111 0 -0.044140660540730688 -0.17482468075349841 0 -0.04980995578875233 -0.17004492790375911 0 -0.037740494158878923 -0.17760361230896221 0 -0.037904366820075731 -0.17269607160636111 0 -0.044140660540730688 -0.17482468075349841 0 -0.044140660540730688 -0.17482468075349841 0 -0.04544277194833779 -0.17839083575996181 0 -0.041854603540123492 -0.18044201644421179 0 -0.044140660540730688 -0.17482468075349841 0 -0.04544277194833779 -0.17839083575996181 0 -0.047941022072029708 -0.17464225292673249 0 -0.037740494158878923 -0.17760361230896221 0 -0.044140660540730688 -0.17482468075349841 0 -0.041854603540123492 -0.18044201644421179 0 -0.037015057127136097 -0.18335055848230039 0 -0.041854603540123492 -0.18044201644421179 0 -0.041369936233003703 -0.1854726361307498 0 -0.041854603540123492 -0.18044201644421179 0 -0.045418701232653742 -0.18300977522979861 0 -0.041369936233003703 -0.1854726361307498 0 -0.04544277194833779 -0.17839083575996181 0 -0.041854603540123492 -0.18044201644421179 0 -0.045418701232653742 -0.18300977522979861 0 -0.04544277194833779 -0.17839083575996181 0 -0.045418701232653742 -0.18300977522979861 0 -0.048327191798776092 -0.18020506901123409 0 -0.045418701232653742 -0.18300977522979861 0 -0.041369936233003703 -0.1854726361307498 0 -0.046576407335472102 -0.19076878213383011 0 -0.053327970756512279 -0.1808160991570085 0 -0.055458074386699821 -0.1906827592054311 0 -0.069521031356814797 -0.18678480963837099 0 -0.04980995578875233 -0.17004492790375911 0 -0.051770486669383678 -0.1702352026665872 0 -0.069521031356814797 -0.18678480963837099 0 -0.06103737529912201 -0.1729423476266603 0 -0.051770486669383678 -0.1702352026665872 0 -0.069521031356814797 -0.18678480963837099 0 -0.04980995578875233 -0.17004492790375911 0 -0.069521031356814797 -0.18678480963837099 0 -0.053327970756512279 -0.1808160991570085 0 -0.04980995578875233 -0.17004492790375911 0 -0.069521031356814797 -0.18678480963837099 0 -0.049505492984346949 -0.1841663819826688 0 -0.053327970756512279 -0.1808160991570085 0 -0.055458074386699821 -0.1906827592054311 0 -0.045418701232653742 -0.18300977522979861 0 -0.049505492984346949 -0.1841663819826688 0 -0.046576407335472102 -0.19076878213383011 0 -0.045418701232653742 -0.18300977522979861 0 -0.049505492984346949 -0.1841663819826688 0 -0.048327191798776092 -0.18020506901123409 0 -0.049505492984346949 -0.1841663819826688 0 -0.048327191798776092 -0.18020506901123409 0 -0.053327970756512279 -0.1808160991570085 0 -0.053327970756512279 -0.1808160991570085 0 -0.047941022072029708 -0.17464225292673249 0 -0.04980995578875233 -0.17004492790375911 0 -0.04544277194833779 -0.17839083575996181 0 -0.048327191798776092 -0.18020506901123409 0 -0.047941022072029708 -0.17464225292673249 0 -0.048327191798776092 -0.18020506901123409 0 -0.053327970756512279 -0.1808160991570085 0 -0.047941022072029708 -0.17464225292673249 0 -0.044140660540730688 -0.17482468075349841 0 -0.047941022072029708 -0.17464225292673249 0 -0.04980995578875233 -0.17004492790375911 0 -0.046817800716654617 -0.15983703296686019 0 -0.052515215857528871 -0.163895574529072 0 -0.057197782524140671 -0.1575110732306427 0 -0.045228189205806929 -0.16209044188425409 0 -0.046817800716654617 -0.15983703296686019 0 -0.052515215857528871 -0.163895574529072 0 -0.045228189205806929 -0.16209044188425409 0 -0.04980995578875233 -0.17004492790375911 0 -0.051106694888552483 -0.16687922095088989 0 -0.045228189205806929 -0.16209044188425409 0 -0.052515215857528871 -0.163895574529072 0 -0.051106694888552483 -0.16687922095088989 0 -0.051770486669383678 -0.1702352026665872 0 -0.051106694888552483 -0.16687922095088989 0 -0.055093050665404222 -0.1678343829492587 0 -0.04980995578875233 -0.17004492790375911 0 -0.051770486669383678 -0.1702352026665872 0 -0.04980995578875233 -0.17004492790375911 0 -0.051770486669383678 -0.1702352026665872 0 -0.051106694888552483 -0.16687922095088989 0 -0.052515215857528871 -0.163895574529072 0 -0.051106694888552483 -0.16687922095088989 0 -0.055093050665404222 -0.1678343829492587 0 -0.06103737529912201 -0.1729423476266603 0 -0.051770486669383678 -0.1702352026665872 0 -0.055093050665404222 -0.1678343829492587 0 -0.05788862785000512 -0.1659819191120212 0 -0.057197782524140671 -0.1575110732306427 0 -0.06468275725977285 -0.16891738274316709 0 -0.052515215857528871 -0.163895574529072 0 -0.05788862785000512 -0.1659819191120212 0 -0.055093050665404222 -0.1678343829492587 0 -0.06103737529912201 -0.1729423476266603 0 -0.05788862785000512 -0.1659819191120212 0 -0.055093050665404222 -0.1678343829492587 0 -0.06103737529912201 -0.1729423476266603 0 -0.05788862785000512 -0.1659819191120212 0 -0.06468275725977285 -0.16891738274316709 0 -0.052515215857528871 -0.163895574529072 0 -0.05788862785000512 -0.1659819191120212 0 -0.057197782524140671 -0.1575110732306427 0 -0.057197782524140671 -0.1575110732306427 0 -0.056446284994124123 -0.12581931825358911 0 -0.034228364257698277 -0.14344806565181431 0 -0.027886501502473949 -0.11797826611720739 0 -0.056446284994124123 -0.12581931825358911 0 -0.034228364257698277 -0.14344806565181431 0 -0.046817800716654617 -0.15983703296686019 0 -0.034228364257698277 -0.14344806565181431 0 -0.037185348172140351 -0.1553237227630378 0 -0.057197782524140671 -0.1575110732306427 0 -0.034228364257698277 -0.14344806565181431 0 -0.046817800716654617 -0.15983703296686019 0 -0.057197782524140671 -0.1575110732306427 0 -0.034228364257698277 -0.14344806565181431 0 -0.03393411981121297 -0.1565621721919058 0 -0.034228364257698277 -0.14344806565181431 0 -0.037185348172140351 -0.1553237227630378 0 -0.034228364257698277 -0.14344806565181431 0 -0.037185348172140351 -0.1553237227630378 0 -0.024328959657438708 -0.25179890456559662 0 -0.029615667748708059 -0.242670836030698 0 -0.021966508334639031 -0.24375101850650649 0 -0.029615667748708059 -0.242670836030698 0 -0.026883145766209239 -0.23737823628406579 0 -0.033626603137690579 -0.23680009654115211 0 -0.026883145766209239 -0.23737823628406579 0 -0.02884459433650547 -0.23117558869259611 0 -0.033626603137690579 -0.23680009654115211 0 -0.026883145766209239 -0.23737823628406579 0 -0.021077628897814359 -0.23620279562940991 0 -0.02368397667512968 -0.23106787428453551 0 -0.029615667748708059 -0.242670836030698 0 -0.026883145766209239 -0.23737823628406579 0 -0.021966508334639031 -0.24375101850650649 0 -0.021077628897814359 -0.23620279562940991 0 -0.01550471329414861 -0.238287976188615 0 -0.016175426740368339 -0.22967778828145741 0 -0.026883145766209239 -0.23737823628406579 0 -0.021077628897814359 -0.23620279562940991 0 -0.021966508334639031 -0.24375101850650649 0 -0.021077628897814359 -0.23620279562940991 0 -0.021966508334639031 -0.24375101850650649 0 -0.01550471329414861 -0.238287976188615 0 -0.021966508334639031 -0.24375101850650649 0 -0.014340942132374581 -0.2497701290103469 0 -0.014545651351128799 -0.24466588065314929 0 -0.021966508334639031 -0.24375101850650649 0 -0.014545651351128799 -0.24466588065314929 0 -0.01550471329414861 -0.238287976188615 0 -0.024328959657438708 -0.25179890456559662 0 -0.021966508334639031 -0.24375101850650649 0 -0.014340942132374581 -0.2497701290103469 0 -0.014340942132374581 -0.2497701290103469 0 -0.014545651351128799 -0.24466588065314929 0 -0.0073484280457504856 -0.24831973741600649 0 -0.014545651351128799 -0.24466588065314929 0 -0.0073484280457504856 -0.24831973741600649 0 -0.0098115646819200483 -0.2409875420615534 0 -0.0073484280457504856 -0.24831973741600649 0 -0.0029655673411040501 -0.24059911158531699 0 0.0027424099200005921 -0.2488067507453634 0 -0.0073484280457504856 -0.24831973741600649 0 -0.0029655673411040501 -0.24059911158531699 0 -0.0098115646819200483 -0.2409875420615534 0 -0.0029655673411040501 -0.24059911158531699 0 -0.0096509830173244285 -0.23480541819301781 0 -0.0026494742258749118 -0.22970021828591161 0 -0.0029655673411040501 -0.24059911158531699 0 -0.0096509830173244285 -0.23480541819301781 0 -0.0098115646819200483 -0.2409875420615534 0 -0.0096509830173244285 -0.23480541819301781 0 -0.0098115646819200483 -0.2409875420615534 0 -0.01550471329414861 -0.238287976188615 0 -0.014545651351128799 -0.24466588065314929 0 -0.0098115646819200483 -0.2409875420615534 0 -0.01550471329414861 -0.238287976188615 0 -0.0096509830173244285 -0.23480541819301781 0 -0.0096759769281316958 -0.22947538371304421 0 -0.016175426740368339 -0.22967778828145741 0 -0.0096509830173244285 -0.23480541819301781 0 -0.01550471329414861 -0.238287976188615 0 -0.016175426740368339 -0.22967778828145741 0 -0.0096759769281316958 -0.22947538371304421 0 -0.010228023728959109 -0.22371811009179021 0 -0.016175426740368339 -0.22967778828145741 0 -0.0096509830173244285 -0.23480541819301781 0 -0.0096759769281316958 -0.22947538371304421 0 -0.0026494742258749118 -0.22970021828591161 0 -0.0096759769281316958 -0.22947538371304421 0 -0.0026494742258749118 -0.22970021828591161 0 -0.010228023728959109 -0.22371811009179021 0 -0.0013284026811626879 -0.2209097724625754 0 -0.010228023728959109 -0.22371811009179021 0 -0.0085935778335595771 -0.2170438865676462 0 -0.0026494742258749118 -0.22970021828591161 0 -0.0013284026811626879 -0.2209097724625754 0 -0.010228023728959109 -0.22371811009179021 0 -0.010228023728959109 -0.22371811009179021 0 -0.015712528465654779 -0.21714488977699439 0 -0.0085935778335595771 -0.2170438865676462 0 -0.010228023728959109 -0.22371811009179021 0 -0.017698357789384798 -0.22258634276379191 0 -0.016175426740368339 -0.22967778828145741 0 -0.010228023728959109 -0.22371811009179021 0 -0.017698357789384798 -0.22258634276379191 0 -0.015712528465654779 -0.21714488977699439 0 -0.017698357789384798 -0.22258634276379191 0 -0.02038996163505323 -0.21816857886943139 0 -0.015712528465654779 -0.21714488977699439 0 -0.021194341590998599 -0.22185395915208911 0 -0.024496267692127129 -0.22103971637270281 0 -0.02038996163505323 -0.21816857886943139 0 -0.017698357789384798 -0.22258634276379191 0 -0.021194341590998599 -0.22185395915208911 0 -0.02038996163505323 -0.21816857886943139 0 -0.017698357789384798 -0.22258634276379191 0 -0.021194341590998599 -0.22185395915208911 0 -0.02219277924742926 -0.2256211986024303 0 -0.021194341590998599 -0.22185395915208911 0 -0.02219277924742926 -0.2256211986024303 0 -0.024496267692127129 -0.22103971637270281 0 -0.017698357789384798 -0.22258634276379191 0 -0.02219277924742926 -0.2256211986024303 0 -0.016175426740368339 -0.22967778828145741 0 -0.021077628897814359 -0.23620279562940991 0 -0.016175426740368339 -0.22967778828145741 0 -0.02368397667512968 -0.23106787428453551 0 -0.02219277924742926 -0.2256211986024303 0 -0.016175426740368339 -0.22967778828145741 0 -0.02368397667512968 -0.23106787428453551 0 -0.02368397667512968 -0.23106787428453551 0 -0.02884459433650547 -0.23117558869259611 0 -0.026808557917059161 -0.2262222008170027 0 -0.02219277924742926 -0.2256211986024303 0 -0.02368397667512968 -0.23106787428453551 0 -0.026808557917059161 -0.2262222008170027 0 -0.026883145766209239 -0.23737823628406579 0 -0.02368397667512968 -0.23106787428453551 0 -0.02884459433650547 -0.23117558869259611 0 -0.02884459433650547 -0.23117558869259611 0 -0.026808557917059161 -0.2262222008170027 0 -0.031842935957061877 -0.2238901615541907 0 -0.024496267692127129 -0.22103971637270281 0 -0.026808557917059161 -0.2262222008170027 0 -0.031842935957061877 -0.2238901615541907 0 -0.024496267692127129 -0.22103971637270281 0 -0.020026694420999299 -0.21491605829210711 0 -0.031842935957061877 -0.2238901615541907 0 -0.02219277924742926 -0.2256211986024303 0 -0.024496267692127129 -0.22103971637270281 0 -0.026808557917059161 -0.2262222008170027 0 -0.018664586002410759 -0.20438136336391269 0 -0.019389365815490459 -0.20175303568070599 0 -0.031730890461941517 -0.2180338704092912 0 -0.024702411312321381 -0.2042914479289393 0 -0.019389365815490459 -0.20175303568070599 0 -0.031730890461941517 -0.2180338704092912 0 -0.018664586002410759 -0.20438136336391269 0 -0.031842935957061877 -0.2238901615541907 0 -0.018664586002410759 -0.20438136336391269 0 -0.020026694420999299 -0.21491605829210711 0 -0.031842935957061877 -0.2238901615541907 0 -0.018664586002410759 -0.20438136336391269 0 -0.031730890461941517 -0.2180338704092912 0 -0.031842935957061877 -0.2238901615541907 0 -0.018664586002410759 -0.20438136336391269 0 -0.031730890461941517 -0.2180338704092912 0 -0.027671576193470951 -0.20497268734140819 0 -0.024702411312321381 -0.2042914479289393 0 -0.031730890461941517 -0.2180338704092912 0 -0.027671576193470951 -0.20497268734140819 0 -0.032966677327077053 -0.2084538304795539 0 -0.031730890461941517 -0.2180338704092912 0 -0.027671576193470951 -0.20497268734140819 0 -0.03279537493061848 -0.20298429661216391 0 -0.032966677327077053 -0.2084538304795539 0 -0.027671576193470951 -0.20497268734140819 0 -0.024702411312321381 -0.2042914479289393 0 -0.026245554426472952 -0.20052173871514761 0 -0.018664586002410759 -0.20438136336391269 0 -0.020026694420999299 -0.21491605829210711 0 -0.015219093052780189 -0.20770714006220781 0 -0.018664586002410759 -0.20438136336391269 0 -0.015219093052780189 -0.20770714006220781 0 -0.01382589713806873 -0.20321663163170761 0 -0.020026694420999299 -0.21491605829210711 0 -0.01398295827215486 -0.2119643035215604 0 -0.015219093052780189 -0.20770714006220781 0 -0.020026694420999299 -0.21491605829210711 0 -0.015712528465654779 -0.21714488977699439 0 -0.01398295827215486 -0.2119643035215604 0 -0.024496267692127129 -0.22103971637270281 0 -0.020026694420999299 -0.21491605829210711 0 -0.02038996163505323 -0.21816857886943139 0 -0.020026694420999299 -0.21491605829210711 0 -0.02038996163505323 -0.21816857886943139 0 -0.015712528465654779 -0.21714488977699439 0 -0.015712528465654779 -0.21714488977699439 0 -0.01398295827215486 -0.2119643035215604 0 -0.0085935778335595771 -0.2170438865676462 0 -0.01398295827215486 -0.2119643035215604 0 -0.0084493139324373669 -0.21188626021412779 0 -0.0085935778335595771 -0.2170438865676462 0 -0.0013284026811626879 -0.2209097724625754 0 -0.0085935778335595771 -0.2170438865676462 0 -0.0026912027171646269 -0.21330690576901629 0 -0.0084493139324373669 -0.21188626021412779 0 -0.0026912027171646269 -0.21330690576901629 0 -0.0046689726200419947 -0.2088318381815904 0 -0.0084493139324373669 -0.21188626021412779 0 -0.0085935778335595771 -0.2170438865676462 0 -0.0026912027171646269 -0.21330690576901629 0 -0.00422648146048235 -0.20485498171457911 0 -0.0099018299052847369 -0.2076623327034523 0 -0.004265803062902156 -0.19941807724689919 0 -0.00422648146048235 -0.20485498171457911 0 0.0018111664139575849 -0.19828088940286809 0 0.00192396491515911 -0.2064487105067766 0 -0.0046689726200419947 -0.2088318381815904 0 -0.00422648146048235 -0.20485498171457911 0 0.00192396491515911 -0.2064487105067766 0 -0.0026912027171646269 -0.21330690576901629 0 -0.0046689726200419947 -0.2088318381815904 0 0.00192396491515911 -0.2064487105067766 0 -0.0046689726200419947 -0.2088318381815904 0 -0.00422648146048235 -0.20485498171457911 0 -0.0099018299052847369 -0.2076623327034523 0 -0.0084493139324373669 -0.21188626021412779 0 -0.0046689726200419947 -0.2088318381815904 0 -0.0099018299052847369 -0.2076623327034523 0 -0.0099018299052847369 -0.2076623327034523 0 -0.01382589713806873 -0.20321663163170761 0 -0.004265803062902156 -0.19941807724689919 0 -0.01398295827215486 -0.2119643035215604 0 -0.0084493139324373669 -0.21188626021412779 0 -0.0099018299052847369 -0.2076623327034523 0 -0.01398295827215486 -0.2119643035215604 0 -0.0099018299052847369 -0.2076623327034523 0 -0.015219093052780189 -0.20770714006220781 0 -0.0099018299052847369 -0.2076623327034523 0 -0.015219093052780189 -0.20770714006220781 0 -0.01382589713806873 -0.20321663163170761 0 -0.01423669825484003 -0.19975482424896349 0 -0.007342579300516656 -0.1892231862614738 0 0.003257493952261509 -0.18147577808863569 0 -0.01423669825484003 -0.19975482424896349 0 0.0048140267753674498 -0.18307555078188911 0 0.003257493952261509 -0.18147577808863569 0 -0.01423669825484003 -0.19975482424896349 0 0.003257493952261509 -0.18147577808863569 0 -0.01382589713806873 -0.20321663163170761 0 -0.01423669825484003 -0.19975482424896349 0 0.0048140267753674498 -0.18307555078188911 0 -0.018664586002410759 -0.20438136336391269 0 -0.01382589713806873 -0.20321663163170761 0 -0.01423669825484003 -0.19975482424896349 0 -0.01382589713806873 -0.20321663163170761 0 0.0048140267753674498 -0.18307555078188911 0 -0.01382589713806873 -0.20321663163170761 0 -0.004265803062902156 -0.19941807724689919 0 0.0048140267753674498 -0.18307555078188911 0 -0.01423669825484003 -0.19975482424896349 0 -0.0120155712080119 -0.1937287898390127 0 -0.01500507399674678 -0.19484886310145169 0 -0.00422648146048235 -0.20485498171457911 0 -0.004265803062902156 -0.19941807724689919 0 0.0018111664139575849 -0.19828088940286809 0 -0.01423669825484003 -0.19975482424896349 0 -0.007342579300516656 -0.1892231862614738 0 -0.0120155712080119 -0.1937287898390127 0 -0.0092164902495854503 -0.18711137100755079 0 -0.007342579300516656 -0.1892231862614738 0 -0.010945451204904821 -0.1897164840473172 0 -0.007342579300516656 -0.1892231862614738 0 -0.010945451204904821 -0.1897164840473172 0 -0.0120155712080119 -0.1937287898390127 0 -0.012279160971385209 -0.18720193315791761 0 -0.0092164902495854503 -0.18711137100755079 0 -0.010945451204904821 -0.1897164840473172 0 -0.010945451204904821 -0.1897164840473172 0 -0.0120155712080119 -0.1937287898390127 0 -0.013873454295024861 -0.19131713997063129 0 -0.0120155712080119 -0.1937287898390127 0 -0.01500507399674678 -0.19484886310145169 0 -0.013873454295024861 -0.19131713997063129 0 -0.01500507399674678 -0.19484886310145169 0 -0.013873454295024861 -0.19131713997063129 0 -0.017415688397054142 -0.19266112042997571 0 -0.012279160971385209 -0.18720193315791761 0 -0.010945451204904821 -0.1897164840473172 0 -0.013873454295024861 -0.19131713997063129 0 -0.012279160971385209 -0.18720193315791761 0 -0.013873454295024861 -0.19131713997063129 0 -0.016772175557186731 -0.18802732735185021 0 -0.016772175557186731 -0.18802732735185021 0 -0.02141147142097545 -0.18982890238356309 0 -0.017415688397054142 -0.19266112042997571 0 -0.013873454295024861 -0.19131713997063129 0 -0.016772175557186731 -0.18802732735185021 0 -0.017415688397054142 -0.19266112042997571 0 -0.02073394578081407 -0.18500573308868171 0 -0.016772175557186731 -0.18802732735185021 0 -0.02141147142097545 -0.18982890238356309 0 -0.02141147142097545 -0.18982890238356309 0 -0.02177156313692968 -0.19409732924201781 0 -0.017415688397054142 -0.19266112042997571 0 -0.02141147142097545 -0.18982890238356309 0 -0.02177156313692968 -0.19409732924201781 0 -0.0260558968201807 -0.19142235018473669 0 -0.01500507399674678 -0.19484886310145169 0 -0.017415688397054142 -0.19266112042997571 0 -0.017917573132768261 -0.19683124289600001 0 -0.02177156313692968 -0.19409732924201781 0 -0.017415688397054142 -0.19266112042997571 0 -0.017917573132768261 -0.19683124289600001 0 -0.01423669825484003 -0.19975482424896349 0 -0.01500507399674678 -0.19484886310145169 0 -0.017917573132768261 -0.19683124289600001 0 -0.018664586002410759 -0.20438136336391269 0 -0.01423669825484003 -0.19975482424896349 0 -0.01423669825484003 -0.19975482424896349 0 -0.017917573132768261 -0.19683124289600001 0 -0.019389365815490459 -0.20175303568070599 0 -0.018664586002410759 -0.20438136336391269 0 -0.01423669825484003 -0.19975482424896349 0 -0.019389365815490459 -0.20175303568070599 0 -0.024702411312321381 -0.2042914479289393 0 -0.019389365815490459 -0.20175303568070599 0 -0.022255913544606501 -0.1985534006359822 0 -0.02177156313692968 -0.19409732924201781 0 -0.017917573132768261 -0.19683124289600001 0 -0.022255913544606501 -0.1985534006359822 0 -0.017917573132768261 -0.19683124289600001 0 -0.019389365815490459 -0.20175303568070599 0 -0.022255913544606501 -0.1985534006359822 0 -0.02177156313692968 -0.19409732924201781 0 -0.022255913544606501 -0.1985534006359822 0 -0.026743446310808279 -0.19645592955029709 0 -0.022255913544606501 -0.1985534006359822 0 -0.026743446310808279 -0.19645592955029709 0 -0.026245554426472952 -0.20052173871514761 0 -0.024702411312321381 -0.2042914479289393 0 -0.022255913544606501 -0.1985534006359822 0 -0.026245554426472952 -0.20052173871514761 0 -0.027671576193470951 -0.20497268734140819 0 -0.026245554426472952 -0.20052173871514761 0 -0.029832702314835959 -0.20044125636058949 0 -0.027671576193470951 -0.20497268734140819 0 -0.029832702314835959 -0.20044125636058949 0 -0.03279537493061848 -0.20298429661216391 0 -0.026743446310808279 -0.19645592955029709 0 -0.029832702314835959 -0.20044125636058949 0 -0.031491194028504192 -0.19678155059836791 0 -0.026743446310808279 -0.19645592955029709 0 -0.026245554426472952 -0.20052173871514761 0 -0.029832702314835959 -0.20044125636058949 0 -0.026743446310808279 -0.19645592955029709 0 -0.029606006568359329 -0.1934112214689773 0 -0.031491194028504192 -0.19678155059836791 0 -0.029606006568359329 -0.1934112214689773 0 -0.02978272146277474 -0.18976693007477111 0 -0.033684783567663822 -0.1921537676945522 0 -0.026743446310808279 -0.19645592955029709 0 -0.029606006568359329 -0.1934112214689773 0 -0.0260558968201807 -0.19142235018473669 0 -0.029606006568359329 -0.1934112214689773 0 -0.02978272146277474 -0.18976693007477111 0 -0.0260558968201807 -0.19142235018473669 0 -0.026936604270934909 -0.18607830366580941 0 -0.02978272146277474 -0.18976693007477111 0 -0.0260558968201807 -0.19142235018473669 0 -0.026936604270934909 -0.18607830366580941 0 -0.02141147142097545 -0.18982890238356309 0 -0.0260558968201807 -0.19142235018473669 0 -0.02177156313692968 -0.19409732924201781 0 -0.026743446310808279 -0.19645592955029709 0 -0.0260558968201807 -0.19142235018473669 0 -0.038446470788322043 -0.19297790387684291 0 -0.033684783567663822 -0.1921537676945522 0 -0.035750921218810981 -0.19656318299576589 0 -0.038446470788322043 -0.19297790387684291 0 -0.037414156169678199 -0.18869402392146281 0 -0.033684783567663822 -0.1921537676945522 0 -0.033183369547345201 -0.18656951182620299 0 -0.02978272146277474 -0.18976693007477111 0 -0.033684783567663822 -0.1921537676945522 0 -0.033183369547345201 -0.18656951182620299 0 -0.037414156169678199 -0.18869402392146281 0 -0.033684783567663822 -0.1921537676945522 0 -0.033684783567663822 -0.1921537676945522 0 -0.031491194028504192 -0.19678155059836791 0 -0.035750921218810981 -0.19656318299576589 0 -0.029606006568359329 -0.1934112214689773 0 -0.033684783567663822 -0.1921537676945522 0 -0.031491194028504192 -0.19678155059836791 0 -0.031491194028504192 -0.19678155059836791 0 -0.03384732001094571 -0.19953664186705669 0 -0.035750921218810981 -0.19656318299576589 0 -0.029832702314835959 -0.20044125636058949 0 -0.031491194028504192 -0.19678155059836791 0 -0.03384732001094571 -0.19953664186705669 0 -0.03384732001094571 -0.19953664186705669 0 -0.03279537493061848 -0.20298429661216391 0 -0.037357712316489329 -0.2006914889404092 0 -0.029832702314835959 -0.20044125636058949 0 -0.03384732001094571 -0.19953664186705669 0 -0.03279537493061848 -0.20298429661216391 0 -0.037357712316489329 -0.2006914889404092 0 -0.041295953416330203 -0.20258819577630621 0 -0.036691340706434358 -0.2054355018369699 0 -0.03279537493061848 -0.20298429661216391 0 -0.037357712316489329 -0.2006914889404092 0 -0.036691340706434358 -0.2054355018369699 0 -0.038446470788322043 -0.19297790387684291 0 -0.035750921218810981 -0.19656318299576589 0 -0.040443518644892117 -0.19741777672439939 0 -0.03384732001094571 -0.19953664186705669 0 -0.037357712316489329 -0.2006914889404092 0 -0.035750921218810981 -0.19656318299576589 0 -0.037357712316489329 -0.2006914889404092 0 -0.035750921218810981 -0.19656318299576589 0 -0.040443518644892117 -0.19741777672439939 0 -0.040443518644892117 -0.19741777672439939 0 -0.045353776176610919 -0.19807082671649079 0 -0.042445485698311518 -0.1939056203395991 0 -0.040443518644892117 -0.19741777672439939 0 -0.041295953416330203 -0.20258819577630621 0 -0.045353776176610919 -0.19807082671649079 0 -0.037357712316489329 -0.2006914889404092 0 -0.040443518644892117 -0.19741777672439939 0 -0.041295953416330203 -0.20258819577630621 0 -0.041295953416330203 -0.20258819577630621 0 -0.045353776176610919 -0.19807082671649079 0 -0.04690381731991123 -0.205383164961294 0 -0.042445485698311518 -0.1939056203395991 0 -0.041407255546260402 -0.19029281224643249 0 -0.046576407335472102 -0.19076878213383011 0 -0.045353776176610919 -0.19807082671649079 0 -0.042445485698311518 -0.1939056203395991 0 -0.046576407335472102 -0.19076878213383011 0 -0.038446470788322043 -0.19297790387684291 0 -0.042445485698311518 -0.1939056203395991 0 -0.041407255546260402 -0.19029281224643249 0 -0.038446470788322043 -0.19297790387684291 0 -0.040443518644892117 -0.19741777672439939 0 -0.042445485698311518 -0.1939056203395991 0 -0.038446470788322043 -0.19297790387684291 0 -0.037414156169678199 -0.18869402392146281 0 -0.041407255546260402 -0.19029281224643249 0 -0.041369936233003703 -0.1854726361307498 0 -0.037414156169678199 -0.18869402392146281 0 -0.041407255546260402 -0.19029281224643249 0 -0.041369936233003703 -0.1854726361307498 0 -0.041407255546260402 -0.19029281224643249 0 -0.046576407335472102 -0.19076878213383011 0 -0.046576407335472102 -0.19076878213383011 0 -0.055458074386699821 -0.1906827592054311 0 -0.052284875637739738 -0.19946142056698321 0 -0.049505492984346949 -0.1841663819826688 0 -0.046576407335472102 -0.19076878213383011 0 -0.055458074386699821 -0.1906827592054311 0 -0.055458074386699821 -0.1906827592054311 0 -0.052284875637739738 -0.19946142056698321 0 -0.066808249618869955 -0.20164313260702399 0 -0.045353776176610919 -0.19807082671649079 0 -0.046576407335472102 -0.19076878213383011 0 -0.052284875637739738 -0.19946142056698321 0 -0.045353776176610919 -0.19807082671649079 0 -0.052284875637739738 -0.19946142056698321 0 -0.04690381731991123 -0.205383164961294 0 -0.052284875637739738 -0.19946142056698321 0 -0.04690381731991123 -0.205383164961294 0 -0.054296282866399058 -0.21085408710836939 0 -0.04690381731991123 -0.205383164961294 0 -0.054296282866399058 -0.21085408710836939 0 -0.045846346800403712 -0.2117244992189313 0 -0.052284875637739738 -0.19946142056698321 0 -0.054296282866399058 -0.21085408710836939 0 -0.066808249618869955 -0.20164313260702399 0 -0.054296282866399058 -0.21085408710836939 0 -0.056109662071416828 -0.22114279786470659 0 -0.067358086148685895 -0.2179261549529535 0 -0.054296282866399058 -0.21085408710836939 0 -0.047213948568613003 -0.2188754252937743 0 -0.056109662071416828 -0.22114279786470659 0 -0.054296282866399058 -0.21085408710836939 0 -0.045846346800403712 -0.2117244992189313 0 -0.047213948568613003 -0.2188754252937743 0 -0.039792129913451969 -0.21497940325294451 0 -0.045846346800403712 -0.2117244992189313 0 -0.047213948568613003 -0.2188754252937743 0 -0.039792129913451969 -0.21497940325294451 0 -0.040541444739687973 -0.2215709507236609 0 -0.047213948568613003 -0.2188754252937743 0 -0.039792129913451969 -0.21497940325294451 0 -0.045846346800403712 -0.2117244992189313 0 -0.041025555333643313 -0.20853041547827419 0 -0.04690381731991123 -0.205383164961294 0 -0.045846346800403712 -0.2117244992189313 0 -0.041025555333643313 -0.20853041547827419 0 -0.041295953416330203 -0.20258819577630621 0 -0.04690381731991123 -0.205383164961294 0 -0.041025555333643313 -0.20853041547827419 0 -0.041295953416330203 -0.20258819577630621 0 -0.041025555333643313 -0.20853041547827419 0 -0.036691340706434358 -0.2054355018369699 0 -0.041025555333643313 -0.20853041547827419 0 -0.035944204342919929 -0.21084279619793639 0 -0.036691340706434358 -0.2054355018369699 0 -0.035944204342919929 -0.21084279619793639 0 -0.036691340706434358 -0.2054355018369699 0 -0.032966677327077053 -0.2084538304795539 0 -0.03279537493061848 -0.20298429661216391 0 -0.036691340706434358 -0.2054355018369699 0 -0.032966677327077053 -0.2084538304795539 0 -0.039792129913451969 -0.21497940325294451 0 -0.035944204342919929 -0.21084279619793639 0 -0.031730890461941517 -0.2180338704092912 0 -0.039792129913451969 -0.21497940325294451 0 -0.031730890461941517 -0.2180338704092912 0 -0.040541444739687973 -0.2215709507236609 0 -0.035944204342919929 -0.21084279619793639 0 -0.032966677327077053 -0.2084538304795539 0 -0.031730890461941517 -0.2180338704092912 0 -0.039792129913451969 -0.21497940325294451 0 -0.041025555333643313 -0.20853041547827419 0 -0.035944204342919929 -0.21084279619793639 0 -0.031842935957061877 -0.2238901615541907 0 -0.045142756041961718 -0.2432827052207179 0 -0.031842935957061877 -0.2238901615541907 0 -0.047635839153272047 -0.22732242381547141 0 -0.045142756041961718 -0.2432827052207179 0 -0.031842935957061877 -0.2238901615541907 0 -0.040541444739687973 -0.2215709507236609 0 -0.047635839153272047 -0.22732242381547141 0 -0.031730890461941517 -0.2180338704092912 0 -0.031842935957061877 -0.2238901615541907 0 -0.040541444739687973 -0.2215709507236609 0 -0.02884459433650547 -0.23117558869259611 0 -0.031842935957061877 -0.2238901615541907 0 -0.033626603137690579 -0.23680009654115211 0 -0.040541444739687973 -0.2215709507236609 0 -0.047213948568613003 -0.2188754252937743 0 -0.047635839153272047 -0.22732242381547141 0 -0.056109662071416828 -0.22114279786470659 0 -0.047635839153272047 -0.22732242381547141 0 -0.064964287540890966 -0.23517250223577821 0 -0.047213948568613003 -0.2188754252937743 0 -0.056109662071416828 -0.22114279786470659 0 -0.047635839153272047 -0.22732242381547141 0 -0.047635839153272047 -0.22732242381547141 0 -0.045142756041961718 -0.2432827052207179 0 -0.064964287540890966 -0.23517250223577821 0 -0.045142756041961718 -0.2432827052207179 0 -0.064964287540890966 -0.23517250223577821 0 -0.055039144887476299 -0.25771268634847172 0 -0.045142756041961718 -0.2432827052207179 0 -0.064964287540890966 -0.23517250223577821 0 -0.024328959657438708 -0.25179890456559662 0 -0.045142756041961718 -0.2432827052207179 0 -0.024328959657438708 -0.25179890456559662 0 -0.029615667748708059 -0.242670836030698 0 -0.045142756041961718 -0.2432827052207179 0 -0.036185217467124497 -0.25367686163614822 0 -0.024328959657438708 -0.25179890456559662 0 -0.045142756041961718 -0.2432827052207179 0 -0.031842935957061877 -0.2238901615541907 0 -0.045142756041961718 -0.2432827052207179 0 -0.033626603137690579 -0.23680009654115211 0 -0.029615667748708059 -0.242670836030698 0 -0.045142756041961718 -0.2432827052207179 0 -0.033626603137690579 -0.23680009654115211 0 -0.084785819039820354 -0.22706229925083879 0 -0.10198105583586201 -0.23590463175974821 0 -0.093991234394203094 -0.24772009294180761 0 -0.07952034442494442 -0.24201587550467099 0 -0.084785819039820354 -0.22706229925083879 0 -0.093991234394203094 -0.24772009294180761 0 -0.08442031290411689 -0.25465150433581729 0 -0.07952034442494442 -0.24201587550467099 0 -0.093991234394203094 -0.24772009294180761 0 -0.072084071547233758 -0.25343826461772639 0 -0.07952034442494442 -0.24201587550467099 0 -0.064964287540890966 -0.23517250223577821 0 -0.072084071547233758 -0.25343826461772639 0 -0.055039144887476299 -0.25771268634847172 0 -0.064964287540890966 -0.23517250223577821 0 -0.07952034442494442 -0.24201587550467099 0 -0.064964287540890966 -0.23517250223577821 0 -0.084785819039820354 -0.22706229925083879 0 -0.064964287540890966 -0.23517250223577821 0 -0.084785819039820354 -0.22706229925083879 0 -0.067358086148685895 -0.2179261549529535 0 -0.056109662071416828 -0.22114279786470659 0 -0.064964287540890966 -0.23517250223577821 0 -0.067358086148685895 -0.2179261549529535 0 -0.064964287540890966 -0.23517250223577821 0 -0.084785819039820354 -0.22706229925083879 0 -0.084785819039820354 -0.22706229925083879 0 -0.078520631328670945 -0.21242513732733381 0 -0.067358086148685895 -0.2179261549529535 0 -0.089232106924877791 -0.20352469137298221 0 -0.078520631328670945 -0.21242513732733381 0 -0.066808249618869955 -0.20164313260702399 0 -0.091920017565469539 -0.21622120056594879 0 -0.089232106924877791 -0.20352469137298221 0 -0.078520631328670945 -0.21242513732733381 0 -0.084785819039820354 -0.22706229925083879 0 -0.091920017565469539 -0.21622120056594879 0 -0.078520631328670945 -0.21242513732733381 0 -0.054296282866399058 -0.21085408710836939 0 -0.067358086148685895 -0.2179261549529535 0 -0.066808249618869955 -0.20164313260702399 0 -0.078520631328670945 -0.21242513732733381 0 -0.067358086148685895 -0.2179261549529535 0 -0.066808249618869955 -0.20164313260702399 0 -0.089232106924877791 -0.20352469137298221 0 -0.066808249618869955 -0.20164313260702399 0 -0.069521031356814797 -0.18678480963837099 0 -0.055458074386699821 -0.1906827592054311 0 -0.066808249618869955 -0.20164313260702399 0 -0.069521031356814797 -0.18678480963837099 0 -0.089232106924877791 -0.20352469137298221 0 -0.069521031356814797 -0.18678480963837099 0 -0.080580574138047631 -0.18430098203441411 0 -0.089232106924877791 -0.20352469137298221 0 -0.090993496399579335 -0.19048933993111661 0 -0.080580574138047631 -0.18430098203441411 0 -0.089232106924877791 -0.20352469137298221 0 -0.069521031356814797 -0.18678480963837099 0 -0.089232106924877791 -0.20352469137298221 0 -0.090993496399579335 -0.19048933993111661 0 -0.1068294565417159 -0.19622372621818809 0 -0.1068294565417159 -0.19622372621818809 0 -0.1031366190570346 -0.18563708838828369 0 -0.1068294565417159 -0.19622372621818809 0 -0.12151473439841801 -0.19688907450009299 0 -0.1031366190570346 -0.18563708838828369 0 -0.1068294565417159 -0.19622372621818809 0 -0.12151473439841801 -0.19688907450009299 0 -0.12521353213930789 -0.21475377653695921 0 -0.12151473439841801 -0.19688907450009299 0 -0.1031366190570346 -0.18563708838828369 0 -0.12151473439841801 -0.19688907450009299 0 -0.1227996895383057 -0.1814994690823645 0 -0.12930648647045229 -0.1874806166188103 0 -0.1068294565417159 -0.19622372621818809 0 -0.1150347255791781 -0.21974661666677289 0 -0.12521353213930789 -0.21475377653695921 0 -0.12151473439841801 -0.19688907450009299 0 -0.12521353213930789 -0.21475377653695921 0 -0.1068294565417159 -0.19622372621818809 0 -0.1089431824929409 -0.22026457310759351 0 -0.1150347255791781 -0.21974661666677289 0 -0.1068294565417159 -0.19622372621818809 0 -0.12521353213930789 -0.21475377653695921 0 -0.1068294565417159 -0.19622372621818809 0 -0.1150347255791781 -0.21974661666677289 0 -0.089232106924877791 -0.20352469137298221 0 -0.1046073505387497 -0.21895209626589929 0 -0.1089431824929409 -0.22026457310759351 0 -0.089232106924877791 -0.20352469137298221 0 -0.1068294565417159 -0.19622372621818809 0 -0.1089431824929409 -0.22026457310759351 0 -0.089232106924877791 -0.20352469137298221 0 -0.1089431824929409 -0.22026457310759351 0 -0.091920017565469539 -0.21622120056594879 0 -0.089232106924877791 -0.20352469137298221 0 -0.1046073505387497 -0.21895209626589929 0 -0.084785819039820354 -0.22706229925083879 0 -0.104473661286079 -0.22721180103688229 0 -0.10198105583586201 -0.23590463175974821 0 -0.084785819039820354 -0.22706229925083879 0 -0.104473661286079 -0.22721180103688229 0 -0.1046073505387497 -0.21895209626589929 0 -0.084785819039820354 -0.22706229925083879 0 -0.091920017565469539 -0.21622120056594879 0 -0.1046073505387497 -0.21895209626589929 0 -0.084785819039820354 -0.22706229925083879 0 -0.1046073505387497 -0.21895209626589929 0 -0.104473661286079 -0.22721180103688229 0 -0.1111447525429381 -0.23227120362298909 0 -0.10198105583586201 -0.23590463175974821 0 -0.104473661286079 -0.22721180103688229 0 -0.1089431824929409 -0.22026457310759351 0 -0.1111447525429381 -0.23227120362298909 0 -0.104473661286079 -0.22721180103688229 0 -0.1046073505387497 -0.21895209626589929 0 -0.1089431824929409 -0.22026457310759351 0 -0.1150347255791781 -0.21974661666677289 0 -0.12323999461664301 -0.24326950711535689 0 -0.12905367363015019 -0.23330115012132269 0 -0.1089431824929409 -0.22026457310759351 0 -0.1150347255791781 -0.21974661666677289 0 -0.1111447525429381 -0.23227120362298909 0 -0.1150347255791781 -0.21974661666677289 0 -0.1111447525429381 -0.23227120362298909 0 -0.12323999461664301 -0.24326950711535689 0 -0.1150347255791781 -0.21974661666677289 0 -0.12905367363015019 -0.23330115012132269 0 -0.12521353213930789 -0.21475377653695921 0 -0.1150347255791781 -0.21974661666677289 0 -0.12323999461664301 -0.24326950711535689 0 -0.1111447525429381 -0.23227120362298909 0 -0.12323999461664301 -0.24326950711535689 0 -0.1089015517090148 -0.24999116988465059 0 -0.12323999461664301 -0.24326950711535689 0 -0.1089015517090148 -0.24999116988465059 0 -0.1111447525429381 -0.23227120362298909 0 -0.1089015517090148 -0.24999116988465059 0 -0.10198105583586201 -0.23590463175974821 0 -0.1089015517090148 -0.24999116988465059 0 -0.10198105583586201 -0.23590463175974821 0 -0.093991234394203094 -0.24772009294180761 0 -0.057197782524140671 -0.1575110732306427 0 -0.056446284994124123 -0.12581931825358911 0 -0.074577736113205992 -0.14964271441455859 0 -0.085006068485773884 -0.13366037038997161 0 -0.094071343771403582 -0.159648729389128 0 -0.096090098798120402 -0.1449585572808432 0 -0.085006068485773884 -0.13366037038997161 0 -0.094071343771403582 -0.159648729389128 0 -0.085006068485773884 -0.13366037038997161 0 -0.074577736113205992 -0.14964271441455859 0 -0.094071343771403582 -0.159648729389128 0 -0.085006068485773884 -0.13366037038997161 0 -0.096090098798120402 -0.1449585572808432 0 -0.095617097683094149 -0.13482542867916669 0 -0.079443569050233739 -0.1177137799436323 0 -0.089156499713309995 -0.1241060883691468 0 -0.085006068485773884 -0.13366037038997161 0 -0.09075224461757235 -0.13052628406476879 0 -0.085006068485773884 -0.13366037038997161 0 -0.095617097683094149 -0.13482542867916669 0 -0.079443569050233739 -0.1177137799436323 0 -0.085006068485773884 -0.13366037038997161 0 -0.089156499713309995 -0.1241060883691468 0 -0.09075224461757235 -0.13052628406476879 0 -0.085006068485773884 -0.13366037038997161 0 -0.089156499713309995 -0.1241060883691468 0 -0.09075224461757235 -0.13052628406476879 0 -0.097847756430963689 -0.1260695450338177 0 -0.056446284994124123 -0.12581931825358911 0 -0.085006068485773884 -0.13366037038997161 0 -0.056446284994124123 -0.12581931825358911 0 -0.085006068485773884 -0.13366037038997161 0 -0.074577736113205992 -0.14964271441455859 0 -0.079443569050233739 -0.1177137799436323 0 -0.056446284994124123 -0.12581931825358911 0 -0.085006068485773884 -0.13366037038997161 0 -0.057197782524140671 -0.1575110732306427 0 -0.06468275725977285 -0.16891738274316709 0 -0.080167200790587145 -0.1715740808094639 0 -0.057197782524140671 -0.1575110732306427 0 -0.074577736113205992 -0.14964271441455859 0 -0.080167200790587145 -0.1715740808094639 0 -0.057197782524140671 -0.1575110732306427 0 -0.080167200790587145 -0.1715740808094639 0 -0.06103737529912201 -0.1729423476266603 0 -0.069521031356814797 -0.18678480963837099 0 -0.070075076404435319 -0.17718862573617 0 -0.06103737529912201 -0.1729423476266603 0 -0.06468275725977285 -0.16891738274316709 0 -0.070075076404435319 -0.17718862573617 0 -0.06468275725977285 -0.16891738274316709 0 -0.070075076404435319 -0.17718862573617 0 -0.080167200790587145 -0.1715740808094639 0 -0.070075076404435319 -0.17718862573617 0 -0.080580574138047631 -0.18430098203441411 0 -0.080167200790587145 -0.1715740808094639 0 -0.069521031356814797 -0.18678480963837099 0 -0.070075076404435319 -0.17718862573617 0 -0.080580574138047631 -0.18430098203441411 0 -0.080580574138047631 -0.18430098203441411 0 -0.086391665574768503 -0.1753850042912268 0 -0.080167200790587145 -0.1715740808094639 0 -0.086391665574768503 -0.1753850042912268 0 -0.080167200790587145 -0.1715740808094639 0 -0.090993496399579335 -0.19048933993111661 0 -0.080580574138047631 -0.18430098203441411 0 -0.086391665574768503 -0.1753850042912268 0 -0.074577736113205992 -0.14964271441455859 0 -0.080167200790587145 -0.1715740808094639 0 -0.094071343771403582 -0.159648729389128 0 -0.086391665574768503 -0.1753850042912268 0 -0.080167200790587145 -0.1715740808094639 0 -0.094071343771403582 -0.159648729389128 0 -0.094071343771403582 -0.159648729389128 0 -0.10697655963414519 -0.16987648531148031 0 -0.1031366190570346 -0.18563708838828369 0 -0.094071343771403582 -0.159648729389128 0 -0.10697655963414519 -0.16987648531148031 0 -0.1132939390059568 -0.1571837241456408 0 -0.086391665574768503 -0.1753850042912268 0 -0.094071343771403582 -0.159648729389128 0 -0.1031366190570346 -0.18563708838828369 0 -0.10697655963414519 -0.16987648531148031 0 -0.1031366190570346 -0.18563708838828369 0 -0.11740433670218681 -0.17703639932286699 0 -0.1068294565417159 -0.19622372621818809 0 -0.086391665574768503 -0.1753850042912268 0 -0.094071343771403582 -0.159648729389128 0 -0.1031366190570346 -0.18563708838828369 0 -0.086391665574768503 -0.1753850042912268 0 -0.1031366190570346 -0.18563708838828369 0 -0.090993496399579335 -0.19048933993111661 0 -0.1068294565417159 -0.19622372621818809 0 -0.086391665574768503 -0.1753850042912268 0 -0.1068294565417159 -0.19622372621818809 0 -0.086391665574768503 -0.1753850042912268 0 -0.1031366190570346 -0.18563708838828369 0 -0.12151473439841801 -0.19688907450009299 0 -0.11740433670218681 -0.17703639932286699 0 -0.1227996895383057 -0.1814994690823645 0 -0.12151473439841801 -0.19688907450009299 0 -0.11740433670218681 -0.17703639932286699 0 -0.12151473439841801 -0.19688907450009299 0 -0.1031366190570346 -0.18563708838828369 0 -0.11740433670218681 -0.17703639932286699 0 -0.11740433670218681 -0.17703639932286699 0 -0.1227996895383057 -0.1814994690823645 0 -0.1285883391185757 -0.15521348122297979 0 -0.11740433670218681 -0.17703639932286699 0 -0.1132939390059568 -0.1571837241456408 0 -0.1285883391185757 -0.15521348122297979 0 -0.10697655963414519 -0.16987648531148031 0 -0.11740433670218681 -0.17703639932286699 0 -0.1132939390059568 -0.1571837241456408 0 -0.11740433670218681 -0.17703639932286699 0 -0.1132939390059568 -0.1571837241456408 0 -0.1132939390059568 -0.1571837241456408 0 -0.1190128005204924 -0.14377840637577829 0 -0.1285883391185757 -0.15521348122297979 0 -0.1190128005204924 -0.14377840637577829 0 -0.1057903988140568 -0.14838127746516641 0 -0.1064838119743107 -0.13633697013444149 0 -0.1132939390059568 -0.1571837241456408 0 -0.1190128005204924 -0.14377840637577829 0 -0.1057903988140568 -0.14838127746516641 0 -0.094071343771403582 -0.159648729389128 0 -0.1132939390059568 -0.1571837241456408 0 -0.1057903988140568 -0.14838127746516641 0 -0.1057903988140568 -0.14838127746516641 0 -0.096090098798120402 -0.1449585572808432 0 -0.1064838119743107 -0.13633697013444149 0 -0.094071343771403582 -0.159648729389128 0 -0.1057903988140568 -0.14838127746516641 0 -0.096090098798120402 -0.1449585572808432 0 -0.097847756430963689 -0.1260695450338177 0 -0.095617097683094149 -0.13482542867916669 0 -0.1064838119743107 -0.13633697013444149 0 -0.09075224461757235 -0.13052628406476879 0 -0.097847756430963689 -0.1260695450338177 0 -0.095617097683094149 -0.13482542867916669 0 -0.096090098798120402 -0.1449585572808432 0 -0.095617097683094149 -0.13482542867916669 0 -0.1064838119743107 -0.13633697013444149 0 -0.097847756430963689 -0.1260695450338177 0 -0.1064838119743107 -0.13633697013444149 0 -0.10993600967695499 -0.12528712981586759 0 -0.1190128005204924 -0.14377840637577829 0 -0.1176795372985653 -0.13053017044787199 0 -0.13437698869884579 -0.12892749336359499 0 -0.1064838119743107 -0.13633697013444149 0 -0.10993600967695499 -0.12528712981586759 0 -0.1176795372985653 -0.13053017044787199 0 -0.1185880756222225 -0.1183208525496777 0 -0.1176795372985653 -0.13053017044787199 0 -0.13437698869884579 -0.12892749336359499 0 -0.1190128005204924 -0.14377840637577829 0 -0.1064838119743107 -0.13633697013444149 0 -0.1176795372985653 -0.13053017044787199 0 -0.13437698869884579 -0.12892749336359499 0 -0.14882990129592599 -0.14646724567742281 0 -0.15647725152771719 -0.1280693704750773 0 -0.1190128005204924 -0.14377840637577829 0 -0.13437698869884579 -0.12892749336359499 0 -0.1285883391185757 -0.15521348122297979 0 -0.14882990129592599 -0.14646724567742281 0 -0.1285883391185757 -0.15521348122297979 0 -0.14199312948988749 -0.16192146780617811 0 -0.13437698869884579 -0.12892749336359499 0 -0.1285883391185757 -0.15521348122297979 0 -0.13437698869884579 -0.12892749336359499 0 -0.14882990129592599 -0.14646724567742281 0 -0.1285883391185757 -0.15521348122297979 0 -0.1227996895383057 -0.1814994690823645 0 -0.1285883391185757 -0.15521348122297979 0 -0.13411441221945691 -0.1704417211606834 0 -0.1227996895383057 -0.1814994690823645 0 -0.1285883391185757 -0.15521348122297979 0 -0.13411441221945691 -0.1704417211606834 0 -0.14305595047380229 -0.17502112133012379 0 -0.14199312948988749 -0.16192146780617811 0 -0.1285883391185757 -0.15521348122297979 0 -0.13411441221945691 -0.1704417211606834 0 -0.14199312948988749 -0.16192146780617811 0 -0.1227996895383057 -0.1814994690823645 0 -0.12930648647045229 -0.1874806166188103 0 -0.13385762471924051 -0.1810756812869084 0 -0.1227996895383057 -0.1814994690823645 0 -0.13411441221945691 -0.1704417211606834 0 -0.13385762471924051 -0.1810756812869084 0 -0.13411441221945691 -0.1704417211606834 0 -0.13385762471924051 -0.1810756812869084 0 -0.14305595047380229 -0.17502112133012379 0 -0.12930648647045229 -0.1874806166188103 0 -0.13385762471924051 -0.1810756812869084 0 -0.1390538972258446 -0.19045824160587621 0 -0.13385762471924051 -0.1810756812869084 0 -0.14305595047380229 -0.17502112133012379 0 -0.1390538972258446 -0.19045824160587621 0 -0.14305595047380229 -0.17502112133012379 0 -0.15431073015079139 -0.18536542306667109 0 -0.1557306469430455 -0.16320249296875641 0 -0.14305595047380229 -0.17502112133012379 0 -0.15431073015079139 -0.18536542306667109 0 -0.1390538972258446 -0.19045824160587621 0 -0.14882990129592599 -0.14646724567742281 0 -0.14199312948988749 -0.16192146780617811 0 -0.1557306469430455 -0.16320249296875641 0 -0.14305595047380229 -0.17502112133012379 0 -0.14199312948988749 -0.16192146780617811 0 -0.1557306469430455 -0.16320249296875641 0 -0.1557306469430455 -0.16320249296875641 0 -0.17218389461479111 -0.17017048889343731 0 -0.1760470266169607 -0.1445242574141804 0 -0.15431073015079139 -0.18536542306667109 0 -0.1557306469430455 -0.16320249296875641 0 -0.17218389461479111 -0.17017048889343731 0 -0.15431073015079139 -0.18536542306667109 0 -0.17218389461479111 -0.17017048889343731 0 -0.1683207626126216 -0.1958167203726941 0 -0.17218389461479111 -0.17017048889343731 0 -0.1683207626126216 -0.1958167203726941 0 -0.17218389461479111 -0.17017048889343731 0 -0.18744751144315711 -0.19380809483309261 0 -0.19767974091083601 -0.17758983947925441 0 -0.17218389461479111 -0.17017048889343731 0 -0.1683207626126216 -0.1958167203726941 0 -0.18744751144315711 -0.19380809483309261 0 -0.17218389461479111 -0.17017048889343731 0 -0.1760470266169607 -0.1445242574141804 0 -0.19386959122260239 -0.1566571011487386 0 -0.17218389461479111 -0.17017048889343731 0 -0.1760470266169607 -0.1445242574141804 0 -0.1760470266169607 -0.1445242574141804 0 -0.19328727858188149 -0.1363170638771197 0 -0.17991015861913021 -0.11887802593492371 0 -0.1760470266169607 -0.1445242574141804 0 -0.17991015861913021 -0.11887802593492371 0 -0.1681426676629178 -0.12314286884814719 0 -0.1760470266169607 -0.1445242574141804 0 -0.17991015861913021 -0.11887802593492371 0 -0.1760470266169607 -0.1445242574141804 0 -0.15647725152771719 -0.1280693704750773 0 -0.1681426676629178 -0.12314286884814719 0 -0.14882990129592599 -0.14646724567742281 0 -0.1760470266169607 -0.1445242574141804 0 -0.15647725152771719 -0.1280693704750773 0 -0.14882990129592599 -0.14646724567742281 0 -0.1557306469430455 -0.16320249296875641 0 -0.1760470266169607 -0.1445242574141804 0 -0.15518972565553621 -0.2449679894448776 0 -0.13891150835118321 -0.2498250236822683 0 -0.14389713116243391 -0.23358572858134649 0 -0.15518972565553621 -0.2449679894448776 0 -0.14389713116243391 -0.23358572858134649 0 -0.12323999461664301 -0.24326950711535689 0 -0.12905367363015019 -0.23330115012132269 0 -0.14389713116243391 -0.23358572858134649 0 -0.12323999461664301 -0.24326950711535689 0 -0.13891150835118321 -0.2498250236822683 0 -0.14389713116243391 -0.23358572858134649 0 -0.12323999461664301 -0.24326950711535689 0 -0.14389713116243391 -0.23358572858134649 0 -0.12905367363015019 -0.23330115012132269 0 -0.14389713116243391 -0.23358572858134649 0 -0.12521353213930789 -0.21475377653695921 0 -0.14389713116243391 -0.23358572858134649 0 -0.12521353213930789 -0.21475377653695921 0 -0.14389713116243391 -0.23358572858134649 0 -0.14334066886721111 -0.21025198505746839 0 -0.12521353213930789 -0.21475377653695921 0 -0.12905367363015019 -0.23330115012132269 0 -0.12521353213930789 -0.21475377653695921 0 -0.14389713116243391 -0.23358572858134649 0 -0.14334066886721111 -0.21025198505746839 0 -0.16516660333600269 -0.22361489561484579 0 -0.15518972565553621 -0.2449679894448776 0 -0.14389713116243391 -0.23358572858134649 0 -0.16516660333600269 -0.22361489561484579 0 -0.14389713116243391 -0.23358572858134649 0 -0.16516660333600269 -0.22361489561484579 0 -0.14334066886721111 -0.21025198505746839 0 -0.16516660333600269 -0.22361489561484579 0 -0.12151473439841801 -0.19688907450009299 0 -0.14334066886721111 -0.21025198505746839 0 -0.12151473439841801 -0.19688907450009299 0 -0.14334066886721111 -0.21025198505746839 0 -0.12521353213930789 -0.21475377653695921 0 -0.12151473439841801 -0.19688907450009299 0 -0.12930648647045229 -0.1874806166188103 0 -0.1390538972258446 -0.19045824160587621 0 -0.12151473439841801 -0.19688907450009299 0 -0.14334066886721111 -0.21025198505746839 0 -0.1390538972258446 -0.19045824160587621 0 -0.15431073015079139 -0.18536542306667109 0 -0.14334066886721111 -0.21025198505746839 0 -0.1390538972258446 -0.19045824160587621 0 -0.15431073015079139 -0.18536542306667109 0 -0.14334066886721111 -0.21025198505746839 0 -0.1683207626126216 -0.1958167203726941 0 -0.1683207626126216 -0.1958167203726941 0 -0.18744751144315711 -0.19380809483309261 0 -0.18254289995261069 -0.2154691292447842 0 -0.1683207626126216 -0.1958167203726941 0 -0.18254289995261069 -0.2154691292447842 0 -0.16516660333600269 -0.22361489561484579 0 -0.14334066886721111 -0.21025198505746839 0 -0.1683207626126216 -0.1958167203726941 0 -0.16516660333600269 -0.22361489561484579 0 -0.18254289995261069 -0.2154691292447842 0 -0.16516660333600269 -0.22361489561484579 0 -0.18254289995261069 -0.2154691292447842 0 -0.16516660333600269 -0.22361489561484579 0 -0.18649095745073471 -0.2366707140099929 0 -0.16516660333600269 -0.22361489561484579 0 -0.18649095745073471 -0.2366707140099929 0 -0.19007068518330361 -0.25533957047612732 0 -0.18649095745073471 -0.2366707140099929 0 -0.17230380865566611 -0.24634023907900679 0 -0.16516660333600269 -0.22361489561484579 0 -0.18649095745073471 -0.2366707140099929 0 -0.17230380865566611 -0.24634023907900679 0 -0.1629602218102211 -0.25842399884076228 0 -0.15518972565553621 -0.2449679894448776 0 -0.17230380865566611 -0.24634023907900679 0 -0.15518972565553621 -0.2449679894448776 0 -0.16516660333600269 -0.22361489561484579 0 -0.17230380865566611 -0.24634023907900679 0 -0.2078153115654659 -0.24972653240514139 0 -0.2073499215397884 -0.22758116709024609 0 -0.2298773244578784 -0.2406797823852983 0 -0.18649095745073471 -0.2366707140099929 0 -0.2078153115654659 -0.24972653240514139 0 -0.2073499215397884 -0.22758116709024609 0 -0.19007068518330361 -0.25533957047612732 0 -0.18649095745073471 -0.2366707140099929 0 -0.2078153115654659 -0.24972653240514139 0 -0.18649095745073471 -0.2366707140099929 0 -0.2078153115654659 -0.24972653240514139 0 -0.18254289995261069 -0.2154691292447842 0 -0.18649095745073471 -0.2366707140099929 0 -0.2073499215397884 -0.22758116709024609 0 -0.2073499215397884 -0.22758116709024609 0 -0.2135961743016366 -0.21400136287893831 0 -0.22789603707692571 -0.2206836040989569 0 -0.2073499215397884 -0.22758116709024609 0 -0.2135961743016366 -0.21400136287893831 0 -0.19991919656921739 -0.20732336287472 0 -0.2135961743016366 -0.21400136287893831 0 -0.19991919656921739 -0.20732336287472 0 -0.20732675297724501 -0.1939465305952516 0 -0.18254289995261069 -0.2154691292447842 0 -0.2073499215397884 -0.22758116709024609 0 -0.19991919656921739 -0.20732336287472 0 -0.18254289995261069 -0.2154691292447842 0 -0.19991919656921739 -0.20732336287472 0 -0.18744751144315711 -0.19380809483309261 0 -0.18254289995261069 -0.2154691292447842 0 -0.19991919656921739 -0.20732336287472 0 -0.18744751144315711 -0.19380809483309261 0 -0.20732675297724501 -0.1939465305952516 0 -0.19767974091083601 -0.17758983947925441 0 -0.18744751144315711 -0.19380809483309261 0 -0.19991919656921739 -0.20732336287472 0 -0.20732675297724501 -0.1939465305952516 0 -0.20732675297724501 -0.1939465305952516 0 -0.22382432254564469 -0.19893888825769979 0 -0.21636568104504339 -0.17787735973984081 0 -0.2135961743016366 -0.21400136287893831 0 -0.20732675297724501 -0.1939465305952516 0 -0.22382432254564469 -0.19893888825769979 0 -0.22382432254564469 -0.19893888825769979 0 -0.24265309965477699 -0.2060913991920322 0 -0.23346742395034981 -0.1811949356934924 0 -0.24265309965477699 -0.2060913991920322 0 -0.23346742395034981 -0.1811949356934924 0 -0.25911561868727639 -0.1884382044746378 0 -0.2135961743016366 -0.21400136287893831 0 -0.22382432254564469 -0.19893888825769979 0 -0.22789603707692571 -0.2206836040989569 0 -0.22382432254564469 -0.19893888825769979 0 -0.24265309965477699 -0.2060913991920322 0 -0.22789603707692571 -0.2206836040989569 0 -0.2073499215397884 -0.22758116709024609 0 -0.22789603707692571 -0.2206836040989569 0 -0.2298773244578784 -0.2406797823852983 0 -0.22789603707692571 -0.2206836040989569 0 -0.2485916205290481 -0.22954497320020231 0 -0.2298773244578784 -0.2406797823852983 0 -0.24265309965477699 -0.2060913991920322 0 -0.22789603707692571 -0.2206836040989569 0 -0.2485916205290481 -0.22954497320020231 0 -0.2485916205290481 -0.22954497320020231 0 -0.2298773244578784 -0.2406797823852983 0 -0.25293660618197089 -0.24686546530093051 0 -0.20329750858501161 -0.1443725126208068 0 -0.20948671376049921 -0.15412614311198461 0 -0.21229303380245501 -0.14357294269515561 0 -0.20948671376049921 -0.15412614311198461 0 -0.21749738510660779 -0.16170520264248309 0 -0.2202577254961347 -0.15011135159562911 0 -0.20948671376049921 -0.15412614311198461 0 -0.21229303380245501 -0.14357294269515561 0 -0.2202577254961347 -0.15011135159562911 0 -0.21229303380245501 -0.14357294269515561 0 -0.2202577254961347 -0.15011135159562911 0 -0.22093549145423011 -0.14038212581748749 0 -0.21229303380245501 -0.14357294269515561 0 -0.21515076629546639 -0.13628263722687189 0 -0.20755092555761981 -0.13118931227103561 0 -0.21229303380245501 -0.14357294269515561 0 -0.21515076629546639 -0.13628263722687189 0 -0.22093549145423011 -0.14038212581748749 0 -0.20755092555761981 -0.13118931227103561 0 -0.22080248762834381 -0.13088267456880409 0 -0.21370889553197281 -0.1210853462967669 0 -0.21515076629546639 -0.13628263722687189 0 -0.20755092555761981 -0.13118931227103561 0 -0.22080248762834381 -0.13088267456880409 0 -0.20329750858501161 -0.1443725126208068 0 -0.21229303380245501 -0.14357294269515561 0 -0.20755092555761981 -0.13118931227103561 0 -0.20329750858501161 -0.1443725126208068 0 -0.20755092555761981 -0.13118931227103561 0 -0.19328727858188149 -0.1363170638771197 0 -0.20755092555761981 -0.13118931227103561 0 -0.19328727858188149 -0.1363170638771197 0 -0.199656781973338 -0.1187915037298435 0 -0.20329750858501161 -0.1443725126208068 0 -0.19328727858188149 -0.1363170638771197 0 -0.19386959122260239 -0.1566571011487386 0 -0.1760470266169607 -0.1445242574141804 0 -0.19328727858188149 -0.1363170638771197 0 -0.19386959122260239 -0.1566571011487386 0 -0.20329750858501161 -0.1443725126208068 0 -0.20948671376049921 -0.15412614311198461 0 -0.19386959122260239 -0.1566571011487386 0 -0.19386959122260239 -0.1566571011487386 0 -0.19767974091083601 -0.17758983947925441 0 -0.20677101678232301 -0.16610444175206701 0 -0.17218389461479111 -0.17017048889343731 0 -0.19386959122260239 -0.1566571011487386 0 -0.19767974091083601 -0.17758983947925441 0 -0.20732675297724501 -0.1939465305952516 0 -0.19767974091083601 -0.17758983947925441 0 -0.21636568104504339 -0.17787735973984081 0 -0.19767974091083601 -0.17758983947925441 0 -0.21636568104504339 -0.17787735973984081 0 -0.20677101678232301 -0.16610444175206701 0 -0.21636568104504339 -0.17787735973984081 0 -0.20677101678232301 -0.16610444175206701 0 -0.21749738510660779 -0.16170520264248309 0 -0.20948671376049921 -0.15412614311198461 0 -0.19386959122260239 -0.1566571011487386 0 -0.20677101678232301 -0.16610444175206701 0 -0.20948671376049921 -0.15412614311198461 0 -0.20677101678232301 -0.16610444175206701 0 -0.21749738510660779 -0.16170520264248309 0 -0.2273203720410536 -0.16614429248891449 0 -0.23346742395034981 -0.1811949356934924 0 -0.23692338678818989 -0.15843360795670891 0 -0.21749738510660779 -0.16170520264248309 0 -0.2248737969434664 -0.15689433310340811 0 -0.2273203720410536 -0.16614429248891449 0 -0.21636568104504339 -0.17787735973984081 0 -0.21749738510660779 -0.16170520264248309 0 -0.2273203720410536 -0.16614429248891449 0 -0.2273203720410536 -0.16614429248891449 0 -0.23692338678818989 -0.15843360795670891 0 -0.23008220700779439 -0.15618849271555779 0 -0.2248737969434664 -0.15689433310340811 0 -0.2273203720410536 -0.16614429248891449 0 -0.23008220700779439 -0.15618849271555779 0 -0.22382432254564469 -0.19893888825769979 0 -0.21636568104504339 -0.17787735973984081 0 -0.23346742395034981 -0.1811949356934924 0 -0.21636568104504339 -0.17787735973984081 0 -0.2273203720410536 -0.16614429248891449 0 -0.23346742395034981 -0.1811949356934924 0 -0.23346742395034981 -0.1811949356934924 0 -0.2436783078812636 -0.17110227207611819 0 -0.25911561868727639 -0.1884382044746378 0 -0.23346742395034981 -0.1811949356934924 0 -0.23692338678818989 -0.15843360795670891 0 -0.23346742395034981 -0.1811949356934924 0 -0.23692338678818989 -0.15843360795670891 0 -0.2436783078812636 -0.17110227207611819 0 -0.23692338678818989 -0.15843360795670891 0 -0.2436783078812636 -0.17110227207611819 0 -0.25246381254454858 -0.15974714471639789 0 -0.2458120064018233 -0.13105608495815749 0 -0.25246381254454858 -0.15974714471639789 0 -0.23692338678818989 -0.15843360795670891 0 -0.2386899108916419 -0.13479800922425661 0 -0.23692338678818989 -0.15843360795670891 0 -0.2458120064018233 -0.13105608495815749 0 -0.23692338678818989 -0.15843360795670891 0 -0.2386899108916419 -0.13479800922425661 0 -0.2458120064018233 -0.13105608495815749 0 -0.23692338678818989 -0.15843360795670891 0 -0.2458120064018233 -0.13105608495815749 0 -0.25246381254454858 -0.15974714471639789 0 -0.23692338678818989 -0.15843360795670891 0 -0.23339942398104729 -0.14412124528761949 0 -0.2386899108916419 -0.13479800922425661 0 -0.23692338678818989 -0.15843360795670891 0 -0.23008220700779439 -0.15618849271555779 0 -0.23161715182161149 -0.15020675478095311 0 -0.23692338678818989 -0.15843360795670891 0 -0.23161715182161149 -0.15020675478095311 0 -0.23339942398104729 -0.14412124528761949 0 -0.23008220700779439 -0.15618849271555779 0 -0.22691738348135601 -0.1516252475161918 0 -0.23161715182161149 -0.15020675478095311 0 -0.2248737969434664 -0.15689433310340811 0 -0.23008220700779439 -0.15618849271555779 0 -0.22691738348135601 -0.1516252475161918 0 -0.22691738348135601 -0.1516252475161918 0 -0.23161715182161149 -0.15020675478095311 0 -0.22775603613777301 -0.14472530538541101 0 -0.23161715182161149 -0.15020675478095311 0 -0.23339942398104729 -0.14412124528761949 0 -0.22775603613777301 -0.14472530538541101 0 -0.23339942398104729 -0.14412124528761949 0 -0.22775603613777301 -0.14472530538541101 0 -0.22960781427687041 -0.13695130865310429 0 -0.22775603613777301 -0.14472530538541101 0 -0.2202577254961347 -0.15011135159562911 0 -0.22093549145423011 -0.14038212581748749 0 -0.22775603613777301 -0.14472530538541101 0 -0.22093549145423011 -0.14038212581748749 0 -0.22960781427687041 -0.13695130865310429 0 -0.21749738510660779 -0.16170520264248309 0 -0.2248737969434664 -0.15689433310340811 0 -0.2202577254961347 -0.15011135159562911 0 -0.2248737969434664 -0.15689433310340811 0 -0.22691738348135601 -0.1516252475161918 0 -0.2202577254961347 -0.15011135159562911 0 -0.22691738348135601 -0.1516252475161918 0 -0.22775603613777301 -0.14472530538541101 0 -0.2202577254961347 -0.15011135159562911 0 -0.22080248762834381 -0.13088267456880409 0 -0.22955528529246311 -0.12964847423897249 0 -0.225043994622532 -0.12312786242509111 0 -0.22080248762834381 -0.13088267456880409 0 -0.225043994622532 -0.12312786242509111 0 -0.21370889553197281 -0.1210853462967669 0 -0.22080248762834381 -0.13088267456880409 0 -0.22093549145423011 -0.14038212581748749 0 -0.22960781427687041 -0.13695130865310429 0 -0.21515076629546639 -0.13628263722687189 0 -0.22080248762834381 -0.13088267456880409 0 -0.22093549145423011 -0.14038212581748749 0 -0.23339942398104729 -0.14412124528761949 0 -0.22960781427687041 -0.13695130865310429 0 -0.2386899108916419 -0.13479800922425661 0 -0.22960781427687041 -0.13695130865310429 0 -0.22955528529246311 -0.12964847423897249 0 -0.2386899108916419 -0.13479800922425661 0 -0.22080248762834381 -0.13088267456880409 0 -0.22960781427687041 -0.13695130865310429 0 -0.22955528529246311 -0.12964847423897249 0 -0.22955528529246311 -0.12964847423897249 0 -0.2386899108916419 -0.13479800922425661 0 -0.233632219042927 -0.1224825163236067 0 -0.22955528529246311 -0.12964847423897249 0 -0.225043994622532 -0.12312786242509111 0 -0.233632219042927 -0.1224825163236067 0 -0.2386899108916419 -0.13479800922425661 0 -0.2458120064018233 -0.13105608495815749 0 -0.2413011543622843 -0.11159954598963839 0 -0.2386899108916419 -0.13479800922425661 0 -0.23701155466046489 -0.1179150909757186 0 -0.233632219042927 -0.1224825163236067 0 -0.2458120064018233 -0.13105608495815749 0 -0.2413011543622843 -0.11159954598963839 0 -0.25333144976642291 -0.1078957133145429 0 -0.2458120064018233 -0.13105608495815749 0 -0.25333144976642291 -0.1078957133145429 0 -0.2386899108916419 -0.13479800922425661 0 -0.23701155466046489 -0.1179150909757186 0 -0.2413011543622843 -0.11159954598963839 0 -0.2458120064018233 -0.13105608495815749 0 -0.2413011543622843 -0.11159954598963839 0 -0.2386899108916419 -0.13479800922425661 0 -0.2413011543622843 -0.11159954598963839 0 -0.23701155466046489 -0.1179150909757186 0 -0.233632219042927 -0.1224825163236067 0 -0.23371931182129191 -0.115918748706236 0 -0.2357482136102973 -0.1118478667016064 0 -0.23831710715559429 -0.1118844765191748 0 -0.2367929372114507 -0.1089166492060626 0 -0.2357482136102973 -0.1118478667016064 0 -0.2367929372114507 -0.1089166492060626 0 -0.2333432983378719 -0.1087680353836445 0 -0.23701155466046489 -0.1179150909757186 0 -0.2357482136102973 -0.1118478667016064 0 -0.23831710715559429 -0.1118844765191748 0 -0.23701155466046489 -0.1179150909757186 0 -0.2357482136102973 -0.1118478667016064 0 -0.23371931182129191 -0.115918748706236 0 -0.23701155466046489 -0.1179150909757186 0 -0.2413011543622843 -0.11159954598963839 0 -0.23831710715559429 -0.1118844765191748 0 -0.23831710715559429 -0.1118844765191748 0 -0.24073167593347419 -0.1091432297228481 0 -0.2367929372114507 -0.1089166492060626 0 -0.2413011543622843 -0.11159954598963839 0 -0.23831710715559429 -0.1118844765191748 0 -0.24073167593347419 -0.1091432297228481 0 -0.2413011543622843 -0.11159954598963839 0 -0.24073167593347419 -0.1091432297228481 0 -0.2413011543622843 -0.11159954598963839 0 -0.2466958704237697 -0.10507139811355309 0 -0.25333144976642291 -0.1078957133145429 0 -0.2413011543622843 -0.11159954598963839 0 -0.24351725633867419 -0.091911546459423038 0 -0.2413011543622843 -0.11159954598963839 0 -0.24073167593347419 -0.1091432297228481 0 -0.24351725633867419 -0.091911546459423038 0 -0.2413011543622843 -0.11159954598963839 0 -0.2466958704237697 -0.10507139811355309 0 -0.24351725633867419 -0.091911546459423038 0 -0.23723624415798561 -0.099044691165452448 0 -0.24073167593347419 -0.1091432297228481 0 -0.24351725633867419 -0.091911546459423038 0 -0.2466958704237697 -0.10507139811355309 0 -0.24932164404889159 -0.10089518232528739 0 -0.25333144976642291 -0.1078957133145429 0 -0.2466958704237697 -0.10507139811355309 0 -0.24932164404889159 -0.10089518232528739 0 -0.24351725633867419 -0.091911546459423038 0 -0.23723624415798561 -0.099044691165452448 0 -0.24351725633867419 -0.091911546459423038 0 -0.23398464141900291 -0.093039287009083593 0 -0.23723624415798561 -0.099044691165452448 0 -0.23558127924974681 -0.1046105062433992 0 -0.23156476062407291 -0.098610952951026135 0 -0.23723624415798561 -0.099044691165452448 0 -0.24073167593347419 -0.1091432297228481 0 -0.23558127924974681 -0.1046105062433992 0 -0.24073167593347419 -0.1091432297228481 0 -0.23558127924974681 -0.1046105062433992 0 -0.2367929372114507 -0.1089166492060626 0 -0.23558127924974681 -0.1046105062433992 0 -0.2367929372114507 -0.1089166492060626 0 -0.2333432983378719 -0.1087680353836445 0 -0.22763792548642159 -0.1059760477670208 0 -0.23156476062407291 -0.098610952951026135 0 -0.2236958220297704 -0.10028614015986111 0 -0.23558127924974681 -0.1046105062433992 0 -0.22763792548642159 -0.1059760477670208 0 -0.23156476062407291 -0.098610952951026135 0 -0.2333432983378719 -0.1087680353836445 0 -0.22763792548642159 -0.1059760477670208 0 -0.23095613613144289 -0.1124891070001333 0 -0.23558127924974681 -0.1046105062433992 0 -0.2333432983378719 -0.1087680353836445 0 -0.22763792548642159 -0.1059760477670208 0 -0.23156476062407291 -0.098610952951026135 0 -0.2236958220297704 -0.10028614015986111 0 -0.22671006279844871 -0.092443752292690043 0 -0.23723624415798561 -0.099044691165452448 0 -0.23156476062407291 -0.098610952951026135 0 -0.23398464141900291 -0.093039287009083593 0 -0.23156476062407291 -0.098610952951026135 0 -0.23398464141900291 -0.093039287009083593 0 -0.22671006279844871 -0.092443752292690043 0 -0.2236958220297704 -0.10028614015986111 0 -0.2158936285510574 -0.10821961125055719 0 -0.21667273268885129 -0.096180336538011182 0 -0.2236958220297704 -0.10028614015986111 0 -0.22671006279844871 -0.092443752292690043 0 -0.21667273268885129 -0.096180336538011182 0 -0.22763792548642159 -0.1059760477670208 0 -0.2236958220297704 -0.10028614015986111 0 -0.2158936285510574 -0.10821961125055719 0 -0.22763792548642159 -0.1059760477670208 0 -0.22366670758128579 -0.11462826108658521 0 -0.2158936285510574 -0.10821961125055719 0 -0.22366670758128579 -0.11462826108658521 0 -0.225043994622532 -0.12312786242509111 0 -0.21370889553197281 -0.1210853462967669 0 -0.22366670758128579 -0.11462826108658521 0 -0.225043994622532 -0.12312786242509111 0 -0.22945139725949729 -0.11801470940042461 0 -0.225043994622532 -0.12312786242509111 0 -0.22945139725949729 -0.11801470940042461 0 -0.233632219042927 -0.1224825163236067 0 -0.22945139725949729 -0.11801470940042461 0 -0.233632219042927 -0.1224825163236067 0 -0.23371931182129191 -0.115918748706236 0 -0.22763792548642159 -0.1059760477670208 0 -0.22366670758128579 -0.11462826108658521 0 -0.23095613613144289 -0.1124891070001333 0 -0.22945139725949729 -0.11801470940042461 0 -0.23371931182129191 -0.115918748706236 0 -0.23095613613144289 -0.1124891070001333 0 -0.2357482136102973 -0.1118478667016064 0 -0.23371931182129191 -0.115918748706236 0 -0.23095613613144289 -0.1124891070001333 0 -0.2357482136102973 -0.1118478667016064 0 -0.2333432983378719 -0.1087680353836445 0 -0.23095613613144289 -0.1124891070001333 0 -0.22366670758128579 -0.11462826108658521 0 -0.22945139725949729 -0.11801470940042461 0 -0.23095613613144289 -0.1124891070001333 0 -0.24573335831506091 -0.072223546929207308 0 -0.22804143254625411 -0.069488866760595971 0 -0.2358781278801324 -0.058811285885250558 0 -0.24573335831506091 -0.072223546929207308 0 -0.23089488317583329 -0.083185492176826276 0 -0.22804143254625411 -0.069488866760595971 0 -0.24932164404889159 -0.10089518232528739 0 -0.24573335831506091 -0.072223546929207308 0 -0.24573335831506091 -0.072223546929207308 0 -0.24351725633867419 -0.091911546459423038 0 -0.23089488317583329 -0.083185492176826276 0 -0.24932164404889159 -0.10089518232528739 0 -0.24573335831506091 -0.072223546929207308 0 -0.24351725633867419 -0.091911546459423038 0 -0.24573335831506091 -0.072223546929207308 0 -0.24351725633867419 -0.091911546459423038 0 -0.24351725633867419 -0.091911546459423038 0 -0.23398464141900291 -0.093039287009083593 0 -0.23089488317583329 -0.083185492176826276 0 -0.23398464141900291 -0.093039287009083593 0 -0.22671006279844871 -0.092443752292690043 0 -0.23089488317583329 -0.083185492176826276 0 -0.22671006279844871 -0.092443752292690043 0 -0.21962650158020161 -0.087310185724062878 0 -0.21667273268885129 -0.096180336538011182 0 -0.22671006279844871 -0.092443752292690043 0 -0.21962650158020161 -0.087310185724062878 0 -0.23089488317583329 -0.083185492176826276 0 -0.21962650158020161 -0.087310185724062878 0 -0.23089488317583329 -0.083185492176826276 0 -0.21667696836431141 -0.077273386153383028 0 -0.22804143254625411 -0.069488866760595971 0 -0.2146739735877084 -0.067327894509781647 0 -0.21667696836431141 -0.077273386153383028 0 -0.23089488317583329 -0.083185492176826276 0 -0.22804143254625411 -0.069488866760595971 0 -0.21667696836431141 -0.077273386153383028 0 -0.22804143254625411 -0.069488866760595971 0 -0.2146739735877084 -0.067327894509781647 0 -0.2232201331584335 -0.058644516826800948 0 -0.2146739735877084 -0.067327894509781647 0 -0.20688040262339211 -0.075700265851525922 0 -0.20064536666477389 -0.06635756820829708 0 -0.2146739735877084 -0.067327894509781647 0 -0.20064536666477389 -0.06635756820829708 0 -0.2139858859683498 -0.055706773861447997 0 -0.2146739735877084 -0.067327894509781647 0 -0.21667696836431141 -0.077273386153383028 0 -0.20688040262339211 -0.075700265851525922 0 -0.20688040262339211 -0.075700265851525922 0 -0.2071778608735633 -0.087467961459403831 0 -0.1980405392251319 -0.078482540133486031 0 -0.21667696836431141 -0.077273386153383028 0 -0.20688040262339211 -0.075700265851525922 0 -0.2071778608735633 -0.087467961459403831 0 -0.21962650158020161 -0.087310185724062878 0 -0.21667696836431141 -0.077273386153383028 0 -0.2071778608735633 -0.087467961459403831 0 -0.21962650158020161 -0.087310185724062878 0 -0.2071778608735633 -0.087467961459403831 0 -0.21667273268885129 -0.096180336538011182 0 -0.19218739857884409 -0.093627473160469279 0 -0.1847180151843503 -0.068463442591095047 0 -0.19218739857884409 -0.093627473160469279 0 -0.1980405392251319 -0.078482540133486031 0 -0.1847180151843503 -0.068463442591095047 0 -0.2071778608735633 -0.087467961459403831 0 -0.19218739857884409 -0.093627473160469279 0 -0.1980405392251319 -0.078482540133486031 0 -0.1980405392251319 -0.078482540133486031 0 -0.20064536666477389 -0.06635756820829708 0 -0.1847180151843503 -0.068463442591095047 0 -0.20688040262339211 -0.075700265851525922 0 -0.1980405392251319 -0.078482540133486031 0 -0.20064536666477389 -0.06635756820829708 0 -0.21370889553197281 -0.1210853462967669 0 -0.2158936285510574 -0.10821961125055719 0 -0.199656781973338 -0.1187915037298435 0 -0.2158936285510574 -0.10821961125055719 0 -0.20513614509024719 -0.1016345802900218 0 -0.199656781973338 -0.1187915037298435 0 -0.20755092555761981 -0.13118931227103561 0 -0.21370889553197281 -0.1210853462967669 0 -0.199656781973338 -0.1187915037298435 0 -0.22366670758128579 -0.11462826108658521 0 -0.21370889553197281 -0.1210853462967669 0 -0.2158936285510574 -0.10821961125055719 0 -0.2158936285510574 -0.10821961125055719 0 -0.21667273268885129 -0.096180336538011182 0 -0.20513614509024719 -0.1016345802900218 0 -0.2071778608735633 -0.087467961459403831 0 -0.21667273268885129 -0.096180336538011182 0 -0.20513614509024719 -0.1016345802900218 0 -0.19218739857884409 -0.093627473160469279 0 -0.18832861225570971 -0.1085209754586602 0 -0.199656781973338 -0.1187915037298435 0 -0.19218739857884409 -0.093627473160469279 0 -0.199656781973338 -0.1187915037298435 0 -0.19218739857884409 -0.093627473160469279 0 -0.20513614509024719 -0.1016345802900218 0 -0.199656781973338 -0.1187915037298435 0 -0.2071778608735633 -0.087467961459403831 0 -0.19218739857884409 -0.093627473160469279 0 -0.20513614509024719 -0.1016345802900218 0 -0.18832861225570971 -0.1085209754586602 0 -0.199656781973338 -0.1187915037298435 0 -0.17991015861913021 -0.11887802593492371 0 -0.19328727858188149 -0.1363170638771197 0 -0.199656781973338 -0.1187915037298435 0 -0.17991015861913021 -0.11887802593492371 0 -0.17991015861913021 -0.11887802593492371 0 -0.16898002584587879 -0.1110696349108696 0 -0.1815601098515266 -0.10278689900940439 0 -0.18832861225570971 -0.1085209754586602 0 -0.17991015861913021 -0.11887802593492371 0 -0.1815601098515266 -0.10278689900940439 0 -0.17991015861913021 -0.11887802593492371 0 -0.1681426676629178 -0.12314286884814719 0 -0.16898002584587879 -0.1110696349108696 0 -0.1681426676629178 -0.12314286884814719 0 -0.16898002584587879 -0.1110696349108696 0 -0.1592988757049022 -0.11317305550568491 0 -0.15647725152771719 -0.1280693704750773 0 -0.1681426676629178 -0.12314286884814719 0 -0.1592988757049022 -0.11317305550568491 0 -0.15625642019229369 -0.10141120842380449 0 -0.1815601098515266 -0.10278689900940439 0 -0.15625642019229369 -0.10141120842380449 0 -0.1815601098515266 -0.10278689900940439 0 -0.1658106535991567 -0.093354121069665244 0 -0.16898002584587879 -0.1110696349108696 0 -0.15625642019229369 -0.10141120842380449 0 -0.1815601098515266 -0.10278689900940439 0 -0.15625642019229369 -0.10141120842380449 0 -0.1658106535991567 -0.093354121069665244 0 -0.15559032719126889 -0.095687044370600272 0 -0.16898002584587879 -0.1110696349108696 0 -0.1592988757049022 -0.11317305550568491 0 -0.15625642019229369 -0.10141120842380449 0 -0.1815601098515266 -0.10278689900940439 0 -0.17900622914054959 -0.092311591462932024 0 -0.1658106535991567 -0.093354121069665244 0 -0.19218739857884409 -0.093627473160469279 0 -0.18832861225570971 -0.1085209754586602 0 -0.1815601098515266 -0.10278689900940439 0 -0.19218739857884409 -0.093627473160469279 0 -0.1815601098515266 -0.10278689900940439 0 -0.17900622914054959 -0.092311591462932024 0 -0.19218739857884409 -0.093627473160469279 0 -0.18008355921448341 -0.082882721547798396 0 -0.17900622914054959 -0.092311591462932024 0 -0.19218739857884409 -0.093627473160469279 0 -0.18008355921448341 -0.082882721547798396 0 -0.1847180151843503 -0.068463442591095047 0 -0.18008355921448341 -0.082882721547798396 0 -0.17131358116843889 -0.075139821565266204 0 -0.1718306494152374 -0.085758403736310926 0 -0.17900622914054959 -0.092311591462932024 0 -0.1658106535991567 -0.093354121069665244 0 -0.1718306494152374 -0.085758403736310926 0 -0.18008355921448341 -0.082882721547798396 0 -0.17900622914054959 -0.092311591462932024 0 -0.1718306494152374 -0.085758403736310926 0 -0.1847180151843503 -0.068463442591095047 0 -0.17131358116843889 -0.075139821565266204 0 -0.16857690911265111 -0.059563995774852239 0 -0.18008355921448341 -0.082882721547798396 0 -0.1847180151843503 -0.068463442591095047 0 -0.17131358116843889 -0.075139821565266204 0 -0.17131358116843889 -0.075139821565266204 0 -0.15839533182490581 -0.073215398996658618 0 -0.16857690911265111 -0.059563995774852239 0 -0.17131358116843889 -0.075139821565266204 0 -0.15839533182490581 -0.073215398996658618 0 -0.16196947866005609 -0.083796893306563924 0 -0.15839533182490581 -0.073215398996658618 0 -0.15419273138877521 -0.058953687871676368 0 -0.16857690911265111 -0.059563995774852239 0 -0.1658106535991567 -0.093354121069665244 0 -0.1718306494152374 -0.085758403736310926 0 -0.16196947866005609 -0.083796893306563924 0 -0.17131358116843889 -0.075139821565266204 0 -0.1718306494152374 -0.085758403736310926 0 -0.16196947866005609 -0.083796893306563924 0 -0.15839533182490581 -0.073215398996658618 0 -0.16196947866005609 -0.083796893306563924 0 -0.14905003913543211 -0.08467529077795774 0 -0.1658106535991567 -0.093354121069665244 0 -0.16196947866005609 -0.083796893306563924 0 -0.15541661681716601 -0.090638323693524883 0 -0.1658106535991567 -0.093354121069665244 0 -0.15541661681716601 -0.090638323693524883 0 -0.15559032719126889 -0.095687044370600272 0 -0.16196947866005609 -0.083796893306563924 0 -0.15541661681716601 -0.090638323693524883 0 -0.14905003913543211 -0.08467529077795774 0 -0.15541661681716601 -0.090638323693524883 0 -0.15024214579167081 -0.092916128782282115 0 -0.15559032719126889 -0.095687044370600272 0 -0.15541661681716601 -0.090638323693524883 0 -0.15024214579167081 -0.092916128782282115 0 -0.14905003913543211 -0.08467529077795774 0 -0.14905003913543211 -0.08467529077795774 0 -0.1455973924853349 -0.070962096753902276 0 -0.13614664591027101 -0.08273463482481605 0 -0.14905003913543211 -0.08467529077795774 0 -0.143992931483194 -0.091716432548328272 0 -0.13614664591027101 -0.08273463482481605 0 -0.15024214579167081 -0.092916128782282115 0 -0.14905003913543211 -0.08467529077795774 0 -0.143992931483194 -0.091716432548328272 0 -0.15839533182490581 -0.073215398996658618 0 -0.1455973924853349 -0.070962096753902276 0 -0.15419273138877521 -0.058953687871676368 0 -0.15839533182490581 -0.073215398996658618 0 -0.14905003913543211 -0.08467529077795774 0 -0.1455973924853349 -0.070962096753902276 0 -0.1455973924853349 -0.070962096753902276 0 -0.13009665225305461 -0.069848102338090801 0 -0.1443455323569838 -0.053055671882363882 0 -0.1455973924853349 -0.070962096753902276 0 -0.13009665225305461 -0.069848102338090801 0 -0.13614664591027101 -0.08273463482481605 0 -0.1158477721491263 -0.086640532793818475 0 -0.13303678585259171 -0.093377986338771729 0 -0.13095273053306089 -0.1000355178382047 0 -0.1158477721491263 -0.086640532793818475 0 -0.13303678585259171 -0.093377986338771729 0 -0.13614664591027101 -0.08273463482481605 0 -0.1158477721491263 -0.086640532793818475 0 -0.13009665225305461 -0.069848102338090801 0 -0.13614664591027101 -0.08273463482481605 0 -0.143992931483194 -0.091716432548328272 0 -0.13303678585259171 -0.093377986338771729 0 -0.13614664591027101 -0.08273463482481605 0 -0.13303678585259171 -0.093377986338771729 0 -0.13095273053306089 -0.1000355178382047 0 -0.15022579955605739 -0.10011543988372459 0 -0.1198692876805421 -0.1042703231428003 0 -0.13095273053306089 -0.1000355178382047 0 -0.12681483396540519 -0.1098867467418902 0 -0.13095273053306089 -0.1000355178382047 0 -0.14016563827911591 -0.1026415055042101 0 -0.12681483396540519 -0.1098867467418902 0 -0.13437698869884579 -0.12892749336359499 0 -0.14016563827911591 -0.1026415055042101 0 -0.12681483396540519 -0.1098867467418902 0 -0.13437698869884579 -0.12892749336359499 0 -0.14016563827911591 -0.1026415055042101 0 -0.1185880756222225 -0.1183208525496777 0 -0.13437698869884579 -0.12892749336359499 0 -0.12681483396540519 -0.1098867467418902 0 -0.13437698869884579 -0.12892749336359499 0 -0.14016563827911591 -0.1026415055042101 0 -0.1491945889414002 -0.11441310422365771 0 -0.13437698869884579 -0.12892749336359499 0 -0.15647725152771719 -0.1280693704750773 0 -0.1491945889414002 -0.11441310422365771 0 -0.15647725152771719 -0.1280693704750773 0 -0.1592988757049022 -0.11317305550568491 0 -0.1491945889414002 -0.11441310422365771 0 -0.1592988757049022 -0.11317305550568491 0 -0.15625642019229369 -0.10141120842380449 0 -0.1491945889414002 -0.11441310422365771 0 -0.13303678585259171 -0.093377986338771729 0 -0.15022579955605739 -0.10011543988372459 0 -0.15625642019229369 -0.10141120842380449 0 -0.13095273053306089 -0.1000355178382047 0 -0.143992931483194 -0.091716432548328272 0 -0.13303678585259171 -0.093377986338771729 0 -0.15022579955605739 -0.10011543988372459 0 -0.15625642019229369 -0.10141120842380449 0 -0.13095273053306089 -0.1000355178382047 0 -0.15022579955605739 -0.10011543988372459 0 -0.15625642019229369 -0.10141120842380449 0 -0.14016563827911591 -0.1026415055042101 0 -0.1491945889414002 -0.11441310422365771 0 -0.15625642019229369 -0.10141120842380449 0 -0.13095273053306089 -0.1000355178382047 0 -0.14016563827911591 -0.1026415055042101 0 -0.15625642019229369 -0.10141120842380449 0 -0.15559032719126889 -0.095687044370600272 0 -0.15022579955605739 -0.10011543988372459 0 -0.15024214579167081 -0.092916128782282115 0 -0.15559032719126889 -0.095687044370600272 0 -0.15022579955605739 -0.10011543988372459 0 -0.15024214579167081 -0.092916128782282115 0 -0.143992931483194 -0.091716432548328272 0 -0.15022579955605739 -0.10011543988372459 0 -0.1526492862091216 -0.01251733920574956 0 -0.13541840610261691 -0.019155779285672421 0 -0.15404849116400071 -0.037971275950604823 0 -0.1526492862091216 -0.01251733920574956 0 -0.13951651307915861 0.001818242699473991 0 -0.16230986500086869 0.0070286491170276494 0 -0.1526492862091216 -0.01251733920574956 0 -0.13541840610261691 -0.019155779285672421 0 -0.13951651307915861 0.001818242699473991 0 -0.1225176250232036 -0.0078700669593853856 0 -0.13541840610261691 -0.019155779285672421 0 -0.13951651307915861 0.001818242699473991 0 -0.13541840610261691 -0.019155779285672421 0 -0.1277328082622505 -0.037713570700293603 0 -0.15404849116400071 -0.037971275950604823 0 -0.1247848445325743 -0.056307850212848037 0 -0.13009665225305461 -0.069848102338090801 0 -0.1443455323569838 -0.053055671882363882 0 -0.13009665225305461 -0.069848102338090801 0 -0.1443455323569838 -0.053055671882363882 0 -0.1247848445325743 -0.056307850212848037 0 -0.1277328082622505 -0.037713570700293603 0 -0.1443455323569838 -0.053055671882363882 0 -0.1455973924853349 -0.070962096753902276 0 -0.1443455323569838 -0.053055671882363882 0 -0.15419273138877521 -0.058953687871676368 0 -0.1443455323569838 -0.053055671882363882 0 -0.15419273138877521 -0.058953687871676368 0 -0.15404849116400071 -0.037971275950604823 0 -0.1277328082622505 -0.037713570700293603 0 -0.1443455323569838 -0.053055671882363882 0 -0.15404849116400071 -0.037971275950604823 0 -0.15404849116400071 -0.037971275950604823 0 -0.17724863178985639 -0.043299412021720822 0 -0.1697792483953626 -0.018135381452346569 0 -0.15419273138877521 -0.058953687871676368 0 -0.15404849116400071 -0.037971275950604823 0 -0.16857690911265111 -0.059563995774852239 0 -0.15404849116400071 -0.037971275950604823 0 -0.16857690911265111 -0.059563995774852239 0 -0.17724863178985639 -0.043299412021720822 0 -0.1847180151843503 -0.068463442591095047 0 -0.17724863178985639 -0.043299412021720822 0 -0.1847180151843503 -0.068463442591095047 0 -0.16857690911265111 -0.059563995774852239 0 -0.17724863178985639 -0.043299412021720822 0 -0.1847180151843503 -0.068463442591095047 0 -0.17724863178985639 -0.043299412021720822 0 -0.19461421136238921 -0.049987971652304883 0 -0.17724863178985639 -0.043299412021720822 0 -0.1697792483953626 -0.018135381452346569 0 -0.19202504545043739 -0.02912278072313914 0 -0.1697792483953626 -0.018135381452346569 0 -0.19161638029329151 -0.013230410301075281 0 -0.19202504545043739 -0.02912278072313914 0 -0.17724863178985639 -0.043299412021720822 0 -0.1697792483953626 -0.018135381452346569 0 -0.1526492862091216 -0.01251733920574956 0 -0.15404849116400071 -0.037971275950604823 0 -0.1697792483953626 -0.018135381452346569 0 -0.1697792483953626 -0.018135381452346569 0 -0.1822461022999366 -0.0040686225419137153 0 -0.16230986500086869 0.0070286491170276494 0 -0.1697792483953626 -0.018135381452346569 0 -0.16230986500086869 0.0070286491170276494 0 -0.1526492862091216 -0.01251733920574956 0 -0.1697792483953626 -0.018135381452346569 0 -0.16230986500086869 0.0070286491170276494 0 -0.1697792483953626 -0.018135381452346569 0 -0.1822461022999366 -0.0040686225419137153 0 -0.19161638029329151 -0.013230410301075281 0 -0.1822461022999366 -0.0040686225419137153 0 -0.1955982016858957 -0.001494854227324932 0 -0.19161638029329151 -0.013230410301075281 0 -0.1955982016858957 -0.001494854227324932 0 -0.20565727579733331 -0.0093008170811251616 0 -0.20503895199276609 0.0050835197621804653 0 -0.1955982016858957 -0.001494854227324932 0 -0.19161638029329151 -0.013230410301075281 0 -0.20565727579733331 -0.0093008170811251616 0 -0.19202504545043739 -0.02912278072313914 0 -0.20565727579733331 -0.0093008170811251616 0 -0.19202504545043739 -0.02912278072313914 0 -0.20339200786593781 -0.025049770377433049 0 -0.20565727579733331 -0.0093008170811251616 0 -0.19161638029329151 -0.013230410301075281 0 -0.19202504545043739 -0.02912278072313914 0 -0.20565727579733331 -0.0093008170811251616 0 -0.19202504545043739 -0.02912278072313914 0 -0.20339200786593781 -0.025049770377433049 0 -0.19900581094971781 -0.038199572226738893 0 -0.21160253987339539 -0.02994398791959349 0 -0.21544602300881169 -0.0097114206793520678 0 -0.22020751524031459 -0.011701023495682489 0 -0.20866936725880531 -0.018681693936568541 0 -0.20339200786593781 -0.025049770377433049 0 -0.20565727579733331 -0.0093008170811251616 0 -0.21160253987339539 -0.02994398791959349 0 -0.21042644095254431 -0.039029295851989811 0 -0.22020751524031459 -0.011701023495682489 0 -0.21042644095254431 -0.039029295851989811 0 -0.22020751524031459 -0.011701023495682489 0 -0.21160253987339539 -0.02994398791959349 0 -0.21544602300881169 -0.0097114206793520678 0 -0.20866936725880531 -0.018681693936568541 0 -0.21160253987339539 -0.02994398791959349 0 -0.21544602300881169 -0.0097114206793520678 0 -0.21783290026055099 -0.03009755298673435 0 -0.21042644095254431 -0.039029295851989811 0 -0.22020751524031459 -0.011701023495682489 0 -0.20339200786593781 -0.025049770377433049 0 -0.21160253987339539 -0.02994398791959349 0 -0.19900581094971781 -0.038199572226738893 0 -0.20866936725880531 -0.018681693936568541 0 -0.20339200786593781 -0.025049770377433049 0 -0.21160253987339539 -0.02994398791959349 0 -0.21544602300881169 -0.0097114206793520678 0 -0.22020751524031459 -0.011701023495682489 0 -0.2192895061442286 0.01052114656088919 0 -0.21544602300881169 -0.0097114206793520678 0 -0.20565727579733331 -0.0093008170811251616 0 -0.2192895061442286 0.01052114656088919 0 -0.20866936725880531 -0.018681693936568541 0 -0.21544602300881169 -0.0097114206793520678 0 -0.20565727579733331 -0.0093008170811251616 0 -0.20064536666477389 -0.06635756820829708 0 -0.1847180151843503 -0.068463442591095047 0 -0.19461421136238921 -0.049987971652304883 0 -0.20064536666477389 -0.06635756820829708 0 -0.19461421136238921 -0.049987971652304883 0 -0.21042644095254431 -0.039029295851989811 0 -0.19461421136238921 -0.049987971652304883 0 -0.19900581094971781 -0.038199572226738893 0 -0.21042644095254431 -0.039029295851989811 0 -0.17724863178985639 -0.043299412021720822 0 -0.19461421136238921 -0.049987971652304883 0 -0.19900581094971781 -0.038199572226738893 0 -0.17724863178985639 -0.043299412021720822 0 -0.19202504545043739 -0.02912278072313914 0 -0.19900581094971781 -0.038199572226738893 0 -0.21160253987339539 -0.02994398791959349 0 -0.19900581094971781 -0.038199572226738893 0 -0.21042644095254431 -0.039029295851989811 0 -0.21783290026055099 -0.03009755298673435 0 -0.21042644095254431 -0.039029295851989811 0 -0.22036204514197719 -0.038185436578717799 0 -0.21042644095254431 -0.039029295851989811 0 -0.2197923646822442 -0.047707515828044458 0 -0.22036204514197719 -0.038185436578717799 0 -0.20064536666477389 -0.06635756820829708 0 -0.21042644095254431 -0.039029295851989811 0 -0.2139858859683498 -0.055706773861447997 0 -0.21042644095254431 -0.039029295851989811 0 -0.2139858859683498 -0.055706773861447997 0 -0.2197923646822442 -0.047707515828044458 0 -0.20064536666477389 -0.06635756820829708 0 -0.21042644095254431 -0.039029295851989811 0 -0.2146739735877084 -0.067327894509781647 0 -0.2139858859683498 -0.055706773861447997 0 -0.2232201331584335 -0.058644516826800948 0 -0.22804143254625411 -0.069488866760595971 0 -0.2232201331584335 -0.058644516826800948 0 -0.2358781278801324 -0.058811285885250558 0 -0.2232201331584335 -0.058644516826800948 0 -0.22939297362076649 -0.049514713952963398 0 -0.2358781278801324 -0.058811285885250558 0 -0.2139858859683498 -0.055706773861447997 0 -0.2232201331584335 -0.058644516826800948 0 -0.2197923646822442 -0.047707515828044458 0 -0.2232201331584335 -0.058644516826800948 0 -0.2197923646822442 -0.047707515828044458 0 -0.22939297362076649 -0.049514713952963398 0 -0.22939297362076649 -0.049514713952963398 0 -0.2354001982463991 -0.048584564474444591 0 -0.2358781278801324 -0.058811285885250558 0 -0.22939297362076649 -0.049514713952963398 0 -0.23265388093652389 -0.041561654975670118 0 -0.226025012959573 -0.042570197396581883 0 -0.22939297362076649 -0.049514713952963398 0 -0.23265388093652389 -0.041561654975670118 0 -0.2354001982463991 -0.048584564474444591 0 -0.23265388093652389 -0.041561654975670118 0 -0.226025012959573 -0.042570197396581883 0 -0.22792380041635321 -0.035881665647513619 0 -0.2197923646822442 -0.047707515828044458 0 -0.22939297362076649 -0.049514713952963398 0 -0.226025012959573 -0.042570197396581883 0 -0.2197923646822442 -0.047707515828044458 0 -0.226025012959573 -0.042570197396581883 0 -0.22036204514197719 -0.038185436578717799 0 -0.226025012959573 -0.042570197396581883 0 -0.22036204514197719 -0.038185436578717799 0 -0.22792380041635321 -0.035881665647513619 0 -0.21783290026055099 -0.03009755298673435 0 -0.22036204514197719 -0.038185436578717799 0 -0.22466036314432891 -0.030551632032027268 0 -0.22036204514197719 -0.038185436578717799 0 -0.22792380041635321 -0.035881665647513619 0 -0.22466036314432891 -0.030551632032027268 0 -0.23265388093652389 -0.041561654975670118 0 -0.23261582760591051 -0.03268104148419846 0 -0.22792380041635321 -0.035881665647513619 0 -0.23261582760591051 -0.03268104148419846 0 -0.22792380041635321 -0.035881665647513619 0 -0.22466036314432891 -0.030551632032027268 0 -0.24251651689062559 -0.046519879136292311 0 -0.23929967546618991 -0.020816211343377258 0 -0.24858975342967821 -0.036850204349629587 0 -0.24251651689062559 -0.046519879136292311 0 -0.23929967546618991 -0.020816211343377258 0 -0.23261582760591051 -0.03268104148419846 0 -0.24251651689062559 -0.046519879136292311 0 -0.23929967546618991 -0.020816211343377258 0 -0.24858975342967821 -0.036850204349629587 0 -0.24251651689062559 -0.046519879136292311 0 -0.24833503938172591 -0.049110036736950483 0 -0.23265388093652389 -0.041561654975670118 0 -0.24251651689062559 -0.046519879136292311 0 -0.2354001982463991 -0.048584564474444591 0 -0.23265388093652389 -0.041561654975670118 0 -0.23261582760591051 -0.03268104148419846 0 -0.24251651689062559 -0.046519879136292311 0 -0.24573335831506091 -0.072223546929207308 0 -0.24833503938172591 -0.049110036736950483 0 -0.24573335831506091 -0.072223546929207308 0 -0.24251651689062559 -0.046519879136292311 0 -0.2358781278801324 -0.058811285885250558 0 -0.24573335831506091 -0.072223546929207308 0 -0.24251651689062559 -0.046519879136292311 0 -0.24573335831506091 -0.072223546929207308 0 -0.24251651689062559 -0.046519879136292311 0 -0.24833503938172591 -0.049110036736950483 0 -0.24251651689062559 -0.046519879136292311 0 -0.2354001982463991 -0.048584564474444591 0 -0.2358781278801324 -0.058811285885250558 0 -0.2289503246902751 -0.0048591373300140546 0 -0.22020751524031459 -0.011701023495682489 0 -0.22998858952808501 0.015627248860624859 0 -0.23245587397666551 -0.01234847425102157 0 -0.2289503246902751 -0.0048591373300140546 0 -0.22616826386968741 -0.015074546114343499 0 -0.23245587397666551 -0.01234847425102157 0 -0.2289503246902751 -0.0048591373300140546 0 -0.23636857585995191 -6.0594713063509317e-05 0 -0.2289503246902751 -0.0048591373300140546 0 -0.22020751524031459 -0.011701023495682489 0 -0.22616826386968741 -0.015074546114343499 0 -0.21783290026055099 -0.03009755298673435 0 -0.22020751524031459 -0.011701023495682489 0 -0.22349017618457351 -0.0218919829512867 0 -0.22020751524031459 -0.011701023495682489 0 -0.22616826386968741 -0.015074546114343499 0 -0.22349017618457351 -0.0218919829512867 0 -0.22616826386968741 -0.015074546114343499 0 -0.22349017618457351 -0.0218919829512867 0 -0.22858183840798549 -0.022035160127645882 0 -0.21783290026055099 -0.03009755298673435 0 -0.22349017618457351 -0.0218919829512867 0 -0.22466036314432891 -0.030551632032027268 0 -0.22349017618457351 -0.0218919829512867 0 -0.22466036314432891 -0.030551632032027268 0 -0.22858183840798549 -0.022035160127645882 0 -0.23261582760591051 -0.03268104148419846 0 -0.22858183840798549 -0.022035160127645882 0 -0.23929967546618991 -0.020816211343377258 0 -0.23261582760591051 -0.03268104148419846 0 -0.22466036314432891 -0.030551632032027268 0 -0.22858183840798549 -0.022035160127645882 0 -0.23245587397666551 -0.01234847425102157 0 -0.22858183840798549 -0.022035160127645882 0 -0.23929967546618991 -0.020816211343377258 0 -0.23245587397666551 -0.01234847425102157 0 -0.22616826386968741 -0.015074546114343499 0 -0.22858183840798549 -0.022035160127645882 0 -0.24858975342967821 -0.036850204349629587 0 -0.23929967546618991 -0.020816211343377258 0 -0.24951358925154729 -0.025828507085514169 0 -0.23929967546618991 -0.020816211343377258 0 -0.24951358925154729 -0.025828507085514169 0 -0.2528786039603092 -0.016399520772496168 0 -0.23929967546618991 -0.020816211343377258 0 -0.2419023373017215 -0.009247861571195717 0 -0.2528786039603092 -0.016399520772496168 0 -0.2419023373017215 -0.009247861571195717 0 -0.2528786039603092 -0.016399520772496168 0 -0.2485089572454911 0.003385493223979923 0 -0.23245587397666551 -0.01234847425102157 0 -0.23929967546618991 -0.020816211343377258 0 -0.2419023373017215 -0.009247861571195717 0 -0.23245587397666551 -0.01234847425102157 0 -0.2419023373017215 -0.009247861571195717 0 -0.23636857585995191 -6.0594713063509317e-05 0 -0.2419023373017215 -0.009247861571195717 0 -0.23636857585995191 -6.0594713063509317e-05 0 -0.2485089572454911 0.003385493223979923 0 -0.2528786039603092 -0.016399520772496168 0 -0.2485089572454911 0.003385493223979923 0 -0.26747260865080191 -0.017089768416413059 0 -0.26642496317589431 0.0095796308674223063 0 -0.2485089572454911 0.003385493223979923 0 -0.2528786039603092 -0.016399520772496168 0 -0.26747260865080191 -0.017089768416413059 0 -0.2485089572454911 0.003385493223979923 0 -0.25881776280186108 -0.026685475365372541 0 -0.26747260865080191 -0.017089768416413059 0 -0.26852025412570951 -0.043759167700248368 0 -0.24951358925154729 -0.025828507085514169 0 -0.25881776280186108 -0.026685475365372541 0 -0.25529745872645981 -0.035004844390742203 0 -0.24951358925154729 -0.025828507085514169 0 -0.2528786039603092 -0.016399520772496168 0 -0.25881776280186108 -0.026685475365372541 0 -0.2528786039603092 -0.016399520772496168 0 -0.25881776280186108 -0.026685475365372541 0 -0.26747260865080191 -0.017089768416413059 0 -0.26747260865080191 -0.017089768416413059 0 -0.26852025412570951 -0.043759167700248368 0 -0.26747260865080191 -0.017089768416413059 0 -0.28254336867746438 -0.031511785126749903 0 -0.26852025412570951 -0.043759167700248368 0 -0.26747260865080191 -0.017089768416413059 0 -0.28153559858221189 -0.015926893436313629 0 -0.28254336867746438 -0.031511785126749903 0 -0.26747260865080191 -0.017089768416413059 0 -0.26642496317589431 0.0095796308674223063 0 -0.26747260865080191 -0.017089768416413059 0 -0.27866210440397582 -0.0018096150187411771 0 -0.26642496317589431 0.0095796308674223063 0 -0.26747260865080191 -0.017089768416413059 0 -0.27866210440397582 -0.0018096150187411771 0 -0.28153559858221189 -0.015926893436313629 0 -0.27866210440397582 -0.0018096150187411771 0 -0.29224168080721352 -0.002744354306171004 0 -0.28153559858221189 -0.015926893436313629 0 -0.29224168080721352 -0.002744354306171004 0 -0.28153559858221189 -0.015926893436313629 0 -0.29444326544746852 -0.0164491161404582 0 -0.28153559858221189 -0.015926893436313629 0 -0.29444326544746852 -0.0164491161404582 0 -0.28254336867746438 -0.031511785126749903 0 -0.29444326544746852 -0.0164491161404582 0 -0.29791193863694237 -0.028904297361305419 0 -0.28254336867746438 -0.031511785126749903 0 -0.29791193863694237 -0.028904297361305419 0 -0.30843294760910722 -0.01505578177925279 0 -0.31790149285776981 -0.034381001124730769 0 -0.29444326544746852 -0.0164491161404582 0 -0.29791193863694237 -0.028904297361305419 0 -0.30843294760910722 -0.01505578177925279 0 -0.29224168080721352 -0.002744354306171004 0 -0.30843294760910722 -0.01505578177925279 0 -0.31335731529424948 0.0021353429941924581 0 -0.29224168080721352 -0.002744354306171004 0 -0.29444326544746852 -0.0164491161404582 0 -0.30843294760910722 -0.01505578177925279 0 -0.29479307157011703 -0.049633931775055297 0 -0.30254704706945268 -0.069599956738355798 0 -0.3125799349015439 -0.054617044770973892 0 -0.30601717581527188 -0.041503540211160331 0 -0.29479307157011703 -0.049633931775055297 0 -0.3125799349015439 -0.054617044770973892 0 -0.29791193863694237 -0.028904297361305419 0 -0.30601717581527188 -0.041503540211160331 0 -0.31790149285776981 -0.034381001124730769 0 -0.29791193863694237 -0.028904297361305419 0 -0.30601717581527188 -0.041503540211160331 0 -0.29479307157011703 -0.049633931775055297 0 -0.30601717581527188 -0.041503540211160331 0 -0.31790149285776981 -0.034381001124730769 0 -0.3125799349015439 -0.054617044770973892 0 -0.29791193863694237 -0.028904297361305419 0 -0.28254336867746438 -0.031511785126749903 0 -0.29479307157011703 -0.049633931775055297 0 -0.28254336867746438 -0.031511785126749903 0 -0.29479307157011703 -0.049633931775055297 0 -0.27830241320983312 -0.05493664134736842 0 -0.29479307157011703 -0.049633931775055297 0 -0.27830241320983312 -0.05493664134736842 0 -0.28561560156269172 -0.068540435769159719 0 -0.27830241320983312 -0.05493664134736842 0 -0.26852025412570951 -0.043759167700248368 0 -0.26375023687817029 -0.064000427175206195 0 -0.28254336867746438 -0.031511785126749903 0 -0.27830241320983312 -0.05493664134736842 0 -0.26852025412570951 -0.043759167700248368 0 -0.25881776280186108 -0.026685475365372541 0 -0.26852025412570951 -0.043759167700248368 0 -0.25529745872645981 -0.035004844390742203 0 -0.26852025412570951 -0.043759167700248368 0 -0.25672851804168539 -0.04454833910041324 0 -0.25529745872645981 -0.035004844390742203 0 -0.24858975342967821 -0.036850204349629587 0 -0.24833503938172591 -0.049110036736950483 0 -0.25672851804168539 -0.04454833910041324 0 -0.24858975342967821 -0.036850204349629587 0 -0.24951358925154729 -0.025828507085514169 0 -0.25529745872645981 -0.035004844390742203 0 -0.24858975342967821 -0.036850204349629587 0 -0.25672851804168539 -0.04454833910041324 0 -0.25529745872645981 -0.035004844390742203 0 -0.26852025412570951 -0.043759167700248368 0 -0.2566134813484704 -0.054728303528405117 0 -0.26375023687817029 -0.064000427175206195 0 -0.24573335831506091 -0.072223546929207308 0 -0.24833503938172591 -0.049110036736950483 0 -0.2566134813484704 -0.054728303528405117 0 -0.26852025412570951 -0.043759167700248368 0 -0.25672851804168539 -0.04454833910041324 0 -0.2566134813484704 -0.054728303528405117 0 -0.24833503938172591 -0.049110036736950483 0 -0.25672851804168539 -0.04454833910041324 0 -0.2566134813484704 -0.054728303528405117 0 -0.26375023687817029 -0.064000427175206195 0 -0.26085089313101972 -0.084735341670927444 0 -0.27148368786142402 -0.074372506017998788 0 -0.24573335831506091 -0.072223546929207308 0 -0.26375023687817029 -0.064000427175206195 0 -0.26085089313101972 -0.084735341670927444 0 -0.24573335831506091 -0.072223546929207308 0 -0.2566134813484704 -0.054728303528405117 0 -0.26375023687817029 -0.064000427175206195 0 -0.24932164404889159 -0.10089518232528739 0 -0.24573335831506091 -0.072223546929207308 0 -0.26085089313101972 -0.084735341670927444 0 -0.26085089313101972 -0.084735341670927444 0 -0.27902403967926481 -0.088218860884455241 0 -0.26739164926711761 -0.099759796145911975 0 -0.26085089313101972 -0.084735341670927444 0 -0.27902403967926481 -0.088218860884455241 0 -0.27148368786142402 -0.074372506017998788 0 -0.27830241320983312 -0.05493664134736842 0 -0.27148368786142402 -0.074372506017998788 0 -0.28561560156269172 -0.068540435769159719 0 -0.27902403967926481 -0.088218860884455241 0 -0.27148368786142402 -0.074372506017998788 0 -0.28561560156269172 -0.068540435769159719 0 -0.27830241320983312 -0.05493664134736842 0 -0.26375023687817029 -0.064000427175206195 0 -0.27148368786142402 -0.074372506017998788 0 -0.2458120064018233 -0.13105608495815749 0 -0.25712520341529138 -0.1208591812414372 0 -0.25333144976642291 -0.1078957133145429 0 -0.25712520341529138 -0.1208591812414372 0 -0.26638547612983182 -0.1130488397058776 0 -0.26676426796903763 -0.12698661961819299 0 -0.25712520341529138 -0.1208591812414372 0 -0.25333144976642291 -0.1078957133145429 0 -0.26638547612983182 -0.1130488397058776 0 -0.24932164404889159 -0.10089518232528739 0 -0.26085089313101972 -0.084735341670927444 0 -0.25333144976642291 -0.1078957133145429 0 -0.26085089313101972 -0.084735341670927444 0 -0.25333144976642291 -0.1078957133145429 0 -0.26085089313101972 -0.084735341670927444 0 -0.25333144976642291 -0.1078957133145429 0 -0.26739164926711761 -0.099759796145911975 0 -0.25333144976642291 -0.1078957133145429 0 -0.26739164926711761 -0.099759796145911975 0 -0.26638547612983182 -0.1130488397058776 0 -0.27902403967926481 -0.088218860884455241 0 -0.26739164926711761 -0.099759796145911975 0 -0.27736638762904903 -0.1049002251537567 0 -0.26739164926711761 -0.099759796145911975 0 -0.27736638762904903 -0.1049002251537567 0 -0.26638547612983182 -0.1130488397058776 0 -0.27736638762904903 -0.1049002251537567 0 -0.26638547612983182 -0.1130488397058776 0 -0.28193386303200718 -0.1202288015925681 0 -0.26638547612983182 -0.1130488397058776 0 -0.28193386303200718 -0.1202288015925681 0 -0.26676426796903763 -0.12698661961819299 0 -0.27736638762904903 -0.1049002251537567 0 -0.28193386303200718 -0.1202288015925681 0 -0.29657082485421138 -0.1055191441337949 0 -0.28193386303200718 -0.1202288015925681 0 -0.29657082485421138 -0.1055191441337949 0 -0.29654027025468738 -0.12629100303278659 0 -0.27902403967926481 -0.088218860884455241 0 -0.27736638762904903 -0.1049002251537567 0 -0.29657082485421138 -0.1055191441337949 0 -0.29657082485421138 -0.1055191441337949 0 -0.30961516295654029 -0.087010848132252239 0 -0.31769101118310672 -0.1036378528012024 0 -0.29657082485421138 -0.1055191441337949 0 -0.31662608448940099 -0.1243755188391943 0 -0.29654027025468738 -0.12629100303278659 0 -0.29657082485421138 -0.1055191441337949 0 -0.31662608448940099 -0.1243755188391943 0 -0.29657082485421138 -0.1055191441337949 0 -0.31662608448940099 -0.1243755188391943 0 -0.31769101118310672 -0.1036378528012024 0 -0.28561560156269172 -0.068540435769159719 0 -0.29467453522443221 -0.083777849131603577 0 -0.30254704706945268 -0.069599956738355798 0 -0.29479307157011703 -0.049633931775055297 0 -0.28561560156269172 -0.068540435769159719 0 -0.30254704706945268 -0.069599956738355798 0 -0.27902403967926481 -0.088218860884455241 0 -0.28561560156269172 -0.068540435769159719 0 -0.29467453522443221 -0.083777849131603577 0 -0.27902403967926481 -0.088218860884455241 0 -0.29657082485421138 -0.1055191441337949 0 -0.29467453522443221 -0.083777849131603577 0 -0.29657082485421138 -0.1055191441337949 0 -0.29467453522443221 -0.083777849131603577 0 -0.30961516295654029 -0.087010848132252239 0 -0.29467453522443221 -0.083777849131603577 0 -0.30961516295654029 -0.087010848132252239 0 -0.30254704706945268 -0.069599956738355798 0 -0.30254704706945268 -0.069599956738355798 0 -0.31982127282141842 -0.070476677216070413 0 -0.3125799349015439 -0.054617044770973892 0 -0.30961516295654029 -0.087010848132252239 0 -0.30254704706945268 -0.069599956738355798 0 -0.31982127282141842 -0.070476677216070413 0 -0.31982127282141842 -0.070476677216070413 0 -0.32688784749083521 -0.086483313065799747 0 -0.33443627266128162 -0.072401880771388788 0 -0.30961516295654029 -0.087010848132252239 0 -0.31982127282141842 -0.070476677216070413 0 -0.32688784749083521 -0.086483313065799747 0 -0.30961516295654029 -0.087010848132252239 0 -0.32688784749083521 -0.086483313065799747 0 -0.31769101118310672 -0.1036378528012024 0 -0.32688784749083521 -0.086483313065799747 0 -0.33443627266128162 -0.072401880771388788 0 -0.34659730159303892 -0.085345173365449542 0 -0.32688784749083521 -0.086483313065799747 0 -0.3377350642024361 -0.098213758395260961 0 -0.34659730159303892 -0.085345173365449542 0 -0.33443627266128162 -0.072401880771388788 0 -0.34771325478507242 -0.06925829317017182 0 -0.34659730159303892 -0.085345173365449542 0 -0.31982127282141842 -0.070476677216070413 0 -0.33443627266128162 -0.072401880771388788 0 -0.3328613718488565 -0.052747019817652077 0 -0.33443627266128162 -0.072401880771388788 0 -0.34771325478507242 -0.06925829317017182 0 -0.3328613718488565 -0.052747019817652077 0 -0.31662608448940099 -0.1243755188391943 0 -0.31769101118310672 -0.1036378528012024 0 -0.3307648767968549 -0.1122034899876686 0 -0.32688784749083521 -0.086483313065799747 0 -0.31769101118310672 -0.1036378528012024 0 -0.3377350642024361 -0.098213758395260961 0 -0.31769101118310672 -0.1036378528012024 0 -0.3377350642024361 -0.098213758395260961 0 -0.3307648767968549 -0.1122034899876686 0 -0.3377350642024361 -0.098213758395260961 0 -0.3307648767968549 -0.1122034899876686 0 -0.34849180510688521 -0.1202651962076076 0 -0.34849180510688521 -0.1202651962076076 0 -0.36578966292746412 -0.1135115224896999 0 -0.36190268308051721 -0.12971352894201479 0 -0.34849180510688521 -0.1202651962076076 0 -0.35382794910498477 -0.1020745591843206 0 -0.36578966292746412 -0.1135115224896999 0 -0.3377350642024361 -0.098213758395260961 0 -0.34849180510688521 -0.1202651962076076 0 -0.35382794910498477 -0.1020745591843206 0 -0.3377350642024361 -0.098213758395260961 0 -0.35382794910498477 -0.1020745591843206 0 -0.34659730159303892 -0.085345173365449542 0 -0.3696766427744112 -0.097309516037384955 0 -0.3767820330448749 -0.1195856626407029 0 -0.3696766427744112 -0.097309516037384955 0 -0.36578966292746412 -0.1135115224896999 0 -0.35382794910498477 -0.1020745591843206 0 -0.3696766427744112 -0.097309516037384955 0 -0.35907729847915948 -0.091338063525396251 0 -0.35382794910498477 -0.1020745591843206 0 -0.3696766427744112 -0.097309516037384955 0 -0.36578966292746412 -0.1135115224896999 0 -0.36578966292746412 -0.1135115224896999 0 -0.36190268308051721 -0.12971352894201479 0 -0.3767820330448749 -0.1195856626407029 0 -0.36578966292746412 -0.1135115224896999 0 -0.36190268308051721 -0.12971352894201479 0 -0.3696766427744112 -0.097309516037384955 0 -0.36578966292746412 -0.1135115224896999 0 -0.3767820330448749 -0.1195856626407029 0 -0.34771325478507242 -0.06925829317017182 0 -0.35892514503739148 -0.063602438638597894 0 -0.36430089390590148 -0.080455977337991369 0 -0.34659730159303892 -0.085345173365449542 0 -0.35907729847915948 -0.091338063525396251 0 -0.36430089390590148 -0.080455977337991369 0 -0.35382794910498477 -0.1020745591843206 0 -0.34659730159303892 -0.085345173365449542 0 -0.35907729847915948 -0.091338063525396251 0 -0.34771325478507242 -0.06925829317017182 0 -0.34659730159303892 -0.085345173365449542 0 -0.36430089390590148 -0.080455977337991369 0 -0.3696766427744112 -0.097309516037384955 0 -0.36430089390590148 -0.080455977337991369 0 -0.3696766427744112 -0.097309516037384955 0 -0.35907729847915948 -0.091338063525396251 0 -0.36430089390590148 -0.080455977337991369 0 -0.3696766427744112 -0.097309516037384955 0 -0.36430089390590148 -0.080455977337991369 0 -0.37565057138962687 -0.072408530238494084 0 -0.3696766427744112 -0.097309516037384955 0 -0.37565057138962687 -0.072408530238494084 0 -0.35892514503739148 -0.063602438638597894 0 -0.36430089390590148 -0.080455977337991369 0 -0.35892514503739148 -0.063602438638597894 0 -0.36430089390590148 -0.080455977337991369 0 -0.37565057138962687 -0.072408530238494084 0 -0.35892514503739148 -0.063602438638597894 0 -0.38162450000484288 -0.047507544439603283 0 -0.37565057138962687 -0.072408530238494084 0 -0.35892514503739148 -0.063602438638597894 0 -0.36282477853444178 -0.045595232034515258 0 -0.38162450000484288 -0.047507544439603283 0 -0.35892514503739148 -0.063602438638597894 0 -0.3497830813918078 -0.05341887731759571 0 -0.36282477853444178 -0.045595232034515258 0 -0.34771325478507242 -0.06925829317017182 0 -0.35892514503739148 -0.063602438638597894 0 -0.3497830813918078 -0.05341887731759571 0 -0.3497830813918078 -0.05341887731759571 0 -0.34834017462639122 -0.037375251024332423 0 -0.36282477853444178 -0.045595232034515258 0 -0.34834017462639122 -0.037375251024332423 0 -0.36282477853444178 -0.045595232034515258 0 -0.36688118527858421 -0.027622691996459298 0 -0.36282477853444178 -0.045595232034515258 0 -0.36688118527858421 -0.027622691996459298 0 -0.38162450000484288 -0.047507544439603283 0 -0.36688118527858421 -0.027622691996459298 0 -0.37438110969473948 -0.017954152891088929 0 -0.36049617765063863 -0.0084103294643343759 0 -0.37438110969473948 -0.017954152891088929 0 -0.36049617765063863 -0.0084103294643343759 0 -0.37709764393308509 -0.0085055001227270794 0 -0.36049617765063863 -0.0084103294643343759 0 -0.37709764393308509 -0.0085055001227270794 0 -0.37298238841676712 0.0031846617099019581 0 -0.36049617765063863 -0.0084103294643343759 0 -0.34468468197462609 -0.018941382924505892 0 -0.33774384987696648 0.00047230195359800368 0 -0.36688118527858421 -0.027622691996459298 0 -0.36049617765063863 -0.0084103294643343759 0 -0.34468468197462609 -0.018941382924505892 0 -0.34834017462639122 -0.037375251024332423 0 -0.36688118527858421 -0.027622691996459298 0 -0.34468468197462609 -0.018941382924505892 0 -0.34834017462639122 -0.037375251024332423 0 -0.34468468197462609 -0.018941382924505892 0 -0.33401246408119672 -0.031937695068545352 0 -0.34468468197462609 -0.018941382924505892 0 -0.32627459909833989 -0.016243820451505589 0 -0.33401246408119672 -0.031937695068545352 0 -0.34468468197462609 -0.018941382924505892 0 -0.32627459909833989 -0.016243820451505589 0 -0.33774384987696648 0.00047230195359800368 0 -0.32627459909833989 -0.016243820451505589 0 -0.31335731529424948 0.0021353429941924581 0 -0.33774384987696648 0.00047230195359800368 0 -0.30843294760910722 -0.01505578177925279 0 -0.32627459909833989 -0.016243820451505589 0 -0.31335731529424948 0.0021353429941924581 0 -0.30843294760910722 -0.01505578177925279 0 -0.32627459909833989 -0.016243820451505589 0 -0.31790149285776981 -0.034381001124730769 0 -0.32627459909833989 -0.016243820451505589 0 -0.31790149285776981 -0.034381001124730769 0 -0.33401246408119672 -0.031937695068545352 0 -0.31982127282141842 -0.070476677216070413 0 -0.3125799349015439 -0.054617044770973892 0 -0.3328613718488565 -0.052747019817652077 0 -0.31790149285776981 -0.034381001124730769 0 -0.3125799349015439 -0.054617044770973892 0 -0.3328613718488565 -0.052747019817652077 0 -0.34771325478507242 -0.06925829317017182 0 -0.3497830813918078 -0.05341887731759571 0 -0.3328613718488565 -0.052747019817652077 0 -0.3497830813918078 -0.05341887731759571 0 -0.34834017462639122 -0.037375251024332423 0 -0.3328613718488565 -0.052747019817652077 0 -0.31790149285776981 -0.034381001124730769 0 -0.3328613718488565 -0.052747019817652077 0 -0.33401246408119672 -0.031937695068545352 0 -0.34834017462639122 -0.037375251024332423 0 -0.3328613718488565 -0.052747019817652077 0 -0.33401246408119672 -0.031937695068545352 0 -0.30737781924032198 -0.2273746054115672 0 -0.29523447460371371 -0.24459640504444061 0 -0.31804971823469458 -0.24337248609776899 0 -0.29523447460371371 -0.24459640504444061 0 -0.31804971823469458 -0.24337248609776899 0 -0.30737781924032198 -0.2273746054115672 0 -0.28898444069178458 -0.22176165251970659 0 -0.29523447460371371 -0.24459640504444061 0 -0.29523447460371371 -0.24459640504444061 0 -0.27241923097273302 -0.24582032399111781 0 -0.28898444069178458 -0.22176165251970659 0 -0.29523447460371371 -0.24459640504444061 0 -0.27241923097273302 -0.24582032399111781 0 -0.27241923097273302 -0.24582032399111781 0 -0.25293660618197089 -0.24686546530093051 0 -0.2485916205290481 -0.22954497320020231 0 -0.27241923097273302 -0.24582032399111781 0 -0.25293660618197089 -0.24686546530093051 0 -0.2485916205290481 -0.22954497320020231 0 -0.27241923097273302 -0.24582032399111781 0 -0.26576742483000432 -0.2171292642328779 0 -0.27241923097273302 -0.24582032399111781 0 -0.26576742483000432 -0.2171292642328779 0 -0.28898444069178458 -0.22176165251970659 0 -0.27241923097273302 -0.24582032399111781 0 -0.26576742483000432 -0.2171292642328779 0 -0.28898444069178458 -0.22176165251970659 0 -0.26576742483000432 -0.2171292642328779 0 -0.28149893556221423 -0.18928357794339781 0 -0.24265309965477699 -0.2060913991920322 0 -0.26576742483000432 -0.2171292642328779 0 -0.25911561868727639 -0.1884382044746378 0 -0.24265309965477699 -0.2060913991920322 0 -0.2485916205290481 -0.22954497320020231 0 -0.26576742483000432 -0.2171292642328779 0 -0.26576742483000432 -0.2171292642328779 0 -0.25911561868727639 -0.1884382044746378 0 -0.26576742483000432 -0.2171292642328779 0 -0.25911561868727639 -0.1884382044746378 0 -0.28149893556221423 -0.18928357794339781 0 -0.28898444069178458 -0.22176165251970659 0 -0.28149893556221423 -0.18928357794339781 0 -0.30042244073194668 -0.20103338674932991 0 -0.28149893556221423 -0.18928357794339781 0 -0.30042244073194668 -0.20103338674932991 0 -0.29815150395432227 -0.18278207457351689 0 -0.30042244073194668 -0.20103338674932991 0 -0.32150836232018332 -0.2143304739010285 0 -0.30737781924032198 -0.2273746054115672 0 -0.30042244073194668 -0.20103338674932991 0 -0.32150836232018332 -0.2143304739010285 0 -0.30737781924032198 -0.2273746054115672 0 -0.28898444069178458 -0.22176165251970659 0 -0.30042244073194668 -0.20103338674932991 0 -0.30042244073194668 -0.20103338674932991 0 -0.29815150395432227 -0.18278207457351689 0 -0.31728646513324033 -0.18960226167426891 0 -0.29815150395432227 -0.18278207457351689 0 -0.30662551658178622 -0.16465121906826649 0 -0.31728646513324033 -0.18960226167426891 0 -0.30662551658178622 -0.16465121906826649 0 -0.28492416176242408 -0.1693399274323211 0 -0.29033204371123361 -0.15417916968963891 0 -0.28492416176242408 -0.1693399274323211 0 -0.27253996131413988 -0.1555731513492313 0 -0.29033204371123361 -0.15417916968963891 0 -0.28149893556221423 -0.18928357794339781 0 -0.29815150395432227 -0.18278207457351689 0 -0.28492416176242408 -0.1693399274323211 0 -0.29815150395432227 -0.18278207457351689 0 -0.30662551658178622 -0.16465121906826649 0 -0.28492416176242408 -0.1693399274323211 0 -0.28149893556221423 -0.18928357794339781 0 -0.28492416176242408 -0.1693399274323211 0 -0.27010849797412062 -0.17247640118319721 0 -0.25911561868727639 -0.1884382044746378 0 -0.28149893556221423 -0.18928357794339781 0 -0.27010849797412062 -0.17247640118319721 0 -0.25911561868727639 -0.1884382044746378 0 -0.25246381254454858 -0.15974714471639789 0 -0.25911561868727639 -0.1884382044746378 0 -0.27010849797412062 -0.17247640118319721 0 -0.25246381254454858 -0.15974714471639789 0 -0.2436783078812636 -0.17110227207611819 0 -0.25911561868727639 -0.1884382044746378 0 -0.25246381254454858 -0.15974714471639789 0 -0.27010849797412062 -0.17247640118319721 0 -0.25246381254454858 -0.15974714471639789 0 -0.27253996131413988 -0.1555731513492313 0 -0.28492416176242408 -0.1693399274323211 0 -0.27010849797412062 -0.17247640118319721 0 -0.27253996131413988 -0.1555731513492313 0 -0.27253996131413988 -0.1555731513492313 0 -0.26264399736263672 -0.1413870258642605 0 -0.2811040140370053 -0.13799051421958289 0 -0.2458120064018233 -0.13105608495815749 0 -0.25246381254454858 -0.15974714471639789 0 -0.25440182298407221 -0.1407927629291052 0 -0.25246381254454858 -0.15974714471639789 0 -0.26264399736263672 -0.1413870258642605 0 -0.25440182298407221 -0.1407927629291052 0 -0.25246381254454858 -0.15974714471639789 0 -0.27253996131413988 -0.1555731513492313 0 -0.26264399736263672 -0.1413870258642605 0 -0.2458120064018233 -0.13105608495815749 0 -0.25712520341529138 -0.1208591812414372 0 -0.25668747562728023 -0.130980796177605 0 -0.2458120064018233 -0.13105608495815749 0 -0.25440182298407221 -0.1407927629291052 0 -0.25668747562728023 -0.130980796177605 0 -0.26264399736263672 -0.1413870258642605 0 -0.25440182298407221 -0.1407927629291052 0 -0.25668747562728023 -0.130980796177605 0 -0.26264399736263672 -0.1413870258642605 0 -0.25668747562728023 -0.130980796177605 0 -0.26676426796903763 -0.12698661961819299 0 -0.25712520341529138 -0.1208591812414372 0 -0.25668747562728023 -0.130980796177605 0 -0.26676426796903763 -0.12698661961819299 0 -0.28193386303200718 -0.1202288015925681 0 -0.26676426796903763 -0.12698661961819299 0 -0.2811040140370053 -0.13799051421958289 0 -0.26264399736263672 -0.1413870258642605 0 -0.26676426796903763 -0.12698661961819299 0 -0.2811040140370053 -0.13799051421958289 0 -0.2811040140370053 -0.13799051421958289 0 -0.29654027025468738 -0.12629100303278659 0 -0.30646656486081242 -0.1433410363787927 0 -0.28193386303200718 -0.1202288015925681 0 -0.2811040140370053 -0.13799051421958289 0 -0.29654027025468738 -0.12629100303278659 0 -0.27253996131413988 -0.1555731513492313 0 -0.2811040140370053 -0.13799051421958289 0 -0.29033204371123361 -0.15417916968963891 0 -0.2811040140370053 -0.13799051421958289 0 -0.29033204371123361 -0.15417916968963891 0 -0.30646656486081242 -0.1433410363787927 0 -0.30662551658178622 -0.16465121906826649 0 -0.29033204371123361 -0.15417916968963891 0 -0.30646656486081242 -0.1433410363787927 0 -0.31662608448940099 -0.1243755188391943 0 -0.29654027025468738 -0.12629100303278659 0 -0.30646656486081242 -0.1433410363787927 0 -0.33668134412459061 -0.1432318935445937 0 -0.35673660375978011 -0.16208826824999301 0 -0.32459777320015781 -0.15807308980115181 0 -0.31662608448940099 -0.1243755188391943 0 -0.33668134412459061 -0.1432318935445937 0 -0.31662608448940099 -0.1243755188391943 0 -0.3307648767968549 -0.1122034899876686 0 -0.33668134412459061 -0.1432318935445937 0 -0.31662608448940099 -0.1243755188391943 0 -0.30646656486081242 -0.1433410363787927 0 -0.33668134412459061 -0.1432318935445937 0 -0.30646656486081242 -0.1433410363787927 0 -0.33668134412459061 -0.1432318935445937 0 -0.32459777320015781 -0.15807308980115181 0 -0.30662551658178622 -0.16465121906826649 0 -0.30646656486081242 -0.1433410363787927 0 -0.32459777320015781 -0.15807308980115181 0 -0.3307648767968549 -0.1122034899876686 0 -0.34849180510688521 -0.1202651962076076 0 -0.33668134412459061 -0.1432318935445937 0 -0.34849180510688521 -0.1202651962076076 0 -0.36190268308051721 -0.12971352894201479 0 -0.35386969593298878 -0.14095399309190251 0 -0.34849180510688521 -0.1202651962076076 0 -0.33668134412459061 -0.1432318935445937 0 -0.35386969593298878 -0.14095399309190251 0 -0.36190268308051721 -0.12971352894201479 0 -0.36779332443645057 -0.14556382287971961 0 -0.35386969593298878 -0.14095399309190251 0 -0.36190268308051721 -0.12971352894201479 0 -0.37259322944453038 -0.1349141215881923 0 -0.36779332443645057 -0.14556382287971961 0 -0.36190268308051721 -0.12971352894201479 0 -0.37259322944453038 -0.1349141215881923 0 -0.3767820330448749 -0.1195856626407029 0 -0.37259322944453038 -0.1349141215881923 0 -0.36779332443645057 -0.14556382287971961 0 -0.38388742331533832 -0.14186180924402089 0 -0.36779332443645057 -0.14556382287971961 0 -0.35386969593298878 -0.14095399309190251 0 -0.35673660375978011 -0.16208826824999301 0 -0.33668134412459061 -0.1432318935445937 0 -0.35386969593298878 -0.14095399309190251 0 -0.35673660375978011 -0.16208826824999301 0 -0.33668134412459061 -0.1432318935445937 0 -0.35673660375978011 -0.16208826824999301 0 -0.35673660375978011 -0.16208826824999301 0 -0.37153705781633289 -0.1821627187104409 0 -0.37889895150718872 -0.1618975883444021 0 -0.36779332443645057 -0.14556382287971961 0 -0.35673660375978011 -0.16208826824999301 0 -0.37889895150718872 -0.1618975883444021 0 -0.35673660375978011 -0.16208826824999301 0 -0.37153705781633289 -0.1821627187104409 0 -0.35188511828622188 -0.18229325319691991 0 -0.37153705781633289 -0.1821627187104409 0 -0.35188511828622188 -0.18229325319691991 0 -0.35929009523093502 -0.19525809554299819 0 -0.35673660375978011 -0.16208826824999301 0 -0.35188511828622188 -0.18229325319691991 0 -0.3335110672970088 -0.176422274398747 0 -0.35673660375978011 -0.16208826824999301 0 -0.3335110672970088 -0.176422274398747 0 -0.32459777320015781 -0.15807308980115181 0 -0.35188511828622188 -0.18229325319691991 0 -0.3335110672970088 -0.176422274398747 0 -0.34184120973675508 -0.1989671047330635 0 -0.30662551658178622 -0.16465121906826649 0 -0.3335110672970088 -0.176422274398747 0 -0.32459777320015781 -0.15807308980115181 0 -0.30662551658178622 -0.16465121906826649 0 -0.3335110672970088 -0.176422274398747 0 -0.31728646513324033 -0.18960226167426891 0 -0.31728646513324033 -0.18960226167426891 0 -0.32150836232018332 -0.2143304739010285 0 -0.34184120973675508 -0.1989671047330635 0 -0.30042244073194668 -0.20103338674932991 0 -0.31728646513324033 -0.18960226167426891 0 -0.32150836232018332 -0.2143304739010285 0 -0.32150836232018332 -0.2143304739010285 0 -0.34039580064652292 -0.21349424321341071 0 -0.34184120973675508 -0.1989671047330635 0 -0.32150836232018332 -0.2143304739010285 0 -0.34039580064652292 -0.21349424321341071 0 -0.34259428390842001 -0.22762756105272719 0 -0.3335110672970088 -0.176422274398747 0 -0.31728646513324033 -0.18960226167426891 0 -0.34184120973675508 -0.1989671047330635 0 -0.34184120973675508 -0.1989671047330635 0 -0.35929009523093502 -0.19525809554299819 0 -0.35563934662073321 -0.21305183316682361 0 -0.35188511828622188 -0.18229325319691991 0 -0.34184120973675508 -0.1989671047330635 0 -0.35929009523093502 -0.19525809554299819 0 -0.37153705781633289 -0.1821627187104409 0 -0.35929009523093502 -0.19525809554299819 0 -0.37285668143807138 -0.20369467434552871 0 -0.35929009523093502 -0.19525809554299819 0 -0.37285668143807138 -0.20369467434552871 0 -0.35563934662073321 -0.21305183316682361 0 -0.37285668143807138 -0.20369467434552871 0 -0.35563934662073321 -0.21305183316682361 0 -0.37328164437019451 -0.22323524211798179 0 -0.34039580064652292 -0.21349424321341071 0 -0.34184120973675508 -0.1989671047330635 0 -0.35563934662073321 -0.21305183316682361 0 -0.34039580064652292 -0.21349424321341071 0 -0.35563934662073321 -0.21305183316682361 0 -0.34259428390842001 -0.22762756105272719 0 -0.35563934662073321 -0.21305183316682361 0 -0.36138533626785763 -0.22758897983571821 0 -0.34259428390842001 -0.22762756105272719 0 -0.36138533626785763 -0.22758897983571821 0 -0.36368020549665658 -0.2409246482044258 0 -0.34259428390842001 -0.22762756105272719 0 -0.36368020549665658 -0.2409246482044258 0 -0.34259428390842001 -0.22762756105272719 0 -0.35563934662073321 -0.21305183316682361 0 -0.36138533626785763 -0.22758897983571821 0 -0.37328164437019451 -0.22323524211798179 0 -0.36138533626785763 -0.22758897983571821 0 -0.37173120094328382 -0.23310561463663229 0 -0.36368020549665658 -0.2409246482044258 0 -0.36138533626785763 -0.22758897983571821 0 -0.37173120094328382 -0.23310561463663229 0 -0.37328164437019451 -0.22323524211798179 0 -0.36368020549665658 -0.2409246482044258 0 -0.38416734850732398 -0.23982561972594499 0 -0.36368020549665658 -0.2409246482044258 0 -0.38416734850732398 -0.23982561972594499 0 -0.37542802860825603 -0.24833299538546241 0 -0.37173120094328382 -0.23310561463663229 0 -0.36368020549665658 -0.2409246482044258 0 -0.38416734850732398 -0.23982561972594499 0 -0.35106471606443101 -0.25369547657079622 0 -0.36368020549665658 -0.2409246482044258 0 -0.37542802860825603 -0.24833299538546241 0 -0.36368020549665658 -0.2409246482044258 0 -0.37542802860825603 -0.24833299538546241 0 -0.36368020549665658 -0.2409246482044258 0 -0.3408649618656755 -0.24214856715109739 0 -0.35106471606443101 -0.25369547657079622 0 -0.36368020549665658 -0.2409246482044258 0 -0.3408649618656755 -0.24214856715109739 0 -0.36368020549665658 -0.2409246482044258 0 -0.3408649618656755 -0.24214856715109739 0 -0.34259428390842001 -0.22762756105272719 0 -0.3408649618656755 -0.24214856715109739 0 -0.32607902911385911 -0.23097073872283791 0 -0.31804971823469458 -0.24337248609776899 0 -0.32670140352060539 -0.25905795775612728 0 -0.3408649618656755 -0.24214856715109739 0 -0.31804971823469458 -0.24337248609776899 0 -0.3408649618656755 -0.24214856715109739 0 -0.31804971823469458 -0.24337248609776899 0 -0.3408649618656755 -0.24214856715109739 0 -0.34259428390842001 -0.22762756105272719 0 -0.32607902911385911 -0.23097073872283791 0 -0.32150836232018332 -0.2143304739010285 0 -0.34259428390842001 -0.22762756105272719 0 -0.32607902911385911 -0.23097073872283791 0 -0.32150836232018332 -0.2143304739010285 0 -0.34259428390842001 -0.22762756105272719 0 -0.30737781924032198 -0.2273746054115672 0 -0.32150836232018332 -0.2143304739010285 0 -0.32607902911385911 -0.23097073872283791 0 -0.30737781924032198 -0.2273746054115672 0 -0.32607902911385911 -0.23097073872283791 0 -0.31804971823469458 -0.24337248609776899 0 -0.43007144492491212 -0.26042808306076759 0 -0.43273446305376401 -0.2323547195198892 0 -0.41497003488455181 -0.23557438239267681 0 -0.43007144492491212 -0.26042808306076759 0 -0.43273446305376401 -0.2323547195198892 0 -0.44333334693581128 -0.24613510590064661 0 -0.43273446305376401 -0.2323547195198892 0 -0.41651418852797312 -0.21993659299953119 0 -0.4439775577582924 -0.20644971808638049 0 -0.43273446305376401 -0.2323547195198892 0 -0.41651418852797312 -0.21993659299953119 0 -0.41497003488455181 -0.23557438239267681 0 -0.41651418852797312 -0.21993659299953119 0 -0.41497003488455181 -0.23557438239267681 0 -0.39950987873513821 -0.2288744711764647 0 -0.41497003488455181 -0.23557438239267681 0 -0.40676192656655002 -0.2485256974314804 0 -0.39967633459685731 -0.24082380844395829 0 -0.43007144492491212 -0.26042808306076759 0 -0.41497003488455181 -0.23557438239267681 0 -0.40676192656655002 -0.2485256974314804 0 -0.39739132068953892 -0.25079990818587689 0 -0.40676192656655002 -0.2485256974314804 0 -0.39967633459685731 -0.24082380844395829 0 -0.41497003488455181 -0.23557438239267681 0 -0.39967633459685731 -0.24082380844395829 0 -0.39950987873513821 -0.2288744711764647 0 -0.39967633459685731 -0.24082380844395829 0 -0.38990582766146359 -0.23593689023212069 0 -0.39950987873513821 -0.2288744711764647 0 -0.39967633459685731 -0.24082380844395829 0 -0.38951901904390118 -0.2452315012451301 0 -0.38990582766146359 -0.23593689023212069 0 -0.39739132068953892 -0.25079990818587689 0 -0.39967633459685731 -0.24082380844395829 0 -0.38951901904390118 -0.2452315012451301 0 -0.38951901904390118 -0.2452315012451301 0 -0.38416734850732398 -0.23982561972594499 0 -0.37542802860825603 -0.24833299538546241 0 -0.38416734850732398 -0.23982561972594499 0 -0.38990582766146359 -0.23593689023212069 0 -0.38132398406797502 -0.2319275549175813 0 -0.38951901904390118 -0.2452315012451301 0 -0.38416734850732398 -0.23982561972594499 0 -0.38990582766146359 -0.23593689023212069 0 -0.37173120094328382 -0.23310561463663229 0 -0.38416734850732398 -0.23982561972594499 0 -0.38132398406797502 -0.2319275549175813 0 -0.38951901904390118 -0.2452315012451301 0 -0.37542802860825603 -0.24833299538546241 0 -0.37328164437019451 -0.22323524211798179 0 -0.38797424372489031 -0.22643581211747749 0 -0.39189831847860529 -0.2122257681882708 0 -0.37328164437019451 -0.22323524211798179 0 -0.38132398406797502 -0.2319275549175813 0 -0.38797424372489031 -0.22643581211747749 0 -0.37173120094328382 -0.23310561463663229 0 -0.37328164437019451 -0.22323524211798179 0 -0.38132398406797502 -0.2319275549175813 0 -0.38990582766146359 -0.23593689023212069 0 -0.38132398406797502 -0.2319275549175813 0 -0.38797424372489031 -0.22643581211747749 0 -0.41651418852797312 -0.21993659299953119 0 -0.39950987873513821 -0.2288744711764647 0 -0.39189831847860529 -0.2122257681882708 0 -0.38797424372489031 -0.22643581211747749 0 -0.39950987873513821 -0.2288744711764647 0 -0.39189831847860529 -0.2122257681882708 0 -0.38990582766146359 -0.23593689023212069 0 -0.38797424372489031 -0.22643581211747749 0 -0.39950987873513821 -0.2288744711764647 0 -0.37285668143807138 -0.20369467434552871 0 -0.37328164437019451 -0.22323524211798179 0 -0.39189831847860529 -0.2122257681882708 0 -0.37153705781633289 -0.1821627187104409 0 -0.37285668143807138 -0.20369467434552871 0 -0.38698197309745919 -0.19290539843219501 0 -0.37285668143807138 -0.20369467434552871 0 -0.39189831847860529 -0.2122257681882708 0 -0.38698197309745919 -0.19290539843219501 0 -0.39189831847860529 -0.2122257681882708 0 -0.38698197309745919 -0.19290539843219501 0 -0.40326263141102059 -0.19138474115962231 0 -0.39189831847860529 -0.2122257681882708 0 -0.40326263141102059 -0.19138474115962231 0 -0.41599487825748688 -0.20414049863350561 0 -0.40326263141102059 -0.19138474115962231 0 -0.41599487825748688 -0.20414049863350561 0 -0.41907212221070861 -0.1789440070674681 0 -0.41651418852797312 -0.21993659299953119 0 -0.39189831847860529 -0.2122257681882708 0 -0.41599487825748688 -0.20414049863350561 0 -0.41651418852797312 -0.21993659299953119 0 -0.41599487825748688 -0.20414049863350561 0 -0.4439775577582924 -0.20644971808638049 0 -0.41599487825748688 -0.20414049863350561 0 -0.4439775577582924 -0.20644971808638049 0 -0.41599487825748688 -0.20414049863350561 0 -0.41907212221070861 -0.1789440070674681 0 -0.44371983935062709 -0.18165472770874841 0 -0.41599487825748688 -0.20414049863350561 0 -0.44371983935062709 -0.18165472770874841 0 -0.4439775577582924 -0.20644971808638049 0 -0.42661814616483718 -0.15660668312577941 0 -0.41907212221070861 -0.1789440070674681 0 -0.44371983935062709 -0.18165472770874841 0 -0.42661814616483718 -0.15660668312577941 0 -0.41907212221070861 -0.1789440070674681 0 -0.39919800514375908 -0.15588628361374379 0 -0.40326263141102059 -0.19138474115962231 0 -0.41907212221070861 -0.1789440070674681 0 -0.39351025827285041 -0.17673042035722819 0 -0.38698197309745919 -0.19290539843219501 0 -0.40326263141102059 -0.19138474115962231 0 -0.39351025827285041 -0.17673042035722819 0 -0.37153705781633289 -0.1821627187104409 0 -0.39351025827285041 -0.17673042035722819 0 -0.37889895150718872 -0.1618975883444021 0 -0.37153705781633289 -0.1821627187104409 0 -0.38698197309745919 -0.19290539843219501 0 -0.39351025827285041 -0.17673042035722819 0 -0.39351025827285041 -0.17673042035722819 0 -0.37889895150718872 -0.1618975883444021 0 -0.39919800514375908 -0.15588628361374379 0 -0.41907212221070861 -0.1789440070674681 0 -0.39351025827285041 -0.17673042035722819 0 -0.39919800514375908 -0.15588628361374379 0 -0.39919800514375908 -0.15588628361374379 0 -0.38388742331533832 -0.14186180924402089 0 -0.39655604801159638 -0.13124233977899899 0 -0.39919800514375908 -0.15588628361374379 0 -0.39655604801159638 -0.13124233977899899 0 -0.41383277682563918 -0.13991804713446351 0 -0.37889895150718872 -0.1618975883444021 0 -0.39919800514375908 -0.15588628361374379 0 -0.38388742331533832 -0.14186180924402089 0 -0.36779332443645057 -0.14556382287971961 0 -0.37889895150718872 -0.1618975883444021 0 -0.38388742331533832 -0.14186180924402089 0 -0.37259322944453038 -0.1349141215881923 0 -0.38388742331533832 -0.14186180924402089 0 -0.3767820330448749 -0.1195856626407029 0 -0.38388742331533832 -0.14186180924402089 0 -0.3767820330448749 -0.1195856626407029 0 -0.38388742331533832 -0.14186180924402089 0 -0.38486987373081188 -0.12891062477716669 0 -0.3767820330448749 -0.1195856626407029 0 -0.38388742331533832 -0.14186180924402089 0 -0.38486987373081188 -0.12891062477716669 0 -0.39655604801159638 -0.13124233977899899 0 -0.38486987373081188 -0.12891062477716669 0 -0.39655604801159638 -0.13124233977899899 0 -0.38225399055143838 -0.1229526874449442 0 -0.39655604801159638 -0.13124233977899899 0 -0.41383277682563918 -0.13991804713446351 0 -0.41898880380815728 -0.12523787507118239 0 -0.42661814616483718 -0.15660668312577941 0 -0.39919800514375908 -0.15588628361374379 0 -0.41383277682563918 -0.13991804713446351 0 -0.42661814616483718 -0.15660668312577941 0 -0.41383277682563918 -0.13991804713446351 0 -0.436433282606422 -0.13228355701498551 0 -0.41383277682563918 -0.13991804713446351 0 -0.41898880380815728 -0.12523787507118239 0 -0.436433282606422 -0.13228355701498551 0 -0.436433282606422 -0.13228355701498551 0 -0.46168713146152551 -0.1323679558732456 0 -0.45381345995575689 -0.1129648126972139 0 -0.436433282606422 -0.13228355701498551 0 -0.45210669180169327 -0.153938407725006 0 -0.46168713146152551 -0.1323679558732456 0 -0.42661814616483718 -0.15660668312577941 0 -0.436433282606422 -0.13228355701498551 0 -0.45210669180169327 -0.153938407725006 0 -0.45210669180169327 -0.153938407725006 0 -0.46168713146152551 -0.1323679558732456 0 -0.47807903690998371 -0.14883538598592319 0 -0.46168713146152551 -0.1323679558732456 0 -0.47960167115701102 -0.130390073320968 0 -0.47807903690998371 -0.14883538598592319 0 -0.46168713146152551 -0.1323679558732456 0 -0.47960167115701102 -0.130390073320968 0 -0.4769878471461263 -0.1127349233967376 0 -0.47960167115701102 -0.130390073320968 0 -0.5 -0.12943169242873251 0 -0.47807903690998371 -0.14883538598592319 0 -0.5 -0.12943169242873251 0 -0.47807903690998371 -0.14883538598592319 0 -0.5 -0.1566438472831985 0 -0.47807903690998371 -0.14883538598592319 0 -0.485154446627997 -0.16968322336022651 0 -0.46610271431676459 -0.1718821366413541 0 -0.47807903690998371 -0.14883538598592319 0 -0.485154446627997 -0.16968322336022651 0 -0.5 -0.1566438472831985 0 -0.485154446627997 -0.16968322336022651 0 -0.5 -0.1566438472831985 0 -0.5 -0.1838560021376644 0 -0.485154446627997 -0.16968322336022651 0 -0.5 -0.1838560021376644 0 -0.4795384423051402 -0.18886413795927251 0 -0.485154446627997 -0.16968322336022651 0 -0.46610271431676459 -0.1718821366413541 0 -0.4795384423051402 -0.18886413795927251 0 -0.46610271431676459 -0.1718821366413541 0 -0.4610597581979845 -0.1915219315870022 0 -0.4795384423051402 -0.18886413795927251 0 -0.46610271431676459 -0.1718821366413541 0 -0.44371983935062709 -0.18165472770874841 0 -0.4610597581979845 -0.1915219315870022 0 -0.45210669180169327 -0.153938407725006 0 -0.46610271431676459 -0.1718821366413541 0 -0.44371983935062709 -0.18165472770874841 0 -0.45210669180169327 -0.153938407725006 0 -0.47807903690998371 -0.14883538598592319 0 -0.46610271431676459 -0.1718821366413541 0 -0.42661814616483718 -0.15660668312577941 0 -0.45210669180169327 -0.153938407725006 0 -0.44371983935062709 -0.18165472770874841 0 -0.44371983935062709 -0.18165472770874841 0 -0.4439775577582924 -0.20644971808638049 0 -0.4610597581979845 -0.1915219315870022 0 -0.4439775577582924 -0.20644971808638049 0 -0.47196023725909803 -0.20875893753925551 0 -0.4439775577582924 -0.20644971808638049 0 -0.47196023725909803 -0.20875893753925551 0 -0.45322097041024723 -0.22769761533987171 0 -0.4439775577582924 -0.20644971808638049 0 -0.4610597581979845 -0.1915219315870022 0 -0.47196023725909803 -0.20875893753925551 0 -0.4610597581979845 -0.1915219315870022 0 -0.4795384423051402 -0.18886413795927251 0 -0.47196023725909803 -0.20875893753925551 0 -0.4795384423051402 -0.18886413795927251 0 -0.49994291675990371 -0.2110681569921305 0 -0.47196023725909803 -0.20875893753925551 0 -0.5 -0.1838560021376644 0 -0.4795384423051402 -0.18886413795927251 0 -0.49994291675990371 -0.2110681569921305 0 -0.49994291675990371 -0.2110681569921305 0 -0.47196023725909803 -0.20875893753925551 0 -0.49994291675990371 -0.2110681569921305 0 -0.47196023725909803 -0.20875893753925551 0 -0.47773456635429878 -0.23075420128478311 0 -0.49994291675990371 -0.2110681569921305 0 -0.47773456635429878 -0.23075420128478311 0 -0.5 -0.23942385131096319 0 -0.47807803357678641 -0.25745616139102451 0 -0.47773456635429878 -0.23075420128478311 0 -0.5 -0.23942385131096319 0 -0.47807803357678641 -0.25745616139102451 0 -0.47773456635429878 -0.23075420128478311 0 -0.46058649106810318 -0.2465615638616751 0 -0.47773456635429878 -0.23075420128478311 0 -0.46058649106810318 -0.2465615638616751 0 -0.45322097041024723 -0.22769761533987171 0 -0.47196023725909803 -0.20875893753925551 0 -0.47773456635429878 -0.23075420128478311 0 -0.45322097041024723 -0.22769761533987171 0 -0.43273446305376401 -0.2323547195198892 0 -0.4439775577582924 -0.20644971808638049 0 -0.45322097041024723 -0.22769761533987171 0 -0.46058649106810318 -0.2465615638616751 0 -0.45322097041024723 -0.22769761533987171 0 -0.44333334693581128 -0.24613510590064661 0 -0.43273446305376401 -0.2323547195198892 0 -0.45322097041024723 -0.22769761533987171 0 -0.44333334693581128 -0.24613510590064661 0 -0.4142486925732588 -0.042481028077594907 0 -0.41879911221818827 -0.022478724930019831 0 -0.41063316647023401 -0.045104572305146133 0 -0.40230770568256102 -0.02160633130331566 0 -0.4142486925732588 -0.042481028077594907 0 -0.41063316647023401 -0.045104572305146133 0 -0.41879911221818827 -0.022478724930019831 0 -0.41063316647023401 -0.045104572305146133 0 -0.41879911221818827 -0.022478724930019831 0 -0.4142486925732588 -0.042481028077594907 0 -0.41063316647023401 -0.045104572305146133 0 -0.42331513841662122 -0.051239210616617258 0 -0.41063316647023401 -0.045104572305146133 0 -0.41663829398603391 -0.062053776344630197 0 -0.41063316647023401 -0.045104572305146133 0 -0.41663829398603391 -0.062053776344630197 0 -0.4014013772664991 -0.070683612378412961 0 -0.41063316647023401 -0.045104572305146133 0 -0.41663829398603391 -0.062053776344630197 0 -0.42331513841662122 -0.051239210616617258 0 -0.42331513841662122 -0.051239210616617258 0 -0.43538817364502908 -0.063584930803350134 0 -0.43966736540854962 -0.04297174555236493 0 -0.41663829398603391 -0.062053776344630197 0 -0.42331513841662122 -0.051239210616617258 0 -0.43538817364502908 -0.063584930803350134 0 -0.4142486925732588 -0.042481028077594907 0 -0.41879911221818827 -0.022478724930019831 0 -0.43966736540854962 -0.04297174555236493 0 -0.41879911221818827 -0.022478724930019831 0 -0.43966736540854962 -0.04297174555236493 0 -0.4142486925732588 -0.042481028077594907 0 -0.42331513841662122 -0.051239210616617258 0 -0.43966736540854962 -0.04297174555236493 0 -0.42153348925638778 -0.0145117265404308 0 -0.41879911221818827 -0.022478724930019831 0 -0.43853494507866952 -0.02115333351660054 0 -0.41879911221818827 -0.022478724930019831 0 -0.43966736540854962 -0.04297174555236493 0 -0.43853494507866952 -0.02115333351660054 0 -0.42368470908218131 -0.0082438400535571697 0 -0.4458596982147297 -0.008197932998022104 0 -0.43853494507866952 -0.02115333351660054 0 -0.4458596982147297 -0.008197932998022104 0 -0.42781293095297168 0.0067348014379492224 0 -0.42368470908218131 -0.0082438400535571697 0 -0.4458596982147297 -0.008197932998022104 0 -0.42781293095297168 0.0067348014379492224 0 -0.42368470908218131 -0.0082438400535571697 0 -0.42153348925638778 -0.0145117265404308 0 -0.43853494507866952 -0.02115333351660054 0 -0.42368470908218131 -0.0082438400535571697 0 -0.42153348925638778 -0.0145117265404308 0 -0.42368470908218131 -0.0082438400535571697 0 -0.42781293095297168 0.0067348014379492224 0 -0.42368470908218131 -0.0082438400535571697 0 -0.41575167310324351 -0.0085835281856454677 0 -0.41816921774171151 0.0015516855386610939 0 -0.42368470908218131 -0.0082438400535571697 0 -0.41575167310324351 -0.0085835281856454677 0 -0.42153348925638778 -0.0145117265404308 0 -0.41575167310324351 -0.0085835281856454677 0 -0.42153348925638778 -0.0145117265404308 0 -0.41879911221818827 -0.022478724930019831 0 -0.41575167310324351 -0.0085835281856454677 0 -0.40639067855654287 -0.010293407615749589 0 -0.41879911221818827 -0.022478724930019831 0 -0.41575167310324351 -0.0085835281856454677 0 -0.41816921774171151 0.0015516855386610939 0 -0.4076154691581575 0.0033642855431382261 0 -0.41575167310324351 -0.0085835281856454677 0 -0.40639067855654287 -0.010293407615749589 0 -0.4076154691581575 0.0033642855431382261 0 -0.41063316647023401 -0.045104572305146133 0 -0.41879911221818827 -0.022478724930019831 0 -0.40230770568256102 -0.02160633130331566 0 -0.40639067855654287 -0.010293407615749589 0 -0.41879911221818827 -0.022478724930019831 0 -0.40230770568256102 -0.02160633130331566 0 -0.42153348925638778 -0.0145117265404308 0 -0.41879911221818827 -0.022478724930019831 0 -0.40639067855654287 -0.010293407615749589 0 -0.41879911221818827 -0.022478724930019831 0 -0.40230770568256102 -0.02160633130331566 0 -0.38759842862005889 -0.022606558640712471 0 -0.39590700515698379 -0.037514223976932021 0 -0.40639067855654287 -0.010293407615749589 0 -0.40230770568256102 -0.02160633130331566 0 -0.39398224489489392 0.0018919096985169641 0 -0.38759842862005889 -0.022606558640712471 0 -0.39398224489489392 0.0018919096985169641 0 -0.40230770568256102 -0.02160633130331566 0 -0.38759842862005889 -0.022606558640712471 0 -0.39398224489489392 0.0018919096985169641 0 -0.40230770568256102 -0.02160633130331566 0 -0.39398224489489392 0.0018919096985169641 0 -0.40639067855654287 -0.010293407615749589 0 -0.39398224489489392 0.0018919096985169641 0 -0.40639067855654287 -0.010293407615749589 0 -0.4076154691581575 0.0033642855431382261 0 -0.39398224489489392 0.0018919096985169641 0 -0.37709764393308509 -0.0085055001227270794 0 -0.39398224489489392 0.0018919096985169641 0 -0.37298238841676712 0.0031846617099019581 0 -0.37709764393308509 -0.0085055001227270794 0 -0.38759842862005889 -0.022606558640712471 0 -0.39398224489489392 0.0018919096985169641 0 -0.36688118527858421 -0.027622691996459298 0 -0.37438110969473948 -0.017954152891088929 0 -0.38759842862005889 -0.022606558640712471 0 -0.37438110969473948 -0.017954152891088929 0 -0.37709764393308509 -0.0085055001227270794 0 -0.38759842862005889 -0.022606558640712471 0 -0.38759842862005889 -0.022606558640712471 0 -0.38162450000484288 -0.047507544439603283 0 -0.38759842862005889 -0.022606558640712471 0 -0.39590700515698379 -0.037514223976932021 0 -0.38162450000484288 -0.047507544439603283 0 -0.36688118527858421 -0.027622691996459298 0 -0.38759842862005889 -0.022606558640712471 0 -0.38162450000484288 -0.047507544439603283 0 -0.39590700515698379 -0.037514223976932021 0 -0.39554077712389851 -0.053312325794648202 0 -0.38162450000484288 -0.047507544439603283 0 -0.41063316647023401 -0.045104572305146133 0 -0.39590700515698379 -0.037514223976932021 0 -0.39554077712389851 -0.053312325794648202 0 -0.41063316647023401 -0.045104572305146133 0 -0.40230770568256102 -0.02160633130331566 0 -0.39590700515698379 -0.037514223976932021 0 -0.41063316647023401 -0.045104572305146133 0 -0.4014013772664991 -0.070683612378412961 0 -0.41063316647023401 -0.045104572305146133 0 -0.39554077712389851 -0.053312325794648202 0 -0.4014013772664991 -0.070683612378412961 0 -0.38162450000484288 -0.047507544439603283 0 -0.38839938501071719 -0.064908356223777428 0 -0.37565057138962687 -0.072408530238494084 0 -0.38162450000484288 -0.047507544439603283 0 -0.37565057138962687 -0.072408530238494084 0 -0.39554077712389851 -0.053312325794648202 0 -0.38162450000484288 -0.047507544439603283 0 -0.38839938501071719 -0.064908356223777428 0 -0.38839938501071719 -0.064908356223777428 0 -0.37565057138962687 -0.072408530238494084 0 -0.3877796992687183 -0.080629768267728621 0 -0.3696766427744112 -0.097309516037384955 0 -0.37565057138962687 -0.072408530238494084 0 -0.3877796992687183 -0.080629768267728621 0 -0.3696766427744112 -0.097309516037384955 0 -0.3877796992687183 -0.080629768267728621 0 -0.39216958806276397 -0.096262652451679948 0 -0.4014013772664991 -0.070683612378412961 0 -0.39216958806276397 -0.096262652451679948 0 -0.3877796992687183 -0.080629768267728621 0 -0.4014013772664991 -0.070683612378412961 0 -0.39216958806276397 -0.096262652451679948 0 -0.4014013772664991 -0.070683612378412961 0 -0.39216958806276397 -0.096262652451679948 0 -0.40942302524518093 -0.081480341455681282 0 -0.39216958806276397 -0.096262652451679948 0 -0.41241122187196788 -0.094871768791074215 0 -0.40942302524518093 -0.081480341455681282 0 -0.38839938501071719 -0.064908356223777428 0 -0.3877796992687183 -0.080629768267728621 0 -0.4014013772664991 -0.070683612378412961 0 -0.39554077712389851 -0.053312325794648202 0 -0.38839938501071719 -0.064908356223777428 0 -0.4014013772664991 -0.070683612378412961 0 -0.38486987373081188 -0.12891062477716669 0 -0.38225399055143838 -0.1229526874449442 0 -0.3767820330448749 -0.1195856626407029 0 -0.38225399055143838 -0.1229526874449442 0 -0.3767820330448749 -0.1195856626407029 0 -0.38551472189346431 -0.109926474188865 0 -0.3696766427744112 -0.097309516037384955 0 -0.38551472189346431 -0.109926474188865 0 -0.39216958806276397 -0.096262652451679948 0 -0.3696766427744112 -0.097309516037384955 0 -0.3767820330448749 -0.1195856626407029 0 -0.38551472189346431 -0.109926474188865 0 -0.39216958806276397 -0.096262652451679948 0 -0.40669135503383302 -0.11352185236961319 0 -0.41241122187196788 -0.094871768791074215 0 -0.38551472189346431 -0.109926474188865 0 -0.39216958806276397 -0.096262652451679948 0 -0.40669135503383302 -0.11352185236961319 0 -0.38225399055143838 -0.1229526874449442 0 -0.40669135503383302 -0.11352185236961319 0 -0.39655604801159638 -0.13124233977899899 0 -0.38225399055143838 -0.1229526874449442 0 -0.40669135503383302 -0.11352185236961319 0 -0.38225399055143838 -0.1229526874449442 0 -0.38551472189346431 -0.109926474188865 0 -0.40669135503383302 -0.11352185236961319 0 -0.39655604801159638 -0.13124233977899899 0 -0.41898880380815728 -0.12523787507118239 0 -0.40669135503383302 -0.11352185236961319 0 -0.41898880380815728 -0.12523787507118239 0 -0.40669135503383302 -0.11352185236961319 0 -0.43112871951622772 -0.1040910172942823 0 -0.40669135503383302 -0.11352185236961319 0 -0.43112871951622772 -0.1040910172942823 0 -0.40669135503383302 -0.11352185236961319 0 -0.41241122187196788 -0.094871768791074215 0 -0.43112871951622772 -0.1040910172942823 0 -0.41898880380815728 -0.12523787507118239 0 -0.436433282606422 -0.13228355701498551 0 -0.43112871951622772 -0.1040910172942823 0 -0.41663829398603391 -0.062053776344630197 0 -0.4014013772664991 -0.070683612378412961 0 -0.40942302524518093 -0.081480341455681282 0 -0.41663829398603391 -0.062053776344630197 0 -0.42264342150183393 -0.079002980384114269 0 -0.41663829398603391 -0.062053776344630197 0 -0.40942302524518093 -0.081480341455681282 0 -0.42264342150183393 -0.079002980384114269 0 -0.41241122187196788 -0.094871768791074215 0 -0.40942302524518093 -0.081480341455681282 0 -0.42264342150183393 -0.079002980384114269 0 -0.43112871951622772 -0.1040910172942823 0 -0.42264342150183393 -0.079002980384114269 0 -0.44289259205428871 -0.08157994530509094 0 -0.41241122187196788 -0.094871768791074215 0 -0.43112871951622772 -0.1040910172942823 0 -0.42264342150183393 -0.079002980384114269 0 -0.42264342150183393 -0.079002980384114269 0 -0.43538817364502908 -0.063584930803350134 0 -0.44289259205428871 -0.08157994530509094 0 -0.41663829398603391 -0.062053776344630197 0 -0.42264342150183393 -0.079002980384114269 0 -0.43538817364502908 -0.063584930803350134 0 -0.43538817364502908 -0.063584930803350134 0 -0.44289259205428871 -0.08157994530509094 0 -0.45977824360569908 -0.062721009559665808 0 -0.43112871951622772 -0.1040910172942823 0 -0.44289259205428871 -0.08157994530509094 0 -0.45556608399862242 -0.094660182218951366 0 -0.44289259205428871 -0.08157994530509094 0 -0.46362589798849518 -0.08133215155885902 0 -0.45556608399862242 -0.094660182218951366 0 -0.45556608399862242 -0.094660182218951366 0 -0.47022660452085729 -0.1009264796411176 0 -0.48000344848101723 -0.08522934714362039 0 -0.46362589798849518 -0.08133215155885902 0 -0.45556608399862242 -0.094660182218951366 0 -0.48000344848101723 -0.08522934714362039 0 -0.45556608399862242 -0.094660182218951366 0 -0.48000344848101723 -0.08522934714362039 0 -0.44289259205428871 -0.08157994530509094 0 -0.46362589798849518 -0.08133215155885902 0 -0.45977824360569908 -0.062721009559665808 0 -0.46362589798849518 -0.08133215155885902 0 -0.45977824360569908 -0.062721009559665808 0 -0.47988912180284848 -0.082470273566966595 0 -0.436433282606422 -0.13228355701498551 0 -0.43112871951622772 -0.1040910172942823 0 -0.45381345995575689 -0.1129648126972139 0 -0.43112871951622772 -0.1040910172942823 0 -0.45556608399862242 -0.094660182218951366 0 -0.45381345995575689 -0.1129648126972139 0 -0.43112871951622772 -0.1040910172942823 0 -0.45556608399862242 -0.094660182218951366 0 -0.45556608399862242 -0.094660182218951366 0 -0.45381345995575689 -0.1129648126972139 0 -0.47022660452085729 -0.1009264796411176 0 -0.45381345995575689 -0.1129648126972139 0 -0.4769878471461263 -0.1127349233967376 0 -0.47022660452085729 -0.1009264796411176 0 -0.46168713146152551 -0.1323679558732456 0 -0.45381345995575689 -0.1129648126972139 0 -0.4769878471461263 -0.1127349233967376 0 -0.47022660452085729 -0.1009264796411176 0 -0.4826495344615036 -0.099924875027544047 0 -0.48000344848101723 -0.08522934714362039 0 -0.4769878471461263 -0.1127349233967376 0 -0.47022660452085729 -0.1009264796411176 0 -0.4826495344615036 -0.099924875027544047 0 -0.4769878471461263 -0.1127349233967376 0 -0.4826495344615036 -0.099924875027544047 0 -0.49999999999999861 -0.10221953757426661 0 -0.4826495344615036 -0.099924875027544047 0 -0.49999999999999861 -0.10221953757426661 0 -0.48000344848101723 -0.08522934714362039 0 -0.5 -0.12943169242873251 0 -0.4769878471461263 -0.1127349233967376 0 -0.49999999999999861 -0.10221953757426661 0 -0.47960167115701102 -0.130390073320968 0 -0.5 -0.12943169242873251 0 -0.4769878471461263 -0.1127349233967376 0 -0.45977824360569908 -0.062721009559665808 0 -0.47988912180284848 -0.082470273566966595 0 -0.4807490511448933 -0.060949705648567352 0 -0.45977824360569908 -0.062721009559665808 0 -0.47988912180284848 -0.082470273566966595 0 -0.46362589798849518 -0.08133215155885902 0 -0.47988912180284848 -0.082470273566966595 0 -0.48000344848101723 -0.08522934714362039 0 -0.49999999999999861 -0.10221953757426661 0 -0.47988912180284848 -0.082470273566966595 0 -0.49999999999999861 -0.10221953757426661 0 -0.47988912180284848 -0.082470273566966595 0 -0.48000344848101723 -0.08522934714362039 0 -0.49999999999999861 -0.10221953757426661 0 -0.47988912180284848 -0.082470273566966595 0 -0.5 -0.077607836940103092 0 -0.47988912180284848 -0.082470273566966595 0 -0.5 -0.077607836940103092 0 -0.4807490511448933 -0.060949705648567352 0 -0.5 -0.077607836940103092 0 -0.50000000000000078 -0.052996136305939558 0 -0.4807490511448933 -0.060949705648567352 0 -0.50000000000000078 -0.052996136305939558 0 -0.48195323273824398 -0.038063401869966811 0 -0.4807490511448933 -0.060949705648567352 0 -0.50000000000000078 -0.052996136305939558 0 -0.48195323273824398 -0.038063401869966811 0 -0.5 -0.02584325599979842 0 -0.50000000000000078 -0.052996136305939558 0 -0.48195323273824398 -0.038063401869966811 0 -0.48195323273824398 -0.038063401869966811 0 -0.46358837550671328 -0.043942530634097088 0 -0.46390646547648678 -0.023130667433994459 0 -0.48195323273824398 -0.038063401869966811 0 -0.4807490511448933 -0.060949705648567352 0 -0.46358837550671328 -0.043942530634097088 0 -0.45977824360569908 -0.062721009559665808 0 -0.4807490511448933 -0.060949705648567352 0 -0.46358837550671328 -0.043942530634097088 0 -0.45977824360569908 -0.062721009559665808 0 -0.46358837550671328 -0.043942530634097088 0 -0.43966736540854962 -0.04297174555236493 0 -0.46358837550671328 -0.043942530634097088 0 -0.43966736540854962 -0.04297174555236493 0 -0.46390646547648678 -0.023130667433994459 0 -0.45977824360569908 -0.062721009559665808 0 -0.43966736540854962 -0.04297174555236493 0 -0.43538817364502908 -0.063584930803350134 0 -0.45977824360569908 -0.062721009559665808 0 -0.43966736540854962 -0.04297174555236493 0 -0.43966736540854962 -0.04297174555236493 0 -0.43853494507866952 -0.02115333351660054 0 -0.46390646547648678 -0.023130667433994459 0 -0.4458596982147297 -0.008197932998022104 0 -0.43853494507866952 -0.02115333351660054 0 -0.46390646547648678 -0.023130667433994459 0 -0.4458596982147297 -0.008197932998022104 0 -0.46390646547648678 -0.023130667433994459 0 -0.4458596982147297 -0.008197932998022104 0 -0.46390646547648678 -0.023130667433994459 0 -0.46995209774635011 0.0025384525507649671 0 -0.46390646547648678 -0.023130667433994459 0 -0.48290084371315722 -0.014880823847180071 0 -0.46995209774635011 0.0025384525507649671 0 -0.48290084371315722 -0.014880823847180071 0 -0.5 0.001309624306342738 0 -0.46995209774635011 0.0025384525507649671 0 -0.48195323273824398 -0.038063401869966811 0 -0.46390646547648678 -0.023130667433994459 0 -0.48290084371315722 -0.014880823847180071 0 -0.48195323273824398 -0.038063401869966811 0 -0.46390646547648678 -0.023130667433994459 0 -0.48195323273824398 -0.038063401869966811 0 -0.48290084371315722 -0.014880823847180071 0 -0.5 -0.02584325599979842 0 -0.48290084371315722 -0.014880823847180071 0 -0.5 -0.02584325599979842 0 -0.5 0.001309624306342738 0 -0.5 0.001309624306342738 0 -0.48381065651615163 0.0182616876742554 0 -0.46995209774635011 0.0025384525507649671 0 -0.5 0.001309624306342738 0 -0.5 0.028462504612483949 0 -0.48381065651615163 0.0182616876742554 0 -0.5 0.028462504612483949 0 -0.48381065651615163 0.0182616876742554 0 -0.48762622451433141 0.039103650360027803 0 -0.48381065651615163 0.0182616876742554 0 -0.46995209774635011 0.0025384525507649671 0 -0.46365048044739338 0.02906163817589822 0 -0.48381065651615163 0.0182616876742554 0 -0.48762622451433141 0.039103650360027803 0 -0.46365048044739338 0.02906163817589822 0 -0.4873108991790992 0.055420662112280757 0 -0.5 0.05561538491862511 0 -0.48762622451433141 0.039103650360027803 0 -0.4873108991790992 0.055420662112280757 0 -0.5 0.05561538491862511 0 -0.49042127737247387 0.068336178364406683 0 -0.5 0.028462504612483949 0 -0.5 0.05561538491862511 0 -0.48762622451433141 0.039103650360027803 0 -0.48762622451433141 0.039103650360027803 0 -0.47110037340026129 0.046813492301577081 0 -0.46365048044739338 0.02906163817589822 0 -0.4873108991790992 0.055420662112280757 0 -0.46537648105027402 0.061458888289002783 0 -0.48060895972902468 0.066658227127018257 0 -0.4873108991790992 0.055420662112280757 0 -0.48762622451433141 0.039103650360027803 0 -0.47110037340026129 0.046813492301577081 0 -0.4873108991790992 0.055420662112280757 0 -0.46537648105027402 0.061458888289002783 0 -0.4873108991790992 0.055420662112280757 0 -0.47110037340026129 0.046813492301577081 0 -0.46537648105027402 0.061458888289002783 0 -0.47110037340026129 0.046813492301577081 0 -0.46537648105027402 0.061458888289002783 0 -0.45153778181020893 0.049022622570675863 0 -0.46537648105027402 0.061458888289002783 0 -0.45153778181020893 0.049022622570675863 0 -0.44344206292144878 0.067497114465724775 0 -0.47110037340026129 0.046813492301577081 0 -0.45153778181020893 0.049022622570675863 0 -0.46365048044739338 0.02906163817589822 0 -0.45153778181020893 0.049022622570675863 0 -0.43514872199370919 0.03335163248412254 0 -0.42857804264046362 0.056360698414932332 0 -0.45153778181020893 0.049022622570675863 0 -0.46365048044739338 0.02906163817589822 0 -0.43514872199370919 0.03335163248412254 0 -0.45153778181020893 0.049022622570675863 0 -0.42857804264046362 0.056360698414932332 0 -0.44344206292144878 0.067497114465724775 0 -0.4458596982147297 -0.008197932998022104 0 -0.46995209774635011 0.0025384525507649671 0 -0.44848478587103102 0.012697718330142769 0 -0.46995209774635011 0.0025384525507649671 0 -0.46365048044739338 0.02906163817589822 0 -0.44848478587103102 0.012697718330142769 0 -0.46365048044739338 0.02906163817589822 0 -0.44848478587103102 0.012697718330142769 0 -0.43514872199370919 0.03335163248412254 0 -0.4458596982147297 -0.008197932998022104 0 -0.44848478587103102 0.012697718330142769 0 -0.42781293095297168 0.0067348014379492224 0 -0.42368470908218131 -0.0082438400535571697 0 -0.42781293095297168 0.0067348014379492224 0 -0.41816921774171151 0.0015516855386610939 0 -0.42781293095297168 0.0067348014379492224 0 -0.41522700894193099 0.01714897857542631 0 -0.42781293095297168 0.0067348014379492224 0 -0.41816921774171151 0.0015516855386610939 0 -0.41522700894193099 0.01714897857542631 0 -0.4076154691581575 0.0033642855431382261 0 -0.41522700894193099 0.01714897857542631 0 -0.40421032382352062 0.016647270135846961 0 -0.41816921774171151 0.0015516855386610939 0 -0.4076154691581575 0.0033642855431382261 0 -0.41522700894193099 0.01714897857542631 0 -0.41522700894193099 0.01714897857542631 0 -0.41495294522209669 0.03109729236122805 0 -0.43514872199370919 0.03335163248412254 0 -0.41522700894193099 0.01714897857542631 0 -0.41495294522209669 0.03109729236122805 0 -0.40264108693088951 0.02756315571290234 0 -0.41495294522209669 0.03109729236122805 0 -0.40624436299923877 0.034635518543530183 0 -0.40264108693088951 0.02756315571290234 0 -0.41522700894193099 0.01714897857542631 0 -0.40264108693088951 0.02756315571290234 0 -0.41522700894193099 0.01714897857542631 0 -0.40421032382352062 0.016647270135846961 0 -0.40264108693088951 0.02756315571290234 0 -0.42781293095297168 0.0067348014379492224 0 -0.43514872199370919 0.03335163248412254 0 -0.44848478587103102 0.012697718330142769 0 -0.42781293095297168 0.0067348014379492224 0 -0.43514872199370919 0.03335163248412254 0 -0.42781293095297168 0.0067348014379492224 0 -0.41522700894193099 0.01714897857542631 0 -0.43514872199370919 0.03335163248412254 0 -0.43514872199370919 0.03335163248412254 0 -0.42857804264046362 0.056360698414932332 0 -0.41550354524471489 0.042787176490158882 0 -0.42857804264046362 0.056360698414932332 0 -0.41324239390877548 0.059349362149967159 0 -0.41550354524471489 0.042787176490158882 0 -0.41324239390877548 0.059349362149967159 0 -0.41550354524471489 0.042787176490158882 0 -0.3974911272721377 0.056460765489956558 0 -0.41495294522209669 0.03109729236122805 0 -0.43514872199370919 0.03335163248412254 0 -0.41550354524471489 0.042787176490158882 0 -0.41495294522209669 0.03109729236122805 0 -0.41550354524471489 0.042787176490158882 0 -0.40624436299923877 0.034635518543530183 0 -0.41550354524471489 0.042787176490158882 0 -0.40624436299923877 0.034635518543530183 0 -0.39662765740262929 0.041399180604242372 0 -0.40624436299923877 0.034635518543530183 0 -0.39876948960862579 0.033128452016981592 0 -0.39662765740262929 0.041399180604242372 0 -0.39876948960862579 0.033128452016981592 0 -0.39662765740262929 0.041399180604242372 0 -0.38554110307800599 0.025716655235412601 0 -0.40624436299923877 0.034635518543530183 0 -0.39876948960862579 0.033128452016981592 0 -0.40264108693088951 0.02756315571290234 0 -0.41324239390877548 0.059349362149967159 0 -0.3974911272721377 0.056460765489956558 0 -0.40313160959393751 0.067602829712341203 0 -0.41550354524471489 0.042787176490158882 0 -0.39662765740262929 0.041399180604242372 0 -0.3974911272721377 0.056460765489956558 0 -0.377401938594566 0.048689083244273769 0 -0.3832151775536804 0.063406055165299124 0 -0.36926277411112612 0.071661511253134857 0 -0.3974911272721377 0.056460765489956558 0 -0.377401938594566 0.048689083244273769 0 -0.3832151775536804 0.063406055165299124 0 -0.39662765740262929 0.041399180604242372 0 -0.3974911272721377 0.056460765489956558 0 -0.377401938594566 0.048689083244273769 0 -0.39662765740262929 0.041399180604242372 0 -0.377401938594566 0.048689083244273769 0 -0.38554110307800599 0.025716655235412601 0 -0.377401938594566 0.048689083244273769 0 -0.38554110307800599 0.025716655235412601 0 -0.377401938594566 0.048689083244273769 0 -0.38554110307800599 0.025716655235412601 0 -0.37325736494029571 0.033556437468874122 0 -0.38554110307800599 0.025716655235412601 0 -0.37625888221297887 0.019296588165121701 0 -0.39398224489489392 0.0018919096985169641 0 -0.38554110307800599 0.025716655235412601 0 -0.37625888221297887 0.019296588165121701 0 -0.37325736494029571 0.033556437468874122 0 -0.37625888221297887 0.019296588165121701 0 -0.39398224489489392 0.0018919096985169641 0 -0.37298238841676712 0.0031846617099019581 0 -0.38554110307800599 0.025716655235412601 0 -0.39398224489489392 0.0018919096985169641 0 -0.37625888221297887 0.019296588165121701 0 -0.39398224489489392 0.0018919096985169641 0 -0.39398224489489392 0.0018919096985169641 0 -0.3993960139845496 0.02656903828124094 0 -0.39398224489489392 0.0018919096985169641 0 -0.40040142228871728 0.008592889754338506 0 -0.3993960139845496 0.02656903828124094 0 -0.4076154691581575 0.0033642855431382261 0 -0.39398224489489392 0.0018919096985169641 0 -0.40040142228871728 0.008592889754338506 0 -0.4076154691581575 0.0033642855431382261 0 -0.40040142228871728 0.008592889754338506 0 -0.40421032382352062 0.016647270135846961 0 -0.38554110307800599 0.025716655235412601 0 -0.39398224489489392 0.0018919096985169641 0 -0.3993960139845496 0.02656903828124094 0 -0.40040142228871728 0.008592889754338506 0 -0.40421032382352062 0.016647270135846961 0 -0.3993960139845496 0.02656903828124094 0 -0.40421032382352062 0.016647270135846961 0 -0.40264108693088951 0.02756315571290234 0 -0.3993960139845496 0.02656903828124094 0 -0.39876948960862579 0.033128452016981592 0 -0.40264108693088951 0.02756315571290234 0 -0.3993960139845496 0.02656903828124094 0 -0.39876948960862579 0.033128452016981592 0 -0.38554110307800599 0.025716655235412601 0 -0.3993960139845496 0.02656903828124094 0 -0.39583382870511002 0.097735466186481532 0 -0.40453616429054939 0.1072893564009592 0 -0.40486762681318877 0.091375142171636975 0 -0.39105240728129059 0.106754933683239 0 -0.39583382870511002 0.097735466186481532 0 -0.40453616429054939 0.1072893564009592 0 -0.39105240728129059 0.106754933683239 0 -0.39583382870511002 0.097735466186481532 0 -0.38578953302113139 0.097955559351700652 0 -0.39583382870511002 0.097735466186481532 0 -0.38578953302113139 0.097955559351700652 0 -0.39165019672407098 0.087991332861982213 0 -0.40453616429054939 0.1072893564009592 0 -0.40173362399585411 0.1233294235550824 0 -0.38552115898601419 0.124844007562953 0 -0.39105240728129059 0.106754933683239 0 -0.40453616429054939 0.1072893564009592 0 -0.38552115898601419 0.124844007562953 0 -0.40453616429054939 0.1072893564009592 0 -0.38552115898601419 0.124844007562953 0 -0.38552115898601419 0.124844007562953 0 -0.3814625710061601 0.1078933731936223 0 -0.37259574455961803 0.1141273232257122 0 -0.39105240728129059 0.106754933683239 0 -0.38552115898601419 0.124844007562953 0 -0.3814625710061601 0.1078933731936223 0 -0.38552115898601419 0.124844007562953 0 -0.376421498273528 0.13128817959964281 0 -0.37259574455961803 0.1141273232257122 0 -0.3814625710061601 0.1078933731936223 0 -0.37991861320164699 0.097164955857706486 0 -0.37259574455961803 0.1141273232257122 0 -0.37991861320164699 0.097164955857706486 0 -0.37259574455961803 0.1141273232257122 0 -0.39105240728129059 0.106754933683239 0 -0.3814625710061601 0.1078933731936223 0 -0.38578953302113139 0.097955559351700652 0 -0.38578953302113139 0.097955559351700652 0 -0.37991861320164699 0.097164955857706486 0 -0.39165019672407098 0.087991332861982213 0 -0.38578953302113139 0.097955559351700652 0 -0.37991861320164699 0.097164955857706486 0 -0.3814625710061601 0.1078933731936223 0 -0.38578953302113139 0.097955559351700652 0 -0.37991861320164699 0.097164955857706486 0 -0.37991861320164699 0.097164955857706486 0 -0.38870487023689188 0.076812860673831335 0 -0.37991861320164699 0.097164955857706486 0 -0.38870487023689188 0.076812860673831335 0 -0.39165019672407098 0.087991332861982213 0 -0.37991861320164699 0.097164955857706486 0 -0.38870487023689188 0.076812860673831335 0 -0.37475246679433788 0.08506831676166722 0 -0.38870487023689188 0.076812860673831335 0 -0.36926277411112612 0.071661511253134857 0 -0.37475246679433788 0.08506831676166722 0 -0.3832151775536804 0.063406055165299124 0 -0.38870487023689188 0.076812860673831335 0 -0.36926277411112612 0.071661511253134857 0 -0.3974911272721377 0.056460765489956558 0 -0.3832151775536804 0.063406055165299124 0 -0.38870487023689188 0.076812860673831335 0 -0.3974911272721377 0.056460765489956558 0 -0.38870487023689188 0.076812860673831335 0 -0.40313160959393751 0.067602829712341203 0 -0.3974911272721377 0.056460765489956558 0 -0.38870487023689188 0.076812860673831335 0 -0.38870487023689188 0.076812860673831335 0 -0.40313160959393751 0.067602829712341203 0 -0.39957322666379819 0.07957356681916887 0 -0.39583382870511002 0.097735466186481532 0 -0.39165019672407098 0.087991332861982213 0 -0.40486762681318877 0.091375142171636975 0 -0.38870487023689188 0.076812860673831335 0 -0.39165019672407098 0.087991332861982213 0 -0.39957322666379819 0.07957356681916887 0 -0.39957322666379819 0.07957356681916887 0 -0.40486762681318877 0.091375142171636975 0 -0.41237491696617379 0.083554688718054493 0 -0.39165019672407098 0.087991332861982213 0 -0.39957322666379819 0.07957356681916887 0 -0.40486762681318877 0.091375142171636975 0 -0.41237491696617379 0.083554688718054493 0 -0.42150764479262359 0.073535340642446809 0 -0.42355116959508471 0.089734705238965345 0 -0.39957322666379819 0.07957356681916887 0 -0.41237491696617379 0.083554688718054493 0 -0.42150764479262359 0.073535340642446809 0 -0.40486762681318877 0.091375142171636975 0 -0.41237491696617379 0.083554688718054493 0 -0.42355116959508471 0.089734705238965345 0 -0.42857804264046362 0.056360698414932332 0 -0.41324239390877548 0.059349362149967159 0 -0.42150764479262359 0.073535340642446809 0 -0.39957322666379819 0.07957356681916887 0 -0.42150764479262359 0.073535340642446809 0 -0.40313160959393751 0.067602829712341203 0 -0.39957322666379819 0.07957356681916887 0 -0.42150764479262359 0.073535340642446809 0 -0.41324239390877548 0.059349362149967159 0 -0.40313160959393751 0.067602829712341203 0 -0.42150764479262359 0.073535340642446809 0 -0.42150764479262359 0.073535340642446809 0 -0.44344206292144878 0.067497114465724775 0 -0.42150764479262359 0.073535340642446809 0 -0.44344206292144878 0.067497114465724775 0 -0.44256617489961991 0.072180054076971589 0 -0.42857804264046362 0.056360698414932332 0 -0.42150764479262359 0.073535340642446809 0 -0.44344206292144878 0.067497114465724775 0 -0.42355116959508471 0.089734705238965345 0 -0.44256617489961991 0.072180054076971589 0 -0.42150764479262359 0.073535340642446809 0 -0.42355116959508471 0.089734705238965345 0 -0.44256617489961991 0.072180054076971589 0 -0.42355116959508471 0.089734705238965345 0 -0.44256617489961991 0.072180054076971589 0 -0.43907679301326102 0.088746941599949308 0 -0.42355116959508471 0.089734705238965345 0 -0.43297556378476371 0.099314030006736956 0 -0.43907679301326102 0.088746941599949308 0 -0.42355116959508471 0.089734705238965345 0 -0.43297556378476371 0.099314030006736956 0 -0.42129461949881092 0.1113986579318991 0 -0.40453616429054939 0.1072893564009592 0 -0.42355116959508471 0.089734705238965345 0 -0.42129461949881092 0.1113986579318991 0 -0.40453616429054939 0.1072893564009592 0 -0.40486762681318877 0.091375142171636975 0 -0.42355116959508471 0.089734705238965345 0 -0.40453616429054939 0.1072893564009592 0 -0.42355116959508471 0.089734705238965345 0 -0.40453616429054939 0.1072893564009592 0 -0.40173362399585411 0.1233294235550824 0 -0.42129461949881092 0.1113986579318991 0 -0.40173362399585411 0.1233294235550824 0 -0.42129461949881092 0.1113986579318991 0 -0.41116795932655259 0.1366008704724346 0 -0.42129461949881092 0.1113986579318991 0 -0.43767155227093679 0.1236369550369415 0 -0.41116795932655259 0.1366008704724346 0 -0.43297556378476371 0.099314030006736956 0 -0.42129461949881092 0.1113986579318991 0 -0.43767155227093679 0.1236369550369415 0 -0.43767155227093679 0.1236369550369415 0 -0.4472949268710163 0.098657228312474587 0 -0.46417514521532077 0.11067303960144841 0 -0.43767155227093679 0.1236369550369415 0 -0.46417514521532077 0.11067303960144841 0 -0.43297556378476371 0.099314030006736956 0 -0.43767155227093679 0.1236369550369415 0 -0.4472949268710163 0.098657228312474587 0 -0.43297556378476371 0.099314030006736956 0 -0.4472949268710163 0.098657228312474587 0 -0.43907679301326102 0.088746941599949308 0 -0.46417514521532077 0.11067303960144841 0 -0.46204906336607682 0.089684972837978855 0 -0.47376019941677711 0.094393548907536942 0 -0.4472949268710163 0.098657228312474587 0 -0.46417514521532077 0.11067303960144841 0 -0.46204906336607682 0.089684972837978855 0 -0.43767155227093679 0.1236369550369415 0 -0.46417514521532077 0.11067303960144841 0 -0.46005895689424309 0.1369894414503886 0 -0.44256617489961991 0.072180054076971589 0 -0.44899612991582 0.083848690364598105 0 -0.45658418458245942 0.072378573646640257 0 -0.44344206292144878 0.067497114465724775 0 -0.44256617489961991 0.072180054076971589 0 -0.45658418458245942 0.072378573646640257 0 -0.44256617489961991 0.072180054076971589 0 -0.44899612991582 0.083848690364598105 0 -0.43907679301326102 0.088746941599949308 0 -0.4472949268710163 0.098657228312474587 0 -0.44899612991582 0.083848690364598105 0 -0.43907679301326102 0.088746941599949308 0 -0.4472949268710163 0.098657228312474587 0 -0.44899612991582 0.083848690364598105 0 -0.46204906336607682 0.089684972837978855 0 -0.46204906336607682 0.089684972837978855 0 -0.45658418458245942 0.072378573646640257 0 -0.47813785092600608 0.079507059024765223 0 -0.44899612991582 0.083848690364598105 0 -0.46204906336607682 0.089684972837978855 0 -0.45658418458245942 0.072378573646640257 0 -0.46537648105027402 0.061458888289002783 0 -0.44344206292144878 0.067497114465724775 0 -0.46537648105027402 0.061458888289002783 0 -0.45658418458245942 0.072378573646640257 0 -0.47813785092600608 0.079507059024765223 0 -0.46537648105027402 0.061458888289002783 0 -0.44344206292144878 0.067497114465724775 0 -0.45658418458245942 0.072378573646640257 0 -0.46537648105027402 0.061458888289002783 0 -0.48060895972902468 0.066658227127018257 0 -0.47813785092600608 0.079507059024765223 0 -0.48060895972902468 0.066658227127018257 0 -0.47813785092600608 0.079507059024765223 0 -0.49042127737247387 0.068336178364406683 0 -0.47813785092600608 0.079507059024765223 0 -0.47376019941677711 0.094393548907536942 0 -0.4906787381597047 0.097709124165955327 0 -0.46204906336607682 0.089684972837978855 0 -0.47813785092600608 0.079507059024765223 0 -0.47376019941677711 0.094393548907536942 0 -0.47813785092600608 0.079507059024765223 0 -0.5 0.082768265224766158 0 -0.4906787381597047 0.097709124165955327 0 -0.5 0.05561538491862511 0 -0.5 0.082768265224766158 0 -0.49042127737247387 0.068336178364406683 0 -0.47813785092600608 0.079507059024765223 0 -0.5 0.082768265224766158 0 -0.49042127737247387 0.068336178364406683 0 -0.4873108991790992 0.055420662112280757 0 -0.48060895972902468 0.066658227127018257 0 -0.49042127737247387 0.068336178364406683 0 -0.46417514521532077 0.11067303960144841 0 -0.48256333011341351 0.12327334703722111 0 -0.4906787381597047 0.097709124165955327 0 -0.46417514521532077 0.11067303960144841 0 -0.48256333011341351 0.12327334703722111 0 -0.46005895689424309 0.1369894414503886 0 -0.46417514521532077 0.11067303960144841 0 -0.4906787381597047 0.097709124165955327 0 -0.46417514521532077 0.11067303960144841 0 -0.47376019941677711 0.094393548907536942 0 -0.4906787381597047 0.097709124165955327 0 -0.5 0.082768265224766158 0 -0.4906787381597047 0.097709124165955327 0 -0.5 0.10992114553090709 0 -0.48256333011341351 0.12327334703722111 0 -0.4906787381597047 0.097709124165955327 0 -0.5 0.10992114553090709 0 -0.48256333011341351 0.12327334703722111 0 -0.5 0.10992114553090709 0 -0.5 0.13707402583704811 0 -0.48256333011341351 0.12327334703722111 0 -0.5 0.13707402583704811 0 -0.48046714041121252 0.14727330563757879 0 -0.48256333011341351 0.12327334703722111 0 -0.48046714041121252 0.14727330563757879 0 -0.46005895689424309 0.1369894414503886 0 -0.48046714041121252 0.14727330563757879 0 -0.46005895689424309 0.1369894414503886 0 -0.46575804111373398 0.15444494202210229 0 -0.5 0.13707402583704811 0 -0.48046714041121252 0.14727330563757879 0 -0.5 0.16422690614318919 0 -0.48046714041121252 0.14727330563757879 0 -0.5 0.16422690614318919 0 -0.47415048280768018 0.16706930897022221 0 -0.5 0.16422690614318919 0 -0.47595919664768238 0.18313182609838849 0 -0.50000000000000067 0.19137978644933021 0 -0.47595919664768238 0.18313182609838849 0 -0.50000000000000067 0.19137978644933021 0 -0.48046714041121252 0.14727330563757879 0 -0.47415048280768018 0.16706930897022221 0 -0.46575804111373398 0.15444494202210229 0 -0.5 0.16422690614318919 0 -0.47595919664768238 0.18313182609838849 0 -0.47415048280768018 0.16706930897022221 0 -0.47415048280768018 0.16706930897022221 0 -0.45812554092843782 0.16495338363728879 0 -0.46575804111373398 0.15444494202210229 0 -0.47415048280768018 0.16706930897022221 0 -0.45812554092843782 0.16495338363728879 0 -0.4519183932953641 0.17488386574744691 0 -0.45812554092843782 0.16495338363728879 0 -0.4519183932953641 0.17488386574744691 0 -0.45812554092843782 0.16495338363728879 0 -0.45188326354895242 0.15299519158932501 0 -0.46575804111373398 0.15444494202210229 0 -0.47595919664768238 0.18313182609838849 0 -0.4519183932953641 0.17488386574744691 0 -0.4584030173376582 0.19678923043034691 0 -0.47595919664768238 0.18313182609838849 0 -0.4519183932953641 0.17488386574744691 0 -0.47595919664768238 0.18313182609838849 0 -0.47415048280768018 0.16706930897022221 0 -0.4519183932953641 0.17488386574744691 0 -0.4519183932953641 0.17488386574744691 0 -0.4407264251267986 0.19278929449594079 0 -0.43711707770013519 0.17957007646955661 0 -0.4519183932953641 0.17488386574744691 0 -0.42719191222189679 0.16660424355457251 0 -0.43711707770013519 0.17957007646955661 0 -0.4519183932953641 0.17488386574744691 0 -0.4407264251267986 0.19278929449594079 0 -0.4519183932953641 0.17488386574744691 0 -0.44605036630015388 0.1639505733940515 0 -0.42719191222189679 0.16660424355457251 0 -0.4519183932953641 0.17488386574744691 0 -0.42719191222189679 0.16660424355457251 0 -0.45812554092843782 0.16495338363728879 0 -0.44605036630015388 0.1639505733940515 0 -0.45188326354895242 0.15299519158932501 0 -0.44605036630015388 0.1639505733940515 0 -0.44278082279684988 0.15855380459064911 0 -0.45188326354895242 0.15299519158932501 0 -0.45812554092843782 0.16495338363728879 0 -0.4519183932953641 0.17488386574744691 0 -0.44605036630015388 0.1639505733940515 0 -0.44605036630015388 0.1639505733940515 0 -0.44278082279684988 0.15855380459064911 0 -0.4361800492853295 0.1600574114613168 0 -0.44278082279684988 0.15855380459064911 0 -0.43532348888910022 0.15173104118772779 0 -0.4361800492853295 0.1600574114613168 0 -0.44278082279684988 0.15855380459064911 0 -0.45188326354895242 0.15299519158932501 0 -0.43532348888910022 0.15173104118772779 0 -0.45188326354895242 0.15299519158932501 0 -0.44183521833307737 0.1416130554521583 0 -0.43532348888910022 0.15173104118772779 0 -0.45188326354895242 0.15299519158932501 0 -0.44183521833307737 0.1416130554521583 0 -0.46005895689424309 0.1369894414503886 0 -0.43767155227093679 0.1236369550369415 0 -0.44183521833307737 0.1416130554521583 0 -0.46005895689424309 0.1369894414503886 0 -0.45188326354895242 0.15299519158932501 0 -0.46005895689424309 0.1369894414503886 0 -0.46575804111373398 0.15444494202210229 0 -0.47920294489437648 0.23119147479085209 0 -0.46246932169897542 0.2370605429940961 0 -0.47482502178307939 0.25365315305093339 0 -0.47920294489437648 0.23119147479085209 0 -0.5 0.25136091763544532 0 -0.47482502178307939 0.25365315305093339 0 -0.5 0.22137035204238781 0 -0.47920294489437648 0.23119147479085209 0 -0.5 0.25136091763544532 0 -0.5 0.22137035204238781 0 -0.47920294489437648 0.23119147479085209 0 -0.47872350324777369 0.2065870440028813 0 -0.47920294489437648 0.23119147479085209 0 -0.47872350324777369 0.2065870440028813 0 -0.45919982263643 0.21711683901936871 0 -0.5 0.22137035204238781 0 -0.47872350324777369 0.2065870440028813 0 -0.50000000000000067 0.19137978644933021 0 -0.47595919664768238 0.18313182609838849 0 -0.47872350324777369 0.2065870440028813 0 -0.50000000000000067 0.19137978644933021 0 -0.47595919664768238 0.18313182609838849 0 -0.47872350324777369 0.2065870440028813 0 -0.4584030173376582 0.19678923043034691 0 -0.4519183932953641 0.17488386574744691 0 -0.4584030173376582 0.19678923043034691 0 -0.4407264251267986 0.19278929449594079 0 -0.4584030173376582 0.19678923043034691 0 -0.4407264251267986 0.19278929449594079 0 -0.44556280285118571 0.20730628120416361 0 -0.4407264251267986 0.19278929449594079 0 -0.44556280285118571 0.20730628120416361 0 -0.42953445695823239 0.21069472324443431 0 -0.44556280285118571 0.20730628120416361 0 -0.45919982263643 0.21711683901936871 0 -0.4410135601557571 0.22017395364910569 0 -0.44556280285118571 0.20730628120416361 0 -0.4410135601557571 0.22017395364910569 0 -0.42953445695823239 0.21069472324443431 0 -0.47872350324777369 0.2065870440028813 0 -0.4584030173376582 0.19678923043034691 0 -0.45919982263643 0.21711683901936871 0 -0.4584030173376582 0.19678923043034691 0 -0.44556280285118571 0.20730628120416361 0 -0.45919982263643 0.21711683901936871 0 -0.45919982263643 0.21711683901936871 0 -0.4494810007014115 0.2307329768730807 0 -0.46246932169897542 0.2370605429940961 0 -0.47920294489437648 0.23119147479085209 0 -0.45919982263643 0.21711683901936871 0 -0.46246932169897542 0.2370605429940961 0 -0.45919982263643 0.21711683901936871 0 -0.4410135601557571 0.22017395364910569 0 -0.4494810007014115 0.2307329768730807 0 -0.4410135601557571 0.22017395364910569 0 -0.43874481783376668 0.23398770362353999 0 -0.4494810007014115 0.2307329768730807 0 -0.43874481783376668 0.23398770362353999 0 -0.4494810007014115 0.2307329768730807 0 -0.44774528601869013 0.2459541774632307 0 -0.43874481783376668 0.23398770362353999 0 -0.44774528601869013 0.2459541774632307 0 -0.43124038359110489 0.24280302085449509 0 -0.44774528601869013 0.2459541774632307 0 -0.43124038359110489 0.24280302085449509 0 -0.43802187127800601 0.25962406553947598 0 -0.46246932169897542 0.2370605429940961 0 -0.47482502178307939 0.25365315305093339 0 -0.46018844261836228 0.25540895468038027 0 -0.44774528601869013 0.2459541774632307 0 -0.46246932169897542 0.2370605429940961 0 -0.46018844261836228 0.25540895468038027 0 -0.4494810007014115 0.2307329768730807 0 -0.44774528601869013 0.2459541774632307 0 -0.46246932169897542 0.2370605429940961 0 -0.40882538696608361 0.24382605203372709 0 -0.41187480279331828 0.23894745543688939 0 -0.41954902780340009 0.26375373495037069 0 -0.41187480279331828 0.23894745543688939 0 -0.43124038359110489 0.24280302085449509 0 -0.41954902780340009 0.26375373495037069 0 -0.40882538696608361 0.24382605203372709 0 -0.41187480279331828 0.23894745543688939 0 -0.40326116430464581 0.23599194594046821 0 -0.40882538696608361 0.24382605203372709 0 -0.41187480279331828 0.23894745543688939 0 -0.43124038359110489 0.24280302085449509 0 -0.43038742027466809 0.2267488720494647 0 -0.43124038359110489 0.24280302085449509 0 -0.42327029739950001 0.23403797826727171 0 -0.43038742027466809 0.2267488720494647 0 -0.43874481783376668 0.23398770362353999 0 -0.43124038359110489 0.24280302085449509 0 -0.43038742027466809 0.2267488720494647 0 -0.41187480279331828 0.23894745543688939 0 -0.43124038359110489 0.24280302085449509 0 -0.42327029739950001 0.23403797826727171 0 -0.4410135601557571 0.22017395364910569 0 -0.43038742027466809 0.2267488720494647 0 -0.42953445695823239 0.21069472324443431 0 -0.43038742027466809 0.2267488720494647 0 -0.42070462987577578 0.22482108934066219 0 -0.42953445695823239 0.21069472324443431 0 -0.42327029739950001 0.23403797826727171 0 -0.43038742027466809 0.2267488720494647 0 -0.42070462987577578 0.22482108934066219 0 -0.4410135601557571 0.22017395364910569 0 -0.43874481783376668 0.23398770362353999 0 -0.43038742027466809 0.2267488720494647 0 -0.41187480279331828 0.23894745543688939 0 -0.42070462987577578 0.22482108934066219 0 -0.40496334952905022 0.21660677070421899 0 -0.41187480279331828 0.23894745543688939 0 -0.40496334952905022 0.21660677070421899 0 -0.40326116430464581 0.23599194594046821 0 -0.41187480279331828 0.23894745543688939 0 -0.40496334952905022 0.21660677070421899 0 -0.41187480279331828 0.23894745543688939 0 -0.42070462987577578 0.22482108934066219 0 -0.41187480279331828 0.23894745543688939 0 -0.42327029739950001 0.23403797826727171 0 -0.42070462987577578 0.22482108934066219 0 -0.42070462987577578 0.22482108934066219 0 -0.41719981981956539 0.21288448232563531 0 -0.40496334952905022 0.21660677070421899 0 -0.41719981981956539 0.21288448232563531 0 -0.4142919131717922 0.20014502145320609 0 -0.40496334952905022 0.21660677070421899 0 -0.41719981981956539 0.21288448232563531 0 -0.42953445695823239 0.21069472324443431 0 -0.4142919131717922 0.20014502145320609 0 -0.42070462987577578 0.22482108934066219 0 -0.41719981981956539 0.21288448232563531 0 -0.42953445695823239 0.21069472324443431 0 -0.43038742027466809 0.2267488720494647 0 -0.42953445695823239 0.21069472324443431 0 -0.42070462987577578 0.22482108934066219 0 -0.42953445695823239 0.21069472324443431 0 -0.42953445695823239 0.21069472324443431 0 -0.4142919131717922 0.20014502145320609 0 -0.42811776030579551 0.18403020153346161 0 -0.4407264251267986 0.19278929449594079 0 -0.42953445695823239 0.21069472324443431 0 -0.42811776030579551 0.18403020153346161 0 -0.4407264251267986 0.19278929449594079 0 -0.42953445695823239 0.21069472324443431 0 -0.42953445695823239 0.21069472324443431 0 -0.42811776030579551 0.18403020153346161 0 -0.4142919131717922 0.20014502145320609 0 -0.39805189626478182 0.19426608597154871 0 -0.4080652040326479 0.18257788458576629 0 -0.4142919131717922 0.20014502145320609 0 -0.42811776030579551 0.18403020153346161 0 -0.4080652040326479 0.18257788458576629 0 -0.39805189626478182 0.19426608597154871 0 -0.37784124656742452 0.18888081701372861 0 -0.38633576518450918 0.20571566757859411 0 -0.37784124656742452 0.18888081701372861 0 -0.38633576518450918 0.20571566757859411 0 -0.37313971302115301 0.20195765965049081 0 -0.38633576518450918 0.20571566757859411 0 -0.37506447296462381 0.21466519881287799 0 -0.37313971302115301 0.20195765965049081 0 -0.38633576518450918 0.20571566757859411 0 -0.37506447296462381 0.21466519881287799 0 -0.38895391276002161 0.21791747331869951 0 -0.39805189626478182 0.19426608597154871 0 -0.40496334952905022 0.21660677070421899 0 -0.4142919131717922 0.20014502145320609 0 -0.39805189626478182 0.19426608597154871 0 -0.40496334952905022 0.21660677070421899 0 -0.38633576518450918 0.20571566757859411 0 -0.38895391276002161 0.21791747331869951 0 -0.40496334952905022 0.21660677070421899 0 -0.39805189626478182 0.19426608597154871 0 -0.38633576518450918 0.20571566757859411 0 -0.40496334952905022 0.21660677070421899 0 -0.38895391276002161 0.21791747331869951 0 -0.40496334952905022 0.21660677070421899 0 -0.39146274199107378 0.22563671604814731 0 -0.40496334952905022 0.21660677070421899 0 -0.39669950798526737 0.23328797370675119 0 -0.40326116430464581 0.23599194594046821 0 -0.40496334952905022 0.21660677070421899 0 -0.39669950798526737 0.23328797370675119 0 -0.39146274199107378 0.22563671604814731 0 -0.39669950798526737 0.23328797370675119 0 -0.39146274199107378 0.22563671604814731 0 -0.38460123272345431 0.23337949723228879 0 -0.38895391276002161 0.21791747331869951 0 -0.39146274199107378 0.22563671604814731 0 -0.38148293677099432 0.22410895766842551 0 -0.37506447296462381 0.21466519881287799 0 -0.38895391276002161 0.21791747331869951 0 -0.38148293677099432 0.22410895766842551 0 -0.37506447296462381 0.21466519881287799 0 -0.38148293677099432 0.22410895766842551 0 -0.37283583182804492 0.22979833232403879 0 -0.38148293677099432 0.22410895766842551 0 -0.38460123272345431 0.23337949723228879 0 -0.37283583182804492 0.22979833232403879 0 -0.39146274199107378 0.22563671604814731 0 -0.38148293677099432 0.22410895766842551 0 -0.38460123272345431 0.23337949723228879 0 -0.38000528311853188 0.24378332984737169 0 -0.39394277424950891 0.24729147782075431 0 -0.37727086281844052 0.25752547034660772 0 -0.38460123272345431 0.23337949723228879 0 -0.38000528311853188 0.24378332984737169 0 -0.39394277424950891 0.24729147782075431 0 -0.38460123272345431 0.23337949723228879 0 -0.38000528311853188 0.24378332984737169 0 -0.37283583182804492 0.22979833232403879 0 -0.39669950798526737 0.23328797370675119 0 -0.39394277424950891 0.24729147782075431 0 -0.40326116430464581 0.23599194594046821 0 -0.39669950798526737 0.23328797370675119 0 -0.38460123272345431 0.23337949723228879 0 -0.39394277424950891 0.24729147782075431 0 -0.40882538696608361 0.24382605203372709 0 -0.39394277424950891 0.24729147782075431 0 -0.40326116430464581 0.23599194594046821 0 -0.41284870078744118 0.1545961063179512 0 -0.41116795932655259 0.1366008704724346 0 -0.42744582072685822 0.14421414546965791 0 -0.41284870078744118 0.1545961063179512 0 -0.41116795932655259 0.1366008704724346 0 -0.39891341938151059 0.15032957521151019 0 -0.43767155227093679 0.1236369550369415 0 -0.44183521833307737 0.1416130554521583 0 -0.42744582072685822 0.14421414546965791 0 -0.43767155227093679 0.1236369550369415 0 -0.41116795932655259 0.1366008704724346 0 -0.42744582072685822 0.14421414546965791 0 -0.43767155227093679 0.1236369550369415 0 -0.41116795932655259 0.1366008704724346 0 -0.44183521833307737 0.1416130554521583 0 -0.42744582072685822 0.14421414546965791 0 -0.43532348888910022 0.15173104118772779 0 -0.41284870078744118 0.1545961063179512 0 -0.42744582072685822 0.14421414546965791 0 -0.42670106365335969 0.157365679822489 0 -0.42744582072685822 0.14421414546965791 0 -0.43532348888910022 0.15173104118772779 0 -0.42670106365335969 0.157365679822489 0 -0.44605036630015388 0.1639505733940515 0 -0.4361800492853295 0.1600574114613168 0 -0.42719191222189679 0.16660424355457251 0 -0.43532348888910022 0.15173104118772779 0 -0.4361800492853295 0.1600574114613168 0 -0.42670106365335969 0.157365679822489 0 -0.4361800492853295 0.1600574114613168 0 -0.42719191222189679 0.16660424355457251 0 -0.42670106365335969 0.157365679822489 0 -0.42719191222189679 0.16660424355457251 0 -0.42670106365335969 0.157365679822489 0 -0.41556562459217222 0.16984802718214459 0 -0.42719191222189679 0.16660424355457251 0 -0.42670106365335969 0.157365679822489 0 -0.42719191222189679 0.16660424355457251 0 -0.42811776030579551 0.18403020153346161 0 -0.42719191222189679 0.16660424355457251 0 -0.43711707770013519 0.17957007646955661 0 -0.42811776030579551 0.18403020153346161 0 -0.42719191222189679 0.16660424355457251 0 -0.42811776030579551 0.18403020153346161 0 -0.41556562459217222 0.16984802718214459 0 -0.4407264251267986 0.19278929449594079 0 -0.43711707770013519 0.17957007646955661 0 -0.42811776030579551 0.18403020153346161 0 -0.42811776030579551 0.18403020153346161 0 -0.4080652040326479 0.18257788458576629 0 -0.41556562459217222 0.16984802718214459 0 -0.4080652040326479 0.18257788458576629 0 -0.41556562459217222 0.16984802718214459 0 -0.40231920949138023 0.16695962810105569 0 -0.41284870078744118 0.1545961063179512 0 -0.42670106365335969 0.157365679822489 0 -0.41556562459217222 0.16984802718214459 0 -0.41284870078744118 0.1545961063179512 0 -0.41556562459217222 0.16984802718214459 0 -0.40231920949138023 0.16695962810105569 0 -0.41284870078744118 0.1545961063179512 0 -0.40231920949138023 0.16695962810105569 0 -0.39891341938151059 0.15032957521151019 0 -0.40231920949138023 0.16695962810105569 0 -0.39185284464990799 0.17737343596268909 0 -0.38803475505714891 0.16087964773075861 0 -0.40231920949138023 0.16695962810105569 0 -0.38803475505714891 0.16087964773075861 0 -0.39891341938151059 0.15032957521151019 0 -0.4080652040326479 0.18257788458576629 0 -0.40231920949138023 0.16695962810105569 0 -0.39185284464990799 0.17737343596268909 0 -0.39805189626478182 0.19426608597154871 0 -0.4080652040326479 0.18257788458576629 0 -0.39185284464990799 0.17737343596268909 0 -0.37784124656742452 0.18888081701372861 0 -0.39185284464990799 0.17737343596268909 0 -0.37641402733958851 0.16969422727016889 0 -0.39805189626478182 0.19426608597154871 0 -0.37784124656742452 0.18888081701372861 0 -0.39185284464990799 0.17737343596268909 0 -0.39185284464990799 0.17737343596268909 0 -0.38803475505714891 0.16087964773075861 0 -0.37641402733958851 0.16969422727016889 0 -0.38803475505714891 0.16087964773075861 0 -0.37641402733958851 0.16969422727016889 0 -0.37473889748685651 0.155055150626357 0 -0.38803475505714891 0.16087964773075861 0 -0.38397013199364988 0.14586586921277081 0 -0.37473889748685651 0.155055150626357 0 -0.38397013199364988 0.14586586921277081 0 -0.37146828502252932 0.14161616246703179 0 -0.37473889748685651 0.155055150626357 0 -0.38803475505714891 0.16087964773075861 0 -0.38397013199364988 0.14586586921277081 0 -0.39891341938151059 0.15032957521151019 0 -0.41116795932655259 0.1366008704724346 0 -0.39891341938151059 0.15032957521151019 0 -0.39295463199285152 0.13537632093573229 0 -0.38397013199364988 0.14586586921277081 0 -0.39891341938151059 0.15032957521151019 0 -0.39295463199285152 0.13537632093573229 0 -0.40173362399585411 0.1233294235550824 0 -0.38552115898601419 0.124844007562953 0 -0.39295463199285152 0.13537632093573229 0 -0.40173362399585411 0.1233294235550824 0 -0.41116795932655259 0.1366008704724346 0 -0.39295463199285152 0.13537632093573229 0 -0.38397013199364988 0.14586586921277081 0 -0.39295463199285152 0.13537632093573229 0 -0.376421498273528 0.13128817959964281 0 -0.38552115898601419 0.124844007562953 0 -0.39295463199285152 0.13537632093573229 0 -0.376421498273528 0.13128817959964281 0 -0.38397013199364988 0.14586586921277081 0 -0.376421498273528 0.13128817959964281 0 -0.37146828502252932 0.14161616246703179 0 -0.376421498273528 0.13128817959964281 0 -0.36527287591758989 0.13108969059371839 0 -0.37259574455961803 0.1141273232257122 0 -0.376421498273528 0.13128817959964281 0 -0.36527287591758989 0.13108969059371839 0 -0.37146828502252932 0.14161616246703179 0 -0.36202237127797388 0.13890207233830121 0 -0.36527287591758989 0.13108969059371839 0 -0.35308239703752892 0.1296705057206749 0 -0.36202237127797388 0.13890207233830121 0 -0.36527287591758989 0.13108969059371839 0 -0.37146828502252932 0.14161616246703179 0 -0.36527287591758989 0.13108969059371839 0 -0.35308239703752892 0.1296705057206749 0 -0.36135559296114578 0.1210067081565579 0 -0.35308239703752892 0.1296705057206749 0 -0.34384021931673758 0.14958583765190231 0 -0.34470439893777249 0.12733356471703999 0 -0.34343989760652621 0.14454542614275179 0 -0.35228175361710617 0.1195896827023738 0 -0.34343989760652621 0.14454542614275179 0 -0.35228175361710617 0.1195896827023738 0 -0.35308239703752892 0.1296705057206749 0 -0.34343989760652621 0.14454542614275179 0 -0.35228175361710617 0.1195896827023738 0 -0.35308239703752892 0.1296705057206749 0 -0.35661570688320898 0.14352449750384139 0 -0.35178263653228542 0.1438665507647027 0 -0.36202237127797388 0.13890207233830121 0 -0.35308239703752892 0.1296705057206749 0 -0.35661570688320898 0.14352449750384139 0 -0.35308239703752892 0.1296705057206749 0 -0.34384021931673758 0.14958583765190231 0 -0.35178263653228542 0.1438665507647027 0 -0.35308239703752892 0.1296705057206749 0 -0.34384021931673758 0.14958583765190231 0 -0.34343989760652621 0.14454542614275179 0 -0.34384021931673758 0.14958583765190231 0 -0.35359222289166609 0.15268536218239229 0 -0.34590787477570378 0.15974757458201591 0 -0.34384021931673758 0.14958583765190231 0 -0.35178263653228542 0.1438665507647027 0 -0.35359222289166609 0.15268536218239229 0 -0.35661570688320898 0.14352449750384139 0 -0.35178263653228542 0.1438665507647027 0 -0.35359222289166609 0.15268536218239229 0 -0.35661570688320898 0.14352449750384139 0 -0.35359222289166609 0.15268536218239229 0 -0.36367259152901249 0.14860950540623971 0 -0.35359222289166609 0.15268536218239229 0 -0.36367259152901249 0.14860950540623971 0 -0.36419361190365029 0.1624384080136384 0 -0.36202237127797388 0.13890207233830121 0 -0.36367259152901249 0.14860950540623971 0 -0.37146828502252932 0.14161616246703179 0 -0.36202237127797388 0.13890207233830121 0 -0.35661570688320898 0.14352449750384139 0 -0.36367259152901249 0.14860950540623971 0 -0.36367259152901249 0.14860950540623971 0 -0.37146828502252932 0.14161616246703179 0 -0.37473889748685651 0.155055150626357 0 -0.36367259152901249 0.14860950540623971 0 -0.37473889748685651 0.155055150626357 0 -0.36419361190365029 0.1624384080136384 0 -0.37641402733958851 0.16969422727016889 0 -0.37473889748685651 0.155055150626357 0 -0.36419361190365029 0.1624384080136384 0 -0.36419361190365029 0.1624384080136384 0 -0.36347682000479531 0.17995846441253871 0 -0.35160101529846499 0.16721792891063911 0 -0.37641402733958851 0.16969422727016889 0 -0.36419361190365029 0.1624384080136384 0 -0.36347682000479531 0.17995846441253871 0 -0.37784124656742452 0.18888081701372861 0 -0.37641402733958851 0.16969422727016889 0 -0.36347682000479531 0.17995846441253871 0 -0.36347682000479531 0.17995846441253871 0 -0.34880594615530391 0.17864670799044269 0 -0.35099042893728188 0.19020711687812519 0 -0.36347682000479531 0.17995846441253871 0 -0.34880594615530391 0.17864670799044269 0 -0.35160101529846499 0.16721792891063911 0 -0.34880594615530391 0.17864670799044269 0 -0.34204797710428381 0.18437604748900571 0 -0.35099042893728188 0.19020711687812519 0 -0.35160101529846499 0.16721792891063911 0 -0.34590787477570378 0.15974757458201591 0 -0.33459804159594631 0.16950116958312969 0 -0.34880594615530391 0.17864670799044269 0 -0.35160101529846499 0.16721792891063911 0 -0.33459804159594631 0.16950116958312969 0 -0.35359222289166609 0.15268536218239229 0 -0.36419361190365029 0.1624384080136384 0 -0.35160101529846499 0.16721792891063911 0 -0.35359222289166609 0.15268536218239229 0 -0.35160101529846499 0.16721792891063911 0 -0.34590787477570378 0.15974757458201591 0 -0.33459804159594631 0.16950116958312969 0 -0.34343989760652621 0.14454542614275179 0 -0.33459804159594631 0.16950116958312969 0 -0.3264721893999073 0.15699253254851289 0 -0.34343989760652621 0.14454542614275179 0 -0.34384021931673758 0.14958583765190231 0 -0.34590787477570378 0.15974757458201591 0 -0.33459804159594631 0.16950116958312969 0 -0.34384021931673758 0.14958583765190231 0 -0.33459804159594631 0.16950116958312969 0 -0.33459804159594631 0.16950116958312969 0 -0.34204797710428381 0.18437604748900571 0 -0.33501764883814211 0.18817181103106931 0 -0.33459804159594631 0.16950116958312969 0 -0.3257249613670451 0.19454504198428441 0 -0.33459804159594631 0.16950116958312969 0 -0.32237920082555549 0.1958307076107014 0 -0.33459804159594631 0.16950116958312969 0 -0.33501764883814211 0.18817181103106931 0 -0.3257249613670451 0.19454504198428441 0 -0.34880594615530391 0.17864670799044269 0 -0.33459804159594631 0.16950116958312969 0 -0.34204797710428381 0.18437604748900571 0 -0.33459804159594631 0.16950116958312969 0 -0.3257249613670451 0.19454504198428441 0 -0.32237920082555549 0.1958307076107014 0 -0.33459804159594631 0.16950116958312969 0 -0.32155964870649711 0.1823173639905919 0 -0.32237920082555549 0.1958307076107014 0 -0.33459804159594631 0.16950116958312969 0 -0.32155964870649711 0.1823173639905919 0 -0.3194923963834459 0.16961987910323331 0 -0.32155964870649711 0.1823173639905919 0 -0.3194923963834459 0.16961987910323331 0 -0.31091455941302082 0.1803143629444382 0 -0.31776532843641042 0.18887292848296761 0 -0.31227162396122221 0.19105203351370001 0 -0.31091455941302082 0.1803143629444382 0 -0.32155964870649711 0.1823173639905919 0 -0.31776532843641042 0.18887292848296761 0 -0.31091455941302082 0.1803143629444382 0 -0.3264721893999073 0.15699253254851289 0 -0.3194923963834459 0.16961987910323331 0 -0.30391754280185779 0.15897396644949341 0 -0.33459804159594631 0.16950116958312969 0 -0.3264721893999073 0.15699253254851289 0 -0.3194923963834459 0.16961987910323331 0 -0.3264721893999073 0.15699253254851289 0 -0.32924745853493959 0.1409080402155522 0 -0.30391754280185779 0.15897396644949341 0 -0.31581416493495518 0.13505974762363279 0 -0.32924745853493959 0.1409080402155522 0 -0.30391754280185779 0.15897396644949341 0 -0.31581416493495518 0.13505974762363279 0 -0.33420132805026309 0.12917568886962219 0 -0.32924745853493959 0.1409080402155522 0 -0.31581416493495518 0.13505974762363279 0 -0.33420132805026309 0.12917568886962219 0 -0.33100557073736292 0.12084673152653951 0 -0.34470439893777249 0.12733356471703999 0 -0.33789827078237539 0.13549067998624151 0 -0.34343989760652621 0.14454542614275179 0 -0.33420132805026309 0.12917568886962219 0 -0.33789827078237539 0.13549067998624151 0 -0.32924745853493959 0.1409080402155522 0 -0.34470439893777249 0.12733356471703999 0 -0.33420132805026309 0.12917568886962219 0 -0.33789827078237539 0.13549067998624151 0 -0.33789827078237539 0.13549067998624151 0 -0.34343989760652621 0.14454542614275179 0 -0.32924745853493959 0.1409080402155522 0 -0.3264721893999073 0.15699253254851289 0 -0.34343989760652621 0.14454542614275179 0 -0.32924745853493959 0.1409080402155522 0 -0.34384021931673758 0.14958583765190231 0 -0.33459804159594631 0.16950116958312969 0 -0.34343989760652621 0.14454542614275179 0 -0.3495128616316957 0.24409495393519079 0 -0.36690485856927751 0.24566542346455111 0 -0.35836164497254469 0.23065476042803171 0 -0.36690485856927751 0.24566542346455111 0 -0.37283583182804492 0.22979833232403879 0 -0.35836164497254469 0.23065476042803171 0 -0.38000528311853188 0.24378332984737169 0 -0.36690485856927751 0.24566542346455111 0 -0.37283583182804492 0.22979833232403879 0 -0.38000528311853188 0.24378332984737169 0 -0.36690485856927751 0.24566542346455111 0 -0.37727086281844052 0.25752547034660772 0 -0.37283583182804492 0.22979833232403879 0 -0.36395083571754611 0.21935074335638119 0 -0.35836164497254469 0.23065476042803171 0 -0.37506447296462381 0.21466519881287799 0 -0.37283583182804492 0.22979833232403879 0 -0.36395083571754611 0.21935074335638119 0 -0.36395083571754611 0.21935074335638119 0 -0.35836164497254469 0.23065476042803171 0 -0.35097989634554377 0.21787466425745039 0 -0.3495128616316957 0.24409495393519079 0 -0.35836164497254469 0.23065476042803171 0 -0.34473166315365539 0.22705632115334101 0 -0.35836164497254469 0.23065476042803171 0 -0.34473166315365539 0.22705632115334101 0 -0.35097989634554377 0.21787466425745039 0 -0.34473166315365539 0.22705632115334101 0 -0.35097989634554377 0.21787466425745039 0 -0.34238292952320859 0.2137314543875079 0 -0.35097989634554377 0.21787466425745039 0 -0.34941935177518019 0.20395891366043351 0 -0.34238292952320859 0.2137314543875079 0 -0.34941935177518019 0.20395891366043351 0 -0.34128346106579871 0.2035677562430806 0 -0.34238292952320859 0.2137314543875079 0 -0.34941935177518019 0.20395891366043351 0 -0.35786316486767528 0.21162792892892271 0 -0.36102594066678362 0.1963225165137629 0 -0.35097989634554377 0.21787466425745039 0 -0.34941935177518019 0.20395891366043351 0 -0.35786316486767528 0.21162792892892271 0 -0.36395083571754611 0.21935074335638119 0 -0.35097989634554377 0.21787466425745039 0 -0.35786316486767528 0.21162792892892271 0 -0.36395083571754611 0.21935074335638119 0 -0.35786316486767528 0.21162792892892271 0 -0.36651943806645271 0.2071841274226158 0 -0.37506447296462381 0.21466519881287799 0 -0.36395083571754611 0.21935074335638119 0 -0.36651943806645271 0.2071841274226158 0 -0.37506447296462381 0.21466519881287799 0 -0.36651943806645271 0.2071841274226158 0 -0.37313971302115301 0.20195765965049081 0 -0.35786316486767528 0.21162792892892271 0 -0.36651943806645271 0.2071841274226158 0 -0.36102594066678362 0.1963225165137629 0 -0.37784124656742452 0.18888081701372861 0 -0.36102594066678362 0.1963225165137629 0 -0.37313971302115301 0.20195765965049081 0 -0.36651943806645271 0.2071841274226158 0 -0.36102594066678362 0.1963225165137629 0 -0.37313971302115301 0.20195765965049081 0 -0.37784124656742452 0.18888081701372861 0 -0.36347682000479531 0.17995846441253871 0 -0.36102594066678362 0.1963225165137629 0 -0.36347682000479531 0.17995846441253871 0 -0.36102594066678362 0.1963225165137629 0 -0.35099042893728188 0.19020711687812519 0 -0.34941935177518019 0.20395891366043351 0 -0.36102594066678362 0.1963225165137629 0 -0.35099042893728188 0.19020711687812519 0 -0.34941935177518019 0.20395891366043351 0 -0.34082781999474449 0.19535343196226179 0 -0.34128346106579871 0.2035677562430806 0 -0.34941935177518019 0.20395891366043351 0 -0.35099042893728188 0.19020711687812519 0 -0.34082781999474449 0.19535343196226179 0 -0.34204797710428381 0.18437604748900571 0 -0.35099042893728188 0.19020711687812519 0 -0.34082781999474449 0.19535343196226179 0 -0.34204797710428381 0.18437604748900571 0 -0.34082781999474449 0.19535343196226179 0 -0.33501764883814211 0.18817181103106931 0 -0.34082781999474449 0.19535343196226179 0 -0.33276299860131597 0.19577380700482841 0 -0.33501764883814211 0.18817181103106931 0 -0.34082781999474449 0.19535343196226179 0 -0.33409748193579142 0.20180823125256539 0 -0.34128346106579871 0.2035677562430806 0 -0.34082781999474449 0.19535343196226179 0 -0.33276299860131597 0.19577380700482841 0 -0.33409748193579142 0.20180823125256539 0 -0.33409748193579142 0.20180823125256539 0 -0.32814708087085681 0.19899051879396101 0 -0.326983034019801 0.20831186822589459 0 -0.33276299860131597 0.19577380700482841 0 -0.32814708087085681 0.19899051879396101 0 -0.3257249613670451 0.19454504198428441 0 -0.33276299860131597 0.19577380700482841 0 -0.33409748193579142 0.20180823125256539 0 -0.32814708087085681 0.19899051879396101 0 -0.33276299860131597 0.19577380700482841 0 -0.33501764883814211 0.18817181103106931 0 -0.3257249613670451 0.19454504198428441 0 -0.32237920082555549 0.1958307076107014 0 -0.30645911172368251 0.20094763120781151 0 -0.31227162396122221 0.19105203351370001 0 -0.32155964870649711 0.1823173639905919 0 -0.31776532843641042 0.18887292848296761 0 -0.32237920082555549 0.1958307076107014 0 -0.31776532843641042 0.18887292848296761 0 -0.32237920082555549 0.1958307076107014 0 -0.31227162396122221 0.19105203351370001 0 -0.32814708087085681 0.19899051879396101 0 -0.32237920082555549 0.1958307076107014 0 -0.326983034019801 0.20831186822589459 0 -0.32814708087085681 0.19899051879396101 0 -0.3257249613670451 0.19454504198428441 0 -0.32237920082555549 0.1958307076107014 0 -0.32237920082555549 0.1958307076107014 0 -0.31016036005516462 0.22216024563827291 0 -0.326983034019801 0.20831186822589459 0 -0.33174079966811792 0.22095044046914589 0 -0.31016036005516462 0.22216024563827291 0 -0.32237920082555549 0.1958307076107014 0 -0.326983034019801 0.20831186822589459 0 -0.31016036005516462 0.22216024563827291 0 -0.32237920082555549 0.1958307076107014 0 -0.31016036005516462 0.22216024563827291 0 -0.30645911172368251 0.20094763120781151 0 -0.326983034019801 0.20831186822589459 0 -0.33529754124254352 0.20967395011563891 0 -0.33174079966811792 0.22095044046914589 0 -0.33409748193579142 0.20180823125256539 0 -0.326983034019801 0.20831186822589459 0 -0.33529754124254352 0.20967395011563891 0 -0.33409748193579142 0.20180823125256539 0 -0.33529754124254352 0.20967395011563891 0 -0.34128346106579871 0.2035677562430806 0 -0.33529754124254352 0.20967395011563891 0 -0.34128346106579871 0.2035677562430806 0 -0.34238292952320859 0.2137314543875079 0 -0.33529754124254352 0.20967395011563891 0 -0.34238292952320859 0.2137314543875079 0 -0.33174079966811792 0.22095044046914589 0 -0.34473166315365539 0.22705632115334101 0 -0.33174079966811792 0.22095044046914589 0 -0.3311214736135023 0.2370080268638777 0 -0.34473166315365539 0.22705632115334101 0 -0.34238292952320859 0.2137314543875079 0 -0.33174079966811792 0.22095044046914589 0 -0.3311214736135023 0.2370080268638777 0 -0.31208092774160101 0.24303608406122881 0 -0.31016036005516462 0.22216024563827291 0 -0.33174079966811792 0.22095044046914589 0 -0.3311214736135023 0.2370080268638777 0 -0.31016036005516462 0.22216024563827291 0 -0.3311214736135023 0.2370080268638777 0 -0.31208092774160101 0.24303608406122881 0 -0.3370680671101976 0.26090650458908071 0 -0.3495128616316957 0.24409495393519079 0 -0.34473166315365539 0.22705632115334101 0 -0.3311214736135023 0.2370080268638777 0 -0.3495128616316957 0.24409495393519079 0 -0.3311214736135023 0.2370080268638777 0 -0.3370680671101976 0.26090650458908071 0 -0.31208092774160101 0.24303608406122881 0 -0.29178329889902199 0.22105074046036891 0 -0.28461048113946391 0.25129573582790232 0 -0.31208092774160101 0.24303608406122881 0 -0.31016036005516462 0.22216024563827291 0 -0.29178329889902199 0.22105074046036891 0 -0.29178329889902199 0.22105074046036891 0 -0.26929827439644533 0.2285645402254711 0 -0.28461048113946391 0.25129573582790232 0 -0.29178329889902199 0.22105074046036891 0 -0.28555572122023731 0.20372547986402839 0 -0.28012429853566501 0.20680240410121559 0 -0.29178329889902199 0.22105074046036891 0 -0.28555572122023731 0.20372547986402839 0 -0.29730552007633732 0.20928389000257949 0 -0.28555572122023731 0.20372547986402839 0 -0.28012429853566501 0.20680240410121559 0 -0.28555572122023731 0.20372547986402839 0 -0.29730552007633732 0.20928389000257949 0 -0.29670476054523998 0.19677138727773319 0 -0.31016036005516462 0.22216024563827291 0 -0.29730552007633732 0.20928389000257949 0 -0.30645911172368251 0.20094763120781151 0 -0.31016036005516462 0.22216024563827291 0 -0.29178329889902199 0.22105074046036891 0 -0.29730552007633732 0.20928389000257949 0 -0.29730552007633732 0.20928389000257949 0 -0.30645911172368251 0.20094763120781151 0 -0.29670476054523998 0.19677138727773319 0 -0.30645911172368251 0.20094763120781151 0 -0.30367419526238509 0.19039472004380739 0 -0.29670476054523998 0.19677138727773319 0 -0.30645911172368251 0.20094763120781151 0 -0.31227162396122221 0.19105203351370001 0 -0.30367419526238509 0.19039472004380739 0 -0.30367419526238509 0.19039472004380739 0 -0.29670476054523998 0.19677138727773319 0 -0.29202092066876051 0.18288818527535411 0 -0.28555572122023731 0.20372547986402839 0 -0.28012429853566501 0.20680240410121559 0 -0.29202092066876051 0.18288818527535411 0 -0.27577854218816422 0.1887415424805276 0 -0.28012429853566501 0.20680240410121559 0 -0.29202092066876051 0.18288818527535411 0 -0.28555572122023731 0.20372547986402839 0 -0.29670476054523998 0.19677138727773319 0 -0.29202092066876051 0.18288818527535411 0 -0.28012429853566501 0.20680240410121559 0 -0.29202092066876051 0.18288818527535411 0 -0.27577854218816422 0.1887415424805276 0 -0.26766267482919259 0.2023738104934131 0 -0.28012429853566501 0.20680240410121559 0 -0.27577854218816422 0.1887415424805276 0 -0.26766267482919259 0.2023738104934131 0 -0.26251567639442308 0.19204872829736541 0 -0.250219269816222 0.1876727605737494 0 -0.26251567639442308 0.19204872829736541 0 -0.25588893239374888 0.20453744195192139 0 -0.26766267482919259 0.2023738104934131 0 -0.26251567639442308 0.19204872829736541 0 -0.25588893239374888 0.20453744195192139 0 -0.26766267482919259 0.2023738104934131 0 -0.25588893239374888 0.20453744195192139 0 -0.26449293664309831 0.2156576376303892 0 -0.25588893239374888 0.20453744195192139 0 -0.26449293664309831 0.2156576376303892 0 -0.2488615747505305 0.22451287115956081 0 -0.26449293664309831 0.2156576376303892 0 -0.28012429853566501 0.20680240410121559 0 -0.26449293664309831 0.2156576376303892 0 -0.28012429853566501 0.20680240410121559 0 -0.26929827439644533 0.2285645402254711 0 -0.28012429853566501 0.20680240410121559 0 -0.26929827439644533 0.2285645402254711 0 -0.26766267482919259 0.2023738104934131 0 -0.26449293664309831 0.2156576376303892 0 -0.28012429853566501 0.20680240410121559 0 -0.29178329889902199 0.22105074046036891 0 -0.28012429853566501 0.20680240410121559 0 -0.26929827439644533 0.2285645402254711 0 -0.26449293664309831 0.2156576376303892 0 -0.26929827439644533 0.2285645402254711 0 -0.2488615747505305 0.22451287115956081 0 -0.26449293664309831 0.2156576376303892 0 -0.2488615747505305 0.22451287115956081 0 -0.25847225025722792 0.25032667634972777 0 -0.2488615747505305 0.22451287115956081 0 -0.26929827439644533 0.2285645402254711 0 -0.25847225025722792 0.25032667634972777 0 -0.26929827439644533 0.2285645402254711 0 -0.25847225025722792 0.25032667634972777 0 -0.2488615747505305 0.22451287115956081 0 -0.26929827439644533 0.2285645402254711 0 -0.28461048113946391 0.25129573582790232 0 -0.25847225025722792 0.25032667634972777 0 -0.29132441397264758 0.1384063266199777 0 -0.30391754280185779 0.15897396644949341 0 -0.27595214221009062 0.15300813127548829 0 -0.29132441397264758 0.1384063266199777 0 -0.28143850131039388 0.12809902715274421 0 -0.29790459658929908 0.12223211289795501 0 -0.29132441397264758 0.1384063266199777 0 -0.28143850131039388 0.12809902715274421 0 -0.27394160981984689 0.1365166111161501 0 -0.31581416493495518 0.13505974762363279 0 -0.29132441397264758 0.1384063266199777 0 -0.29790459658929908 0.12223211289795501 0 -0.31581416493495518 0.13505974762363279 0 -0.30391754280185779 0.15897396644949341 0 -0.31581416493495518 0.13505974762363279 0 -0.29132441397264758 0.1384063266199777 0 -0.30391754280185779 0.15897396644949341 0 -0.30391754280185779 0.15897396644949341 0 -0.29202092066876051 0.18288818527535411 0 -0.3194923963834459 0.16961987910323331 0 -0.30391754280185779 0.15897396644949341 0 -0.31091455941302082 0.1803143629444382 0 -0.30391754280185779 0.15897396644949341 0 -0.31091455941302082 0.1803143629444382 0 -0.29202092066876051 0.18288818527535411 0 -0.30367419526238509 0.19039472004380739 0 -0.31091455941302082 0.1803143629444382 0 -0.29202092066876051 0.18288818527535411 0 -0.31227162396122221 0.19105203351370001 0 -0.30367419526238509 0.19039472004380739 0 -0.31091455941302082 0.1803143629444382 0 -0.27577854218816422 0.1887415424805276 0 -0.29202092066876051 0.18288818527535411 0 -0.28256217688241958 0.16941447580699831 0 -0.30391754280185779 0.15897396644949341 0 -0.29202092066876051 0.18288818527535411 0 -0.28256217688241958 0.16941447580699831 0 -0.30391754280185779 0.15897396644949341 0 -0.28256217688241958 0.16941447580699831 0 -0.27595214221009062 0.15300813127548829 0 -0.28256217688241958 0.16941447580699831 0 -0.26456788293631489 0.1737194997130358 0 -0.27595214221009062 0.15300813127548829 0 -0.26456788293631489 0.1737194997130358 0 -0.25851063111936179 0.1572570764597257 0 -0.27595214221009062 0.15300813127548829 0 -0.27577854218816422 0.1887415424805276 0 -0.28256217688241958 0.16941447580699831 0 -0.26456788293631489 0.1737194997130358 0 -0.27577854218816422 0.1887415424805276 0 -0.26251567639442308 0.19204872829736541 0 -0.26456788293631489 0.1737194997130358 0 -0.250219269816222 0.1876727605737494 0 -0.26251567639442308 0.19204872829736541 0 -0.26456788293631489 0.1737194997130358 0 -0.250219269816222 0.1876727605737494 0 -0.26456788293631489 0.1737194997130358 0 -0.24635262343780759 0.16992164813398811 0 -0.26456788293631489 0.1737194997130358 0 -0.25851063111936179 0.1572570764597257 0 -0.24635262343780759 0.16992164813398811 0 -0.25851063111936179 0.1572570764597257 0 -0.27595214221009062 0.15300813127548829 0 -0.26129466179799571 0.14017920789099261 0 -0.25851063111936179 0.1572570764597257 0 -0.26129466179799571 0.14017920789099261 0 -0.24432108978296699 0.14886200394145019 0 -0.27595214221009062 0.15300813127548829 0 -0.27394160981984689 0.1365166111161501 0 -0.26129466179799571 0.14017920789099261 0 -0.29132441397264758 0.1384063266199777 0 -0.27595214221009062 0.15300813127548829 0 -0.27394160981984689 0.1365166111161501 0 -0.28143850131039388 0.12809902715274421 0 -0.27394160981984689 0.1365166111161501 0 -0.26162094327991242 0.13187321953086761 0 -0.26162094327991242 0.13187321953086761 0 -0.24432108978296699 0.14886200394145019 0 -0.26162094327991242 0.13187321953086761 0 -0.26129466179799571 0.14017920789099261 0 -0.24432108978296699 0.14886200394145019 0 -0.26162094327991242 0.13187321953086761 0 -0.26223438127626608 0.1162572280027639 0 -0.2465338238534196 0.13381255237641049 0 -0.26162094327991242 0.13187321953086761 0 -0.2465338238534196 0.13381255237641049 0 -0.24432108978296699 0.14886200394145019 0 -0.27394160981984689 0.1365166111161501 0 -0.26162094327991242 0.13187321953086761 0 -0.26129466179799571 0.14017920789099261 0 -0.26162094327991242 0.13187321953086761 0 -0.26129466179799571 0.14017920789099261 0 -0.26162094327991242 0.13187321953086761 0 -0.26223438127626608 0.1162572280027639 0 -0.26223438127626608 0.1162572280027639 0 -0.26328202675117152 0.089587828718928481 0 -0.24856657473641469 0.110501558511578 0 -0.26328202675117152 0.089587828718928481 0 -0.24295030439022669 0.097440016830348433 0 -0.24856657473641469 0.110501558511578 0 -0.26223438127626608 0.1162572280027639 0 -0.26328202675117152 0.089587828718928481 0 -0.26223438127626608 0.1162572280027639 0 -0.27856950359486549 0.096439277137652449 0 -0.28240094289026302 0.1114668655987703 0 -0.26223438127626608 0.1162572280027639 0 -0.27856950359486549 0.096439277137652449 0 -0.26328202675117152 0.089587828718928481 0 -0.26162094327991242 0.13187321953086761 0 -0.26223438127626608 0.1162572280027639 0 -0.28240094289026302 0.1114668655987703 0 -0.26223438127626608 0.1162572280027639 0 -0.28240094289026302 0.1114668655987703 0 -0.26162094327991242 0.13187321953086761 0 -0.28240094289026302 0.1114668655987703 0 -0.28143850131039388 0.12809902715274421 0 -0.26162094327991242 0.13187321953086761 0 -0.28240094289026302 0.1114668655987703 0 -0.28143850131039388 0.12809902715274421 0 -0.28240094289026302 0.1114668655987703 0 -0.29790459658929908 0.12223211289795501 0 -0.28240094289026302 0.1114668655987703 0 -0.30596751621343321 0.1058688648587789 0 -0.29790459658929908 0.12223211289795501 0 -0.28240094289026302 0.1114668655987703 0 -0.2947029625070442 0.099386048895833884 0 -0.30596751621343321 0.1058688648587789 0 -0.28240094289026302 0.1114668655987703 0 -0.30596751621343321 0.1058688648587789 0 -0.28240094289026302 0.1114668655987703 0 -0.2947029625070442 0.099386048895833884 0 -0.27856950359486549 0.096439277137652449 0 -0.28240094289026302 0.1114668655987703 0 -0.2947029625070442 0.099386048895833884 0 -0.30596751621343321 0.1058688648587789 0 -0.30705122039871791 0.087352317102697849 0 -0.31635332167011498 0.097186720699997522 0 -0.2947029625070442 0.099386048895833884 0 -0.30596751621343321 0.1058688648587789 0 -0.30705122039871791 0.087352317102697849 0 -0.31581416493495518 0.13505974762363279 0 -0.29790459658929908 0.12223211289795501 0 -0.3132374980756174 0.1173528029892312 0 -0.30596751621343321 0.1058688648587789 0 -0.29790459658929908 0.12223211289795501 0 -0.3132374980756174 0.1173528029892312 0 -0.30631908615205661 0.069749196539521441 0 -0.30705122039871791 0.087352317102697849 0 -0.28826954570204638 0.08024264830762956 0 -0.2947029625070442 0.099386048895833884 0 -0.30705122039871791 0.087352317102697849 0 -0.27856950359486549 0.096439277137652449 0 -0.2947029625070442 0.099386048895833884 0 -0.28826954570204638 0.08024264830762956 0 -0.2947029625070442 0.099386048895833884 0 -0.30705122039871791 0.087352317102697849 0 -0.28826954570204638 0.08024264830762956 0 -0.30631908615205661 0.069749196539521441 0 -0.28826954570204638 0.08024264830762956 0 -0.29326496137586588 0.058434550752719708 0 -0.28826954570204638 0.08024264830762956 0 -0.27750562453051891 0.06843813935895747 0 -0.29326496137586588 0.058434550752719708 0 -0.27750562453051891 0.06843813935895747 0 -0.26328202675117152 0.089587828718928481 0 -0.26432967222607912 0.062918429435093085 0 -0.28826954570204638 0.08024264830762956 0 -0.27750562453051891 0.06843813935895747 0 -0.26328202675117152 0.089587828718928481 0 -0.27856950359486549 0.096439277137652449 0 -0.28826954570204638 0.08024264830762956 0 -0.26328202675117152 0.089587828718928481 0 -0.26328202675117152 0.089587828718928481 0 -0.24678651949772781 0.081363788068217424 0 -0.24295030439022669 0.097440016830348433 0 -0.26328202675117152 0.089587828718928481 0 -0.2527182247147155 0.068729904940993694 0 -0.24678651949772781 0.081363788068217424 0 -0.26328202675117152 0.089587828718928481 0 -0.26432967222607912 0.062918429435093085 0 -0.2527182247147155 0.068729904940993694 0 -0.26328202675117152 0.089587828718928481 0 -0.26432967222607912 0.062918429435093085 0 -0.26432967222607912 0.062918429435093085 0 -0.25369422104472689 0.047656163598955442 0 -0.26537731770098671 0.036249030151257702 0 -0.26432967222607912 0.062918429435093085 0 -0.26537731770098671 0.036249030151257702 0 -0.2527182247147155 0.068729904940993694 0 -0.25369422104472689 0.047656163598955442 0 -0.2457422861220703 0.059642997895202443 0 -0.26432967222607912 0.062918429435093085 0 -0.2527182247147155 0.068729904940993694 0 -0.25369422104472689 0.047656163598955442 0 -0.25369422104472689 0.047656163598955442 0 -0.26537731770098671 0.036249030151257702 0 -0.244139310530673 0.023170507220456039 0 -0.26537731770098671 0.036249030151257702 0 -0.27838191659743189 0.051007239580416447 0 -0.29148022635195509 0.038054390581028712 0 -0.26432967222607912 0.062918429435093085 0 -0.26537731770098671 0.036249030151257702 0 -0.27838191659743189 0.051007239580416447 0 -0.27750562453051891 0.06843813935895747 0 -0.26432967222607912 0.062918429435093085 0 -0.27838191659743189 0.051007239580416447 0 -0.25449375083442433 0.01508231230697398 0 -0.26642496317589431 0.0095796308674223063 0 -0.2485089572454911 0.003385493223979923 0 -0.26537731770098671 0.036249030151257702 0 -0.25449375083442433 0.01508231230697398 0 -0.244139310530673 0.023170507220456039 0 -0.26537731770098671 0.036249030151257702 0 -0.25449375083442433 0.01508231230697398 0 -0.26642496317589431 0.0095796308674223063 0 -0.26537731770098671 0.036249030151257702 0 -0.26642496317589431 0.0095796308674223063 0 -0.26537731770098671 0.036249030151257702 0 -0.26642496317589431 0.0095796308674223063 0 -0.28563567080375762 0.017133310197769501 0 -0.26537731770098671 0.036249030151257702 0 -0.28563567080375762 0.017133310197769501 0 -0.29148022635195509 0.038054390581028712 0 -0.27866210440397582 -0.0018096150187411771 0 -0.26642496317589431 0.0095796308674223063 0 -0.28563567080375762 0.017133310197769501 0 -0.29224168080721352 -0.002744354306171004 0 -0.28563567080375762 0.017133310197769501 0 -0.29951378265102541 0.010261512518014691 0 -0.27866210440397582 -0.0018096150187411771 0 -0.29224168080721352 -0.002744354306171004 0 -0.28563567080375762 0.017133310197769501 0 -0.28563567080375762 0.017133310197769501 0 -0.30682046369888072 0.024521751186267801 0 -0.29148022635195509 0.038054390581028712 0 -0.28563567080375762 0.017133310197769501 0 -0.30682046369888072 0.024521751186267801 0 -0.29951378265102541 0.010261512518014691 0 -0.30682046369888072 0.024521751186267801 0 -0.29951378265102541 0.010261512518014691 0 -0.31335731529424948 0.0021353429941924581 0 -0.29224168080721352 -0.002744354306171004 0 -0.29951378265102541 0.010261512518014691 0 -0.31335731529424948 0.0021353429941924581 0 -0.27750562453051891 0.06843813935895747 0 -0.27838191659743189 0.051007239580416447 0 -0.29326496137586588 0.058434550752719708 0 -0.27838191659743189 0.051007239580416447 0 -0.29326496137586588 0.058434550752719708 0 -0.29148022635195509 0.038054390581028712 0 -0.30682046369888072 0.024521751186267801 0 -0.29148022635195509 0.038054390581028712 0 -0.31405369281093559 0.049892900307671871 0 -0.30631908615205661 0.069749196539521441 0 -0.29326496137586588 0.058434550752719708 0 -0.31405369281093559 0.049892900307671871 0 -0.29326496137586588 0.058434550752719708 0 -0.29148022635195509 0.038054390581028712 0 -0.31405369281093559 0.049892900307671871 0 -0.31405369281093559 0.049892900307671871 0 -0.3416319321684026 0.053300910179010029 0 -0.32431845714611451 0.070303071185954191 0 -0.30682046369888072 0.024521751186267801 0 -0.31405369281093559 0.049892900307671871 0 -0.33141840819250779 0.033330492586642751 0 -0.31405369281093559 0.049892900307671871 0 -0.33141840819250779 0.033330492586642751 0 -0.3416319321684026 0.053300910179010029 0 -0.3416319321684026 0.053300910179010029 0 -0.32431845714611451 0.070303071185954191 0 -0.30682046369888072 0.024521751186267801 0 -0.31335731529424948 0.0021353429941924581 0 -0.32469739461969122 0.01580244039956236 0 -0.31335731529424948 0.0021353429941924581 0 -0.32469739461969122 0.01580244039956236 0 -0.33774384987696648 0.00047230195359800368 0 -0.30682046369888072 0.024521751186267801 0 -0.33141840819250779 0.033330492586642751 0 -0.32469739461969122 0.01580244039956236 0 -0.33141840819250779 0.033330492586642751 0 -0.34027286286285757 0.016879167339899269 0 -0.35894540719069068 0.036298749172065867 0 -0.33141840819250779 0.033330492586642751 0 -0.32469739461969122 0.01580244039956236 0 -0.34027286286285757 0.016879167339899269 0 -0.32469739461969122 0.01580244039956236 0 -0.34027286286285757 0.016879167339899269 0 -0.33774384987696648 0.00047230195359800368 0 -0.36049617765063863 -0.0084103294643343759 0 -0.33774384987696648 0.00047230195359800368 0 -0.35748688105186582 0.01124812281327205 0 -0.34027286286285757 0.016879167339899269 0 -0.33774384987696648 0.00047230195359800368 0 -0.35748688105186582 0.01124812281327205 0 -0.34027286286285757 0.016879167339899269 0 -0.35748688105186582 0.01124812281327205 0 -0.35894540719069068 0.036298749172065867 0 -0.37625888221297887 0.019296588165121701 0 -0.35748688105186582 0.01124812281327205 0 -0.35894540719069068 0.036298749172065867 0 -0.37625888221297887 0.019296588165121701 0 -0.35894540719069068 0.036298749172065867 0 -0.37325736494029571 0.033556437468874122 0 -0.37625888221297887 0.019296588165121701 0 -0.35894540719069068 0.036298749172065867 0 -0.36049617765063863 -0.0084103294643343759 0 -0.35748688105186582 0.01124812281327205 0 -0.37298238841676712 0.0031846617099019581 0 -0.37625888221297887 0.019296588165121701 0 -0.35748688105186582 0.01124812281327205 0 -0.37298238841676712 0.0031846617099019581 0 -0.3416319321684026 0.053300910179010029 0 -0.35999217259404148 0.054681006266571359 0 -0.34820588909935762 0.073030976360831737 0 -0.3416319321684026 0.053300910179010029 0 -0.35894540719069068 0.036298749172065867 0 -0.35999217259404148 0.054681006266571359 0 -0.3416319321684026 0.053300910179010029 0 -0.35894540719069068 0.036298749172065867 0 -0.33141840819250779 0.033330492586642751 0 -0.3416319321684026 0.053300910179010029 0 -0.35894540719069068 0.036298749172065867 0 -0.377401938594566 0.048689083244273769 0 -0.35894540719069068 0.036298749172065867 0 -0.35999217259404148 0.054681006266571359 0 -0.377401938594566 0.048689083244273769 0 -0.35894540719069068 0.036298749172065867 0 -0.37325736494029571 0.033556437468874122 0 -0.377401938594566 0.048689083244273769 0 -0.35999217259404148 0.054681006266571359 0 -0.36926277411112612 0.071661511253134857 0 -0.377401938594566 0.048689083244273769 0 -0.36926277411112612 0.071661511253134857 0 -0.35999217259404148 0.054681006266571359 0 -0.36926277411112612 0.071661511253134857 0 -0.34820588909935762 0.073030976360831737 0 -0.36112360962768658 0.094633939261996064 0 -0.35310066285977298 0.094672863378793909 0 -0.33408741501320233 0.090993128182347005 0 -0.34820588909935762 0.073030976360831737 0 -0.36112360962768658 0.094633939261996064 0 -0.33408741501320233 0.090993128182347005 0 -0.36112360962768658 0.094633939261996064 0 -0.33408741501320233 0.090993128182347005 0 -0.37991861320164699 0.097164955857706486 0 -0.37475246679433788 0.08506831676166722 0 -0.36112360962768658 0.094633939261996064 0 -0.36926277411112612 0.071661511253134857 0 -0.37475246679433788 0.08506831676166722 0 -0.36112360962768658 0.094633939261996064 0 -0.36926277411112612 0.071661511253134857 0 -0.36112360962768658 0.094633939261996064 0 -0.36926277411112612 0.071661511253134857 0 -0.34820588909935762 0.073030976360831737 0 -0.36112360962768658 0.094633939261996064 0 -0.36934569451452542 0.10315993550851819 0 -0.36112360962768658 0.094633939261996064 0 -0.36354519367388599 0.11055633854031011 0 -0.37991861320164699 0.097164955857706486 0 -0.36934569451452542 0.10315993550851819 0 -0.36112360962768658 0.094633939261996064 0 -0.37991861320164699 0.097164955857706486 0 -0.36112360962768658 0.094633939261996064 0 -0.37991861320164699 0.097164955857706486 0 -0.36934569451452542 0.10315993550851819 0 -0.37259574455961803 0.1141273232257122 0 -0.36934569451452542 0.10315993550851819 0 -0.37259574455961803 0.1141273232257122 0 -0.36354519367388599 0.11055633854031011 0 -0.36527287591758989 0.13108969059371839 0 -0.37259574455961803 0.1141273232257122 0 -0.36135559296114578 0.1210067081565579 0 -0.36527287591758989 0.13108969059371839 0 -0.37259574455961803 0.1141273232257122 0 -0.37259574455961803 0.1141273232257122 0 -0.36354519367388599 0.11055633854031011 0 -0.36135559296114578 0.1210067081565579 0 -0.35308239703752892 0.1296705057206749 0 -0.36135559296114578 0.1210067081565579 0 -0.35228175361710617 0.1195896827023738 0 -0.36354519367388599 0.11055633854031011 0 -0.36135559296114578 0.1210067081565579 0 -0.35228175361710617 0.1195896827023738 0 -0.35023501848999822 0.10671675810756411 0 -0.34354043164284048 0.1068305261661773 0 -0.3411286347025847 0.1178567790284793 0 -0.35228175361710617 0.1195896827023738 0 -0.35023501848999822 0.10671675810756411 0 -0.3411286347025847 0.1178567790284793 0 -0.34470439893777249 0.12733356471703999 0 -0.35228175361710617 0.1195896827023738 0 -0.3411286347025847 0.1178567790284793 0 -0.36112360962768658 0.094633939261996064 0 -0.36354519367388599 0.11055633854031011 0 -0.35228175361710617 0.1195896827023738 0 -0.36112360962768658 0.094633939261996064 0 -0.35228175361710617 0.1195896827023738 0 -0.35023501848999822 0.10671675810756411 0 -0.36112360962768658 0.094633939261996064 0 -0.35228175361710617 0.1195896827023738 0 -0.36112360962768658 0.094633939261996064 0 -0.35310066285977298 0.094672863378793909 0 -0.35023501848999822 0.10671675810756411 0 -0.35310066285977298 0.094672863378793909 0 -0.34354043164284048 0.1068305261661773 0 -0.33761115266645542 0.10445300127752211 0 -0.35310066285977298 0.094672863378793909 0 -0.35023501848999822 0.10671675810756411 0 -0.34354043164284048 0.1068305261661773 0 -0.35310066285977298 0.094672863378793909 0 -0.33761115266645542 0.10445300127752211 0 -0.32953408953660313 0.1002708641187864 0 -0.35310066285977298 0.094672863378793909 0 -0.32953408953660313 0.1002708641187864 0 -0.35310066285977298 0.094672863378793909 0 -0.32953408953660313 0.1002708641187864 0 -0.33408741501320233 0.090993128182347005 0 -0.34354043164284048 0.1068305261661773 0 -0.33761115266645542 0.10445300127752211 0 -0.33605698010556251 0.1117062673847883 0 -0.33761115266645542 0.10445300127752211 0 -0.32953408953660313 0.1002708641187864 0 -0.32771078706805251 0.1111455287977723 0 -0.33761115266645542 0.10445300127752211 0 -0.33605698010556251 0.1117062673847883 0 -0.32771078706805251 0.1111455287977723 0 -0.34470439893777249 0.12733356471703999 0 -0.33420132805026309 0.12917568886962219 0 -0.3411286347025847 0.1178567790284793 0 -0.3411286347025847 0.1178567790284793 0 -0.33605698010556251 0.1117062673847883 0 -0.33100557073736292 0.12084673152653951 0 -0.34354043164284048 0.1068305261661773 0 -0.3411286347025847 0.1178567790284793 0 -0.33605698010556251 0.1117062673847883 0 -0.33605698010556251 0.1117062673847883 0 -0.33100557073736292 0.12084673152653951 0 -0.32771078706805251 0.1111455287977723 0 -0.33420132805026309 0.12917568886962219 0 -0.3411286347025847 0.1178567790284793 0 -0.33100557073736292 0.12084673152653951 0 -0.31581416493495518 0.13505974762363279 0 -0.32771078706805251 0.1111455287977723 0 -0.31581416493495518 0.13505974762363279 0 -0.32771078706805251 0.1111455287977723 0 -0.3132374980756174 0.1173528029892312 0 -0.31581416493495518 0.13505974762363279 0 -0.33100557073736292 0.12084673152653951 0 -0.32771078706805251 0.1111455287977723 0 -0.32771078706805251 0.1111455287977723 0 -0.3132374980756174 0.1173528029892312 0 -0.31911247272342652 0.1086595151911422 0 -0.30596751621343321 0.1058688648587789 0 -0.3132374980756174 0.1173528029892312 0 -0.31911247272342652 0.1086595151911422 0 -0.30596751621343321 0.1058688648587789 0 -0.32953408953660313 0.1002708641187864 0 -0.31911247272342652 0.1086595151911422 0 -0.30596751621343321 0.1058688648587789 0 -0.32953408953660313 0.1002708641187864 0 -0.30596751621343321 0.1058688648587789 0 -0.32953408953660313 0.1002708641187864 0 -0.31635332167011498 0.097186720699997522 0 -0.32953408953660313 0.1002708641187864 0 -0.31635332167011498 0.097186720699997522 0 -0.33408741501320233 0.090993128182347005 0 -0.32953408953660313 0.1002708641187864 0 -0.32771078706805251 0.1111455287977723 0 -0.31911247272342652 0.1086595151911422 0 -0.30705122039871791 0.087352317102697849 0 -0.32431845714611451 0.070303071185954191 0 -0.30705122039871791 0.087352317102697849 0 -0.33408741501320233 0.090993128182347005 0 -0.30705122039871791 0.087352317102697849 0 -0.32431845714611451 0.070303071185954191 0 -0.33408741501320233 0.090993128182347005 0 -0.30705122039871791 0.087352317102697849 0 -0.31635332167011498 0.097186720699997522 0 -0.33408741501320233 0.090993128182347005 0 -0.30631908615205661 0.069749196539521441 0 -0.30705122039871791 0.087352317102697849 0 -0.32431845714611451 0.070303071185954191 0 -0.30631908615205661 0.069749196539521441 0 -0.31405369281093559 0.049892900307671871 0 -0.32431845714611451 0.070303071185954191 0 -0.3416319321684026 0.053300910179010029 0 -0.34820588909935762 0.073030976360831737 0 -0.32431845714611451 0.070303071185954191 0 -0.34820588909935762 0.073030976360831737 0 -0.32431845714611451 0.070303071185954191 0 -0.33408741501320233 0.090993128182347005 0 -0.39463440237854869 0.47153463426295961 0 -0.39874295208809102 0.49999999999999722 0 -0.38160417315433759 0.47946682274694669 0 -0.39463440237854869 0.47153463426295961 0 -0.40875006986797929 0.4583148757238526 0 -0.41417811505807561 0.47815750377359018 0 -0.39463440237854869 0.47153463426295961 0 -0.39874295208809102 0.49999999999999722 0 -0.41417811505807561 0.47815750377359018 0 -0.39463440237854869 0.47153463426295961 0 -0.39874295208809102 0.49999999999999722 0 -0.39874295208809102 0.49999999999999722 0 -0.37508523743365307 0.5 0 -0.38160417315433759 0.47946682274694669 0 -0.38160417315433759 0.47946682274694669 0 -0.38256905976402089 0.46638335273101827 0 -0.37076555384415733 0.46051649851944593 0 -0.39463440237854869 0.47153463426295961 0 -0.38160417315433759 0.47946682274694669 0 -0.38256905976402089 0.46638335273101827 0 -0.39463440237854869 0.47153463426295961 0 -0.38256905976402089 0.46638335273101827 0 -0.39052585266900569 0.44306926852592199 0 -0.38256905976402089 0.46638335273101827 0 -0.39052585266900569 0.44306926852592199 0 -0.37076555384415733 0.46051649851944593 0 -0.39052585266900569 0.44306926852592199 0 -0.36889965287170362 0.43896466394535733 0 -0.39052585266900569 0.44306926852592199 0 -0.38986274800194198 0.4384750641948717 0 -0.36889965287170362 0.43896466394535733 0 -0.39052585266900569 0.44306926852592199 0 -0.36889965287170362 0.43896466394535733 0 -0.37076555384415733 0.46051649851944593 0 -0.39052585266900569 0.44306926852592199 0 -0.38986274800194198 0.4384750641948717 0 -0.39835731162792071 0.44455566200312102 0 -0.40875006986797929 0.4583148757238526 0 -0.40927965024856572 0.44137602258715247 0 -0.39463440237854869 0.47153463426295961 0 -0.39052585266900569 0.44306926852592199 0 -0.39835731162792071 0.44455566200312102 0 -0.39052585266900569 0.44306926852592199 0 -0.39835731162792071 0.44455566200312102 0 -0.39721778872606212 0.43756710448268749 0 -0.39052585266900569 0.44306926852592199 0 -0.39835731162792071 0.44455566200312102 0 -0.39052585266900569 0.44306926852592199 0 -0.38986274800194198 0.4384750641948717 0 -0.39721778872606212 0.43756710448268749 0 -0.39835731162792071 0.44455566200312102 0 -0.39721778872606212 0.43756710448268749 0 -0.40927965024856572 0.44137602258715247 0 -0.39463440237854869 0.47153463426295961 0 -0.39052585266900569 0.44306926852592199 0 -0.39463440237854869 0.47153463426295961 0 -0.39835731162792071 0.44455566200312102 0 -0.40875006986797929 0.4583148757238526 0 -0.40875006986797929 0.4583148757238526 0 -0.42766853107373232 0.45382323923002432 0 -0.41417811505807561 0.47815750377359018 0 -0.40875006986797929 0.4583148757238526 0 -0.40927965024856572 0.44137602258715247 0 -0.42766853107373232 0.45382323923002432 0 -0.40927965024856572 0.44137602258715247 0 -0.42766853107373232 0.45382323923002432 0 -0.42044882915741139 0.4274797652651382 0 -0.42766853107373232 0.45382323923002432 0 -0.43606451744802649 0.43594209649998161 0 -0.42044882915741139 0.4274797652651382 0 -0.42766853107373232 0.45382323923002432 0 -0.42044882915741139 0.4274797652651382 0 -0.42766853107373232 0.45382323923002432 0 -0.43488823299005308 0.48016671319491028 0 -0.42766853107373232 0.45382323923002432 0 -0.43488823299005308 0.48016671319491028 0 -0.44273894404272129 0.46318189491343098 0 -0.42766853107373232 0.45382323923002432 0 -0.43488823299005308 0.48016671319491028 0 -0.41417811505807561 0.47815750377359018 0 -0.39874295208809102 0.49999999999999722 0 -0.41417811505807561 0.47815750377359018 0 -0.42126688846272031 0.5 0 -0.43488823299005308 0.48016671319491028 0 -0.42126688846272031 0.5 0 -0.44379082483734972 0.5 0 -0.43488823299005308 0.48016671319491028 0 -0.41417811505807561 0.47815750377359018 0 -0.42126688846272031 0.5 0 -0.43488823299005308 0.48016671319491028 0 -0.44379082483734972 0.5 0 -0.45505279302466423 0.48750306195291798 0 -0.43488823299005308 0.48016671319491028 0 -0.45902495788137482 0.47048406958317479 0 -0.45505279302466423 0.48750306195291798 0 -0.43488823299005308 0.48016671319491028 0 -0.45902495788137482 0.47048406958317479 0 -0.44273894404272129 0.46318189491343098 0 -0.45902495788137482 0.47048406958317479 0 -0.45505279302466423 0.48750306195291798 0 -0.47084217211014973 0.48486558024812659 0 -0.46631476121197901 0.49999999999999961 0 -0.45505279302466423 0.48750306195291798 0 -0.47084217211014973 0.48486558024812659 0 -0.44379082483734972 0.5 0 -0.46631476121197901 0.49999999999999961 0 -0.45505279302466423 0.48750306195291798 0 -0.46631476121197901 0.49999999999999961 0 -0.49167494117277188 0.49375901392827831 0 -0.46631476121197901 0.49999999999999961 0 -0.47084217211014973 0.48486558024812659 0 -0.49167494117277188 0.49375901392827831 0 -0.46631476121197901 0.49999999999999961 0 -0.49448390586333429 0.499999999999996 0 -0.49167494117277188 0.49375901392827831 0 -0.45902495788137482 0.47048406958317479 0 -0.47084217211014973 0.48486558024812659 0 -0.4821434072599583 0.47258175577626238 0 -0.47084217211014973 0.48486558024812659 0 -0.4821434072599583 0.47258175577626238 0 -0.49167494117277188 0.49375901392827831 0 -0.4821434072599583 0.47258175577626238 0 -0.49282816170757349 0.48050634640135298 0 -0.49167494117277188 0.49375901392827831 0 -0.4821434072599583 0.47258175577626238 0 -0.49167494117277188 0.49375901392827831 0 -0.4821434072599583 0.47258175577626238 0 -0.49282816170757349 0.48050634640135298 0 -0.5 0.46594337918253659 0 -0.49282816170757349 0.48050634640135298 0 -0.49999999999999911 0.49171026757603259 0 -0.5 0.46594337918253659 0 -0.49282816170757349 0.48050634640135298 0 -0.49999999999999911 0.49171026757603259 0 -0.49167494117277188 0.49375901392827831 0 -0.49999999999999911 0.49171026757603259 0 -0.49448390586333429 0.499999999999996 0 -0.49167494117277188 0.49375901392827831 0 -0.49999999999999911 0.49171026757603259 0 -0.5 0.5 0 -0.49448390586333429 0.499999999999996 0 -0.49999999999999911 0.49171026757603259 0 -0.49167494117277188 0.49375901392827831 0 -0.49448390586333429 0.499999999999996 0 -0.49167494117277188 0.49375901392827831 0 -0.5 0.4401764907890407 0 -0.48738908193687103 0.45430764236341359 0 -0.4833809162003706 0.43453713502090652 0 -0.4821434072599583 0.47258175577626238 0 -0.5 0.46594337918253659 0 -0.48738908193687103 0.45430764236341359 0 -0.5 0.4401764907890407 0 -0.5 0.46594337918253659 0 -0.48738908193687103 0.45430764236341359 0 -0.4821434072599583 0.47258175577626238 0 -0.48738908193687103 0.45430764236341359 0 -0.47261187334714461 0.4514044976242465 0 -0.4821434072599583 0.47258175577626238 0 -0.47261187334714461 0.4514044976242465 0 -0.45902495788137482 0.47048406958317479 0 -0.4821434072599583 0.47258175577626238 0 -0.47261187334714461 0.4514044976242465 0 -0.48738908193687103 0.45430764236341359 0 -0.47261187334714461 0.4514044976242465 0 -0.4833809162003706 0.43453713502090652 0 -0.47261187334714461 0.4514044976242465 0 -0.46308033943433091 0.43022723947223052 0 -0.4833809162003706 0.43453713502090652 0 -0.47261187334714461 0.4514044976242465 0 -0.46308033943433091 0.43022723947223052 0 -0.47261187334714461 0.4514044976242465 0 -0.44937405422572507 0.44825355764561442 0 -0.46308033943433091 0.43022723947223052 0 -0.45902495788137482 0.47048406958317479 0 -0.47261187334714461 0.4514044976242465 0 -0.44937405422572507 0.44825355764561442 0 -0.45902495788137482 0.47048406958317479 0 -0.44273894404272129 0.46318189491343098 0 -0.44937405422572507 0.44825355764561442 0 -0.42766853107373232 0.45382323923002432 0 -0.44273894404272129 0.46318189491343098 0 -0.44937405422572507 0.44825355764561442 0 -0.42766853107373232 0.45382323923002432 0 -0.44937405422572507 0.44825355764561442 0 -0.43606451744802649 0.43594209649998161 0 -0.44937405422572507 0.44825355764561442 0 -0.44727220938897211 0.42946545424011662 0 -0.43606451744802649 0.43594209649998161 0 -0.44727220938897211 0.42946545424011662 0 -0.43555896339429179 0.42068846611901428 0 -0.43606451744802649 0.43594209649998161 0 -0.44727220938897211 0.42946545424011662 0 -0.45354880552151772 0.40904998132021447 0 -0.43555896339429179 0.42068846611901428 0 -0.44483157546284852 0.4084061815168068 0 -0.45354880552151772 0.40904998132021447 0 -0.43555896339429179 0.42068846611901428 0 -0.45354880552151772 0.40904998132021447 0 -0.43555896339429179 0.42068846611901428 0 -0.44483157546284852 0.4084061815168068 0 -0.43854943530539459 0.4085033582719757 0 -0.43555896339429179 0.42068846611901428 0 -0.44483157546284852 0.4084061815168068 0 -0.43854943530539459 0.4085033582719757 0 -0.44290109344307638 0.40514865434491337 0 -0.44483157546284852 0.4084061815168068 0 -0.45354880552151772 0.40904998132021447 0 -0.45163212801583058 0.40479148791260899 0 -0.45354880552151772 0.40904998132021447 0 -0.45163212801583058 0.40479148791260899 0 -0.45354880552151772 0.40904998132021447 0 -0.46308033943433091 0.43022723947223052 0 -0.45354880552151772 0.40904998132021447 0 -0.46308033943433091 0.43022723947223052 0 -0.47779959604543598 0.41324986076892573 0 -0.44937405422572507 0.44825355764561442 0 -0.44727220938897211 0.42946545424011662 0 -0.46308033943433091 0.43022723947223052 0 -0.44727220938897211 0.42946545424011662 0 -0.45354880552151772 0.40904998132021447 0 -0.46308033943433091 0.43022723947223052 0 -0.46308033943433091 0.43022723947223052 0 -0.4833809162003706 0.43453713502090652 0 -0.47779959604543598 0.41324986076892573 0 -0.47779959604543598 0.41324986076892573 0 -0.5 0.4144096023955447 0 -0.48919102008913989 0.40230145980720761 0 -0.4833809162003706 0.43453713502090652 0 -0.47779959604543598 0.41324986076892573 0 -0.5 0.4144096023955447 0 -0.5 0.4401764907890407 0 -0.4833809162003706 0.43453713502090652 0 -0.5 0.4144096023955447 0 -0.5 0.37923830795132152 0 -0.47658905976107191 0.3941441446357693 0 -0.49044806515836142 0.37122817145010478 0 -0.5 0.37923830795132152 0 -0.5 0.38864271400204881 0 -0.47658905976107191 0.3941441446357693 0 -0.5 0.37923830795132152 0 -0.47658905976107191 0.3941441446357693 0 -0.5 0.4144096023955447 0 -0.5 0.38864271400204881 0 -0.48919102008913989 0.40230145980720761 0 -0.5 0.38864271400204881 0 -0.48919102008913989 0.40230145980720761 0 -0.47658905976107191 0.3941441446357693 0 -0.47779959604543598 0.41324986076892573 0 -0.48919102008913989 0.40230145980720761 0 -0.47658905976107191 0.3941441446357693 0 -0.45354880552151772 0.40904998132021447 0 -0.47779959604543598 0.41324986076892573 0 -0.47658905976107191 0.3941441446357693 0 -0.47658905976107191 0.3941441446357693 0 -0.4659433182775129 0.37625090323562449 0 -0.47884137382918079 0.37049623931181758 0 -0.47658905976107191 0.3941441446357693 0 -0.47884137382918079 0.37049623931181758 0 -0.49044806515836142 0.37122817145010478 0 -0.47658905976107191 0.3941441446357693 0 -0.4659433182775129 0.37625090323562449 0 -0.45912701433428399 0.38770289990824608 0 -0.4659433182775129 0.37625090323562449 0 -0.45912701433428399 0.38770289990824608 0 -0.45021989284781111 0.38053737802407439 0 -0.45354880552151772 0.40904998132021447 0 -0.47658905976107191 0.3941441446357693 0 -0.47658905976107191 0.3941441446357693 0 -0.45912701433428399 0.38770289990824608 0 -0.45415321331460939 0.39791313045049859 0 -0.45354880552151772 0.40904998132021447 0 -0.47658905976107191 0.3941441446357693 0 -0.45415321331460939 0.39791313045049859 0 -0.45912701433428399 0.38770289990824608 0 -0.45415321331460939 0.39791313045049859 0 -0.44969660850030208 0.3900081402256802 0 -0.45354880552151772 0.40904998132021447 0 -0.45415321331460939 0.39791313045049859 0 -0.45163212801583058 0.40479148791260899 0 -0.45415321331460939 0.39791313045049859 0 -0.44679902709698027 0.40225514113211408 0 -0.44415143611560931 0.3963389919151773 0 -0.44483157546284852 0.4084061815168068 0 -0.45163212801583058 0.40479148791260899 0 -0.44679902709698027 0.40225514113211408 0 -0.45415321331460939 0.39791313045049859 0 -0.45163212801583058 0.40479148791260899 0 -0.44679902709698027 0.40225514113211408 0 -0.45415321331460939 0.39791313045049859 0 -0.44415143611560931 0.3963389919151773 0 -0.44969660850030208 0.3900081402256802 0 -0.44415143611560931 0.3963389919151773 0 -0.44969660850030208 0.3900081402256802 0 -0.44083148588919702 0.38754830083040448 0 -0.44415143611560931 0.3963389919151773 0 -0.44083148588919702 0.38754830083040448 0 -0.43729472328661467 0.39700769936608321 0 -0.44415143611560931 0.3963389919151773 0 -0.44019212304582478 0.40163338786813713 0 -0.43729472328661467 0.39700769936608321 0 -0.44679902709698027 0.40225514113211408 0 -0.44415143611560931 0.3963389919151773 0 -0.44019212304582478 0.40163338786813713 0 -0.43854943530539459 0.4085033582719757 0 -0.44019212304582478 0.40163338786813713 0 -0.43482946649229381 0.40474522337072849 0 -0.43854943530539459 0.4085033582719757 0 -0.44019212304582478 0.40163338786813713 0 -0.44290109344307638 0.40514865434491337 0 -0.44483157546284852 0.4084061815168068 0 -0.44679902709698027 0.40225514113211408 0 -0.44290109344307638 0.40514865434491337 0 -0.44679902709698027 0.40225514113211408 0 -0.44019212304582478 0.40163338786813713 0 -0.44290109344307638 0.40514865434491337 0 -0.45021989284781111 0.38053737802407439 0 -0.44969660850030208 0.3900081402256802 0 -0.44083148588919702 0.38754830083040448 0 -0.45912701433428399 0.38770289990824608 0 -0.45021989284781111 0.38053737802407439 0 -0.44969660850030208 0.3900081402256802 0 -0.45021989284781111 0.38053737802407439 0 -0.44083148588919702 0.38754830083040448 0 -0.43547366594596348 0.37786558583964858 0 -0.45021989284781111 0.38053737802407439 0 -0.43547366594596348 0.37786558583964858 0 -0.44469295652205482 0.36747588563392841 0 -0.4262672047796856 0.38654132511622002 0 -0.42432592944963982 0.37565090709395499 0 -0.41670570833737047 0.39315182845249891 0 -0.44083148588919702 0.38754830083040448 0 -0.43365784078875469 0.38602174747904661 0 -0.43216617303530108 0.39358461867120148 0 -0.44083148588919702 0.38754830083040448 0 -0.43547366594596348 0.37786558583964858 0 -0.43365784078875469 0.38602174747904661 0 -0.43547366594596348 0.37786558583964858 0 -0.43365784078875469 0.38602174747904661 0 -0.4262672047796856 0.38654132511622002 0 -0.43365784078875469 0.38602174747904661 0 -0.42780144237897472 0.39142938647598058 0 -0.43216617303530108 0.39358461867120148 0 -0.43365784078875469 0.38602174747904661 0 -0.4262672047796856 0.38654132511622002 0 -0.42780144237897472 0.39142938647598058 0 -0.4262672047796856 0.38654132511622002 0 -0.42136754699186391 0.39347590183758929 0 -0.42780144237897472 0.39142938647598058 0 -0.43547366594596348 0.37786558583964858 0 -0.4262672047796856 0.38654132511622002 0 -0.42432592944963982 0.37565090709395499 0 -0.42432592944963982 0.37565090709395499 0 -0.41119952466911169 0.38248100687419878 0 -0.41670570833737047 0.39315182845249891 0 -0.42432592944963982 0.37565090709395499 0 -0.41670570833737047 0.39315182845249891 0 -0.42432592944963982 0.37565090709395499 0 -0.41119952466911169 0.38248100687419878 0 -0.40858591480234357 0.37419626799728672 0 -0.41119952466911169 0.38248100687419878 0 -0.41670570833737047 0.39315182845249891 0 -0.4042009411939459 0.38954215137859111 0 -0.41119952466911169 0.38248100687419878 0 -0.40215834910014281 0.38203980734179338 0 -0.40858591480234357 0.37419626799728672 0 -0.41322912724109129 0.40113629130025191 0 -0.41135586435565569 0.39430107114520863 0 -0.40175282466280632 0.39962973189791212 0 -0.41322912724109129 0.40113629130025191 0 -0.41135586435565569 0.39430107114520863 0 -0.41670570833737047 0.39315182845249891 0 -0.41322912724109129 0.40113629130025191 0 -0.41135586435565569 0.39430107114520863 0 -0.4262672047796856 0.38654132511622002 0 -0.41670570833737047 0.39315182845249891 0 -0.42136754699186391 0.39347590183758929 0 -0.41322912724109129 0.40113629130025191 0 -0.41670570833737047 0.39315182845249891 0 -0.4198992773946259 0.39821551870763078 0 -0.41322912724109129 0.40113629130025191 0 -0.41670570833737047 0.39315182845249891 0 -0.41670570833737047 0.39315182845249891 0 -0.42136754699186391 0.39347590183758929 0 -0.41670570833737047 0.39315182845249891 0 -0.42136754699186391 0.39347590183758929 0 -0.4198992773946259 0.39821551870763078 0 -0.41322912724109129 0.40113629130025191 0 -0.4198992773946259 0.39821551870763078 0 -0.42389499309378459 0.40431440281189063 0 -0.4198992773946259 0.39821551870763078 0 -0.42389499309378459 0.40431440281189063 0 -0.42554844629926791 0.39752333927584538 0 -0.42389499309378459 0.40431440281189063 0 -0.42554844629926791 0.39752333927584538 0 -0.42969273005514069 0.40257367356638668 0 -0.42554844629926791 0.39752333927584538 0 -0.43216617303530108 0.39358461867120148 0 -0.42969273005514069 0.40257367356638668 0 -0.42136754699186391 0.39347590183758929 0 -0.42554844629926791 0.39752333927584538 0 -0.42780144237897472 0.39142938647598058 0 -0.42136754699186391 0.39347590183758929 0 -0.4198992773946259 0.39821551870763078 0 -0.42554844629926791 0.39752333927584538 0 -0.42554844629926791 0.39752333927584538 0 -0.42780144237897472 0.39142938647598058 0 -0.43216617303530108 0.39358461867120148 0 -0.43216617303530108 0.39358461867120148 0 -0.43729472328661467 0.39700769936608321 0 -0.42969273005514069 0.40257367356638668 0 -0.44083148588919702 0.38754830083040448 0 -0.43216617303530108 0.39358461867120148 0 -0.43729472328661467 0.39700769936608321 0 -0.44019212304582478 0.40163338786813713 0 -0.43729472328661467 0.39700769936608321 0 -0.43482946649229381 0.40474522337072849 0 -0.43729472328661467 0.39700769936608321 0 -0.42969273005514069 0.40257367356638668 0 -0.43482946649229381 0.40474522337072849 0 -0.43854943530539459 0.4085033582719757 0 -0.43482946649229381 0.40474522337072849 0 -0.43025581564792792 0.41212472016692597 0 -0.42969273005514069 0.40257367356638668 0 -0.43482946649229381 0.40474522337072849 0 -0.43025581564792792 0.41212472016692597 0 -0.43854943530539459 0.4085033582719757 0 -0.43025581564792792 0.41212472016692597 0 -0.43555896339429179 0.42068846611901428 0 -0.42389499309378459 0.40431440281189063 0 -0.43025581564792792 0.41212472016692597 0 -0.42044882915741139 0.4274797652651382 0 -0.43025581564792792 0.41212472016692597 0 -0.43555896339429179 0.42068846611901428 0 -0.42044882915741139 0.4274797652651382 0 -0.42389499309378459 0.40431440281189063 0 -0.42969273005514069 0.40257367356638668 0 -0.43025581564792792 0.41212472016692597 0 -0.43555896339429179 0.42068846611901428 0 -0.43606451744802649 0.43594209649998161 0 -0.42044882915741139 0.4274797652651382 0 -0.40927965024856572 0.44137602258715247 0 -0.42044882915741139 0.4274797652651382 0 -0.40083046274057321 0.42961158738125332 0 -0.42044882915741139 0.4274797652651382 0 -0.40702979499083258 0.41537393934075267 0 -0.40083046274057321 0.42961158738125332 0 -0.41322912724109129 0.40113629130025191 0 -0.42044882915741139 0.4274797652651382 0 -0.41322912724109129 0.40113629130025191 0 -0.42044882915741139 0.4274797652651382 0 -0.40702979499083258 0.41537393934075267 0 -0.41322912724109129 0.40113629130025191 0 -0.42389499309378459 0.40431440281189063 0 -0.42044882915741139 0.4274797652651382 0 -0.41322912724109129 0.40113629130025191 0 -0.40702979499083258 0.41537393934075267 0 -0.40206497501750321 0.40734652551166062 0 -0.41322912724109129 0.40113629130025191 0 -0.40702979499083258 0.41537393934075267 0 -0.40702979499083258 0.41537393934075267 0 -0.3912542656452484 0.41587079785074171 0 -0.40083046274057321 0.42961158738125332 0 -0.40702979499083258 0.41537393934075267 0 -0.40206497501750321 0.40734652551166062 0 -0.3912542656452484 0.41587079785074171 0 -0.40206497501750321 0.40734652551166062 0 -0.3912542656452484 0.41587079785074171 0 -0.39409386414899739 0.40389833760893962 0 -0.39721778872606212 0.43756710448268749 0 -0.40927965024856572 0.44137602258715247 0 -0.40083046274057321 0.42961158738125332 0 -0.40702979499083258 0.41537393934075267 0 -0.40083046274057321 0.42961158738125332 0 -0.3912542656452484 0.41587079785074171 0 -0.40083046274057321 0.42961158738125332 0 -0.38973790811984038 0.42746736871688712 0 -0.40083046274057321 0.42961158738125332 0 -0.39268439172105951 0.43320849035031911 0 -0.38973790811984038 0.42746736871688712 0 -0.39721778872606212 0.43756710448268749 0 -0.40083046274057321 0.42961158738125332 0 -0.39268439172105951 0.43320849035031911 0 -0.38986274800194198 0.4384750641948717 0 -0.39721778872606212 0.43756710448268749 0 -0.39268439172105951 0.43320849035031911 0 -0.38986274800194198 0.4384750641948717 0 -0.3838695877442021 0.43279575827028638 0 -0.36889965287170362 0.43896466394535733 0 -0.39268439172105951 0.43320849035031911 0 -0.3838695877442021 0.43279575827028638 0 -0.38973790811984038 0.42746736871688712 0 -0.38986274800194198 0.4384750641948717 0 -0.39268439172105951 0.43320849035031911 0 -0.3838695877442021 0.43279575827028638 0 -0.3912542656452484 0.41587079785074171 0 -0.38973790811984038 0.42746736871688712 0 -0.3781632380064649 0.42586320414399631 0 -0.3838695877442021 0.43279575827028638 0 -0.38973790811984038 0.42746736871688712 0 -0.3781632380064649 0.42586320414399631 0 -0.3838695877442021 0.43279575827028638 0 -0.3781632380064649 0.42586320414399631 0 -0.36889965287170362 0.43896466394535733 0 -0.3912542656452484 0.41587079785074171 0 -0.3781632380064649 0.42586320414399631 0 -0.37082519081877602 0.41107131357664201 0 -0.3912542656452484 0.41587079785074171 0 -0.38567777849113388 0.40547377954499259 0 -0.37082519081877602 0.41107131357664201 0 -0.3912542656452484 0.41587079785074171 0 -0.38567777849113388 0.40547377954499259 0 -0.39409386414899739 0.40389833760893962 0 -0.38567777849113388 0.40547377954499259 0 -0.38653779335151378 0.39105466914364728 0 -0.37082519081877602 0.41107131357664201 0 -0.38653779335151378 0.39105466914364728 0 -0.36857816050552661 0.39880858241049411 0 -0.37082519081877602 0.41107131357664201 0 -0.38653779335151378 0.39105466914364728 0 -0.37082519081877602 0.41107131357664201 0 -0.38567777849113388 0.40547377954499259 0 -0.38653779335151378 0.39105466914364728 0 -0.39409386414899739 0.40389833760893962 0 -0.38913490478851182 0.3877461493692228 0 -0.36638755016911823 0.38503446770957411 0 -0.3787396976853592 0.38042582892503668 0 -0.38913490478851182 0.3877461493692228 0 -0.36638755016911823 0.38503446770957411 0 -0.38653779335151378 0.39105466914364728 0 -0.38913490478851182 0.3877461493692228 0 -0.36638755016911823 0.38503446770957411 0 -0.3787396976853592 0.38042582892503668 0 -0.38581855088195749 0.37910189610457989 0 -0.37929806909296798 0.37229811157141163 0 -0.3787396976853592 0.38042582892503668 0 -0.37929806909296798 0.37229811157141163 0 -0.3730594134942406 0.37794851987039529 0 -0.38581855088195749 0.37910189610457989 0 -0.38913490478851182 0.3877461493692228 0 -0.39445747686553889 0.38096560282940461 0 -0.38581855088195749 0.37910189610457989 0 -0.39445747686553889 0.38096560282940461 0 -0.38668971976804561 0.37406278510184088 0 -0.3787396976853592 0.38042582892503668 0 -0.38581855088195749 0.37910189610457989 0 -0.38913490478851182 0.3877461493692228 0 -0.38581855088195749 0.37910189610457989 0 -0.38668971976804561 0.37406278510184088 0 -0.37929806909296798 0.37229811157141163 0 -0.38653779335151378 0.39105466914364728 0 -0.38913490478851182 0.3877461493692228 0 -0.38653779335151378 0.39105466914364728 0 -0.38913490478851182 0.3877461493692228 0 -0.4042009411939459 0.38954215137859111 0 -0.38913490478851182 0.3877461493692228 0 -0.4042009411939459 0.38954215137859111 0 -0.38913490478851182 0.3877461493692228 0 -0.39452665700746198 0.38352796872774059 0 -0.4042009411939459 0.38954215137859111 0 -0.38913490478851182 0.3877461493692228 0 -0.39445747686553889 0.38096560282940461 0 -0.38913490478851182 0.3877461493692228 0 -0.39452665700746198 0.38352796872774059 0 -0.39445747686553889 0.38096560282940461 0 -0.39452665700746198 0.38352796872774059 0 -0.39445747686553889 0.38096560282940461 0 -0.39452665700746198 0.38352796872774059 0 -0.39445747686553889 0.38096560282940461 0 -0.40215834910014281 0.38203980734179338 0 -0.39445747686553889 0.38096560282940461 0 -0.40215834910014281 0.38203980734179338 0 -0.40858591480234357 0.37419626799728672 0 -0.39452665700746198 0.38352796872774059 0 -0.40215834910014281 0.38203980734179338 0 -0.4042009411939459 0.38954215137859111 0 -0.41119952466911169 0.38248100687419878 0 -0.40215834910014281 0.38203980734179338 0 -0.4042009411939459 0.38954215137859111 0 -0.41135586435565569 0.39430107114520863 0 -0.38653779335151378 0.39105466914364728 0 -0.40175282466280632 0.39962973189791212 0 -0.41670570833737047 0.39315182845249891 0 -0.38653779335151378 0.39105466914364728 0 -0.4042009411939459 0.38954215137859111 0 -0.41135586435565569 0.39430107114520863 0 -0.41670570833737047 0.39315182845249891 0 -0.38653779335151378 0.39105466914364728 0 -0.41670570833737047 0.39315182845249891 0 -0.38653779335151378 0.39105466914364728 0 -0.41322912724109129 0.40113629130025191 0 -0.40206497501750321 0.40734652551166062 0 -0.40175282466280632 0.39962973189791212 0 -0.40206497501750321 0.40734652551166062 0 -0.40175282466280632 0.39962973189791212 0 -0.39409386414899739 0.40389833760893962 0 -0.38653779335151378 0.39105466914364728 0 -0.40175282466280632 0.39962973189791212 0 -0.39409386414899739 0.40389833760893962 0 -0.39368439996161891 0.35233157808882032 0 -0.40799325965945149 0.34031181173370723 0 -0.41068854770912872 0.36028846973410988 0 -0.39445747686553889 0.38096560282940461 0 -0.41068854770912872 0.36028846973410988 0 -0.39445747686553889 0.38096560282940461 0 -0.39368439996161891 0.35233157808882032 0 -0.39445747686553889 0.38096560282940461 0 -0.39368439996161891 0.35233157808882032 0 -0.41068854770912872 0.36028846973410988 0 -0.39445747686553889 0.38096560282940461 0 -0.39368439996161891 0.35233157808882032 0 -0.38718478223171798 0.3638855299019676 0 -0.39445747686553889 0.38096560282940461 0 -0.41068854770912872 0.36028846973410988 0 -0.40858591480234357 0.37419626799728672 0 -0.39445747686553889 0.38096560282940461 0 -0.38718478223171798 0.3638855299019676 0 -0.38668971976804561 0.37406278510184088 0 -0.38718478223171798 0.3638855299019676 0 -0.38668971976804561 0.37406278510184088 0 -0.37929806909296798 0.37229811157141163 0 -0.38718478223171798 0.3638855299019676 0 -0.37929806909296798 0.37229811157141163 0 -0.375074404688367 0.35706769291858398 0 -0.39368439996161891 0.35233157808882032 0 -0.375074404688367 0.35706769291858398 0 -0.37195803965364921 0.33492648917994822 0 -0.39368439996161891 0.35233157808882032 0 -0.38718478223171798 0.3638855299019676 0 -0.375074404688367 0.35706769291858398 0 -0.39368439996161891 0.35233157808882032 0 -0.39291132305769932 0.32369755334823591 0 -0.37195803965364921 0.33492648917994822 0 -0.39291132305769932 0.32369755334823591 0 -0.36300667390360758 0.3073124231261436 0 -0.37195803965364921 0.33492648917994822 0 -0.39291132305769932 0.32369755334823591 0 -0.40799325965945149 0.34031181173370723 0 -0.41688823545997272 0.32516622477762358 0 -0.39368439996161891 0.35233157808882032 0 -0.39291132305769932 0.32369755334823591 0 -0.39368439996161891 0.35233157808882032 0 -0.39291132305769932 0.32369755334823591 0 -0.40799325965945149 0.34031181173370723 0 -0.40799325965945149 0.34031181173370723 0 -0.41688823545997272 0.32516622477762358 0 -0.42691961855271809 0.33961133663881471 0 -0.39291132305769932 0.32369755334823591 0 -0.41688823545997272 0.32516622477762358 0 -0.41346926862779482 0.30421813235385797 0 -0.41688823545997272 0.32516622477762358 0 -0.42736250878951709 0.31447932251290939 0 -0.41346926862779482 0.30421813235385797 0 -0.41688823545997272 0.32516622477762358 0 -0.42736250878951709 0.31447932251290939 0 -0.43522548557345853 0.32667257774879532 0 -0.42736250878951709 0.31447932251290939 0 -0.43522548557345853 0.32667257774879532 0 -0.44274586536611682 0.31466353602488822 0 -0.43522548557345853 0.32667257774879532 0 -0.42691961855271809 0.33961133663881471 0 -0.44385683735613313 0.33959331037282398 0 -0.41688823545997272 0.32516622477762358 0 -0.43522548557345853 0.32667257774879532 0 -0.42691961855271809 0.33961133663881471 0 -0.42691961855271809 0.33961133663881471 0 -0.43194615056190871 0.35814998573541101 0 -0.44385683735613313 0.33959331037282398 0 -0.42691961855271809 0.33961133663881471 0 -0.43194615056190871 0.35814998573541101 0 -0.41068854770912872 0.36028846973410988 0 -0.40799325965945149 0.34031181173370723 0 -0.42691961855271809 0.33961133663881471 0 -0.41068854770912872 0.36028846973410988 0 -0.42691961855271809 0.33961133663881471 0 -0.41068854770912872 0.36028846973410988 0 -0.42432592944963982 0.37565090709395499 0 -0.41068854770912872 0.36028846973410988 0 -0.40858591480234357 0.37419626799728672 0 -0.43547366594596348 0.37786558583964858 0 -0.43194615056190871 0.35814998573541101 0 -0.44469295652205482 0.36747588563392841 0 -0.42432592944963982 0.37565090709395499 0 -0.43194615056190871 0.35814998573541101 0 -0.41068854770912872 0.36028846973410988 0 -0.42432592944963982 0.37565090709395499 0 -0.43194615056190871 0.35814998573541101 0 -0.43547366594596348 0.37786558583964858 0 -0.42432592944963982 0.37565090709395499 0 -0.43194615056190871 0.35814998573541101 0 -0.43194615056190871 0.35814998573541101 0 -0.44469295652205482 0.36747588563392841 0 -0.44840260574125951 0.3553722731957808 0 -0.44469295652205482 0.36747588563392841 0 -0.44840260574125951 0.3553722731957808 0 -0.45778078840520009 0.36536643077214648 0 -0.45021989284781111 0.38053737802407439 0 -0.44469295652205482 0.36747588563392841 0 -0.45778078840520009 0.36536643077214648 0 -0.44840260574125951 0.3553722731957808 0 -0.46237427631977879 0.35171161721218103 0 -0.44385683735613313 0.33959331037282398 0 -0.43194615056190871 0.35814998573541101 0 -0.44840260574125951 0.3553722731957808 0 -0.44385683735613313 0.33959331037282398 0 -0.44840260574125951 0.3553722731957808 0 -0.46237427631977879 0.35171161721218103 0 -0.45778078840520009 0.36536643077214648 0 -0.46237427631977879 0.35171161721218103 0 -0.45778078840520009 0.36536643077214648 0 -0.47179446691953147 0.36055589083052031 0 -0.4659433182775129 0.37625090323562449 0 -0.45021989284781111 0.38053737802407439 0 -0.45778078840520009 0.36536643077214648 0 -0.4659433182775129 0.37625090323562449 0 -0.45778078840520009 0.36536643077214648 0 -0.47179446691953147 0.36055589083052031 0 -0.4659433182775129 0.37625090323562449 0 -0.47884137382918079 0.37049623931181758 0 -0.47179446691953147 0.36055589083052031 0 -0.47884137382918079 0.37049623931181758 0 -0.47179446691953147 0.36055589083052031 0 -0.48285113186193918 0.35240409921249499 0 -0.47884137382918079 0.37049623931181758 0 -0.48285113186193918 0.35240409921249499 0 -0.49044806515836142 0.37122817145010478 0 -0.46237427631977879 0.35171161721218103 0 -0.48285113186193918 0.35240409921249499 0 -0.46955982763460957 0.33697769888931939 0 -0.46237427631977879 0.35171161721218103 0 -0.47179446691953147 0.36055589083052031 0 -0.48285113186193918 0.35240409921249499 0 -0.48285113186193918 0.35240409921249499 0 -0.5 0.36287582560855269 0 -0.5 0.33710893721505653 0 -0.5 0.37923830795132152 0 -0.49044806515836142 0.37122817145010478 0 -0.5 0.36287582560855269 0 -0.48285113186193918 0.35240409921249499 0 -0.49044806515836142 0.37122817145010478 0 -0.5 0.36287582560855269 0 -0.48553512654614372 0.32306831367760469 0 -0.5 0.33710893721505653 0 -0.50000000000000122 0.31134204882156041 0 -0.48553512654614372 0.32306831367760469 0 -0.50000000000000122 0.31134204882156041 0 -0.4849971072567334 0.30325145094101458 0 -0.48285113186193918 0.35240409921249499 0 -0.5 0.33710893721505653 0 -0.48380641847758871 0.33714912911496048 0 -0.48553512654614372 0.32306831367760469 0 -0.5 0.33710893721505653 0 -0.48380641847758871 0.33714912911496048 0 -0.48553512654614372 0.32306831367760469 0 -0.48380641847758871 0.33714912911496048 0 -0.46955982763460957 0.33697769888931939 0 -0.48285113186193918 0.35240409921249499 0 -0.48380641847758871 0.33714912911496048 0 -0.46955982763460957 0.33697769888931939 0 -0.46955982763460957 0.33697769888931939 0 -0.47523737324341531 0.31271859479797082 0 -0.46256486062191671 0.30779044659839627 0 -0.48553512654614372 0.32306831367760469 0 -0.47523737324341531 0.31271859479797082 0 -0.4849971072567334 0.30325145094101458 0 -0.48553512654614372 0.32306831367760469 0 -0.46955982763460957 0.33697769888931939 0 -0.47523737324341531 0.31271859479797082 0 -0.46955982763460957 0.33697769888931939 0 -0.46256486062191671 0.30779044659839627 0 -0.46955982763460957 0.33697769888931939 0 -0.45321084898902497 0.32369187848561032 0 -0.46256486062191671 0.30779044659839627 0 -0.45321084898902497 0.32369187848561032 0 -0.46256486062191671 0.30779044659839627 0 -0.46237427631977879 0.35171161721218103 0 -0.46955982763460957 0.33697769888931939 0 -0.44385683735613313 0.33959331037282398 0 -0.46955982763460957 0.33697769888931939 0 -0.45321084898902497 0.32369187848561032 0 -0.44385683735613313 0.33959331037282398 0 -0.45321084898902497 0.32369187848561032 0 -0.44385683735613313 0.33959331037282398 0 -0.43522548557345853 0.32667257774879532 0 -0.45321084898902497 0.32369187848561032 0 -0.44385683735613313 0.33959331037282398 0 -0.43522548557345853 0.32667257774879532 0 -0.45321084898902497 0.32369187848561032 0 -0.44274586536611682 0.31466353602488822 0 -0.45321084898902497 0.32369187848561032 0 -0.44274586536611682 0.31466353602488822 0 -0.46256486062191671 0.30779044659839627 0 -0.44274586536611682 0.31466353602488822 0 -0.44563447463813932 0.30147306408774388 0 -0.46256486062191671 0.30779044659839627 0 -0.44274586536611682 0.31466353602488822 0 -0.44563447463813932 0.30147306408774388 0 -0.43232080152726698 0.30217747972382242 0 -0.44563447463813932 0.30147306408774388 0 -0.44015207393932881 0.29161769111094238 0 -0.43232080152726698 0.30217747972382242 0 -0.44563447463813932 0.30147306408774388 0 -0.44015207393932881 0.29161769111094238 0 -0.45798614718655278 0.28868527226901453 0 -0.45798614718655278 0.28868527226901453 0 -0.43870894237421332 0.27828966956316098 0 -0.44015207393932881 0.29161769111094238 0 -0.45798614718655278 0.28868527226901453 0 -0.43870894237421332 0.27828966956316098 0 -0.45798614718655278 0.28868527226901453 0 -0.46999421451346413 0.29516085306047168 0 -0.46653851184349271 0.27449904149037818 0 -0.45798614718655278 0.28868527226901453 0 -0.46999421451346413 0.29516085306047168 0 -0.44563447463813932 0.30147306408774388 0 -0.45798614718655278 0.28868527226901453 0 -0.46256486062191671 0.30779044659839627 0 -0.45798614718655278 0.28868527226901453 0 -0.46256486062191671 0.30779044659839627 0 -0.45798614718655278 0.28868527226901453 0 -0.46256486062191671 0.30779044659839627 0 -0.46999421451346413 0.29516085306047168 0 -0.46256486062191671 0.30779044659839627 0 -0.46999421451346413 0.29516085306047168 0 -0.47523737324341531 0.31271859479797082 0 -0.46256486062191671 0.30779044659839627 0 -0.46999421451346413 0.29516085306047168 0 -0.47523737324341531 0.31271859479797082 0 -0.46999421451346413 0.29516085306047168 0 -0.4849971072567334 0.30325145094101458 0 -0.46999421451346413 0.29516085306047168 0 -0.4849971072567334 0.30325145094101458 0 -0.46999421451346413 0.29516085306047168 0 -0.48323864092830349 0.28855659125293498 0 -0.48257636597473158 0.27377171732833078 0 -0.46999421451346413 0.29516085306047168 0 -0.48257636597473158 0.27377171732833078 0 -0.46999421451346413 0.29516085306047168 0 -0.48323864092830349 0.28855659125293498 0 -0.4849971072567334 0.30325145094101458 0 -0.48323864092830349 0.28855659125293498 0 -0.5 0.28135148322850279 0 -0.4849971072567334 0.30325145094101458 0 -0.5 0.28135148322850279 0 -0.50000000000000122 0.31134204882156041 0 -0.4849971072567334 0.30325145094101458 0 -0.50000000000000122 0.31134204882156041 0 -0.4849971072567334 0.30325145094101458 0 -0.5 0.25136091763544532 0 -0.48257636597473158 0.27377171732833078 0 -0.47482502178307939 0.25365315305093339 0 -0.48323864092830349 0.28855659125293498 0 -0.5 0.28135148322850279 0 -0.48257636597473158 0.27377171732833078 0 -0.5 0.28135148322850279 0 -0.5 0.25136091763544532 0 -0.48257636597473158 0.27377171732833078 0 -0.48257636597473158 0.27377171732833078 0 -0.47482502178307939 0.25365315305093339 0 -0.46653851184349271 0.27449904149037818 0 -0.46999421451346413 0.29516085306047168 0 -0.48257636597473158 0.27377171732833078 0 -0.46653851184349271 0.27449904149037818 0 -0.44774528601869013 0.2459541774632307 0 -0.46018844261836228 0.25540895468038027 0 -0.45286571660262148 0.2673197248661226 0 -0.47482502178307939 0.25365315305093339 0 -0.46018844261836228 0.25540895468038027 0 -0.46653851184349271 0.27449904149037818 0 -0.46018844261836228 0.25540895468038027 0 -0.46653851184349271 0.27449904149037818 0 -0.45286571660262148 0.2673197248661226 0 -0.45798614718655278 0.28868527226901453 0 -0.46653851184349271 0.27449904149037818 0 -0.45286571660262148 0.2673197248661226 0 -0.45798614718655278 0.28868527226901453 0 -0.45286571660262148 0.2673197248661226 0 -0.45798614718655278 0.28868527226901453 0 -0.45286571660262148 0.2673197248661226 0 -0.43870894237421332 0.27828966956316098 0 -0.45286571660262148 0.2673197248661226 0 -0.43870894237421332 0.27828966956316098 0 -0.43802187127800601 0.25962406553947598 0 -0.44774528601869013 0.2459541774632307 0 -0.45286571660262148 0.2673197248661226 0 -0.43802187127800601 0.25962406553947598 0 -0.44774528601869013 0.2459541774632307 0 -0.45286571660262148 0.2673197248661226 0 -0.43124038359110489 0.24280302085449509 0 -0.43802187127800601 0.25962406553947598 0 -0.41954902780340009 0.26375373495037069 0 -0.41187480279331828 0.23894745543688939 0 -0.41954902780340009 0.26375373495037069 0 -0.40882538696608361 0.24382605203372709 0 -0.41954902780340009 0.26375373495037069 0 -0.40471592830237191 0.25965424145463251 0 -0.41954902780340009 0.26375373495037069 0 -0.4082168514726448 0.27940990384585451 0 -0.42722325281348172 0.28856001446385238 0 -0.41954902780340009 0.26375373495037069 0 -0.4082168514726448 0.27940990384585451 0 -0.40471592830237191 0.25965424145463251 0 -0.43870894237421332 0.27828966956316098 0 -0.41954902780340009 0.26375373495037069 0 -0.42722325281348172 0.28856001446385238 0 -0.41954902780340009 0.26375373495037069 0 -0.42722325281348172 0.28856001446385238 0 -0.43870894237421332 0.27828966956316098 0 -0.43802187127800601 0.25962406553947598 0 -0.41954902780340009 0.26375373495037069 0 -0.44015207393932881 0.29161769111094238 0 -0.43870894237421332 0.27828966956316098 0 -0.42722325281348172 0.28856001446385238 0 -0.44015207393932881 0.29161769111094238 0 -0.42722325281348172 0.28856001446385238 0 -0.43232080152726698 0.30217747972382242 0 -0.42722325281348172 0.28856001446385238 0 -0.43232080152726698 0.30217747972382242 0 -0.41346926862779482 0.30421813235385797 0 -0.42736250878951709 0.31447932251290939 0 -0.43232080152726698 0.30217747972382242 0 -0.41346926862779482 0.30421813235385797 0 -0.42736250878951709 0.31447932251290939 0 -0.44274586536611682 0.31466353602488822 0 -0.43232080152726698 0.30217747972382242 0 -0.4082168514726448 0.27940990384585451 0 -0.42722325281348172 0.28856001446385238 0 -0.41346926862779482 0.30421813235385797 0 -0.4082168514726448 0.27940990384585451 0 -0.41346926862779482 0.30421813235385797 0 -0.39213824615377962 0.29506352860765178 0 -0.39291132305769932 0.32369755334823591 0 -0.41346926862779482 0.30421813235385797 0 -0.39213824615377962 0.29506352860765178 0 -0.39291132305769932 0.32369755334823591 0 -0.39213824615377962 0.29506352860765178 0 -0.39291132305769932 0.32369755334823591 0 -0.39213824615377962 0.29506352860765178 0 -0.36300667390360758 0.3073124231261436 0 -0.39213824615377962 0.29506352860765178 0 -0.37251762935246802 0.27870439996763913 0 -0.36300667390360758 0.3073124231261436 0 -0.37727086281844052 0.25752547034660772 0 -0.39136516924985998 0.26642950386706771 0 -0.37251762935246802 0.27870439996763913 0 -0.39213824615377962 0.29506352860765178 0 -0.39136516924985998 0.26642950386706771 0 -0.37251762935246802 0.27870439996763913 0 -0.39394277424950891 0.24729147782075431 0 -0.37727086281844052 0.25752547034660772 0 -0.39136516924985998 0.26642950386706771 0 -0.40882538696608361 0.24382605203372709 0 -0.39394277424950891 0.24729147782075431 0 -0.40471592830237191 0.25965424145463251 0 -0.39394277424950891 0.24729147782075431 0 -0.40471592830237191 0.25965424145463251 0 -0.39136516924985998 0.26642950386706771 0 -0.4082168514726448 0.27940990384585451 0 -0.40471592830237191 0.25965424145463251 0 -0.39136516924985998 0.26642950386706771 0 -0.39213824615377962 0.29506352860765178 0 -0.39136516924985998 0.26642950386706771 0 -0.4082168514726448 0.27940990384585451 0 -0.39213824615377962 0.29506352860765178 0 -0.39136516924985998 0.26642950386706771 0 -0.35888946237099678 0.26327868711226271 0 -0.35125614431389401 0.2817920899119668 0 -0.3370680671101976 0.26090650458908071 0 -0.3495128616316957 0.24409495393519079 0 -0.35888946237099678 0.26327868711226271 0 -0.3370680671101976 0.26090650458908071 0 -0.3495128616316957 0.24409495393519079 0 -0.36690485856927751 0.24566542346455111 0 -0.35888946237099678 0.26327868711226271 0 -0.36690485856927751 0.24566542346455111 0 -0.37727086281844052 0.25752547034660772 0 -0.35888946237099678 0.26327868711226271 0 -0.37727086281844052 0.25752547034660772 0 -0.35888946237099678 0.26327868711226271 0 -0.37251762935246802 0.27870439996763913 0 -0.35888946237099678 0.26327868711226271 0 -0.37251762935246802 0.27870439996763913 0 -0.35125614431389401 0.2817920899119668 0 -0.37251762935246802 0.27870439996763913 0 -0.36300667390360758 0.3073124231261436 0 -0.35125614431389401 0.2817920899119668 0 -0.36300667390360758 0.3073124231261436 0 -0.35125614431389401 0.2817920899119668 0 -0.3387438893298394 0.30517156164258502 0 -0.35125614431389401 0.2817920899119668 0 -0.33307691874786849 0.28380702270195829 0 -0.3387438893298394 0.30517156164258502 0 -0.3387438893298394 0.30517156164258502 0 -0.30814232061227892 0.29171022409695913 0 -0.32149002539055749 0.31889445762117391 0 -0.33307691874786849 0.28380702270195829 0 -0.3387438893298394 0.30517156164258502 0 -0.30814232061227892 0.29171022409695913 0 -0.33307691874786849 0.28380702270195829 0 -0.31977964473964499 0.27182159334764022 0 -0.30814232061227892 0.29171022409695913 0 -0.33307691874786849 0.28380702270195829 0 -0.31977964473964499 0.27182159334764022 0 -0.3370680671101976 0.26090650458908071 0 -0.35125614431389401 0.2817920899119668 0 -0.33307691874786849 0.28380702270195829 0 -0.3370680671101976 0.26090650458908071 0 -0.31208092774160101 0.24303608406122881 0 -0.31977964473964499 0.27182159334764022 0 -0.3370680671101976 0.26090650458908071 0 -0.31208092774160101 0.24303608406122881 0 -0.3033684592435319 0.26210391306113612 0 -0.28461048113946391 0.25129573582790232 0 -0.31208092774160101 0.24303608406122881 0 -0.31977964473964499 0.27182159334764022 0 -0.3033684592435319 0.26210391306113612 0 -0.31977964473964499 0.27182159334764022 0 -0.3033684592435319 0.26210391306113612 0 -0.30814232061227892 0.29171022409695913 0 -0.3033684592435319 0.26210391306113612 0 -0.28920147817835262 0.27788598051129948 0 -0.30814232061227892 0.29171022409695913 0 -0.3033684592435319 0.26210391306113612 0 -0.28920147817835262 0.27788598051129948 0 -0.28461048113946391 0.25129573582790232 0 -0.28461048113946391 0.25129573582790232 0 -0.26806867926006728 0.27610221612608449 0 -0.25847225025722792 0.25032667634972777 0 -0.28920147817835262 0.27788598051129948 0 -0.28461048113946391 0.25129573582790232 0 -0.26806867926006728 0.27610221612608449 0 -0.26806867926006728 0.27610221612608449 0 -0.2487753635474419 0.29067043374777612 0 -0.2494662869755386 0.26843018289523618 0 -0.26806867926006728 0.27610221612608449 0 -0.25847225025722792 0.25032667634972777 0 -0.2494662869755386 0.26843018289523618 0 -0.26806867926006728 0.27610221612608449 0 -0.25847225025722792 0.25032667634972777 0 -0.25847225025722792 0.25032667634972777 0 -0.2494662869755386 0.26843018289523618 0 -0.27766510826290591 0.30187775590244148 0 -0.25123900287635642 0.31321918529401532 0 -0.2487753635474419 0.29067043374777612 0 -0.26806867926006728 0.27610221612608449 0 -0.27766510826290591 0.30187775590244148 0 -0.2487753635474419 0.29067043374777612 0 -0.26806867926006728 0.27610221612608449 0 -0.27766510826290591 0.30187775590244148 0 -0.28920147817835262 0.27788598051129948 0 -0.26806867926006728 0.27610221612608449 0 -0.27766510826290591 0.30187775590244148 0 -0.27766510826290591 0.30187775590244148 0 -0.30814232061227892 0.29171022409695913 0 -0.30151568009339891 0.31370172559966819 0 -0.28920147817835262 0.27788598051129948 0 -0.27766510826290591 0.30187775590244148 0 -0.30814232061227892 0.29171022409695913 0 -0.30814232061227892 0.29171022409695913 0 -0.30151568009339891 0.31370172559966819 0 -0.32149002539055749 0.31889445762117391 0 -0.30151568009339891 0.31370172559966819 0 -0.306328431986223 0.3311577814875733 0 -0.32149002539055749 0.31889445762117391 0 -0.30151568009339891 0.31370172559966819 0 -0.306328431986223 0.3311577814875733 0 -0.28726153726574438 0.32765329567879842 0 -0.306328431986223 0.3311577814875733 0 -0.29685796626858302 0.35342883545515541 0 -0.32451695091283123 0.34211059308307018 0 -0.28726153726574438 0.32765329567879842 0 -0.29685796626858302 0.35342883545515541 0 -0.306328431986223 0.3311577814875733 0 -0.28726153726574438 0.32765329567879842 0 -0.29685796626858302 0.35342883545515541 0 -0.28726153726574438 0.32765329567879842 0 -0.27734402958581822 0.34668620260654198 0 -0.29685796626858302 0.35342883545515541 0 -0.27766510826290591 0.30187775590244148 0 -0.28726153726574438 0.32765329567879842 0 -0.27766510826290591 0.30187775590244148 0 -0.30151568009339891 0.31370172559966819 0 -0.28726153726574438 0.32765329567879842 0 -0.27766510826290591 0.30187775590244148 0 -0.28726153726574438 0.32765329567879842 0 -0.26771034724397702 0.32481043726005732 0 -0.26771034724397702 0.32481043726005732 0 -0.25893425804863052 0.33998415993319442 0 -0.27734402958581822 0.34668620260654198 0 -0.28726153726574438 0.32765329567879842 0 -0.26771034724397702 0.32481043726005732 0 -0.27734402958581822 0.34668620260654198 0 -0.26771034724397702 0.32481043726005732 0 -0.25893425804863052 0.33998415993319442 0 -0.25346319875975348 0.32762727951493681 0 -0.25893425804863052 0.33998415993319442 0 -0.25046548604697477 0.3470991329081386 0 -0.24547795103813791 0.33621581787136301 0 -0.25893425804863052 0.33998415993319442 0 -0.25346319875975348 0.32762727951493681 0 -0.24547795103813791 0.33621581787136301 0 -0.26771034724397702 0.32481043726005732 0 -0.25346319875975348 0.32762727951493681 0 -0.25123900287635642 0.31321918529401532 0 -0.27766510826290591 0.30187775590244148 0 -0.26771034724397702 0.32481043726005732 0 -0.25123900287635642 0.31321918529401532 0 -0.26169648504791071 0.35639869657879331 0 -0.27985701119217871 0.36820509135780433 0 -0.25394970618517437 0.37548463351554889 0 -0.26169648504791071 0.35639869657879331 0 -0.25394970618517437 0.37548463351554889 0 -0.24805674621249041 0.35940967119672718 0 -0.25046548604697477 0.3470991329081386 0 -0.26169648504791071 0.35639869657879331 0 -0.24805674621249041 0.35940967119672718 0 -0.25893425804863052 0.33998415993319442 0 -0.25046548604697477 0.3470991329081386 0 -0.26169648504791071 0.35639869657879331 0 -0.25893425804863052 0.33998415993319442 0 -0.26169648504791071 0.35639869657879331 0 -0.27734402958581822 0.34668620260654198 0 -0.26169648504791071 0.35639869657879331 0 -0.27734402958581822 0.34668620260654198 0 -0.27985701119217871 0.36820509135780433 0 -0.27985701119217871 0.36820509135780433 0 -0.29685796626858302 0.35342883545515541 0 -0.30645439527142149 0.3792043752315124 0 -0.27734402958581822 0.34668620260654198 0 -0.27985701119217871 0.36820509135780433 0 -0.29685796626858302 0.35342883545515541 0 -0.29685796626858302 0.35342883545515541 0 -0.30645439527142149 0.3792043752315124 0 -0.29685796626858302 0.35342883545515541 0 -0.3167535552186041 0.36291506017378372 0 -0.30645439527142149 0.3792043752315124 0 -0.3167535552186041 0.36291506017378372 0 -0.33247836966830868 0.37057800397662072 0 -0.32089284093033099 0.37961110439027518 0 -0.3167535552186041 0.36291506017378372 0 -0.32089284093033099 0.37961110439027518 0 -0.30645439527142149 0.3792043752315124 0 -0.3167535552186041 0.36291506017378372 0 -0.33247836966830868 0.37057800397662072 0 -0.33580726288330642 0.35803922995902399 0 -0.33580726288330642 0.35803922995902399 0 -0.34561762923252182 0.3688407497324897 0 -0.34822745790454129 0.3588426978361815 0 -0.33247836966830868 0.37057800397662072 0 -0.33580726288330642 0.35803922995902399 0 -0.34561762923252182 0.3688407497324897 0 -0.33247836966830868 0.37057800397662072 0 -0.34561762923252182 0.3688407497324897 0 -0.34364019554972458 0.38232278604992459 0 -0.33580726288330642 0.35803922995902399 0 -0.32451695091283123 0.34211059308307018 0 -0.35213216565810812 0.34499452650047979 0 -0.3167535552186041 0.36291506017378372 0 -0.33580726288330642 0.35803922995902399 0 -0.32451695091283123 0.34211059308307018 0 -0.29685796626858302 0.35342883545515541 0 -0.3167535552186041 0.36291506017378372 0 -0.32451695091283123 0.34211059308307018 0 -0.306328431986223 0.3311577814875733 0 -0.32451695091283123 0.34211059308307018 0 -0.32149002539055749 0.31889445762117391 0 -0.3387438893298394 0.30517156164258502 0 -0.32149002539055749 0.31889445762117391 0 -0.34406288840579158 0.32514936632628971 0 -0.32451695091283123 0.34211059308307018 0 -0.32149002539055749 0.31889445762117391 0 -0.34406288840579158 0.32514936632628971 0 -0.32451695091283123 0.34211059308307018 0 -0.34406288840579158 0.32514936632628971 0 -0.35213216565810812 0.34499452650047979 0 -0.34406288840579158 0.32514936632628971 0 -0.37195803965364921 0.33492648917994822 0 -0.35213216565810812 0.34499452650047979 0 -0.36300667390360758 0.3073124231261436 0 -0.3387438893298394 0.30517156164258502 0 -0.34406288840579158 0.32514936632628971 0 -0.36300667390360758 0.3073124231261436 0 -0.34406288840579158 0.32514936632628971 0 -0.37195803965364921 0.33492648917994822 0 -0.375074404688367 0.35706769291858398 0 -0.35935277384422898 0.36349628515273252 0 -0.35213216565810812 0.34499452650047979 0 -0.375074404688367 0.35706769291858398 0 -0.37195803965364921 0.33492648917994822 0 -0.35213216565810812 0.34499452650047979 0 -0.375074404688367 0.35706769291858398 0 -0.36730901245836378 0.3731202695801239 0 -0.35935277384422898 0.36349628515273252 0 -0.37929806909296798 0.37229811157141163 0 -0.375074404688367 0.35706769291858398 0 -0.36730901245836378 0.3731202695801239 0 -0.37929806909296798 0.37229811157141163 0 -0.36730901245836378 0.3731202695801239 0 -0.3730594134942406 0.37794851987039529 0 -0.36730901245836378 0.3731202695801239 0 -0.35935277384422898 0.36349628515273252 0 -0.35639750515620261 0.37479512956049021 0 -0.35935277384422898 0.36349628515273252 0 -0.35639750515620261 0.37479512956049021 0 -0.34561762923252182 0.3688407497324897 0 -0.35935277384422898 0.36349628515273252 0 -0.34561762923252182 0.3688407497324897 0 -0.34822745790454129 0.3588426978361815 0 -0.33580726288330642 0.35803922995902399 0 -0.35213216565810812 0.34499452650047979 0 -0.34822745790454129 0.3588426978361815 0 -0.35935277384422898 0.36349628515273252 0 -0.35213216565810812 0.34499452650047979 0 -0.34822745790454129 0.3588426978361815 0 -0.34553829795637431 0.39860223426506669 0 -0.35918097694256351 0.38915292677201291 0 -0.33182416053361341 0.3872511844003772 0 -0.35776868090925279 0.40395542014967462 0 -0.34553829795637431 0.39860223426506669 0 -0.35918097694256351 0.38915292677201291 0 -0.35776868090925279 0.40395542014967462 0 -0.34553829795637431 0.39860223426506669 0 -0.34522446153595149 0.41191826440380019 0 -0.35918097694256351 0.38915292677201291 0 -0.36638755016911823 0.38503446770957411 0 -0.34364019554972458 0.38232278604992459 0 -0.36638755016911823 0.38503446770957411 0 -0.34364019554972458 0.38232278604992459 0 -0.35918097694256351 0.38915292677201291 0 -0.33182416053361341 0.3872511844003772 0 -0.35639750515620261 0.37479512956049021 0 -0.36638755016911823 0.38503446770957411 0 -0.34364019554972458 0.38232278604992459 0 -0.35918097694256351 0.38915292677201291 0 -0.34364019554972458 0.38232278604992459 0 -0.33182416053361341 0.3872511844003772 0 -0.35639750515620261 0.37479512956049021 0 -0.34561762923252182 0.3688407497324897 0 -0.34364019554972458 0.38232278604992459 0 -0.38653779335151378 0.39105466914364728 0 -0.35918097694256351 0.38915292677201291 0 -0.36638755016911823 0.38503446770957411 0 -0.38653779335151378 0.39105466914364728 0 -0.35918097694256351 0.38915292677201291 0 -0.36730901245836378 0.3731202695801239 0 -0.35639750515620261 0.37479512956049021 0 -0.36638755016911823 0.38503446770957411 0 -0.3787396976853592 0.38042582892503668 0 -0.36638755016911823 0.38503446770957411 0 -0.3730594134942406 0.37794851987039529 0 -0.36730901245836378 0.3731202695801239 0 -0.36638755016911823 0.38503446770957411 0 -0.3730594134942406 0.37794851987039529 0 -0.38653779335151378 0.39105466914364728 0 -0.35918097694256351 0.38915292677201291 0 -0.36857816050552661 0.39880858241049411 0 -0.35776868090925279 0.40395542014967462 0 -0.35918097694256351 0.38915292677201291 0 -0.36857816050552661 0.39880858241049411 0 -0.35776868090925279 0.40395542014967462 0 -0.36857816050552661 0.39880858241049411 0 -0.37082519081877602 0.41107131357664201 0 -0.35776868090925279 0.40395542014967462 0 -0.37082519081877602 0.41107131357664201 0 -0.36135911286942513 0.42110548759737693 0 -0.3781632380064649 0.42586320414399631 0 -0.37082519081877602 0.41107131357664201 0 -0.36135911286942513 0.42110548759737693 0 -0.3781632380064649 0.42586320414399631 0 -0.36135911286942513 0.42110548759737693 0 -0.36889965287170362 0.43896466394535733 0 -0.34727345307440177 0.43486005936479122 0 -0.36889965287170362 0.43896466394535733 0 -0.36135911286942513 0.42110548759737693 0 -0.34727345307440177 0.43486005936479122 0 -0.36889965287170362 0.43896466394535733 0 -0.36135911286942513 0.42110548759737693 0 -0.34727345307440177 0.43486005936479122 0 -0.34522446153595149 0.41191826440380019 0 -0.35776868090925279 0.40395542014967462 0 -0.36135911286942513 0.42110548759737693 0 -0.34522446153595149 0.41191826440380019 0 -0.34522446153595149 0.41191826440380019 0 -0.33215413375026981 0.41655606882083862 0 -0.33139126352596948 0.40184943133289702 0 -0.34727345307440177 0.43486005936479122 0 -0.34522446153595149 0.41191826440380019 0 -0.33215413375026981 0.41655606882083862 0 -0.34727345307440177 0.43486005936479122 0 -0.32564725327709992 0.43075545478422572 0 -0.34727345307440177 0.43486005936479122 0 -0.33215413375026981 0.41655606882083862 0 -0.32564725327709992 0.43075545478422572 0 -0.32564725327709992 0.43075545478422572 0 -0.30558564745867961 0.42694780665798909 0 -0.32564725327709992 0.43075545478422572 0 -0.30558564745867961 0.42694780665798909 0 -0.31288570955756112 0.44284186974602779 0 -0.33215413375026981 0.41655606882083862 0 -0.31605082427426012 0.40497991500786917 0 -0.33139126352596948 0.40184943133289702 0 -0.32564725327709992 0.43075545478422572 0 -0.31605082427426012 0.40497991500786917 0 -0.32564725327709992 0.43075545478422572 0 -0.31605082427426012 0.40497991500786917 0 -0.30558564745867961 0.42694780665798909 0 -0.33215413375026981 0.41655606882083862 0 -0.32564725327709992 0.43075545478422572 0 -0.31605082427426012 0.40497991500786917 0 -0.31605082427426012 0.40497991500786917 0 -0.32132269690711912 0.39057920207258617 0 -0.30645439527142149 0.3792043752315124 0 -0.31605082427426012 0.40497991500786917 0 -0.33139126352596948 0.40184943133289702 0 -0.32132269690711912 0.39057920207258617 0 -0.33139126352596948 0.40184943133289702 0 -0.33182416053361341 0.3872511844003772 0 -0.32132269690711912 0.39057920207258617 0 -0.34553829795637431 0.39860223426506669 0 -0.33139126352596948 0.40184943133289702 0 -0.33182416053361341 0.3872511844003772 0 -0.34553829795637431 0.39860223426506669 0 -0.34522446153595149 0.41191826440380019 0 -0.33139126352596948 0.40184943133289702 0 -0.34364019554972458 0.38232278604992459 0 -0.32089284093033099 0.37961110439027518 0 -0.34364019554972458 0.38232278604992459 0 -0.33182416053361341 0.3872511844003772 0 -0.32089284093033099 0.37961110439027518 0 -0.33247836966830868 0.37057800397662072 0 -0.34364019554972458 0.38232278604992459 0 -0.32089284093033099 0.37961110439027518 0 -0.33182416053361341 0.3872511844003772 0 -0.32089284093033099 0.37961110439027518 0 -0.32132269690711912 0.39057920207258617 0 -0.32089284093033099 0.37961110439027518 0 -0.32132269690711912 0.39057920207258617 0 -0.30645439527142149 0.3792043752315124 0 -0.31605082427426012 0.40497991500786917 0 -0.30645439527142149 0.3792043752315124 0 -0.29584511748460451 0.40622228575401542 0 -0.31605082427426012 0.40497991500786917 0 -0.30645439527142149 0.3792043752315124 0 -0.30645439527142149 0.3792043752315124 0 -0.29584511748460451 0.40622228575401542 0 -0.28002269401232133 0.39237492251424938 0 -0.29584511748460451 0.40622228575401542 0 -0.28002269401232133 0.39237492251424938 0 -0.27756407812909689 0.40909931612516359 0 -0.27985701119217871 0.36820509135780433 0 -0.30645439527142149 0.3792043752315124 0 -0.28002269401232133 0.39237492251424938 0 -0.27985701119217871 0.36820509135780433 0 -0.28002269401232133 0.39237492251424938 0 -0.25394970618517437 0.37548463351554889 0 -0.28002269401232133 0.39237492251424938 0 -0.25846502510716213 0.40018171899379379 0 -0.27756407812909689 0.40909931612516359 0 -0.28002269401232133 0.39237492251424938 0 -0.25846502510716213 0.40018171899379379 0 -0.25394970618517437 0.37548463351554889 0 -0.25683673992639122 0.43410492336284823 0 -0.26546243582183909 0.41933251040551728 0 -0.2397653588534133 0.41979128769974189 0 -0.25683673992639122 0.43410492336284823 0 -0.26546243582183909 0.41933251040551728 0 -0.27362401629368321 0.43108482951916322 0 -0.25846502510716213 0.40018171899379379 0 -0.26546243582183909 0.41933251040551728 0 -0.2397653588534133 0.41979128769974189 0 -0.26546243582183909 0.41933251040551728 0 -0.28552404164025941 0.42314015853175319 0 -0.25846502510716213 0.40018171899379379 0 -0.26546243582183909 0.41933251040551728 0 -0.27756407812909689 0.40909931612516359 0 -0.26546243582183909 0.41933251040551728 0 -0.27756407812909689 0.40909931612516359 0 -0.28552404164025941 0.42314015853175319 0 -0.25683673992639122 0.43410492336284823 0 -0.27362401629368321 0.43108482951916322 0 -0.26761816008900968 0.4457063878982333 0 -0.26546243582183909 0.41933251040551728 0 -0.27362401629368321 0.43108482951916322 0 -0.28552404164025941 0.42314015853175319 0 -0.28552404164025941 0.42314015853175319 0 -0.30558564745867961 0.42694780665798909 0 -0.28977458623286018 0.44060662042373661 0 -0.27362401629368321 0.43108482951916322 0 -0.28552404164025941 0.42314015853175319 0 -0.28977458623286018 0.44060662042373661 0 -0.28552404164025941 0.42314015853175319 0 -0.30558564745867961 0.42694780665798909 0 -0.29584511748460451 0.40622228575401542 0 -0.27756407812909689 0.40909931612516359 0 -0.28552404164025941 0.42314015853175319 0 -0.29584511748460451 0.40622228575401542 0 -0.28552404164025941 0.42314015853175319 0 -0.30558564745867961 0.42694780665798909 0 -0.31605082427426012 0.40497991500786917 0 -0.29584511748460451 0.40622228575401542 0 -0.30558564745867961 0.42694780665798909 0 -0.30558564745867961 0.42694780665798909 0 -0.28977458623286018 0.44060662042373661 0 -0.31288570955756112 0.44284186974602779 0 -0.30290923213298387 0.45462280654303477 0 -0.28977458623286018 0.44060662042373661 0 -0.31288570955756112 0.44284186974602779 0 -0.30290923213298387 0.45462280654303477 0 -0.2968837469430809 0.47316541727709088 0 -0.31296497152881692 0.46778789377926649 0 -0.30290923213298387 0.45462280654303477 0 -0.31296497152881692 0.46778789377926649 0 -0.31288570955756112 0.44284186974602779 0 -0.30290923213298387 0.45462280654303477 0 -0.28048736369530258 0.46974853769535641 0 -0.30290923213298387 0.45462280654303477 0 -0.28075016224759469 0.45468804971718768 0 -0.28048736369530258 0.46974853769535641 0 -0.30290923213298387 0.45462280654303477 0 -0.28048736369530258 0.46974853769535641 0 -0.2968837469430809 0.47316541727709088 0 -0.30290923213298387 0.45462280654303477 0 -0.28977458623286018 0.44060662042373661 0 -0.28075016224759469 0.45468804971718768 0 -0.27362401629368321 0.43108482951916322 0 -0.28977458623286018 0.44060662042373661 0 -0.26761816008900968 0.4457063878982333 0 -0.28977458623286018 0.44060662042373661 0 -0.26761816008900968 0.4457063878982333 0 -0.28075016224759469 0.45468804971718768 0 -0.28075016224759469 0.45468804971718768 0 -0.26296146908781692 0.46275589602557721 0 -0.28048736369530258 0.46974853769535641 0 -0.26761816008900968 0.4457063878982333 0 -0.28075016224759469 0.45468804971718768 0 -0.26296146908781692 0.46275589602557721 0 -0.26296146908781692 0.46275589602557721 0 -0.24339099554496851 0.46923158548936139 0 -0.24416108776117151 0.448414870067876 0 -0.26761816008900968 0.4457063878982333 0 -0.26296146908781692 0.46275589602557721 0 -0.24416108776117151 0.448414870067876 0 -0.25683673992639122 0.43410492336284823 0 -0.26761816008900968 0.4457063878982333 0 -0.24416108776117151 0.448414870067876 0 -0.25806549525762151 0.48487426884767798 0 -0.26458960080975902 0.5 0 -0.23564362681994019 0.49999999999999989 0 -0.25806549525762151 0.48487426884767798 0 -0.26458960080975902 0.5 0 -0.27072733225413148 0.48838277276661363 0 -0.26296146908781692 0.46275589602557721 0 -0.25806549525762151 0.48487426884767798 0 -0.24339099554496851 0.46923158548936139 0 -0.25806549525762151 0.48487426884767798 0 -0.28048736369530258 0.46974853769535641 0 -0.26296146908781692 0.46275589602557721 0 -0.25806549525762151 0.48487426884767798 0 -0.28048736369530258 0.46974853769535641 0 -0.25806549525762151 0.48487426884767798 0 -0.28048736369530258 0.46974853769535641 0 -0.27072733225413148 0.48838277276661363 0 -0.28048736369530258 0.46974853769535641 0 -0.27072733225413148 0.48838277276661363 0 -0.2838480127079519 0.48769034204508999 0 -0.26458960080975902 0.5 0 -0.27072733225413148 0.48838277276661363 0 -0.2838480127079519 0.48769034204508999 0 -0.26458960080975902 0.5 0 -0.2838480127079519 0.48769034204508999 0 -0.29353557479957781 0.5 0 -0.2838480127079519 0.48769034204508999 0 -0.29353557479957781 0.5 0 -0.30420915465034892 0.48597750632270742 0 -0.2838480127079519 0.48769034204508999 0 -0.30420915465034892 0.48597750632270742 0 -0.28048736369530258 0.46974853769535641 0 -0.2838480127079519 0.48769034204508999 0 -0.2968837469430809 0.47316541727709088 0 -0.2838480127079519 0.48769034204508999 0 -0.2968837469430809 0.47316541727709088 0 -0.30420915465034892 0.48597750632270742 0 -0.2968837469430809 0.47316541727709088 0 -0.30420915465034892 0.48597750632270742 0 -0.31296497152881692 0.46778789377926649 0 -0.29353557479957781 0.5 0 -0.30420915465034892 0.48597750632270742 0 -0.3224815487893965 0.5 0 -0.30420915465034892 0.48597750632270742 0 -0.3224815487893965 0.5 0 -0.32457029659274589 0.48426467060032469 0 -0.30420915465034892 0.48597750632270742 0 -0.32457029659274589 0.48426467060032469 0 -0.3224815487893965 0.5 0 -0.32457029659274589 0.48426467060032469 0 -0.34493143853514302 0.48255183487794179 0 -0.3224815487893965 0.5 0 -0.35142752277921518 0.49999999999999961 0 -0.34493143853514302 0.48255183487794179 0 -0.32457029659274589 0.48426467060032469 0 -0.34493143853514302 0.48255183487794179 0 -0.32457029659274589 0.48426467060032469 0 -0.33528934590612119 0.45665364483108389 0 -0.34493143853514302 0.48255183487794179 0 -0.33528934590612119 0.45665364483108389 0 -0.34493143853514302 0.48255183487794179 0 -0.30420915465034892 0.48597750632270742 0 -0.32457029659274589 0.48426467060032469 0 -0.31296497152881692 0.46778789377926649 0 -0.32457029659274589 0.48426467060032469 0 -0.31296497152881692 0.46778789377926649 0 -0.33528934590612119 0.45665364483108389 0 -0.31296497152881692 0.46778789377926649 0 -0.31288570955756112 0.44284186974602779 0 -0.33528934590612119 0.45665364483108389 0 -0.32564725327709992 0.43075545478422572 0 -0.31288570955756112 0.44284186974602779 0 -0.33528934590612119 0.45665364483108389 0 -0.34727345307440177 0.43486005936479122 0 -0.32564725327709992 0.43075545478422572 0 -0.33528934590612119 0.45665364483108389 0 -0.32564725327709992 0.43075545478422572 0 -0.33528934590612119 0.45665364483108389 0 -0.33528934590612119 0.45665364483108389 0 -0.35400254265472902 0.46598185400620451 0 -0.3554971102285539 0.45030927989993819 0 -0.33528934590612119 0.45665364483108389 0 -0.35400254265472902 0.46598185400620451 0 -0.34493143853514302 0.48255183487794179 0 -0.34727345307440177 0.43486005936479122 0 -0.3554971102285539 0.45030927989993819 0 -0.36889965287170362 0.43896466394535733 0 -0.34727345307440177 0.43486005936479122 0 -0.33528934590612119 0.45665364483108389 0 -0.3554971102285539 0.45030927989993819 0 -0.3554971102285539 0.45030927989993819 0 -0.36889965287170362 0.43896466394535733 0 -0.37076555384415733 0.46051649851944593 0 -0.35400254265472902 0.46598185400620451 0 -0.3554971102285539 0.45030927989993819 0 -0.37076555384415733 0.46051649851944593 0 -0.35400254265472902 0.46598185400620451 0 -0.37076555384415733 0.46051649851944593 0 -0.36326780584474028 0.4810093288124444 0 -0.38160417315433759 0.47946682274694669 0 -0.36326780584474028 0.4810093288124444 0 -0.38160417315433759 0.47946682274694669 0 -0.37076555384415733 0.46051649851944593 0 -0.36326780584474028 0.4810093288124444 0 -0.37508523743365307 0.5 0 -0.36326780584474028 0.4810093288124444 0 -0.35142752277921518 0.49999999999999961 0 -0.37508523743365307 0.5 0 -0.38160417315433759 0.47946682274694669 0 -0.36326780584474028 0.4810093288124444 0 -0.35142752277921518 0.49999999999999961 0 -0.34493143853514302 0.48255183487794179 0 -0.36326780584474028 0.4810093288124444 0 -0.35142752277921518 0.49999999999999961 0 -0.34493143853514302 0.48255183487794179 0 -0.36326780584474028 0.4810093288124444 0 -0.34493143853514302 0.48255183487794179 0 -0.35400254265472902 0.46598185400620451 0 -0.36326780584474028 0.4810093288124444 0 -0.34493143853514302 0.48255183487794179 0 -0.14008182961232071 0.482877880250699 0 -0.15261503276301791 0.46035188861026499 0 -0.1571190634423961 0.47940976636839389 0 -0.14210026434529149 0.49999999999999628 0 -0.1571190634423961 0.47940976636839389 0 -0.14210026434529149 0.49999999999999628 0 -0.1571190634423961 0.47940976636839389 0 -0.16548610496395369 0.5 0 -0.14210026434529149 0.49999999999999628 0 -0.14008182961232071 0.482877880250699 0 -0.1571190634423961 0.47940976636839389 0 -0.14008182961232071 0.482877880250699 0 -0.12564656460162221 0.47194298579156202 0 -0.1168568933003991 0.5 0 -0.14210026434529149 0.49999999999999628 0 -0.14008182961232071 0.482877880250699 0 -0.1168568933003991 0.5 0 -0.14008182961232071 0.482877880250699 0 -0.12564656460162221 0.47194298579156202 0 -0.15261503276301791 0.46035188861026499 0 -0.12564656460162221 0.47194298579156202 0 -0.13525901996499209 0.44906751968178488 0 -0.15261503276301791 0.46035188861026499 0 -0.12564656460162221 0.47194298579156202 0 -0.13525901996499209 0.44906751968178488 0 -0.1176911668246482 0.44894968241759448 0 -0.13525901996499209 0.44906751968178488 0 -0.1271798157940201 0.42729928695529362 0 -0.1176911668246482 0.44894968241759448 0 -0.13525901996499209 0.44906751968178488 0 -0.14634075464743251 0.43805000748102618 0 -0.1271798157940201 0.42729928695529362 0 -0.14634075464743251 0.43805000748102618 0 -0.15261503276301791 0.46035188861026499 0 -0.16506886906055579 0.43357461958700438 0 -0.13525901996499209 0.44906751968178488 0 -0.14634075464743251 0.43805000748102618 0 -0.15261503276301791 0.46035188861026499 0 -0.15261503276301791 0.46035188861026499 0 -0.17213786253950239 0.45881953273679282 0 -0.1571190634423961 0.47940976636839389 0 -0.15261503276301791 0.46035188861026499 0 -0.17213786253950239 0.45881953273679282 0 -0.16506886906055579 0.43357461958700438 0 -0.18715666163660871 0.43822929910519159 0 -0.17213786253950239 0.45881953273679282 0 -0.19144072324630021 0.4609438441391418 0 -0.18715666163660871 0.43822929910519159 0 -0.17213786253950239 0.45881953273679282 0 -0.16506886906055579 0.43357461958700438 0 -0.18715666163660871 0.43822929910519159 0 -0.17213786253950239 0.45881953273679282 0 -0.17213786253950239 0.45881953273679282 0 -0.17874932651485839 0.48062628839596611 0 -0.19144072324630021 0.4609438441391418 0 -0.17213786253950239 0.45881953273679282 0 -0.1571190634423961 0.47940976636839389 0 -0.17213786253950239 0.45881953273679282 0 -0.17874932651485839 0.48062628839596611 0 -0.1571190634423961 0.47940976636839389 0 -0.17874932651485839 0.48062628839596611 0 -0.1571190634423961 0.47940976636839389 0 -0.16548610496395369 0.5 0 -0.17874932651485839 0.48062628839596611 0 -0.16548610496395369 0.5 0 -0.18887194558261591 0.5 0 -0.19744025931438261 0.48458458713146768 0 -0.18887194558261591 0.5 0 -0.2104288787960083 0.49651550151699619 0 -0.17874932651485839 0.48062628839596611 0 -0.19744025931438261 0.48458458713146768 0 -0.18887194558261591 0.5 0 -0.17874932651485839 0.48062628839596611 0 -0.19744025931438261 0.48458458713146768 0 -0.19144072324630021 0.4609438441391418 0 -0.19744025931438261 0.48458458713146768 0 -0.20767773944191109 0.47022335616919447 0 -0.19144072324630021 0.4609438441391418 0 -0.20767773944191109 0.47022335616919447 0 -0.21737560224608621 0.48336103946931069 0 -0.22744508423581661 0.47506477707778388 0 -0.19744025931438261 0.48458458713146768 0 -0.20767773944191109 0.47022335616919447 0 -0.2104288787960083 0.49651550151699619 0 -0.20767773944191109 0.47022335616919447 0 -0.21737560224608621 0.48336103946931069 0 -0.2104288787960083 0.49651550151699619 0 -0.20767773944191109 0.47022335616919447 0 -0.2104288787960083 0.49651550151699619 0 -0.18887194558261591 0.5 0 -0.2104288787960083 0.49651550151699619 0 -0.212257786201278 0.5 0 -0.21737560224608621 0.48336103946931069 0 -0.2104288787960083 0.49651550151699619 0 -0.22395070651060911 0.49164052311326861 0 -0.2104288787960083 0.49651550151699619 0 -0.212257786201278 0.5 0 -0.22395070651060911 0.49164052311326861 0 -0.212257786201278 0.5 0 -0.22395070651060911 0.49164052311326861 0 -0.23564362681994019 0.49999999999999989 0 -0.22395070651060911 0.49164052311326861 0 -0.23769918167379109 0.48416223090561838 0 -0.23564362681994019 0.49999999999999989 0 -0.21737560224608621 0.48336103946931069 0 -0.22395070651060911 0.49164052311326861 0 -0.22744508423581661 0.47506477707778388 0 -0.22395070651060911 0.49164052311326861 0 -0.22744508423581661 0.47506477707778388 0 -0.23769918167379109 0.48416223090561838 0 -0.25806549525762151 0.48487426884767798 0 -0.23769918167379109 0.48416223090561838 0 -0.24339099554496851 0.46923158548936139 0 -0.22744508423581661 0.47506477707778388 0 -0.23769918167379109 0.48416223090561838 0 -0.24339099554496851 0.46923158548936139 0 -0.25806549525762151 0.48487426884767798 0 -0.23564362681994019 0.49999999999999989 0 -0.25806549525762151 0.48487426884767798 0 -0.23769918167379109 0.48416223090561838 0 -0.23564362681994019 0.49999999999999989 0 -0.24416108776117151 0.448414870067876 0 -0.2330250663767221 0.45628579620900639 0 -0.2319497835577127 0.44021598777072851 0 -0.24339099554496851 0.46923158548936139 0 -0.24416108776117151 0.448414870067876 0 -0.2330250663767221 0.45628579620900639 0 -0.22744508423581661 0.47506477707778388 0 -0.24339099554496851 0.46923158548936139 0 -0.2330250663767221 0.45628579620900639 0 -0.22744508423581661 0.47506477707778388 0 -0.2330250663767221 0.45628579620900639 0 -0.2184752363904762 0.44696749663816471 0 -0.22744508423581661 0.47506477707778388 0 -0.2184752363904762 0.44696749663816471 0 -0.2319497835577127 0.44021598777072851 0 -0.2184752363904762 0.44696749663816471 0 -0.22432216840678021 0.42962048823885329 0 -0.2330250663767221 0.45628579620900639 0 -0.2319497835577127 0.44021598777072851 0 -0.2184752363904762 0.44696749663816471 0 -0.20767773944191109 0.47022335616919447 0 -0.2184752363904762 0.44696749663816471 0 -0.20492660008781391 0.44393121082139292 0 -0.20767773944191109 0.47022335616919447 0 -0.20492660008781391 0.44393121082139292 0 -0.20767773944191109 0.47022335616919447 0 -0.22744508423581661 0.47506477707778388 0 -0.2184752363904762 0.44696749663816471 0 -0.20767773944191109 0.47022335616919447 0 -0.20492660008781391 0.44393121082139292 0 -0.19144072324630021 0.4609438441391418 0 -0.18715666163660871 0.43822929910519159 0 -0.20492660008781391 0.44393121082139292 0 -0.19144072324630021 0.4609438441391418 0 -0.18715666163660871 0.43822929910519159 0 -0.20217546073371581 0.41763906547359131 0 -0.18715666163660871 0.43822929910519159 0 -0.20492660008781391 0.44393121082139292 0 -0.20217546073371581 0.41763906547359131 0 -0.18715666163660871 0.43822929910519159 0 -0.1897133778765045 0.42397046605338318 0 -0.20217546073371581 0.41763906547359131 0 -0.18847571139220709 0.41175605341572158 0 -0.19553394257598039 0.4106167496778203 0 -0.192320245288084 0.40128553024500357 0 -0.18847571139220709 0.41175605341572158 0 -0.19397462314460201 0.41599558365512918 0 -0.19553394257598039 0.4106167496778203 0 -0.1897133778765045 0.42397046605338318 0 -0.18847571139220709 0.41175605341572158 0 -0.19397462314460201 0.41599558365512918 0 -0.1897133778765045 0.42397046605338318 0 -0.19397462314460201 0.41599558365512918 0 -0.20217546073371581 0.41763906547359131 0 -0.19397462314460201 0.41599558365512918 0 -0.20217546073371581 0.41763906547359131 0 -0.19553394257598039 0.4106167496778203 0 -0.20217546073371581 0.41763906547359131 0 -0.20056644346473251 0.40226197603599079 0 -0.20217546073371581 0.41763906547359131 0 -0.19553394257598039 0.4106167496778203 0 -0.20056644346473251 0.40226197603599079 0 -0.20217546073371581 0.41763906547359131 0 -0.20950538854513581 0.41887021619854542 0 -0.20056644346473251 0.40226197603599079 0 -0.20950538854513581 0.41887021619854542 0 -0.22398044726140601 0.41337689076526052 0 -0.21333970649131959 0.40301900491534548 0 -0.2184752363904762 0.44696749663816471 0 -0.20950538854513581 0.41887021619854542 0 -0.20492660008781391 0.44393121082139292 0 -0.20217546073371581 0.41763906547359131 0 -0.20950538854513581 0.41887021619854542 0 -0.2184752363904762 0.44696749663816471 0 -0.20950538854513581 0.41887021619854542 0 -0.22432216840678021 0.42962048823885329 0 -0.2184752363904762 0.44696749663816471 0 -0.20492660008781391 0.44393121082139292 0 -0.20950538854513581 0.41887021619854542 0 -0.20492660008781391 0.44393121082139292 0 -0.20217546073371581 0.41763906547359131 0 -0.2319497835577127 0.44021598777072851 0 -0.22432216840678021 0.42962048823885329 0 -0.2397653588534133 0.41979128769974189 0 -0.20950538854513581 0.41887021619854542 0 -0.22432216840678021 0.42962048823885329 0 -0.22398044726140601 0.41337689076526052 0 -0.22432216840678021 0.42962048823885329 0 -0.22398044726140601 0.41337689076526052 0 -0.2397653588534133 0.41979128769974189 0 -0.22398044726140601 0.41337689076526052 0 -0.2397653588534133 0.41979128769974189 0 -0.23536962994565511 0.39116770533160788 0 -0.25683673992639122 0.43410492336284823 0 -0.24416108776117151 0.448414870067876 0 -0.2397653588534133 0.41979128769974189 0 -0.24416108776117151 0.448414870067876 0 -0.2397653588534133 0.41979128769974189 0 -0.24416108776117151 0.448414870067876 0 -0.2319497835577127 0.44021598777072851 0 -0.2397653588534133 0.41979128769974189 0 -0.25846502510716213 0.40018171899379379 0 -0.25394970618517437 0.37548463351554889 0 -0.23536962994565511 0.39116770533160788 0 -0.25394970618517437 0.37548463351554889 0 -0.23536962994565511 0.39116770533160788 0 -0.2433557868808551 0.36683699011624782 0 -0.25846502510716213 0.40018171899379379 0 -0.2397653588534133 0.41979128769974189 0 -0.23536962994565511 0.39116770533160788 0 -0.2397653588534133 0.41979128769974189 0 -0.23536962994565511 0.39116770533160788 0 -0.23536962994565511 0.39116770533160788 0 -0.22026962286485599 0.39843965554046229 0 -0.21759884973858029 0.38483561346857947 0 -0.22398044726140601 0.41337689076526052 0 -0.23536962994565511 0.39116770533160788 0 -0.22026962286485599 0.39843965554046229 0 -0.22398044726140601 0.41337689076526052 0 -0.22026962286485599 0.39843965554046229 0 -0.21333970649131959 0.40301900491534548 0 -0.23536962994565511 0.39116770533160788 0 -0.230973901037899 0.36254412296347371 0 -0.23536962994565511 0.39116770533160788 0 -0.2215521518275928 0.37446669776583891 0 -0.230973901037899 0.36254412296347371 0 -0.23536962994565511 0.39116770533160788 0 -0.21759884973858029 0.38483561346857947 0 -0.2215521518275928 0.37446669776583891 0 -0.21759884973858029 0.38483561346857947 0 -0.20881267174119389 0.38380191400024782 0 -0.21110705771344851 0.37407248143601363 0 -0.21759884973858029 0.38483561346857947 0 -0.21110705771344851 0.37407248143601363 0 -0.2215521518275928 0.37446669776583891 0 -0.21759884973858029 0.38483561346857947 0 -0.20881267174119389 0.38380191400024782 0 -0.21240753308540489 0.39363532631353337 0 -0.20881267174119389 0.38380191400024782 0 -0.20391009359848239 0.37657319870013911 0 -0.20053554069979529 0.39077293575892602 0 -0.20881267174119389 0.38380191400024782 0 -0.21240753308540489 0.39363532631353337 0 -0.20053554069979529 0.39077293575892602 0 -0.20881267174119389 0.38380191400024782 0 -0.20391009359848239 0.37657319870013911 0 -0.21110705771344851 0.37407248143601363 0 -0.20950538854513581 0.41887021619854542 0 -0.20053554069979529 0.39077293575892602 0 -0.20950538854513581 0.41887021619854542 0 -0.21333970649131959 0.40301900491534548 0 -0.20053554069979529 0.39077293575892602 0 -0.20950538854513581 0.41887021619854542 0 -0.20056644346473251 0.40226197603599079 0 -0.20053554069979529 0.39077293575892602 0 -0.22026962286485599 0.39843965554046229 0 -0.21759884973858029 0.38483561346857947 0 -0.21240753308540489 0.39363532631353337 0 -0.22026962286485599 0.39843965554046229 0 -0.21333970649131959 0.40301900491534548 0 -0.21240753308540489 0.39363532631353337 0 -0.21333970649131959 0.40301900491534548 0 -0.21240753308540489 0.39363532631353337 0 -0.20053554069979529 0.39077293575892602 0 -0.19553394257598039 0.4106167496778203 0 -0.20056644346473251 0.40226197603599079 0 -0.192320245288084 0.40128553024500357 0 -0.20056644346473251 0.40226197603599079 0 -0.20053554069979529 0.39077293575892602 0 -0.192320245288084 0.40128553024500357 0 -0.20053554069979529 0.39077293575892602 0 -0.192320245288084 0.40128553024500357 0 -0.1874847810299719 0.3923300469314408 0 -0.20053554069979529 0.39077293575892602 0 -0.18647451547754809 0.37978139466988092 0 -0.19156569285445199 0.36267565531930768 0 -0.20053554069979529 0.39077293575892602 0 -0.19156569285445199 0.36267565531930768 0 -0.20053554069979529 0.39077293575892602 0 -0.19156569285445199 0.36267565531930768 0 -0.19901954882013101 0.37188445520035929 0 -0.20391009359848239 0.37657319870013911 0 -0.20053554069979529 0.39077293575892602 0 -0.19901954882013101 0.37188445520035929 0 -0.20053554069979529 0.39077293575892602 0 -0.18647451547754809 0.37978139466988092 0 -0.1874847810299719 0.3923300469314408 0 -0.18647451547754809 0.37978139466988092 0 -0.17676879913433441 0.38741390533163528 0 -0.16903717611468971 0.37597802750940751 0 -0.18647451547754809 0.37978139466988092 0 -0.17676879913433441 0.38741390533163528 0 -0.1874847810299719 0.3923300469314408 0 -0.16903717611468971 0.37597802750940751 0 -0.1465086593749278 0.38928039969950767 0 -0.17676879913433441 0.38741390533163528 0 -0.16903717611468971 0.37597802750940751 0 -0.16517032006292251 0.39515724240810229 0 -0.16903717611468971 0.37597802750940751 0 -0.1465086593749278 0.38928039969950767 0 -0.15365284745973951 0.37082618230438902 0 -0.16903717611468971 0.37597802750940751 0 -0.16517032006292251 0.39515724240810229 0 -0.1465086593749278 0.38928039969950767 0 -0.16517032006292251 0.39515724240810229 0 -0.1578961032387271 0.40978238250866361 0 -0.1465086593749278 0.38928039969950767 0 -0.17676879913433441 0.38741390533163528 0 -0.16517032006292251 0.39515724240810229 0 -0.18132505256581671 0.39997541965012218 0 -0.16517032006292251 0.39515724240810229 0 -0.18132505256581671 0.39997541965012218 0 -0.17517671956461281 0.41386643487709379 0 -0.192320245288084 0.40128553024500357 0 -0.1874847810299719 0.3923300469314408 0 -0.18132505256581671 0.39997541965012218 0 -0.17676879913433441 0.38741390533163528 0 -0.1874847810299719 0.3923300469314408 0 -0.18132505256581671 0.39997541965012218 0 -0.18847571139220709 0.41175605341572158 0 -0.192320245288084 0.40128553024500357 0 -0.18132505256581671 0.39997541965012218 0 -0.18847571139220709 0.41175605341572158 0 -0.18132505256581671 0.39997541965012218 0 -0.17517671956461281 0.41386643487709379 0 -0.1897133778765045 0.42397046605338318 0 -0.17517671956461281 0.41386643487709379 0 -0.17927890703457039 0.42741020490566828 0 -0.1897133778765045 0.42397046605338318 0 -0.18847571139220709 0.41175605341572158 0 -0.17517671956461281 0.41386643487709379 0 -0.18715666163660871 0.43822929910519159 0 -0.17927890703457039 0.42741020490566828 0 -0.16506886906055579 0.43357461958700438 0 -0.17517671956461281 0.41386643487709379 0 -0.17927890703457039 0.42741020490566828 0 -0.16506886906055579 0.43357461958700438 0 -0.18715666163660871 0.43822929910519159 0 -0.1897133778765045 0.42397046605338318 0 -0.17927890703457039 0.42741020490566828 0 -0.16506886906055579 0.43357461958700438 0 -0.1578961032387271 0.40978238250866361 0 -0.1462001688244649 0.42118475382097093 0 -0.16517032006292251 0.39515724240810229 0 -0.17517671956461281 0.41386643487709379 0 -0.1578961032387271 0.40978238250866361 0 -0.17517671956461281 0.41386643487709379 0 -0.16506886906055579 0.43357461958700438 0 -0.1578961032387271 0.40978238250866361 0 -0.1578961032387271 0.40978238250866361 0 -0.1462001688244649 0.42118475382097093 0 -0.1420135206675073 0.40519060366154253 0 -0.14634075464743251 0.43805000748102618 0 -0.16506886906055579 0.43357461958700438 0 -0.1462001688244649 0.42118475382097093 0 -0.14634075464743251 0.43805000748102618 0 -0.1462001688244649 0.42118475382097093 0 -0.1271798157940201 0.42729928695529362 0 -0.1462001688244649 0.42118475382097093 0 -0.1271798157940201 0.42729928695529362 0 -0.1420135206675073 0.40519060366154253 0 -0.1271798157940201 0.42729928695529362 0 -0.1420135206675073 0.40519060366154253 0 -0.12398014263516589 0.402582771889608 0 -0.1465086593749278 0.38928039969950767 0 -0.1420135206675073 0.40519060366154253 0 -0.12398014263516589 0.402582771889608 0 -0.1465086593749278 0.38928039969950767 0 -0.1232343182397227 0.38014791647780111 0 -0.12398014263516589 0.402582771889608 0 -0.1465086593749278 0.38928039969950767 0 -0.12398014263516589 0.402582771889608 0 -0.1465086593749278 0.38928039969950767 0 -0.1383819937038275 0.37106602023428142 0 -0.1232343182397227 0.38014791647780111 0 -0.1465086593749278 0.38928039969950767 0 -0.15365284745973951 0.37082618230438902 0 -0.1383819937038275 0.37106602023428142 0 -0.1578961032387271 0.40978238250866361 0 -0.1465086593749278 0.38928039969950767 0 -0.1420135206675073 0.40519060366154253 0 -0.1474599300212508 0.35881027199233873 0 -0.13368359861727791 0.33750939514374928 0 -0.1606691309120572 0.33501180164373429 0 -0.1474599300212508 0.35881027199233873 0 -0.15365284745973951 0.37082618230438902 0 -0.1383819937038275 0.37106602023428142 0 -0.1383819937038275 0.37106602023428142 0 -0.12571365911349899 0.35783801149796851 0 -0.1232343182397227 0.38014791647780111 0 -0.1474599300212508 0.35881027199233873 0 -0.1383819937038275 0.37106602023428142 0 -0.12571365911349899 0.35783801149796851 0 -0.1474599300212508 0.35881027199233873 0 -0.12571365911349899 0.35783801149796851 0 -0.13368359861727791 0.33750939514374928 0 -0.1474599300212508 0.35881027199233873 0 -0.12571365911349899 0.35783801149796851 0 -0.13368359861727791 0.33750939514374928 0 -0.12867270875223721 0.31403413099360589 0 -0.14625996345800971 0.32109313964659569 0 -0.13368359861727791 0.33750939514374928 0 -0.12867270875223721 0.31403413099360589 0 -0.1156567370412232 0.32871637271707632 0 -0.13368359861727791 0.33750939514374928 0 -0.14625996345800971 0.32109313964659569 0 -0.1606691309120572 0.33501180164373429 0 -0.1606691309120572 0.33501180164373429 0 -0.18461534960759321 0.34090430013850131 0 -0.16930702136355 0.34716280933262739 0 -0.1606691309120572 0.33501180164373429 0 -0.16203342541357099 0.3153301500498587 0 -0.17827822737843041 0.32105380729592431 0 -0.16203342541357099 0.3153301500498587 0 -0.17827822737843041 0.32105380729592431 0 -0.1719411051492675 0.30120331445334741 0 -0.14625996345800971 0.32109313964659569 0 -0.1606691309120572 0.33501180164373429 0 -0.16203342541357099 0.3153301500498587 0 -0.17827822737843041 0.32105380729592431 0 -0.19421272409544391 0.32424101449117371 0 -0.18832740571064799 0.30902618765353612 0 -0.17827822737843041 0.32105380729592431 0 -0.18461534960759321 0.34090430013850131 0 -0.17827822737843041 0.32105380729592431 0 -0.18461534960759321 0.34090430013850131 0 -0.19421272409544391 0.32424101449117371 0 -0.1606691309120572 0.33501180164373429 0 -0.17827822737843041 0.32105380729592431 0 -0.18461534960759321 0.34090430013850131 0 -0.1803959027799909 0.35318811315714971 0 -0.1692062009290026 0.35978253248670888 0 -0.19095247183675451 0.3607547929810786 0 -0.18461534960759321 0.34090430013850131 0 -0.1803959027799909 0.35318811315714971 0 -0.19095247183675451 0.3607547929810786 0 -0.1803959027799909 0.35318811315714971 0 -0.16930702136355 0.34716280933262739 0 -0.1692062009290026 0.35978253248670888 0 -0.18461534960759321 0.34090430013850131 0 -0.1803959027799909 0.35318811315714971 0 -0.16930702136355 0.34716280933262739 0 -0.1474599300212508 0.35881027199233873 0 -0.1606691309120572 0.33501180164373429 0 -0.16930702136355 0.34716280933262739 0 -0.1474599300212508 0.35881027199233873 0 -0.16930702136355 0.34716280933262739 0 -0.1692062009290026 0.35978253248670888 0 -0.1474599300212508 0.35881027199233873 0 -0.1692062009290026 0.35978253248670888 0 -0.1474599300212508 0.35881027199233873 0 -0.15365284745973951 0.37082618230438902 0 -0.1692062009290026 0.35978253248670888 0 -0.16903717611468971 0.37597802750940751 0 -0.15365284745973951 0.37082618230438902 0 -0.1692062009290026 0.35978253248670888 0 -0.1692062009290026 0.35978253248670888 0 -0.19095247183675451 0.3607547929810786 0 -0.19156569285445199 0.36267565531930768 0 -0.1692062009290026 0.35978253248670888 0 -0.19095247183675451 0.3607547929810786 0 -0.16903717611468971 0.37597802750940751 0 -0.1692062009290026 0.35978253248670888 0 -0.19156569285445199 0.36267565531930768 0 -0.18647451547754809 0.37978139466988092 0 -0.16903717611468971 0.37597802750940751 0 -0.19156569285445199 0.36267565531930768 0 -0.16903717611468971 0.37597802750940751 0 -0.19156569285445199 0.36267565531930768 0 -0.19156569285445199 0.36267565531930768 0 -0.19464070600082059 0.36085995791521408 0 -0.19901954882013101 0.37188445520035929 0 -0.19095247183675451 0.3607547929810786 0 -0.19156569285445199 0.36267565531930768 0 -0.19095247183675451 0.3607547929810786 0 -0.19464070600082059 0.36085995791521408 0 -0.19095247183675451 0.3607547929810786 0 -0.19156569285445199 0.36267565531930768 0 -0.19464070600082059 0.36085995791521408 0 -0.19156569285445199 0.36267565531930768 0 -0.19464070600082059 0.36085995791521408 0 -0.19464070600082059 0.36085995791521408 0 -0.19901954882013101 0.37188445520035929 0 -0.2044457109471047 0.36854052830820988 0 -0.20391009359848239 0.37657319870013911 0 -0.19901954882013101 0.37188445520035929 0 -0.2044457109471047 0.36854052830820988 0 -0.18461534960759321 0.34090430013850131 0 -0.19095247183675451 0.3607547929810786 0 -0.18461534960759321 0.34090430013850131 0 -0.19095247183675451 0.3607547929810786 0 -0.19545758436595451 0.35099088140267759 0 -0.19095247183675451 0.3607547929810786 0 -0.19464070600082059 0.36085995791521408 0 -0.19545758436595451 0.35099088140267759 0 -0.19464070600082059 0.36085995791521408 0 -0.19545758436595451 0.35099088140267759 0 -0.2039883279827546 0.3521864391513711 0 -0.19545758436595451 0.35099088140267759 0 -0.2039883279827546 0.3521864391513711 0 -0.2029904086816284 0.33875748091821889 0 -0.19464070600082059 0.36085995791521408 0 -0.2039883279827546 0.3521864391513711 0 -0.21280597086351979 0.36173184756931692 0 -0.2039883279827546 0.3521864391513711 0 -0.21404697000184969 0.34859202795142769 0 -0.2029904086816284 0.33875748091821889 0 -0.2039883279827546 0.3521864391513711 0 -0.21404697000184969 0.34859202795142769 0 -0.21280597086351979 0.36173184756931692 0 -0.21404697000184969 0.34859202795142769 0 -0.21280597086351979 0.36173184756931692 0 -0.22198980362221479 0.35657454624691959 0 -0.19464070600082059 0.36085995791521408 0 -0.2044457109471047 0.36854052830820988 0 -0.21280597086351979 0.36173184756931692 0 -0.19464070600082059 0.36085995791521408 0 -0.21280597086351979 0.36173184756931692 0 -0.2044457109471047 0.36854052830820988 0 -0.21280597086351979 0.36173184756931692 0 -0.21110705771344851 0.37407248143601363 0 -0.20391009359848239 0.37657319870013911 0 -0.2044457109471047 0.36854052830820988 0 -0.21110705771344851 0.37407248143601363 0 -0.21280597086351979 0.36173184756931692 0 -0.21110705771344851 0.37407248143601363 0 -0.2215521518275928 0.37446669776583891 0 -0.21280597086351979 0.36173184756931692 0 -0.2215521518275928 0.37446669776583891 0 -0.230973901037899 0.36254412296347371 0 -0.21280597086351979 0.36173184756931692 0 -0.230973901037899 0.36254412296347371 0 -0.21280597086351979 0.36173184756931692 0 -0.230973901037899 0.36254412296347371 0 -0.22198980362221479 0.35657454624691959 0 -0.23536962994565511 0.39116770533160788 0 -0.230973901037899 0.36254412296347371 0 -0.23243978252958949 0.36260966149510693 0 -0.230973901037899 0.36254412296347371 0 -0.2306260343823392 0.36027892643351739 0 -0.230973901037899 0.36254412296347371 0 -0.2306260343823392 0.36027892643351739 0 -0.23243978252958949 0.36260966149510693 0 -0.230973901037899 0.36254412296347371 0 -0.23243978252958949 0.36260966149510693 0 -0.2306260343823392 0.36027892643351739 0 -0.232475429989107 0.36032383819514729 0 -0.23243978252958949 0.36260966149510693 0 -0.2306260343823392 0.36027892643351739 0 -0.232475429989107 0.36032383819514729 0 -0.23188205646903429 0.357993084727319 0 -0.232475429989107 0.36032383819514729 0 -0.23243978252958949 0.36260966149510693 0 -0.2348949066405894 0.35922481632311742 0 -0.230973901037899 0.36254412296347371 0 -0.2306260343823392 0.36027892643351739 0 -0.2268061407492879 0.35726520384080901 0 -0.22198980362221479 0.35657454624691959 0 -0.22359708819609619 0.34806470036473308 0 -0.2268061407492879 0.35726520384080901 0 -0.21404697000184969 0.34859202795142769 0 -0.22198980362221479 0.35657454624691959 0 -0.22359708819609619 0.34806470036473308 0 -0.21404697000184969 0.34859202795142769 0 -0.22359708819609619 0.34806470036473308 0 -0.2197297814431633 0.33552325279734829 0 -0.22359708819609619 0.34806470036473308 0 -0.23069480501063119 0.34982662913559709 0 -0.22831502834943021 0.34060654221629683 0 -0.23069480501063119 0.34982662913559709 0 -0.23631157809550529 0.34145867841483329 0 -0.22831502834943021 0.34060654221629683 0 -0.23069480501063119 0.34982662913559709 0 -0.23387748101679789 0.35272793670550062 0 -0.2374521766646685 0.34912320601926872 0 -0.22359708819609619 0.34806470036473308 0 -0.23069480501063119 0.34982662913559709 0 -0.2268061407492879 0.35726520384080901 0 -0.230973901037899 0.36254412296347371 0 -0.22198980362221479 0.35657454624691959 0 -0.2268061407492879 0.35726520384080901 0 -0.2306260343823392 0.36027892643351739 0 -0.2268061407492879 0.35726520384080901 0 -0.23188205646903429 0.357993084727319 0 -0.2268061407492879 0.35726520384080901 0 -0.23139231519325471 0.3549402052593249 0 -0.23188205646903429 0.357993084727319 0 -0.23069480501063119 0.34982662913559709 0 -0.2268061407492879 0.35726520384080901 0 -0.23139231519325471 0.3549402052593249 0 -0.23069480501063119 0.34982662913559709 0 -0.23139231519325471 0.3549402052593249 0 -0.23387748101679789 0.35272793670550062 0 -0.23139231519325471 0.3549402052593249 0 -0.23387748101679789 0.35272793670550062 0 -0.23414996003730379 0.35615609249861541 0 -0.23139231519325471 0.3549402052593249 0 -0.23414996003730379 0.35615609249861541 0 -0.23188205646903429 0.357993084727319 0 -0.23414996003730379 0.35615609249861541 0 -0.23188205646903429 0.357993084727319 0 -0.2348949066405894 0.35922481632311742 0 -0.232475429989107 0.36032383819514729 0 -0.23188205646903429 0.357993084727319 0 -0.2348949066405894 0.35922481632311742 0 -0.23414996003730379 0.35615609249861541 0 -0.2348949066405894 0.35922481632311742 0 -0.23833391170650159 0.35603770147461972 0 -0.23833391170650159 0.35603770147461972 0 -0.24805674621249041 0.35940967119672718 0 -0.23949793158690699 0.36120040132585968 0 -0.2348949066405894 0.35922481632311742 0 -0.23833391170650159 0.35603770147461972 0 -0.23949793158690699 0.36120040132585968 0 -0.23387748101679789 0.35272793670550062 0 -0.23833391170650159 0.35603770147461972 0 -0.2374521766646685 0.34912320601926872 0 -0.23387748101679789 0.35272793670550062 0 -0.23414996003730379 0.35615609249861541 0 -0.23833391170650159 0.35603770147461972 0 -0.23833391170650159 0.35603770147461972 0 -0.2374521766646685 0.34912320601926872 0 -0.24344069655839751 0.35110666847890198 0 -0.23069480501063119 0.34982662913559709 0 -0.2374521766646685 0.34912320601926872 0 -0.23631157809550529 0.34145867841483329 0 -0.2374521766646685 0.34912320601926872 0 -0.24289424067940851 0.34427256215823732 0 -0.24344069655839751 0.35110666847890198 0 -0.2374521766646685 0.34912320601926872 0 -0.24289424067940851 0.34427256215823732 0 -0.23631157809550529 0.34145867841483329 0 -0.25046548604697477 0.3470991329081386 0 -0.24289424067940851 0.34427256215823732 0 -0.24344069655839751 0.35110666847890198 0 -0.23833391170650159 0.35603770147461972 0 -0.24344069655839751 0.35110666847890198 0 -0.24805674621249041 0.35940967119672718 0 -0.25046548604697477 0.3470991329081386 0 -0.24344069655839751 0.35110666847890198 0 -0.24805674621249041 0.35940967119672718 0 -0.25394970618517437 0.37548463351554889 0 -0.24805674621249041 0.35940967119672718 0 -0.2433557868808551 0.36683699011624782 0 -0.24805674621249041 0.35940967119672718 0 -0.2433557868808551 0.36683699011624782 0 -0.23949793158690699 0.36120040132585968 0 -0.23536962994565511 0.39116770533160788 0 -0.23243978252958949 0.36260966149510693 0 -0.2433557868808551 0.36683699011624782 0 -0.23243978252958949 0.36260966149510693 0 -0.2433557868808551 0.36683699011624782 0 -0.23949793158690699 0.36120040132585968 0 -0.23243978252958949 0.36260966149510693 0 -0.2348949066405894 0.35922481632311742 0 -0.23949793158690699 0.36120040132585968 0 -0.25123900287635642 0.31321918529401532 0 -0.24065719691005019 0.32297906439411289 0 -0.23539347161585941 0.30801400924639483 0 -0.25346319875975348 0.32762727951493681 0 -0.25123900287635642 0.31321918529401532 0 -0.24065719691005019 0.32297906439411289 0 -0.25346319875975348 0.32762727951493681 0 -0.24065719691005019 0.32297906439411289 0 -0.24547795103813791 0.33621581787136301 0 -0.25046548604697477 0.3470991329081386 0 -0.24289424067940851 0.34427256215823732 0 -0.24547795103813791 0.33621581787136301 0 -0.24289424067940851 0.34427256215823732 0 -0.24547795103813791 0.33621581787136301 0 -0.23631157809550529 0.34145867841483329 0 -0.24547795103813791 0.33621581787136301 0 -0.23631157809550529 0.34145867841483329 0 -0.2326377042833917 0.33135600588551489 0 -0.24065719691005019 0.32297906439411289 0 -0.24547795103813791 0.33621581787136301 0 -0.2326377042833917 0.33135600588551489 0 -0.2326377042833917 0.33135600588551489 0 -0.22831502834943021 0.34060654221629683 0 -0.2197297814431633 0.33552325279734829 0 -0.23631157809550529 0.34145867841483329 0 -0.2326377042833917 0.33135600588551489 0 -0.22831502834943021 0.34060654221629683 0 -0.22359708819609619 0.34806470036473308 0 -0.22831502834943021 0.34060654221629683 0 -0.2197297814431633 0.33552325279734829 0 -0.2326377042833917 0.33135600588551489 0 -0.2197297814431633 0.33552325279734829 0 -0.22573185288680239 0.32144208855245282 0 -0.24065719691005019 0.32297906439411289 0 -0.2326377042833917 0.33135600588551489 0 -0.22573185288680239 0.32144208855245282 0 -0.24065719691005019 0.32297906439411289 0 -0.22573185288680239 0.32144208855245282 0 -0.23539347161585941 0.30801400924639483 0 -0.22573185288680239 0.32144208855245282 0 -0.2217427968685706 0.31027156557912999 0 -0.23539347161585941 0.30801400924639483 0 -0.22573185288680239 0.32144208855245282 0 -0.2104835815074329 0.32074156234237922 0 -0.2217427968685706 0.31027156557912999 0 -0.2197297814431633 0.33552325279734829 0 -0.22573185288680239 0.32144208855245282 0 -0.2104835815074329 0.32074156234237922 0 -0.2197297814431633 0.33552325279734829 0 -0.2104835815074329 0.32074156234237922 0 -0.2029904086816284 0.33875748091821889 0 -0.21404697000184969 0.34859202795142769 0 -0.2197297814431633 0.33552325279734829 0 -0.2029904086816284 0.33875748091821889 0 -0.18461534960759321 0.34090430013850131 0 -0.2029904086816284 0.33875748091821889 0 -0.19421272409544391 0.32424101449117371 0 -0.18461534960759321 0.34090430013850131 0 -0.19545758436595451 0.35099088140267759 0 -0.2029904086816284 0.33875748091821889 0 -0.2104835815074329 0.32074156234237922 0 -0.2029904086816284 0.33875748091821889 0 -0.19421272409544391 0.32424101449117371 0 -0.2104835815074329 0.32074156234237922 0 -0.19973325279533971 0.31301951828606139 0 -0.19421272409544391 0.32424101449117371 0 -0.19973325279533971 0.31301951828606139 0 -0.19421272409544391 0.32424101449117371 0 -0.18832740571064799 0.30902618765353612 0 -0.18832740571064799 0.30902618765353612 0 -0.20001527558302229 0.30032225837331622 0 -0.1933893248343489 0.28941843870042222 0 -0.18832740571064799 0.30902618765353612 0 -0.1933893248343489 0.28941843870042222 0 -0.19973325279533971 0.31301951828606139 0 -0.18832740571064799 0.30902618765353612 0 -0.20001527558302229 0.30032225837331622 0 -0.1933893248343489 0.28941843870042222 0 -0.20794280703828019 0.28680138193494092 0 -0.19845124395804989 0.26981068974730837 0 -0.20001527558302229 0.30032225837331622 0 -0.1933893248343489 0.28941843870042222 0 -0.20794280703828019 0.28680138193494092 0 -0.20794280703828019 0.28680138193494092 0 -0.2259537459327873 0.29135244207847188 0 -0.2211897059369298 0.26581774384446832 0 -0.20794280703828019 0.28680138193494092 0 -0.2106835875364946 0.30334576529162049 0 -0.2259537459327873 0.29135244207847188 0 -0.20001527558302229 0.30032225837331622 0 -0.20794280703828019 0.28680138193494092 0 -0.2106835875364946 0.30334576529162049 0 -0.2104835815074329 0.32074156234237922 0 -0.2106835875364946 0.30334576529162049 0 -0.2217427968685706 0.31027156557912999 0 -0.2104835815074329 0.32074156234237922 0 -0.19973325279533971 0.31301951828606139 0 -0.2106835875364946 0.30334576529162049 0 -0.19973325279533971 0.31301951828606139 0 -0.20001527558302229 0.30032225837331622 0 -0.2106835875364946 0.30334576529162049 0 -0.2217427968685706 0.31027156557912999 0 -0.2259537459327873 0.29135244207847188 0 -0.23539347161585941 0.30801400924639483 0 -0.2106835875364946 0.30334576529162049 0 -0.2217427968685706 0.31027156557912999 0 -0.2259537459327873 0.29135244207847188 0 -0.2259537459327873 0.29135244207847188 0 -0.2487753635474419 0.29067043374777612 0 -0.23559680497347149 0.27603573065727638 0 -0.2259537459327873 0.29135244207847188 0 -0.2487753635474419 0.29067043374777612 0 -0.23539347161585941 0.30801400924639483 0 -0.25123900287635642 0.31321918529401532 0 -0.2487753635474419 0.29067043374777612 0 -0.23539347161585941 0.30801400924639483 0 -0.25847225025722792 0.25032667634972777 0 -0.23846944700344719 0.25333284921678778 0 -0.2494662869755386 0.26843018289523618 0 -0.23846944700344719 0.25333284921678778 0 -0.23559680497347149 0.27603573065727638 0 -0.2494662869755386 0.26843018289523618 0 -0.2487753635474419 0.29067043374777612 0 -0.23559680497347149 0.27603573065727638 0 -0.2494662869755386 0.26843018289523618 0 -0.2259537459327873 0.29135244207847188 0 -0.23559680497347149 0.27603573065727638 0 -0.2211897059369298 0.26581774384446832 0 -0.23846944700344719 0.25333284921678778 0 -0.23559680497347149 0.27603573065727638 0 -0.2211897059369298 0.26581774384446832 0 -0.23846944700344719 0.25333284921678778 0 -0.2211897059369298 0.26581774384446832 0 -0.22618736891613589 0.23735790597687459 0 -0.2211897059369298 0.26581774384446832 0 -0.2035131630817438 0.25020294079419281 0 -0.19845124395804989 0.26981068974730837 0 -0.2211897059369298 0.26581774384446832 0 -0.2035131630817438 0.25020294079419281 0 -0.22618736891613589 0.23735790597687459 0 -0.20794280703828019 0.28680138193494092 0 -0.2211897059369298 0.26581774384446832 0 -0.19845124395804989 0.26981068974730837 0 -0.1933893248343489 0.28941843870042222 0 -0.19845124395804989 0.26981068974730837 0 -0.17595815481086319 0.28310417171058461 0 -0.1933893248343489 0.28941843870042222 0 -0.19845124395804989 0.26981068974730837 0 -0.2035131630817438 0.25020294079419281 0 -0.19845124395804989 0.26981068974730837 0 -0.2035131630817438 0.25020294079419281 0 -0.18131469722472579 0.262778466874656 0 -0.1859050447022588 0.24644822626202259 0 -0.2035131630817438 0.25020294079419281 0 -0.18131469722472579 0.262778466874656 0 -0.2035131630817438 0.25020294079419281 0 -0.19845124395804989 0.26981068974730837 0 -0.18131469722472579 0.262778466874656 0 -0.18131469722472579 0.262778466874656 0 -0.17088880118618921 0.2512320915985139 0 -0.1859050447022588 0.24644822626202259 0 -0.18131469722472579 0.262778466874656 0 -0.17088880118618921 0.2512320915985139 0 -0.15911623136771019 0.27535399295512358 0 -0.17088880118618921 0.2512320915985139 0 -0.15911623136771019 0.27535399295512358 0 -0.15030075367266449 0.24784749586509311 0 -0.18131469722472579 0.262778466874656 0 -0.15911623136771019 0.27535399295512358 0 -0.19845124395804989 0.26981068974730837 0 -0.18131469722472579 0.262778466874656 0 -0.17595815481086319 0.28310417171058461 0 -0.18131469722472579 0.262778466874656 0 -0.15911623136771019 0.27535399295512358 0 -0.17595815481086319 0.28310417171058461 0 -0.1933893248343489 0.28941843870042222 0 -0.17595815481086319 0.28310417171058461 0 -0.1719411051492675 0.30120331445334741 0 -0.17827822737843041 0.32105380729592431 0 -0.18832740571064799 0.30902618765353612 0 -0.1719411051492675 0.30120331445334741 0 -0.18832740571064799 0.30902618765353612 0 -0.1933893248343489 0.28941843870042222 0 -0.1719411051492675 0.30120331445334741 0 -0.17827822737843041 0.32105380729592431 0 -0.1719411051492675 0.30120331445334741 0 -0.16203342541357099 0.3153301500498587 0 -0.1719411051492675 0.30120331445334741 0 -0.15416811128197311 0.29979374373676559 0 -0.17595815481086319 0.28310417171058461 0 -0.1719411051492675 0.30120331445334741 0 -0.15416811128197311 0.29979374373676559 0 -0.15911623136771019 0.27535399295512358 0 -0.17595815481086319 0.28310417171058461 0 -0.15416811128197311 0.29979374373676559 0 -0.15911623136771019 0.27535399295512358 0 -0.13691776551069459 0.28792951903559122 0 -0.15911623136771019 0.27535399295512358 0 -0.15416811128197311 0.29979374373676559 0 -0.13691776551069459 0.28792951903559122 0 -0.14625996345800971 0.32109313964659569 0 -0.16203342541357099 0.3153301500498587 0 -0.15416811128197311 0.29979374373676559 0 -0.12867270875223721 0.31403413099360589 0 -0.14625996345800971 0.32109313964659569 0 -0.15416811128197311 0.29979374373676559 0 -0.12867270875223721 0.31403413099360589 0 -0.15416811128197311 0.29979374373676559 0 -0.13691776551069459 0.28792951903559122 0 -0.12867270875223721 0.31403413099360589 0 -0.13691776551069459 0.28792951903559122 0 -0.1147192996536789 0.3005050451160588 0 -0.13691776551069459 0.28792951903559122 0 -0.1147192996536789 0.3005050451160588 0 -0.13691776551069459 0.28792951903559122 0 -0.13802129544667849 0.26644928989672351 0 -0.116104072920845 0.27561700696349301 0 -0.13802129544667849 0.26644928989672351 0 -0.1227339044231103 0.25087223714607509 0 -0.116104072920845 0.27561700696349301 0 -0.13802129544667849 0.26644928989672351 0 -0.1227339044231103 0.25087223714607509 0 -0.15030075367266449 0.24784749586509311 0 -0.15911623136771019 0.27535399295512358 0 -0.13802129544667849 0.26644928989672351 0 -0.15030075367266449 0.24784749586509311 0 -0.15911623136771019 0.27535399295512358 0 -0.13691776551069459 0.28792951903559122 0 -0.13802129544667849 0.26644928989672351 0 -0.116104072920845 0.27561700696349301 0 -0.08929349717132018 0.2829114861678183 0 -0.09356627060547823 0.24489395558504479 0 -0.1227339044231103 0.25087223714607509 0 -0.116104072920845 0.27561700696349301 0 -0.09356627060547823 0.24489395558504479 0 -0.13691776551069459 0.28792951903559122 0 -0.116104072920845 0.27561700696349301 0 -0.1147192996536789 0.3005050451160588 0 -0.1147192996536789 0.3005050451160588 0 -0.09252083379666326 0.31308057119652638 0 -0.1147192996536789 0.3005050451160588 0 -0.08929349717132018 0.2829114861678183 0 -0.09252083379666326 0.31308057119652638 0 -0.116104072920845 0.27561700696349301 0 -0.1147192996536789 0.3005050451160588 0 -0.08929349717132018 0.2829114861678183 0 -0.08929349717132018 0.2829114861678183 0 -0.074175861439393642 0.30045311299673411 0 -0.09252083379666326 0.31308057119652638 0 -0.074175861439393642 0.30045311299673411 0 -0.052991589735417732 0.306599052991682 0 -0.070322367939647634 0.32565609727699402 0 -0.074175861439393642 0.30045311299673411 0 -0.06067296272412312 0.282742595283758 0 -0.052991589735417732 0.306599052991682 0 -0.08929349717132018 0.2829114861678183 0 -0.074175861439393642 0.30045311299673411 0 -0.06067296272412312 0.282742595283758 0 -0.08929349717132018 0.2829114861678183 0 -0.069813202312178205 0.26212621135074171 0 -0.06067296272412312 0.282742595283758 0 -0.08929349717132018 0.2829114861678183 0 -0.069813202312178205 0.26212621135074171 0 -0.09356627060547823 0.24489395558504479 0 -0.069813202312178205 0.26212621135074171 0 -0.04113464427212335 0.26116734569307282 0 -0.064398636787846131 0.23891567402401451 0 -0.069813202312178205 0.26212621135074171 0 -0.04113464427212335 0.26116734569307282 0 -0.06067296272412312 0.282742595283758 0 -0.04113464427212335 0.26116734569307282 0 -0.033847936055903721 0.29003419328017488 0 -0.06067296272412312 0.282742595283758 0 -0.04113464427212335 0.26116734569307282 0 -0.01291285463997925 0.27449413664294642 0 -0.0088747255821837664 0.2494613688607428 0 -0.04113464427212335 0.26116734569307282 0 -0.01291285463997925 0.27449413664294642 0 -0.033847936055903721 0.29003419328017488 0 -0.01291285463997925 0.27449413664294642 0 0.004077076870887434 0.28300151641227123 0 0.004018561062066754 0.26569628968702352 0 -0.01291285463997925 0.27449413664294642 0 -0.0088747255821837664 0.2494613688607428 0 0.004018561062066754 0.26569628968702352 0 -0.01291285463997925 0.27449413664294642 0 -0.0070955422578270009 0.30074513276953663 0 0.004077076870887434 0.28300151641227123 0 -0.01291285463997925 0.27449413664294642 0 -0.0070955422578270009 0.30074513276953663 0 -0.033847936055903721 0.29003419328017488 0 -0.0070955422578270009 0.30074513276953663 0 -0.033847936055903721 0.29003419328017488 0 -0.028372632083660351 0.31402369935978353 0 -0.033847936055903721 0.29003419328017488 0 -0.052991589735417732 0.306599052991682 0 -0.028372632083660351 0.31402369935978353 0 -0.033847936055903721 0.29003419328017488 0 -0.06067296272412312 0.282742595283758 0 -0.052991589735417732 0.306599052991682 0 -0.052991589735417732 0.306599052991682 0 -0.050557778169777981 0.32668461975264779 0 -0.070322367939647634 0.32565609727699402 0 -0.050557778169777981 0.32668461975264779 0 -0.036195968617801513 0.34030208257238498 0 -0.059207017405731088 0.34700038558517182 0 -0.050557778169777981 0.32668461975264779 0 -0.059207017405731088 0.34700038558517182 0 -0.070322367939647634 0.32565609727699402 0 -0.036195968617801513 0.34030208257238498 0 -0.028372632083660351 0.31402369935978353 0 -0.050557778169777981 0.32668461975264779 0 -0.036195968617801513 0.34030208257238498 0 -0.028372632083660351 0.31402369935978353 0 -0.052991589735417732 0.306599052991682 0 -0.050557778169777981 0.32668461975264779 0 -0.028372632083660351 0.31402369935978353 0 -0.0070955422578270009 0.30074513276953663 0 -0.028372632083660351 0.31402369935978353 0 -0.013460359783369539 0.32611726695794557 0 -0.036195968617801513 0.34030208257238498 0 -0.028372632083660351 0.31402369935978353 0 -0.013460359783369539 0.32611726695794557 0 -0.036195968617801513 0.34030208257238498 0 -0.013460359783369539 0.32611726695794557 0 -0.0055326551113767594 0.34543169974770299 0 -0.013460359783369539 0.32611726695794557 0 -0.0055326551113767594 0.34543169974770299 0 0.0066265164643505917 0.3220266769105431 0 -0.0070955422578270009 0.30074513276953663 0 -0.013460359783369539 0.32611726695794557 0 0.0066265164643505917 0.3220266769105431 0 -0.0076829965872000456 0.3656654274793914 0 -0.01143793779481702 0.38166598800779 0 0.01056501085937925 0.37501715316717033 0 -0.0076829965872000456 0.3656654274793914 0 -0.025059975045034329 0.37418955740203941 0 -0.01143793779481702 0.38166598800779 0 -0.0076829965872000456 0.3656654274793914 0 -0.0055326551113767594 0.34543169974770299 0 0.0082414124624708082 0.3577395566097098 0 -0.0076829965872000456 0.3656654274793914 0 -0.0055326551113767594 0.34543169974770299 0 -0.022431306551273272 0.35928443119059839 0 -0.036195968617801513 0.34030208257238498 0 -0.0055326551113767594 0.34543169974770299 0 -0.022431306551273272 0.35928443119059839 0 -0.022431306551273272 0.35928443119059839 0 -0.025059975045034329 0.37418955740203941 0 -0.044019305151942648 0.36658046578498638 0 -0.0076829965872000456 0.3656654274793914 0 -0.022431306551273272 0.35928443119059839 0 -0.025059975045034329 0.37418955740203941 0 -0.036195968617801513 0.34030208257238498 0 -0.022431306551273272 0.35928443119059839 0 -0.044019305151942648 0.36658046578498638 0 -0.036195968617801513 0.34030208257238498 0 -0.044019305151942648 0.36658046578498638 0 -0.059207017405731088 0.34700038558517182 0 -0.036195968617801513 0.34030208257238498 0 -0.044019305151942648 0.36658046578498638 0 -0.044019305151942648 0.36658046578498638 0 -0.070033767727925092 0.36657437716192293 0 -0.059238757853217187 0.38155156129305862 0 -0.044019305151942648 0.36658046578498638 0 -0.059207017405731088 0.34700038558517182 0 -0.070033767727925092 0.36657437716192293 0 -0.086642596462918831 0.3732574552517936 0 -0.080794305245322745 0.35161451777347991 0 -0.103457051174042 0.36105053493959538 0 -0.070033767727925092 0.36657437716192293 0 -0.086642596462918831 0.3732574552517936 0 -0.080794305245322745 0.35161451777347991 0 -0.080794305245322745 0.35161451777347991 0 -0.095553835721373048 0.3372005174999248 0 -0.103457051174042 0.36105053493959538 0 -0.059207017405731088 0.34700038558517182 0 -0.070033767727925092 0.36657437716192293 0 -0.080794305245322745 0.35161451777347991 0 -0.059207017405731088 0.34700038558517182 0 -0.080794305245322745 0.35161451777347991 0 -0.070322367939647634 0.32565609727699402 0 -0.070322367939647634 0.32565609727699402 0 -0.09252083379666326 0.31308057119652638 0 -0.070322367939647634 0.32565609727699402 0 -0.09252083379666326 0.31308057119652638 0 -0.095553835721373048 0.3372005174999248 0 -0.074175861439393642 0.30045311299673411 0 -0.070322367939647634 0.32565609727699402 0 -0.09252083379666326 0.31308057119652638 0 -0.080794305245322745 0.35161451777347991 0 -0.070322367939647634 0.32565609727699402 0 -0.095553835721373048 0.3372005174999248 0 -0.095553835721373048 0.3372005174999248 0 -0.1156567370412232 0.32871637271707632 0 -0.1139620343797164 0.34548726864992108 0 -0.09252083379666326 0.31308057119652638 0 -0.095553835721373048 0.3372005174999248 0 -0.1156567370412232 0.32871637271707632 0 -0.1147192996536789 0.3005050451160588 0 -0.09252083379666326 0.31308057119652638 0 -0.1156567370412232 0.32871637271707632 0 -0.12867270875223721 0.31403413099360589 0 -0.1147192996536789 0.3005050451160588 0 -0.1156567370412232 0.32871637271707632 0 -0.13368359861727791 0.33750939514374928 0 -0.1156567370412232 0.32871637271707632 0 -0.1139620343797164 0.34548726864992108 0 -0.12571365911349899 0.35783801149796851 0 -0.1139620343797164 0.34548726864992108 0 -0.103457051174042 0.36105053493959538 0 -0.12571365911349899 0.35783801149796851 0 -0.13368359861727791 0.33750939514374928 0 -0.1139620343797164 0.34548726864992108 0 -0.12571365911349899 0.35783801149796851 0 -0.103457051174042 0.36105053493959538 0 -0.1232343182397227 0.38014791647780111 0 -0.086642596462918831 0.3732574552517936 0 -0.103457051174042 0.36105053493959538 0 -0.1009104190317264 0.38249791978179082 0 -0.103457051174042 0.36105053493959538 0 -0.1009104190317264 0.38249791978179082 0 -0.1232343182397227 0.38014791647780111 0 -0.095553835721373048 0.3372005174999248 0 -0.1139620343797164 0.34548726864992108 0 -0.103457051174042 0.36105053493959538 0 -0.1011810224635641 0.39919153193074919 0 -0.1009104190317264 0.38249791978179082 0 -0.11305422368259201 0.39065006803887092 0 -0.1011810224635641 0.39919153193074919 0 -0.1009104190317264 0.38249791978179082 0 -0.1011810224635641 0.39919153193074919 0 -0.1014516258954036 0.41588514407970761 0 -0.083108358155812107 0.40332330291712898 0 -0.1011810224635641 0.39919153193074919 0 -0.12398014263516589 0.402582771889608 0 -0.1014516258954036 0.41588514407970761 0 -0.1011810224635641 0.39919153193074919 0 -0.1009104190317264 0.38249791978179082 0 -0.089339327142189132 0.38901013334264728 0 -0.1009104190317264 0.38249791978179082 0 -0.1232343182397227 0.38014791647780111 0 -0.11305422368259201 0.39065006803887092 0 -0.1011810224635641 0.39919153193074919 0 -0.11305422368259201 0.39065006803887092 0 -0.12398014263516589 0.402582771889608 0 -0.1232343182397227 0.38014791647780111 0 -0.11305422368259201 0.39065006803887092 0 -0.12398014263516589 0.402582771889608 0 -0.12398014263516589 0.402582771889608 0 -0.1014516258954036 0.41588514407970761 0 -0.1271798157940201 0.42729928695529362 0 -0.12398014263516589 0.402582771889608 0 -0.1014516258954036 0.41588514407970761 0 -0.1271798157940201 0.42729928695529362 0 -0.1014516258954036 0.41588514407970761 0 -0.1018116934774906 0.43809782823520832 0 -0.1014516258954036 0.41588514407970761 0 -0.1018116934774906 0.43809782823520832 0 -0.1014516258954036 0.41588514407970761 0 -0.086834792583321052 0.42451591898619873 0 -0.1018116934774906 0.43809782823520832 0 -0.1011810224635641 0.39919153193074919 0 -0.1014516258954036 0.41588514407970761 0 -0.1014516258954036 0.41588514407970761 0 -0.086834792583321052 0.42451591898619873 0 -0.1014516258954036 0.41588514407970761 0 -0.086834792583321052 0.42451591898619873 0 -0.083108358155812107 0.40332330291712898 0 -0.086834792583321052 0.42451591898619873 0 -0.065166207081914285 0.41274431275836571 0 -0.083108358155812107 0.40332330291712898 0 -0.086834792583321052 0.42451591898619873 0 -0.086413144122689703 0.44482204859910018 0 -0.1018116934774906 0.43809782823520832 0 -0.086834792583321052 0.42451591898619873 0 -0.069083393571780241 0.43406475447140008 0 -0.086413144122689703 0.44482204859910018 0 -0.086834792583321052 0.42451591898619873 0 -0.069083393571780241 0.43406475447140008 0 -0.065166207081914285 0.41274431275836571 0 -0.083108358155812107 0.40332330291712898 0 -0.05544383510321102 0.39496365768902431 0 -0.083108358155812107 0.40332330291712898 0 -0.074854239596924207 0.38678045683177359 0 -0.05544383510321102 0.39496365768902431 0 -0.074854239596924207 0.38678045683177359 0 -0.05544383510321102 0.39496365768902431 0 -0.065166207081914285 0.41274431275836571 0 -0.083108358155812107 0.40332330291712898 0 -0.05544383510321102 0.39496365768902431 0 -0.083108358155812107 0.40332330291712898 0 -0.089339327142189132 0.38901013334264728 0 -0.074854239596924207 0.38678045683177359 0 -0.1011810224635641 0.39919153193074919 0 -0.083108358155812107 0.40332330291712898 0 -0.089339327142189132 0.38901013334264728 0 -0.086642596462918831 0.3732574552517936 0 -0.089339327142189132 0.38901013334264728 0 -0.074854239596924207 0.38678045683177359 0 -0.086642596462918831 0.3732574552517936 0 -0.1009104190317264 0.38249791978179082 0 -0.089339327142189132 0.38901013334264728 0 -0.070033767727925092 0.36657437716192293 0 -0.074854239596924207 0.38678045683177359 0 -0.059238757853217187 0.38155156129305862 0 -0.074854239596924207 0.38678045683177359 0 -0.059238757853217187 0.38155156129305862 0 -0.05544383510321102 0.39496365768902431 0 -0.070033767727925092 0.36657437716192293 0 -0.086642596462918831 0.3732574552517936 0 -0.074854239596924207 0.38678045683177359 0 -0.044019305151942648 0.36658046578498638 0 -0.059238757853217187 0.38155156129305862 0 -0.051842641686083782 0.39285884899758777 0 -0.044019305151942648 0.36658046578498638 0 -0.051842641686083782 0.39285884899758777 0 -0.059238757853217187 0.38155156129305862 0 -0.05544383510321102 0.39496365768902431 0 -0.051842641686083782 0.39285884899758777 0 -0.065166207081914285 0.41274431275836571 0 -0.05544383510321102 0.39496365768902431 0 -0.05273162336584078 0.40835811917714632 0 -0.05544383510321102 0.39496365768902431 0 -0.051842641686083782 0.39285884899758777 0 -0.033440886449013593 0.38831482284840851 0 -0.05544383510321102 0.39496365768902431 0 -0.041407325010071057 0.4008812871471904 0 -0.05544383510321102 0.39496365768902431 0 -0.041407325010071057 0.4008812871471904 0 -0.05273162336584078 0.40835811917714632 0 -0.05544383510321102 0.39496365768902431 0 -0.033440886449013593 0.38831482284840851 0 -0.05544383510321102 0.39496365768902431 0 -0.041407325010071057 0.4008812871471904 0 -0.033440886449013593 0.38831482284840851 0 -0.041407325010071057 0.4008812871471904 0 -0.033440886449013593 0.38831482284840851 0 -0.02737081491693201 0.40679891660535877 0 -0.041407325010071057 0.4008812871471904 0 -0.02737081491693201 0.40679891660535877 0 -0.044019305151942648 0.36658046578498638 0 -0.051842641686083782 0.39285884899758777 0 -0.033440886449013593 0.38831482284840851 0 -0.025059975045034329 0.37418955740203941 0 -0.044019305151942648 0.36658046578498638 0 -0.033440886449013593 0.38831482284840851 0 -0.033440886449013593 0.38831482284840851 0 -0.01143793779481702 0.38166598800779 0 -0.025059975045034329 0.37418955740203941 0 -0.033440886449013593 0.38831482284840851 0 -0.01143793779481702 0.38166598800779 0 -0.033440886449013593 0.38831482284840851 0 -0.008402902028776485 0.39090803488626452 0 -0.01143793779481702 0.38166598800779 0 -0.008402902028776485 0.39090803488626452 0 -0.02737081491693201 0.40679891660535877 0 -0.033440886449013593 0.38831482284840851 0 -0.008402902028776485 0.39090803488626452 0 -0.02737081491693201 0.40679891660535877 0 -0.008402902028776485 0.39090803488626452 0 -0.0045238398806965096 0.4069239118610441 0 0.003348370527736913 0.40231092329299561 0 -0.008402902028776485 0.39090803488626452 0 -0.0045238398806965096 0.4069239118610441 0 -0.02737081491693201 0.40679891660535877 0 -0.01143793779481702 0.38166598800779 0 0.01056501085937925 0.37501715316717033 0 -0.008402902028776485 0.39090803488626452 0 -0.01143793779481702 0.38166598800779 0 0.01056501085937925 0.37501715316717033 0 -0.012891616289909509 0.43602504138223619 0 -0.0030105477665597312 0.4170689220085107 0 0.00037720514520743698 0.43978019324700213 0 -0.0030105477665597312 0.4170689220085107 0 0.00037720514520743698 0.43978019324700213 0 -0.012891616289909509 0.43602504138223619 0 -0.0030105477665597312 0.4170689220085107 0 -0.025464453875088468 0.42800664290640961 0 -0.0030105477665597312 0.4170689220085107 0 -0.0045238398806965096 0.4069239118610441 0 -0.02737081491693201 0.40679891660535877 0 -0.0030105477665597312 0.4170689220085107 0 -0.02737081491693201 0.40679891660535877 0 -0.0030105477665597312 0.4170689220085107 0 -0.0045238398806965096 0.4069239118610441 0 -0.0030105477665597312 0.4170689220085107 0 -0.02737081491693201 0.40679891660535877 0 -0.025464453875088468 0.42800664290640961 0 -0.012891616289909509 0.43602504138223619 0 -0.025464453875088468 0.42800664290640961 0 -0.024202062525160922 0.44172199426679859 0 -0.025464453875088468 0.42800664290640961 0 -0.036914557986987818 0.44133064416993711 0 -0.024202062525160922 0.44172199426679859 0 -0.025464453875088468 0.42800664290640961 0 -0.048909126268167513 0.42484321911400658 0 -0.036914557986987818 0.44133064416993711 0 -0.02737081491693201 0.40679891660535877 0 -0.048909126268167513 0.42484321911400658 0 -0.041407325010071057 0.4008812871471904 0 -0.02737081491693201 0.40679891660535877 0 -0.048909126268167513 0.42484321911400658 0 -0.02737081491693201 0.40679891660535877 0 -0.025464453875088468 0.42800664290640961 0 -0.048909126268167513 0.42484321911400658 0 -0.065166207081914285 0.41274431275836571 0 -0.05273162336584078 0.40835811917714632 0 -0.048909126268167513 0.42484321911400658 0 -0.041407325010071057 0.4008812871471904 0 -0.05273162336584078 0.40835811917714632 0 -0.048909126268167513 0.42484321911400658 0 -0.069083393571780241 0.43406475447140008 0 -0.065166207081914285 0.41274431275836571 0 -0.048909126268167513 0.42484321911400658 0 -0.069083393571780241 0.43406475447140008 0 -0.048909126268167513 0.42484321911400658 0 -0.053362882573180281 0.45177845751529228 0 -0.053362882573180281 0.45177845751529228 0 -0.04298634119217741 0.47394042331230068 0 -0.067143093764438208 0.47442844027642161 0 -0.053362882573180281 0.45177845751529228 0 -0.03018113136724903 0.45961629841988721 0 -0.04298634119217741 0.47394042331230068 0 -0.048909126268167513 0.42484321911400658 0 -0.053362882573180281 0.45177845751529228 0 -0.036914557986987818 0.44133064416993711 0 -0.053362882573180281 0.45177845751529228 0 -0.036914557986987818 0.44133064416993711 0 -0.03018113136724903 0.45961629841988721 0 -0.036914557986987818 0.44133064416993711 0 -0.024202062525160922 0.44172199426679859 0 -0.03018113136724903 0.45961629841988721 0 -0.024202062525160922 0.44172199426679859 0 -0.03018113136724903 0.45961629841988721 0 -0.01490196311102108 0.4496982458334442 0 -0.012891616289909509 0.43602504138223619 0 -0.024202062525160922 0.44172199426679859 0 -0.01490196311102108 0.4496982458334442 0 -0.03018113136724903 0.45961629841988721 0 -0.0096817495363582095 0.46276316706078802 0 -0.01882958861991671 0.47345240634817998 0 -0.03018113136724903 0.45961629841988721 0 -0.0096817495363582095 0.46276316706078802 0 -0.01490196311102108 0.4496982458334442 0 -0.03018113136724903 0.45961629841988721 0 -0.01490196311102108 0.4496982458334442 0 -0.0096817495363582095 0.46276316706078802 0 -0.01490196311102108 0.4496982458334442 0 0.0028521845487759082 0.45637229131553109 0 -0.0096817495363582095 0.46276316706078802 0 0.0053271639523440693 0.4729643893840601 0 0.0028521845487759082 0.45637229131553109 0 -0.01490196311102108 0.4496982458334442 0 0.00037720514520743698 0.43978019324700213 0 0.0028521845487759082 0.45637229131553109 0 -0.01490196311102108 0.4496982458334442 0 0.00037720514520743698 0.43978019324700213 0 -0.012891616289909509 0.43602504138223619 0 -0.01490196311102108 0.4496982458334442 0 0.00037720514520743698 0.43978019324700213 0 -0.0074484094115179781 0.48578015025658661 0 -0.01588340912082908 0.5 0 0.009359961924063475 0.49999999999999978 0 -0.01882958861991671 0.47345240634817998 0 0.0053271639523440693 0.4729643893840601 0 -0.0096817495363582095 0.46276316706078802 0 -0.01882958861991671 0.47345240634817998 0 0.0053271639523440693 0.4729643893840601 0 -0.0074484094115179781 0.48578015025658661 0 -0.01882958861991671 0.47345240634817998 0 0.0053271639523440693 0.4729643893840601 0 -0.03018113136724903 0.45961629841988721 0 -0.01882958861991671 0.47345240634817998 0 -0.04298634119217741 0.47394042331230068 0 -0.0074484094115179781 0.48578015025658661 0 -0.01882958861991671 0.47345240634817998 0 -0.030656240926334771 0.48615670687227958 0 -0.01882958861991671 0.47345240634817998 0 -0.04298634119217741 0.47394042331230068 0 -0.01882958861991671 0.47345240634817998 0 -0.030656240926334771 0.48615670687227958 0 -0.04298634119217741 0.47394042331230068 0 -0.01588340912082908 0.5 0 -0.030656240926334771 0.48615670687227958 0 -0.041126780165721577 0.5 0 -0.0074484094115179781 0.48578015025658661 0 -0.01588340912082908 0.5 0 -0.030656240926334771 0.48615670687227958 0 -0.030656240926334771 0.48615670687227958 0 -0.041126780165721577 0.5 0 -0.054540542498636657 0.48701811289727709 0 -0.030656240926334771 0.48615670687227958 0 -0.04298634119217741 0.47394042331230068 0 -0.054540542498636657 0.48701811289727709 0 -0.04298634119217741 0.47394042331230068 0 -0.054540542498636657 0.48701811289727709 0 -0.067143093764438208 0.47442844027642161 0 -0.04298634119217741 0.47394042331230068 0 -0.067143093764438208 0.47442844027642161 0 -0.041126780165721577 0.5 0 -0.054540542498636657 0.48701811289727709 0 -0.06637015121061407 0.5 0 -0.054540542498636657 0.48701811289727709 0 -0.06637015121061407 0.5 0 -0.078960647732534001 0.48758310692266099 0 -0.078960647732534001 0.48758310692266099 0 -0.091613522255506563 0.5 0 -0.091299846336699075 0.47491645724054232 0 -0.06637015121061407 0.5 0 -0.078960647732534001 0.48758310692266099 0 -0.091613522255506563 0.5 0 -0.078960647732534001 0.48758310692266099 0 -0.091299846336699075 0.47491645724054232 0 -0.067143093764438208 0.47442844027642161 0 -0.091299846336699075 0.47491645724054232 0 -0.067143093764438208 0.47442844027642161 0 -0.085769859734319776 0.46035581716565871 0 -0.091299846336699075 0.47491645724054232 0 -0.067143093764438208 0.47442844027642161 0 -0.054540542498636657 0.48701811289727709 0 -0.078960647732534001 0.48758310692266099 0 -0.067143093764438208 0.47442844027642161 0 -0.053362882573180281 0.45177845751529228 0 -0.067143093764438208 0.47442844027642161 0 -0.072807364309647141 0.45158746034542763 0 -0.067143093764438208 0.47442844027642161 0 -0.072807364309647141 0.45158746034542763 0 -0.085769859734319776 0.46035581716565871 0 -0.069083393571780241 0.43406475447140008 0 -0.072807364309647141 0.45158746034542763 0 -0.086413144122689703 0.44482204859910018 0 -0.069083393571780241 0.43406475447140008 0 -0.053362882573180281 0.45177845751529228 0 -0.072807364309647141 0.45158746034542763 0 -0.072807364309647141 0.45158746034542763 0 -0.086413144122689703 0.44482204859910018 0 -0.085769859734319776 0.46035581716565871 0 -0.091299846336699075 0.47491645724054232 0 -0.085769859734319776 0.46035581716565871 0 -0.1021717610595794 0.46031051239070903 0 -0.086413144122689703 0.44482204859910018 0 -0.085769859734319776 0.46035581716565871 0 -0.1021717610595794 0.46031051239070903 0 -0.1021717610595794 0.46031051239070903 0 -0.1018116934774906 0.43809782823520832 0 -0.1176911668246482 0.44894968241759448 0 -0.1021717610595794 0.46031051239070903 0 -0.1018116934774906 0.43809782823520832 0 -0.086413144122689703 0.44482204859910018 0 -0.1021717610595794 0.46031051239070903 0 -0.1018116934774906 0.43809782823520832 0 -0.1271798157940201 0.42729928695529362 0 -0.1018116934774906 0.43809782823520832 0 -0.1176911668246482 0.44894968241759448 0 -0.12564656460162221 0.47194298579156202 0 -0.1021717610595794 0.46031051239070903 0 -0.1176911668246482 0.44894968241759448 0 -0.12564656460162221 0.47194298579156202 0 -0.1021717610595794 0.46031051239070903 0 -0.10551771751076119 0.4814339910845627 0 -0.12564656460162221 0.47194298579156202 0 -0.1168568933003991 0.5 0 -0.10551771751076119 0.4814339910845627 0 -0.091613522255506563 0.5 0 -0.091299846336699075 0.47491645724054232 0 -0.10551771751076119 0.4814339910845627 0 -0.091613522255506563 0.5 0 -0.1168568933003991 0.5 0 -0.10551771751076119 0.4814339910845627 0 -0.091299846336699075 0.47491645724054232 0 -0.1021717610595794 0.46031051239070903 0 -0.10551771751076119 0.4814339910845627 0 -0.1650859125469489 0.071469012918039296 0 -0.17133877103363879 0.097994898800678673 0 -0.1551448492080473 0.090372730164318099 0 -0.1828007268820192 0.08558131558030245 0 -0.17968635119849649 0.062234966616224623 0 -0.19509633101276611 0.070403039527384192 0 -0.1650859125469489 0.071469012918039296 0 -0.1828007268820192 0.08558131558030245 0 -0.17968635119849649 0.062234966616224623 0 -0.1650859125469489 0.071469012918039296 0 -0.1828007268820192 0.08558131558030245 0 -0.17133877103363879 0.097994898800678673 0 -0.1650859125469489 0.071469012918039296 0 -0.1828007268820192 0.08558131558030245 0 -0.1828007268820192 0.08558131558030245 0 -0.17133877103363879 0.097994898800678673 0 -0.19395846236385131 0.099482358864195791 0 -0.18137177784986949 0.1115894658943707 0 -0.17133877103363879 0.097994898800678673 0 -0.19395846236385131 0.099482358864195791 0 -0.1817709729014412 0.1216831072979858 0 -0.158189289524477 0.113600711466744 0 -0.1805313429192465 0.13381263736204249 0 -0.1817709729014412 0.1216831072979858 0 -0.18137177784986949 0.1115894658943707 0 -0.158189289524477 0.113600711466744 0 -0.1817709729014412 0.1216831072979858 0 -0.18137177784986949 0.1115894658943707 0 -0.19320157468130311 0.111291672767031 0 -0.18137177784986949 0.1115894658943707 0 -0.158189289524477 0.113600711466744 0 -0.158189289524477 0.113600711466744 0 -0.1805313429192465 0.13381263736204249 0 -0.18137177784986949 0.1115894658943707 0 -0.158189289524477 0.113600711466744 0 -0.17133877103363879 0.097994898800678673 0 -0.158189289524477 0.113600711466744 0 -0.17133877103363879 0.097994898800678673 0 -0.1551448492080473 0.090372730164318099 0 -0.158189289524477 0.113600711466744 0 -0.136500387840502 0.093979664741936642 0 -0.1551448492080473 0.090372730164318099 0 -0.158189289524477 0.113600711466744 0 -0.1299490763653168 0.1160507506032664 0 -0.136500387840502 0.093979664741936642 0 -0.158189289524477 0.113600711466744 0 -0.136500387840502 0.093979664741936642 0 -0.158189289524477 0.113600711466744 0 -0.1299490763653168 0.1160507506032664 0 -0.158189289524477 0.113600711466744 0 -0.1299490763653168 0.1160507506032664 0 -0.15235042087750611 0.1308294812585058 0 -0.1299490763653168 0.1160507506032664 0 -0.15235042087750611 0.1308294812585058 0 -0.12721695531630731 0.12525514860580869 0 -0.1299490763653168 0.1160507506032664 0 -0.12721695531630731 0.12525514860580869 0 -0.1299490763653168 0.1160507506032664 0 -0.12721695531630731 0.12525514860580869 0 -0.1184153662018054 0.1233030506956697 0 -0.1299490763653168 0.1160507506032664 0 -0.136500387840502 0.093979664741936642 0 -0.12411649597171361 0.1008762861716014 0 -0.1299490763653168 0.1160507506032664 0 -0.136500387840502 0.093979664741936642 0 -0.136500387840502 0.093979664741936642 0 -0.14193574302619091 0.075668187498856163 0 -0.1243425397447641 0.08298096554381712 0 -0.136500387840502 0.093979664741936642 0 -0.1243425397447641 0.08298096554381712 0 -0.136500387840502 0.093979664741936642 0 -0.1243425397447641 0.08298096554381712 0 -0.12411649597171361 0.1008762861716014 0 -0.136500387840502 0.093979664741936642 0 -0.14193574302619091 0.075668187498856163 0 -0.136500387840502 0.093979664741936642 0 -0.1551448492080473 0.090372730164318099 0 -0.14193574302619091 0.075668187498856163 0 -0.1650859125469489 0.071469012918039296 0 -0.1551448492080473 0.090372730164318099 0 -0.14193574302619091 0.075668187498856163 0 -0.14193574302619091 0.075668187498856163 0 -0.13573167074907991 0.059370649620210311 0 -0.14737109821187899 0.057356710255775503 0 -0.1650859125469489 0.071469012918039296 0 -0.14737109821187899 0.057356710255775503 0 -0.14193574302619091 0.075668187498856163 0 -0.14737109821187899 0.057356710255775503 0 -0.1650859125469489 0.071469012918039296 0 -0.14193574302619091 0.075668187498856163 0 -0.14737109821187899 0.057356710255775503 0 -0.14193574302619091 0.075668187498856163 0 -0.13016824260892401 0.067229841304887863 0 -0.13573167074907991 0.059370649620210311 0 -0.14193574302619091 0.075668187498856163 0 -0.1261097761478473 0.073665903059318333 0 -0.13016824260892401 0.067229841304887863 0 -0.14193574302619091 0.075668187498856163 0 -0.1261097761478473 0.073665903059318333 0 -0.1243425397447641 0.08298096554381712 0 -0.1261097761478473 0.073665903059318333 0 -0.13016824260892401 0.067229841304887863 0 -0.1217887293392805 0.064899453336333693 0 -0.13016824260892401 0.067229841304887863 0 -0.1252825019001855 0.057553411651729003 0 -0.1217887293392805 0.064899453336333693 0 -0.13016824260892401 0.067229841304887863 0 -0.1252825019001855 0.057553411651729003 0 -0.13573167074907991 0.059370649620210311 0 -0.13573167074907991 0.059370649620210311 0 -0.13093618953821079 0.044264029686706431 0 -0.14737109821187899 0.057356710255775503 0 -0.13093618953821079 0.044264029686706431 0 -0.14737109821187899 0.057356710255775503 0 -0.1252825019001855 0.057553411651729003 0 -0.13573167074907991 0.059370649620210311 0 -0.13093618953821079 0.044264029686706431 0 -0.13093618953821079 0.044264029686706431 0 -0.13743136089786601 0.02284067657422385 0 -0.1145012808645442 0.03117134911763542 0 -0.1548404816063749 0.032192679686401847 0 -0.14737109821187899 0.057356710255775503 0 -0.13093618953821079 0.044264029686706431 0 -0.1548404816063749 0.032192679686401847 0 -0.13743136089786601 0.02284067657422385 0 -0.13093618953821079 0.044264029686706431 0 -0.1548404816063749 0.032192679686401847 0 -0.14737109821187899 0.057356710255775503 0 -0.1548404816063749 0.032192679686401847 0 -0.14737109821187899 0.057356710255775503 0 -0.16558126270013651 0.052672859813599239 0 -0.1225176250232036 -0.0078700669593853856 0 -0.13951651307915861 0.001818242699473991 0 -0.1239055540856334 0.012388859614741119 0 -0.13951651307915861 0.001818242699473991 0 -0.13743136089786601 0.02284067657422385 0 -0.1239055540856334 0.012388859614741119 0 -0.13743136089786601 0.02284067657422385 0 -0.1239055540856334 0.012388859614741119 0 -0.1145012808645442 0.03117134911763542 0 -0.1548404816063749 0.032192679686401847 0 -0.13743136089786601 0.02284067657422385 0 -0.16230986500086869 0.0070286491170276494 0 -0.13951651307915861 0.001818242699473991 0 -0.13743136089786601 0.02284067657422385 0 -0.16230986500086869 0.0070286491170276494 0 -0.1548404816063749 0.032192679686401847 0 -0.16230986500086869 0.0070286491170276494 0 -0.1548404816063749 0.032192679686401847 0 -0.16230986500086869 0.0070286491170276494 0 -0.18059223271722119 0.018083821515927669 0 -0.1548404816063749 0.032192679686401847 0 -0.18059223271722119 0.018083821515927669 0 -0.18092246993698391 0.040110929591554267 0 -0.18059223271722119 0.018083821515927669 0 -0.18092246993698391 0.040110929591554267 0 -0.19843701319883239 0.026729870216862829 0 -0.16230986500086869 0.0070286491170276494 0 -0.18059223271722119 0.018083821515927669 0 -0.18814632116678751 0.0068087131913439269 0 -0.1822461022999366 -0.0040686225419137153 0 -0.16230986500086869 0.0070286491170276494 0 -0.18814632116678751 0.0068087131913439269 0 -0.1650859125469489 0.071469012918039296 0 -0.14737109821187899 0.057356710255775503 0 -0.16558126270013651 0.052672859813599239 0 -0.1650859125469489 0.071469012918039296 0 -0.16558126270013651 0.052672859813599239 0 -0.17968635119849649 0.062234966616224623 0 -0.1548404816063749 0.032192679686401847 0 -0.16558126270013651 0.052672859813599239 0 -0.18092246993698391 0.040110929591554267 0 -0.16558126270013651 0.052672859813599239 0 -0.18092246993698391 0.040110929591554267 0 -0.17968635119849649 0.062234966616224623 0 -0.18092246993698391 0.040110929591554267 0 -0.17968635119849649 0.062234966616224623 0 -0.19306984855030351 0.053473800385915038 0 -0.17968635119849649 0.062234966616224623 0 -0.19306984855030351 0.053473800385915038 0 -0.19509633101276611 0.070403039527384192 0 -0.19306984855030351 0.053473800385915038 0 -0.2058529602209597 0.060598426267412193 0 -0.19509633101276611 0.070403039527384192 0 -0.19306984855030351 0.053473800385915038 0 -0.1972825560638197 0.041590094489215981 0 -0.20606530158137129 0.048642593667847359 0 -0.19306984855030351 0.053473800385915038 0 -0.2058529602209597 0.060598426267412193 0 -0.20606530158137129 0.048642593667847359 0 -0.18092246993698391 0.040110929591554267 0 -0.1972825560638197 0.041590094489215981 0 -0.19843701319883239 0.026729870216862829 0 -0.18092246993698391 0.040110929591554267 0 -0.19306984855030351 0.053473800385915038 0 -0.1972825560638197 0.041590094489215981 0 -0.1972825560638197 0.041590094489215981 0 -0.2104481116895032 0.038739537795765298 0 -0.19843701319883239 0.026729870216862829 0 -0.2104481116895032 0.038739537795765298 0 -0.21509716004258361 0.045395214143597998 0 -0.20606530158137129 0.048642593667847359 0 -0.1972825560638197 0.041590094489215981 0 -0.2104481116895032 0.038739537795765298 0 -0.20606530158137129 0.048642593667847359 0 -0.2104481116895032 0.038739537795765298 0 -0.21235480247458011 0.025550395079637332 0 -0.2242587843653604 0.036680037390428279 0 -0.2104481116895032 0.038739537795765298 0 -0.21509716004258361 0.045395214143597998 0 -0.2242587843653604 0.036680037390428279 0 -0.21509716004258361 0.045395214143597998 0 -0.21464117292105839 0.052058488925177691 0 -0.22072276509895561 0.051854434463707973 0 -0.21509716004258361 0.045395214143597998 0 -0.21464117292105839 0.052058488925177691 0 -0.20606530158137129 0.048642593667847359 0 -0.21464117292105839 0.052058488925177691 0 -0.2058529602209597 0.060598426267412193 0 -0.2172527643019499 0.064086521518085346 0 -0.21464117292105839 0.052058488925177691 0 -0.22072276509895561 0.051854434463707973 0 -0.2172527643019499 0.064086521518085346 0 -0.21464117292105839 0.052058488925177691 0 -0.2058529602209597 0.060598426267412193 0 -0.20606530158137129 0.048642593667847359 0 -0.18059223271722119 0.018083821515927669 0 -0.18814632116678751 0.0068087131913439269 0 -0.1966724655823516 0.010707066133075279 0 -0.1955982016858957 -0.001494854227324932 0 -0.1966724655823516 0.010707066133075279 0 -0.20503895199276609 0.0050835197621804653 0 -0.1955982016858957 -0.001494854227324932 0 -0.18814632116678751 0.0068087131913439269 0 -0.1966724655823516 0.010707066133075279 0 -0.1822461022999366 -0.0040686225419137153 0 -0.1955982016858957 -0.001494854227324932 0 -0.18814632116678751 0.0068087131913439269 0 -0.1966724655823516 0.010707066133075279 0 -0.19843701319883239 0.026729870216862829 0 -0.20797731075402101 0.01498505742538795 0 -0.18059223271722119 0.018083821515927669 0 -0.1966724655823516 0.010707066133075279 0 -0.19843701319883239 0.026729870216862829 0 -0.21235480247458011 0.025550395079637332 0 -0.2192895061442286 0.01052114656088919 0 -0.2242587843653604 0.036680037390428279 0 -0.2104481116895032 0.038739537795765298 0 -0.19843701319883239 0.026729870216862829 0 -0.21235480247458011 0.025550395079637332 0 -0.21235480247458011 0.025550395079637332 0 -0.20797731075402101 0.01498505742538795 0 -0.2192895061442286 0.01052114656088919 0 -0.19843701319883239 0.026729870216862829 0 -0.21235480247458011 0.025550395079637332 0 -0.20797731075402101 0.01498505742538795 0 -0.20565727579733331 -0.0093008170811251616 0 -0.20503895199276609 0.0050835197621804653 0 -0.2192895061442286 0.01052114656088919 0 -0.20565727579733331 -0.0093008170811251616 0 -0.2192895061442286 0.01052114656088919 0 -0.21544602300881169 -0.0097114206793520678 0 -0.2192895061442286 0.01052114656088919 0 -0.1966724655823516 0.010707066133075279 0 -0.20797731075402101 0.01498505742538795 0 -0.20503895199276609 0.0050835197621804653 0 -0.20797731075402101 0.01498505742538795 0 -0.20503895199276609 0.0050835197621804653 0 -0.2192895061442286 0.01052114656088919 0 -0.22020751524031459 -0.011701023495682489 0 -0.22998858952808501 0.015627248860624859 0 -0.22020751524031459 -0.011701023495682489 0 -0.2192895061442286 0.01052114656088919 0 -0.22998858952808501 0.015627248860624859 0 -0.2289503246902751 -0.0048591373300140546 0 -0.23636857585995191 -6.0594713063509317e-05 0 -0.22998858952808501 0.015627248860624859 0 -0.2192895061442286 0.01052114656088919 0 -0.2242587843653604 0.036680037390428279 0 -0.23558717393393699 0.034218793252339473 0 -0.2192895061442286 0.01052114656088919 0 -0.2242587843653604 0.036680037390428279 0 -0.2192895061442286 0.01052114656088919 0 -0.23558717393393699 0.034218793252339473 0 -0.2192895061442286 0.01052114656088919 0 -0.22998858952808501 0.015627248860624859 0 -0.23558717393393699 0.034218793252339473 0 -0.22998858952808501 0.015627248860624859 0 -0.23976966381585521 0.042955521216932288 0 -0.22998858952808501 0.015627248860624859 0 -0.23976966381585521 0.042955521216932288 0 -0.23558717393393699 0.034218793252339473 0 -0.22998858952808501 0.015627248860624859 0 -0.244139310530673 0.023170507220456039 0 -0.23976966381585521 0.042955521216932288 0 -0.22998858952808501 0.015627248860624859 0 -0.244139310530673 0.023170507220456039 0 -0.23905688494574209 0.0093122537650123949 0 -0.244139310530673 0.023170507220456039 0 -0.23905688494574209 0.0093122537650123949 0 -0.2485089572454911 0.003385493223979923 0 -0.25449375083442433 0.01508231230697398 0 -0.244139310530673 0.023170507220456039 0 -0.2485089572454911 0.003385493223979923 0 -0.244139310530673 0.023170507220456039 0 -0.2485089572454911 0.003385493223979923 0 -0.23636857585995191 -6.0594713063509317e-05 0 -0.22998858952808501 0.015627248860624859 0 -0.23905688494574209 0.0093122537650123949 0 -0.23636857585995191 -6.0594713063509317e-05 0 -0.23905688494574209 0.0093122537650123949 0 -0.2485089572454911 0.003385493223979923 0 -0.2242587843653604 0.036680037390428279 0 -0.22922806258649281 0.062838928219967255 0 -0.22072276509895561 0.051854434463707973 0 -0.2242587843653604 0.036680037390428279 0 -0.22922806258649281 0.062838928219967255 0 -0.2242587843653604 0.036680037390428279 0 -0.23119421887908059 0.044485397080740618 0 -0.22922806258649281 0.062838928219967255 0 -0.23371429979803221 0.052481272133774022 0 -0.23119421887908059 0.044485397080740618 0 -0.22922806258649281 0.062838928219967255 0 -0.23371429979803221 0.052481272133774022 0 -0.23519445388284541 0.063671290355531596 0 -0.22922806258649281 0.062838928219967255 0 -0.22072276509895561 0.051854434463707973 0 -0.22922806258649281 0.062838928219967255 0 -0.2172527643019499 0.064086521518085346 0 -0.21509716004258361 0.045395214143597998 0 -0.22072276509895561 0.051854434463707973 0 -0.2242587843653604 0.036680037390428279 0 -0.2242587843653604 0.036680037390428279 0 -0.23119421887908059 0.044485397080740618 0 -0.23558717393393699 0.034218793252339473 0 -0.244139310530673 0.023170507220456039 0 -0.23976966381585521 0.042955521216932288 0 -0.25369422104472689 0.047656163598955442 0 -0.244139310530673 0.023170507220456039 0 -0.23976966381585521 0.042955521216932288 0 -0.23119421887908059 0.044485397080740618 0 -0.23976966381585521 0.042955521216932288 0 -0.23558717393393699 0.034218793252339473 0 -0.23371429979803221 0.052481272133774022 0 -0.23119421887908059 0.044485397080740618 0 -0.23976966381585521 0.042955521216932288 0 -0.23976966381585521 0.042955521216932288 0 -0.2457422861220703 0.059642997895202443 0 -0.23976966381585521 0.042955521216932288 0 -0.23519445388284541 0.063671290355531596 0 -0.25369422104472689 0.047656163598955442 0 -0.23976966381585521 0.042955521216932288 0 -0.2457422861220703 0.059642997895202443 0 -0.23371429979803221 0.052481272133774022 0 -0.23976966381585521 0.042955521216932288 0 -0.23519445388284541 0.063671290355531596 0 -0.23976966381585521 0.042955521216932288 0 -0.2457422861220703 0.059642997895202443 0 -0.23519445388284541 0.063671290355531596 0 -0.24247462264651781 0.071210221929565318 0 -0.23519445388284541 0.063671290355531596 0 -0.23061924394983579 0.084387059494130987 0 -0.2527182247147155 0.068729904940993694 0 -0.2457422861220703 0.059642997895202443 0 -0.24247462264651781 0.071210221929565318 0 -0.2527182247147155 0.068729904940993694 0 -0.24247462264651781 0.071210221929565318 0 -0.24678651949772781 0.081363788068217424 0 -0.2457422861220703 0.059642997895202443 0 -0.24247462264651781 0.071210221929565318 0 -0.23519445388284541 0.063671290355531596 0 -0.24247462264651781 0.071210221929565318 0 -0.24678651949772781 0.081363788068217424 0 -0.23061924394983579 0.084387059494130987 0 -0.24678651949772781 0.081363788068217424 0 -0.23061924394983579 0.084387059494130987 0 -0.24295030439022669 0.097440016830348433 0 -0.23061924394983579 0.084387059494130987 0 -0.21840387764227889 0.084638807551882703 0 -0.22604403401682621 0.10510282863273029 0 -0.23061924394983579 0.084387059494130987 0 -0.22436199165772119 0.073972063508297409 0 -0.21840387764227889 0.084638807551882703 0 -0.23519445388284541 0.063671290355531596 0 -0.23061924394983579 0.084387059494130987 0 -0.23519445388284541 0.063671290355531596 0 -0.23061924394983579 0.084387059494130987 0 -0.22436199165772119 0.073972063508297409 0 -0.23519445388284541 0.063671290355531596 0 -0.22922806258649281 0.062838928219967255 0 -0.22436199165772119 0.073972063508297409 0 -0.22922806258649281 0.062838928219967255 0 -0.22436199165772119 0.073972063508297409 0 -0.2172527643019499 0.064086521518085346 0 -0.2058529602209597 0.060598426267412193 0 -0.20964267840163969 0.07592513510500018 0 -0.19509633101276611 0.070403039527384192 0 -0.2058529602209597 0.060598426267412193 0 -0.2172527643019499 0.064086521518085346 0 -0.20964267840163969 0.07592513510500018 0 -0.22436199165772119 0.073972063508297409 0 -0.2172527643019499 0.064086521518085346 0 -0.20964267840163969 0.07592513510500018 0 -0.20964267840163969 0.07592513510500018 0 -0.21840387764227889 0.084638807551882703 0 -0.20870482571454049 0.093841108995618289 0 -0.20964267840163969 0.07592513510500018 0 -0.19804060487496331 0.085046591614500178 0 -0.20870482571454049 0.093841108995618289 0 -0.22436199165772119 0.073972063508297409 0 -0.20964267840163969 0.07592513510500018 0 -0.21840387764227889 0.084638807551882703 0 -0.19804060487496331 0.085046591614500178 0 -0.19395846236385131 0.099482358864195791 0 -0.20870482571454049 0.093841108995618289 0 -0.1828007268820192 0.08558131558030245 0 -0.19804060487496331 0.085046591614500178 0 -0.19395846236385131 0.099482358864195791 0 -0.1828007268820192 0.08558131558030245 0 -0.19804060487496331 0.085046591614500178 0 -0.19509633101276611 0.070403039527384192 0 -0.20964267840163969 0.07592513510500018 0 -0.19804060487496331 0.085046591614500178 0 -0.19509633101276611 0.070403039527384192 0 -0.19310121003729669 0.12312479157645401 0 -0.19320157468130311 0.111291672767031 0 -0.20567107715534719 0.1124369457908658 0 -0.19310121003729669 0.12312479157645401 0 -0.20567107715534719 0.1124369457908658 0 -0.20440246232120721 0.12456156608540631 0 -0.19310121003729669 0.12312479157645401 0 -0.20567107715534719 0.1124369457908658 0 -0.1817709729014412 0.1216831072979858 0 -0.19310121003729669 0.12312479157645401 0 -0.19320157468130311 0.111291672767031 0 -0.18137177784986949 0.1115894658943707 0 -0.19320157468130311 0.111291672767031 0 -0.19395846236385131 0.099482358864195791 0 -0.19395846236385131 0.099482358864195791 0 -0.20870482571454049 0.093841108995618289 0 -0.20567107715534719 0.1124369457908658 0 -0.19320157468130311 0.111291672767031 0 -0.19395846236385131 0.099482358864195791 0 -0.20567107715534719 0.1124369457908658 0 -0.21840387764227889 0.084638807551882703 0 -0.20870482571454049 0.093841108995618289 0 -0.22604403401682621 0.10510282863273029 0 -0.20870482571454049 0.093841108995618289 0 -0.20567107715534719 0.1124369457908658 0 -0.22604403401682621 0.10510282863273029 0 -0.20567107715534719 0.1124369457908658 0 -0.22277225600342099 0.11749944523071 0 -0.2156335797135244 0.12647065652175521 0 -0.20567107715534719 0.1124369457908658 0 -0.22277225600342099 0.11749944523071 0 -0.22604403401682621 0.10510282863273029 0 -0.20567107715534719 0.1124369457908658 0 -0.20440246232120721 0.12456156608540631 0 -0.2156335797135244 0.12647065652175521 0 -0.22277225600342099 0.11749944523071 0 -0.2243282798094397 0.1246370275608968 0 -0.23255089657982539 0.12330823906905559 0 -0.22277225600342099 0.11749944523071 0 -0.2243282798094397 0.1246370275608968 0 -0.2156335797135244 0.12647065652175521 0 -0.22277225600342099 0.11749944523071 0 -0.2321665574436409 0.11314341317176541 0 -0.22604403401682621 0.10510282863273029 0 -0.2321665574436409 0.11314341317176541 0 -0.23255089657982539 0.12330823906905559 0 -0.2365152962279054 0.1223665360959828 0 -0.22277225600342099 0.11749944523071 0 -0.2321665574436409 0.11314341317176541 0 -0.23255089657982539 0.12330823906905559 0 -0.2321665574436409 0.11314341317176541 0 -0.22604403401682621 0.10510282863273029 0 -0.24295030439022669 0.097440016830348433 0 -0.23061924394983579 0.084387059494130987 0 -0.22604403401682621 0.10510282863273029 0 -0.24295030439022669 0.097440016830348433 0 -0.23061924394983579 0.084387059494130987 0 -0.22604403401682621 0.10510282863273029 0 -0.24295030439022669 0.097440016830348433 0 -0.2365152962279054 0.1223665360959828 0 -0.26223438127626608 0.1162572280027639 0 -0.2365152962279054 0.1223665360959828 0 -0.2465338238534196 0.13381255237641049 0 -0.2321665574436409 0.11314341317176541 0 -0.24295030439022669 0.097440016830348433 0 -0.2365152962279054 0.1223665360959828 0 -0.26223438127626608 0.1162572280027639 0 -0.2365152962279054 0.1223665360959828 0 -0.24295030439022669 0.097440016830348433 0 -0.24856657473641469 0.110501558511578 0 -0.2365152962279054 0.1223665360959828 0 -0.26223438127626608 0.1162572280027639 0 -0.24856657473641469 0.110501558511578 0 -0.2365152962279054 0.1223665360959828 0 -0.23255089657982539 0.12330823906905559 0 -0.2365152962279054 0.1223665360959828 0 -0.2365152962279054 0.1223665360959828 0 -0.2465338238534196 0.13381255237641049 0 -0.2312569300961855 0.14273523826105311 0 -0.23255089657982539 0.12330823906905559 0 -0.2365152962279054 0.1223665360959828 0 -0.2312569300961855 0.14273523826105311 0 -0.23255089657982539 0.12330823906905559 0 -0.2243985854799522 0.1325792722291001 0 -0.2312569300961855 0.14273523826105311 0 -0.2243282798094397 0.1246370275608968 0 -0.23255089657982539 0.12330823906905559 0 -0.2243985854799522 0.1325792722291001 0 -0.2365152962279054 0.1223665360959828 0 -0.2312569300961855 0.14273523826105311 0 -0.2243985854799522 0.1325792722291001 0 -0.2312569300961855 0.14273523826105311 0 -0.2186669516460111 0.14341158768917259 0 -0.2243985854799522 0.1325792722291001 0 -0.2164460685114106 0.13519277714117681 0 -0.2186669516460111 0.14341158768917259 0 -0.2243985854799522 0.1325792722291001 0 -0.2156335797135244 0.12647065652175521 0 -0.2164460685114106 0.13519277714117681 0 -0.2243282798094397 0.1246370275608968 0 -0.2243985854799522 0.1325792722291001 0 -0.2156335797135244 0.12647065652175521 0 -0.2259985639644625 0.16310394042612261 0 -0.2186669516460111 0.14341158768917259 0 -0.2312569300961855 0.14273523826105311 0 -0.2259985639644625 0.16310394042612261 0 -0.2259985639644625 0.16310394042612261 0 -0.21738261789778129 0.1575356837418446 0 -0.2186669516460111 0.14341158768917259 0 -0.2312569300961855 0.14273523826105311 0 -0.24432108978296699 0.14886200394145019 0 -0.2259985639644625 0.16310394042612261 0 -0.2312569300961855 0.14273523826105311 0 -0.2259985639644625 0.16310394042612261 0 -0.2186669516460111 0.14341158768917259 0 -0.2465338238534196 0.13381255237641049 0 -0.2312569300961855 0.14273523826105311 0 -0.24432108978296699 0.14886200394145019 0 -0.24432108978296699 0.14886200394145019 0 -0.22702123628602031 0.1658507883520314 0 -0.25851063111936179 0.1572570764597257 0 -0.24432108978296699 0.14886200394145019 0 -0.24635262343780759 0.16992164813398811 0 -0.24432108978296699 0.14886200394145019 0 -0.24635262343780759 0.16992164813398811 0 -0.22702123628602031 0.1658507883520314 0 -0.250219269816222 0.1876727605737494 0 -0.24635262343780759 0.16992164813398811 0 -0.23430134910752409 0.18540481595454111 0 -0.24635262343780759 0.16992164813398811 0 -0.23430134910752409 0.18540481595454111 0 -0.22702123628602031 0.1658507883520314 0 -0.22352045414246111 0.17270309720455579 0 -0.2168513571222225 0.19853637840110161 0 -0.23430134910752409 0.18540481595454111 0 -0.22702123628602031 0.1658507883520314 0 -0.23430134910752409 0.18540481595454111 0 -0.2287181027733626 0.17740519360998949 0 -0.22702123628602031 0.1658507883520314 0 -0.2287181027733626 0.17740519360998949 0 -0.22352045414246111 0.17270309720455579 0 -0.2168513571222225 0.19853637840110161 0 -0.23430134910752409 0.18540481595454111 0 -0.2287181027733626 0.17740519360998949 0 -0.2168513571222225 0.19853637840110161 0 -0.22352045414246111 0.17270309720455579 0 -0.2217106723362442 0.1710658629223025 0 -0.2110739168747803 0.18151135862518691 0 -0.2287181027733626 0.17740519360998949 0 -0.22352045414246111 0.17270309720455579 0 -0.2247012953092927 0.16812901441364331 0 -0.2287181027733626 0.17740519360998949 0 -0.22352045414246111 0.17270309720455579 0 -0.22352045414246111 0.17270309720455579 0 -0.2217106723362442 0.1710658629223025 0 -0.24432108978296699 0.14886200394145019 0 -0.22702123628602031 0.1658507883520314 0 -0.2259985639644625 0.16310394042612261 0 -0.2287181027733626 0.17740519360998949 0 -0.22702123628602031 0.1658507883520314 0 -0.2247012953092927 0.16812901441364331 0 -0.22702123628602031 0.1658507883520314 0 -0.2247012953092927 0.16812901441364331 0 -0.2259985639644625 0.16310394042612261 0 -0.2247012953092927 0.16812901441364331 0 -0.2259985639644625 0.16310394042612261 0 -0.2247012953092927 0.16812901441364331 0 -0.2217106723362442 0.1710658629223025 0 -0.21738261789778129 0.1575356837418446 0 -0.22702123628602031 0.1658507883520314 0 -0.2259985639644625 0.16310394042612261 0 -0.22702123628602031 0.1658507883520314 0 -0.2247012953092927 0.16812901441364331 0 -0.22352045414246111 0.17270309720455579 0 -0.2247012953092927 0.16812901441364331 0 -0.2217106723362442 0.1710658629223025 0 -0.22352045414246111 0.17270309720455579 0 -0.2247012953092927 0.16812901441364331 0 -0.2247012953092927 0.16812901441364331 0 -0.2217106723362442 0.1710658629223025 0 -0.2247012953092927 0.16812901441364331 0 -0.2259985639644625 0.16310394042612261 0 -0.21738261789778129 0.1575356837418446 0 -0.2217106723362442 0.1710658629223025 0 -0.20549046595568149 0.1563921172473739 0 -0.2217106723362442 0.1710658629223025 0 -0.21738261789778129 0.1575356837418446 0 -0.20549046595568149 0.1563921172473739 0 -0.2217106723362442 0.1710658629223025 0 -0.20549046595568149 0.1563921172473739 0 -0.2020189726565797 0.17054339483615111 0 -0.2217106723362442 0.1710658629223025 0 -0.2110739168747803 0.18151135862518691 0 -0.2020189726565797 0.17054339483615111 0 -0.22352045414246111 0.17270309720455579 0 -0.2110739168747803 0.18151135862518691 0 -0.2168513571222225 0.19853637840110161 0 -0.2217106723362442 0.1710658629223025 0 -0.2110739168747803 0.18151135862518691 0 -0.2110739168747803 0.18151135862518691 0 -0.197338159283694 0.18153022173875549 0 -0.2020189726565797 0.17054339483615111 0 -0.2110739168747803 0.18151135862518691 0 -0.197338159283694 0.18153022173875549 0 -0.20013507468091249 0.19390967869849821 0 -0.197338159283694 0.18153022173875549 0 -0.2020189726565797 0.17054339483615111 0 -0.18681853976672291 0.17448785858827379 0 -0.197338159283694 0.18153022173875549 0 -0.18838424683377389 0.18761890734680839 0 -0.18681853976672291 0.17448785858827379 0 -0.20549046595568149 0.1563921172473739 0 -0.2020189726565797 0.17054339483615111 0 -0.18830054601671881 0.15998102591723479 0 -0.2020189726565797 0.17054339483615111 0 -0.18830054601671881 0.15998102591723479 0 -0.18681853976672291 0.17448785858827379 0 -0.20549046595568149 0.1563921172473739 0 -0.18927025957511559 0.14171837157244879 0 -0.19212053354868069 0.1396500649987194 0 -0.20549046595568149 0.1563921172473739 0 -0.18830054601671881 0.15998102591723479 0 -0.18927025957511559 0.14171837157244879 0 -0.20549046595568149 0.1563921172473739 0 -0.19212053354868069 0.1396500649987194 0 -0.20772775817499139 0.14311157975244981 0 -0.20549046595568149 0.1563921172473739 0 -0.18927025957511559 0.14171837157244879 0 -0.19212053354868069 0.1396500649987194 0 -0.20772775817499139 0.14311157975244981 0 -0.18927025957511559 0.14171837157244879 0 -0.19212053354868069 0.1396500649987194 0 -0.19212053354868069 0.1396500649987194 0 -0.1853156705945001 0.13814081950011561 0 -0.19040660378560209 0.13313922769781711 0 -0.19212053354868069 0.1396500649987194 0 -0.19905285439605949 0.1346196135709454 0 -0.18927025957511559 0.14171837157244879 0 -0.19212053354868069 0.1396500649987194 0 -0.1853156705945001 0.13814081950011561 0 -0.19040660378560209 0.13313922769781711 0 -0.19212053354868069 0.1396500649987194 0 -0.1853156705945001 0.13814081950011561 0 -0.19310121003729669 0.12312479157645401 0 -0.19040660378560209 0.13313922769781711 0 -0.19905285439605949 0.1346196135709454 0 -0.19310121003729669 0.12312479157645401 0 -0.19040660378560209 0.13313922769781711 0 -0.1805313429192465 0.13381263736204249 0 -0.19310121003729669 0.12312479157645401 0 -0.20440246232120721 0.12456156608540631 0 -0.19905285439605949 0.1346196135709454 0 -0.19212053354868069 0.1396500649987194 0 -0.19905285439605949 0.1346196135709454 0 -0.20772775817499139 0.14311157975244981 0 -0.19212053354868069 0.1396500649987194 0 -0.19905285439605949 0.1346196135709454 0 -0.19905285439605949 0.1346196135709454 0 -0.20881287921803809 0.1327374168856261 0 -0.20772775817499139 0.14311157975244981 0 -0.20440246232120721 0.12456156608540631 0 -0.20881287921803809 0.1327374168856261 0 -0.2156335797135244 0.12647065652175521 0 -0.20440246232120721 0.12456156608540631 0 -0.19905285439605949 0.1346196135709454 0 -0.20881287921803809 0.1327374168856261 0 -0.20881287921803809 0.1327374168856261 0 -0.2156335797135244 0.12647065652175521 0 -0.2164460685114106 0.13519277714117681 0 -0.2164460685114106 0.13519277714117681 0 -0.2186669516460111 0.14341158768917259 0 -0.20772775817499139 0.14311157975244981 0 -0.20881287921803809 0.1327374168856261 0 -0.2164460685114106 0.13519277714117681 0 -0.20772775817499139 0.14311157975244981 0 -0.21738261789778129 0.1575356837418446 0 -0.2186669516460111 0.14341158768917259 0 -0.20772775817499139 0.14311157975244981 0 -0.21738261789778129 0.1575356837418446 0 -0.20549046595568149 0.1563921172473739 0 -0.20772775817499139 0.14311157975244981 0 -0.23846944700344719 0.25333284921678778 0 -0.22618736891613589 0.23735790597687459 0 -0.2488615747505305 0.22451287115956081 0 -0.25847225025722792 0.25032667634972777 0 -0.23846944700344719 0.25333284921678778 0 -0.2488615747505305 0.22451287115956081 0 -0.22618736891613589 0.23735790597687459 0 -0.2488615747505305 0.22451287115956081 0 -0.22618736891613589 0.23735790597687459 0 -0.2488615747505305 0.22451287115956081 0 -0.2289723643569431 0.2146351301456188 0 -0.22618736891613589 0.23735790597687459 0 -0.2289723643569431 0.2146351301456188 0 -0.21018226010198671 0.22436965959764821 0 -0.2289723643569431 0.2146351301456188 0 -0.23026362899492389 0.1990986899049102 0 -0.2168513571222225 0.19853637840110161 0 -0.2289723643569431 0.2146351301456188 0 -0.2415814619290276 0.20495884355705091 0 -0.23026362899492389 0.1990986899049102 0 -0.2488615747505305 0.22451287115956081 0 -0.2289723643569431 0.2146351301456188 0 -0.2415814619290276 0.20495884355705091 0 -0.25588893239374888 0.20453744195192139 0 -0.2488615747505305 0.22451287115956081 0 -0.2415814619290276 0.20495884355705091 0 -0.2488615747505305 0.22451287115956081 0 -0.2415814619290276 0.20495884355705091 0 -0.23430134910752409 0.18540481595454111 0 -0.2415814619290276 0.20495884355705091 0 -0.23026362899492389 0.1990986899049102 0 -0.250219269816222 0.1876727605737494 0 -0.25588893239374888 0.20453744195192139 0 -0.2415814619290276 0.20495884355705091 0 -0.23430134910752409 0.18540481595454111 0 -0.2415814619290276 0.20495884355705091 0 -0.250219269816222 0.1876727605737494 0 -0.23430134910752409 0.18540481595454111 0 -0.2415814619290276 0.20495884355705091 0 -0.23430134910752409 0.18540481595454111 0 -0.23026362899492389 0.1990986899049102 0 -0.2168513571222225 0.19853637840110161 0 -0.2110739168747803 0.18151135862518691 0 -0.2168513571222225 0.19853637840110161 0 -0.20013507468091249 0.19390967869849821 0 -0.2168513571222225 0.19853637840110161 0 -0.20013507468091249 0.19390967869849821 0 -0.19748062296019209 0.21042074769956559 0 -0.20013507468091249 0.19390967869849821 0 -0.19748062296019209 0.21042074769956559 0 -0.1853494034714526 0.1999037001129241 0 -0.20013507468091249 0.19390967869849821 0 -0.18838424683377389 0.18761890734680839 0 -0.1853494034714526 0.1999037001129241 0 -0.197338159283694 0.18153022173875549 0 -0.20013507468091249 0.19390967869849821 0 -0.18838424683377389 0.18761890734680839 0 -0.2168513571222225 0.19853637840110161 0 -0.19748062296019209 0.21042074769956559 0 -0.21018226010198671 0.22436965959764821 0 -0.2168513571222225 0.19853637840110161 0 -0.21018226010198671 0.22436965959764821 0 -0.2289723643569431 0.2146351301456188 0 -0.2168513571222225 0.19853637840110161 0 -0.21018226010198671 0.22436965959764821 0 -0.19748062296019209 0.21042074769956559 0 -0.21018226010198671 0.22436965959764821 0 -0.1932363782841966 0.23170514131640199 0 -0.19748062296019209 0.21042074769956559 0 -0.1932363782841966 0.23170514131640199 0 -0.17906972716441361 0.21915614748648779 0 -0.2035131630817438 0.25020294079419281 0 -0.1932363782841966 0.23170514131640199 0 -0.1859050447022588 0.24644822626202259 0 -0.2035131630817438 0.25020294079419281 0 -0.21018226010198671 0.22436965959764821 0 -0.1932363782841966 0.23170514131640199 0 -0.2035131630817438 0.25020294079419281 0 -0.22618736891613589 0.23735790597687459 0 -0.2035131630817438 0.25020294079419281 0 -0.22618736891613589 0.23735790597687459 0 -0.21018226010198671 0.22436965959764821 0 -0.2035131630817438 0.25020294079419281 0 -0.21018226010198671 0.22436965959764821 0 -0.17088880118618921 0.2512320915985139 0 -0.1654286284551891 0.23533124157568869 0 -0.15030075367266449 0.24784749586509311 0 -0.17088880118618921 0.2512320915985139 0 -0.1654286284551891 0.23533124157568869 0 -0.1805721837344412 0.2363224907263525 0 -0.17088880118618921 0.2512320915985139 0 -0.1859050447022588 0.24644822626202259 0 -0.1805721837344412 0.2363224907263525 0 -0.1932363782841966 0.23170514131640199 0 -0.1859050447022588 0.24644822626202259 0 -0.1805721837344412 0.2363224907263525 0 -0.1932363782841966 0.23170514131640199 0 -0.1805721837344412 0.2363224907263525 0 -0.17906972716441361 0.21915614748648779 0 -0.1654286284551891 0.23533124157568869 0 -0.1805721837344412 0.2363224907263525 0 -0.17906972716441361 0.21915614748648779 0 -0.1654286284551891 0.23533124157568869 0 -0.17906972716441361 0.21915614748648779 0 -0.16027791228958951 0.21898363925663381 0 -0.1654286284551891 0.23533124157568869 0 -0.16027791228958951 0.21898363925663381 0 -0.15285999715287199 0.2304059472367512 0 -0.17906972716441361 0.21915614748648779 0 -0.16027791228958951 0.21898363925663381 0 -0.16740611086303181 0.20501119051319749 0 -0.16027791228958951 0.21898363925663381 0 -0.16740611086303181 0.20501119051319749 0 -0.1510305605930905 0.2081745202753314 0 -0.19748062296019209 0.21042074769956559 0 -0.17906972716441361 0.21915614748648779 0 -0.1853494034714526 0.1999037001129241 0 -0.17906972716441361 0.21915614748648779 0 -0.16740611086303181 0.20501119051319749 0 -0.1853494034714526 0.1999037001129241 0 -0.18838424683377389 0.18761890734680839 0 -0.1722800569660877 0.18826307759559061 0 -0.1853494034714526 0.1999037001129241 0 -0.16740611086303181 0.20501119051319749 0 -0.1722800569660877 0.18826307759559061 0 -0.1853494034714526 0.1999037001129241 0 -0.1722800569660877 0.18826307759559061 0 -0.15642900469355711 0.19558605835221779 0 -0.15165318686771229 0.18421092647605289 0 -0.16740611086303181 0.20501119051319749 0 -0.1722800569660877 0.18826307759559061 0 -0.15642900469355711 0.19558605835221779 0 -0.16740611086303181 0.20501119051319749 0 -0.15642900469355711 0.19558605835221779 0 -0.1510305605930905 0.2081745202753314 0 -0.15642900469355711 0.19558605835221779 0 -0.13852802124644659 0.19487504239926101 0 -0.15165318686771229 0.18421092647605289 0 -0.15642900469355711 0.19558605835221779 0 -0.13852802124644659 0.19487504239926101 0 -0.1510305605930905 0.2081745202753314 0 -0.13852802124644659 0.19487504239926101 0 -0.15165318686771229 0.18421092647605289 0 -0.13058369197003861 0.1842047739155343 0 -0.13852802124644659 0.19487504239926101 0 -0.1259253811844363 0.1950154811115489 0 -0.13058369197003861 0.1842047739155343 0 -0.13852802124644659 0.19487504239926101 0 -0.1259253811844363 0.1950154811115489 0 -0.12667539791660859 0.20237367136630849 0 -0.13852802124644659 0.19487504239926101 0 -0.12667539791660859 0.20237367136630849 0 -0.1364670860531986 0.2070819975552485 0 -0.12667539791660859 0.20237367136630849 0 -0.1364670860531986 0.2070819975552485 0 -0.1272922135250811 0.21448824437160449 0 -0.1364670860531986 0.2070819975552485 0 -0.1272922135250811 0.21448824437160449 0 -0.14173178912251341 0.21688130412166651 0 -0.16027791228958951 0.21898363925663381 0 -0.14173178912251341 0.21688130412166651 0 -0.1510305605930905 0.2081745202753314 0 -0.1364670860531986 0.2070819975552485 0 -0.14173178912251341 0.21688130412166651 0 -0.1510305605930905 0.2081745202753314 0 -0.13852802124644659 0.19487504239926101 0 -0.1364670860531986 0.2070819975552485 0 -0.1510305605930905 0.2081745202753314 0 -0.16027791228958951 0.21898363925663381 0 -0.14173178912251341 0.21688130412166651 0 -0.15285999715287199 0.2304059472367512 0 -0.14173178912251341 0.21688130412166651 0 -0.15285999715287199 0.2304059472367512 0 -0.1393979775944944 0.22940442512086259 0 -0.1272922135250811 0.21448824437160449 0 -0.14173178912251341 0.21688130412166651 0 -0.1393979775944944 0.22940442512086259 0 -0.1272922135250811 0.21448824437160449 0 -0.1393979775944944 0.22940442512086259 0 -0.1223852791108696 0.23072817290439029 0 -0.1227339044231103 0.25087223714607509 0 -0.1393979775944944 0.22940442512086259 0 -0.1223852791108696 0.23072817290439029 0 -0.1227339044231103 0.25087223714607509 0 -0.1393979775944944 0.22940442512086259 0 -0.15030075367266449 0.24784749586509311 0 -0.1654286284551891 0.23533124157568869 0 -0.15285999715287199 0.2304059472367512 0 -0.15030075367266449 0.24784749586509311 0 -0.15285999715287199 0.2304059472367512 0 -0.1393979775944944 0.22940442512086259 0 -0.15030075367266449 0.24784749586509311 0 -0.1697238541106417 0.1559022568024192 0 -0.16610763467748291 0.1530462409693395 0 -0.15278823618709869 0.15740191190103081 0 -0.16513606131290171 0.14690286290611559 0 -0.1697238541106417 0.1559022568024192 0 -0.17748388643870511 0.13640381391120099 0 -0.16513606131290171 0.14690286290611559 0 -0.15241167783585 0.14487751098413859 0 -0.15235042087750611 0.1308294812585058 0 -0.16513606131290171 0.14690286290611559 0 -0.17748388643870511 0.13640381391120099 0 -0.16513606131290171 0.14690286290611559 0 -0.1697238541106417 0.1559022568024192 0 -0.16610763467748291 0.1530462409693395 0 -0.16513606131290171 0.14690286290611559 0 -0.15278823618709869 0.15740191190103081 0 -0.16513606131290171 0.14690286290611559 0 -0.16610763467748291 0.1530462409693395 0 -0.15278823618709869 0.15740191190103081 0 -0.16610763467748291 0.1530462409693395 0 -0.15278823618709869 0.15740191190103081 0 -0.16513606131290171 0.14690286290611559 0 -0.15278823618709869 0.15740191190103081 0 -0.15241167783585 0.14487751098413859 0 -0.158189289524477 0.113600711466744 0 -0.17748388643870511 0.13640381391120099 0 -0.15235042087750611 0.1308294812585058 0 -0.16513606131290171 0.14690286290611559 0 -0.17748388643870511 0.13640381391120099 0 -0.15235042087750611 0.1308294812585058 0 -0.17748388643870511 0.13640381391120099 0 -0.15235042087750611 0.1308294812585058 0 -0.158189289524477 0.113600711466744 0 -0.17748388643870511 0.13640381391120099 0 -0.1805313429192465 0.13381263736204249 0 -0.17748388643870511 0.13640381391120099 0 -0.1805313429192465 0.13381263736204249 0 -0.19310121003729669 0.12312479157645401 0 -0.1805313429192465 0.13381263736204249 0 -0.1817709729014412 0.1216831072979858 0 -0.19310121003729669 0.12312479157645401 0 -0.1805313429192465 0.13381263736204249 0 -0.19040660378560209 0.13313922769781711 0 -0.1805313429192465 0.13381263736204249 0 -0.1853156705945001 0.13814081950011561 0 -0.17748388643870511 0.13640381391120099 0 -0.1853156705945001 0.13814081950011561 0 -0.17748388643870511 0.13640381391120099 0 -0.1805313429192465 0.13381263736204249 0 -0.1853156705945001 0.13814081950011561 0 -0.1805313429192465 0.13381263736204249 0 -0.1853156705945001 0.13814081950011561 0 -0.18927025957511559 0.14171837157244879 0 -0.1853156705945001 0.13814081950011561 0 -0.18927025957511559 0.14171837157244879 0 -0.1697238541106417 0.1559022568024192 0 -0.1697238541106417 0.1559022568024192 0 -0.17748388643870511 0.13640381391120099 0 -0.1853156705945001 0.13814081950011561 0 -0.18830054601671881 0.15998102591723479 0 -0.18927025957511559 0.14171837157244879 0 -0.1697238541106417 0.1559022568024192 0 -0.18927025957511559 0.14171837157244879 0 -0.1697238541106417 0.1559022568024192 0 -0.1853156705945001 0.13814081950011561 0 -0.18830054601671881 0.15998102591723479 0 -0.1697238541106417 0.1559022568024192 0 -0.1693123126871233 0.17216139963311891 0 -0.18830054601671881 0.15998102591723479 0 -0.18681853976672291 0.17448785858827379 0 -0.1693123126871233 0.17216139963311891 0 -0.18838424683377389 0.18761890734680839 0 -0.1722800569660877 0.18826307759559061 0 -0.18681853976672291 0.17448785858827379 0 -0.1722800569660877 0.18826307759559061 0 -0.18681853976672291 0.17448785858827379 0 -0.1693123126871233 0.17216139963311891 0 -0.1722800569660877 0.18826307759559061 0 -0.1693123126871233 0.17216139963311891 0 -0.15165318686771229 0.18421092647605289 0 -0.1693123126871233 0.17216139963311891 0 -0.15017744864616769 0.1700861420323895 0 -0.15165318686771229 0.18421092647605289 0 -0.1697238541106417 0.1559022568024192 0 -0.1693123126871233 0.17216139963311891 0 -0.15017744864616769 0.1700861420323895 0 -0.1697238541106417 0.1559022568024192 0 -0.15017744864616769 0.1700861420323895 0 -0.1697238541106417 0.1559022568024192 0 -0.15278823618709869 0.15740191190103081 0 -0.15017744864616769 0.1700861420323895 0 -0.15278823618709869 0.15740191190103081 0 -0.15017744864616769 0.1700861420323895 0 -0.14100939700986201 0.1674171662770122 0 -0.15278823618709869 0.15740191190103081 0 -0.14100939700986201 0.1674171662770122 0 -0.15017744864616769 0.1700861420323895 0 -0.15165318686771229 0.18421092647605289 0 -0.13058369197003861 0.1842047739155343 0 -0.15017744864616769 0.1700861420323895 0 -0.13058369197003861 0.1842047739155343 0 -0.14100939700986201 0.1674171662770122 0 -0.12923055783262449 0.1774324206529927 0 -0.13058369197003861 0.1842047739155343 0 -0.15017744864616769 0.1700861420323895 0 -0.14100939700986201 0.1674171662770122 0 -0.13058369197003861 0.1842047739155343 0 -0.14100939700986201 0.1674171662770122 0 -0.12923055783262449 0.1774324206529927 0 -0.12923055783262449 0.1774324206529927 0 -0.12691869590540131 0.16586169367740261 0 -0.1220123858406527 0.17318417662820601 0 -0.12923055783262449 0.1774324206529927 0 -0.13058369197003861 0.1842047739155343 0 -0.15278823618709869 0.15740191190103081 0 -0.12691869590540131 0.16586169367740261 0 -0.15278823618709869 0.15740191190103081 0 -0.14100939700986201 0.1674171662770122 0 -0.12691869590540131 0.16586169367740261 0 -0.14100939700986201 0.1674171662770122 0 -0.12923055783262449 0.1774324206529927 0 -0.12691869590540131 0.16586169367740261 0 -0.12923055783262449 0.1774324206529927 0 -0.12691869590540131 0.16586169367740261 0 -0.15278823618709869 0.15740191190103081 0 -0.12691869590540131 0.16586169367740261 0 -0.1393719929658937 0.1443757878709028 0 -0.12691869590540131 0.16586169367740261 0 -0.1393719929658937 0.1443757878709028 0 -0.1221895083819747 0.14219240053943771 0 -0.15278823618709869 0.15740191190103081 0 -0.1393719929658937 0.1443757878709028 0 -0.15241167783585 0.14487751098413859 0 -0.1393719929658937 0.1443757878709028 0 -0.15241167783585 0.14487751098413859 0 -0.15235042087750611 0.1308294812585058 0 -0.15235042087750611 0.1308294812585058 0 -0.12721695531630731 0.12525514860580869 0 -0.1393719929658937 0.1443757878709028 0 -0.12721695531630731 0.12525514860580869 0 -0.1221895083819747 0.14219240053943771 0 -0.1393719929658937 0.1443757878709028 0 -0.15235042087750611 0.1308294812585058 0 -0.12721695531630731 0.12525514860580869 0 -0.1221895083819747 0.14219240053943771 0 -0.1184153662018054 0.1233030506956697 0 -0.12721695531630731 0.12525514860580869 0 -0.1221895083819747 0.14219240053943771 0 -0.11068495155595259 0.1346096769062787 0 -0.1221895083819747 0.14219240053943771 0 -0.1184153662018054 0.1233030506956697 0 -0.12721695531630731 0.12525514860580869 0 -0.1221895083819747 0.14219240053943771 0 -0.1184153662018054 0.1233030506956697 0 -0.11068495155595259 0.1346096769062787 0 -0.1078682860790558 0.14486250355779881 0 -0.1221895083819747 0.14219240053943771 0 -0.11068495155595259 0.1346096769062787 0 -0.1030662927161598 0.12697676692388379 0 -0.1184153662018054 0.1233030506956697 0 -0.11068495155595259 0.1346096769062787 0 -0.1030662927161598 0.12697676692388379 0 -0.1018853044007679 0.1357136628146034 0 -0.11068495155595259 0.1346096769062787 0 -0.1018853044007679 0.1357136628146034 0 -0.1078682860790558 0.14486250355779881 0 -0.1018853044007679 0.1357136628146034 0 -0.094400698351579881 0.1367107307206957 0 -0.097456292697632868 0.14417391077344011 0 -0.1018853044007679 0.1357136628146034 0 -0.094400698351579881 0.1367107307206957 0 -0.095581701250125092 0.1295036791735529 0 -0.1030662927161598 0.12697676692388379 0 -0.095581701250125092 0.1295036791735529 0 -0.094875096279971829 0.12501481522452321 0 -0.1030662927161598 0.12697676692388379 0 -0.1018853044007679 0.1357136628146034 0 -0.095581701250125092 0.1295036791735529 0 -0.095581701250125092 0.1295036791735529 0 -0.094875096279971829 0.12501481522452321 0 -0.091339185791838251 0.1268171323101677 0 -0.099959812547282048 0.15398238266025241 0 -0.092083775730485651 0.15781661533779731 0 -0.0921878150541557 0.15060275170907991 0 -0.099959812547282048 0.15398238266025241 0 -0.097456292697632868 0.14417391077344011 0 -0.0921878150541557 0.15060275170907991 0 -0.099959812547282048 0.15398238266025241 0 -0.097456292697632868 0.14417391077344011 0 -0.1078682860790558 0.14486250355779881 0 -0.1018853044007679 0.1357136628146034 0 -0.097456292697632868 0.14417391077344011 0 -0.1078682860790558 0.14486250355779881 0 -0.099959812547282048 0.15398238266025241 0 -0.1078682860790558 0.14486250355779881 0 -0.1086212409151375 0.15506404846438651 0 -0.1221895083819747 0.14219240053943771 0 -0.1139001206803032 0.17011899026034799 0 -0.12691869590540131 0.16586169367740261 0 -0.1221895083819747 0.14219240053943771 0 -0.1086212409151375 0.15506404846438651 0 -0.1221895083819747 0.14219240053943771 0 -0.1139001206803032 0.17011899026034799 0 -0.1078682860790558 0.14486250355779881 0 -0.1086212409151375 0.15506404846438651 0 -0.1221895083819747 0.14219240053943771 0 -0.12691869590540131 0.16586169367740261 0 -0.1221895083819747 0.14219240053943771 0 -0.1139001206803032 0.17011899026034799 0 -0.12691869590540131 0.16586169367740261 0 -0.1139001206803032 0.17011899026034799 0 -0.12691869590540131 0.16586169367740261 0 -0.1139001206803032 0.17011899026034799 0 -0.1220123858406527 0.17318417662820601 0 -0.1139001206803032 0.17011899026034799 0 -0.1180001689442824 0.17932360192208149 0 -0.10891170974610299 0.18692473159281189 0 -0.1139001206803032 0.17011899026034799 0 -0.10891170974610299 0.18692473159281189 0 -0.12923055783262449 0.1774324206529927 0 -0.13058369197003861 0.1842047739155343 0 -0.1150918178321991 0.18945424008098691 0 -0.12923055783262449 0.1774324206529927 0 -0.1180001689442824 0.17932360192208149 0 -0.1150918178321991 0.18945424008098691 0 -0.12923055783262449 0.1774324206529927 0 -0.1150918178321991 0.18945424008098691 0 -0.1139001206803032 0.17011899026034799 0 -0.1220123858406527 0.17318417662820601 0 -0.1180001689442824 0.17932360192208149 0 -0.12923055783262449 0.1774324206529927 0 -0.1220123858406527 0.17318417662820601 0 -0.1180001689442824 0.17932360192208149 0 -0.1180001689442824 0.17932360192208149 0 -0.10891170974610299 0.18692473159281189 0 -0.1150918178321991 0.18945424008098691 0 -0.1139001206803032 0.17011899026034799 0 -0.092498868781894977 0.17711756537340351 0 -0.1139001206803032 0.17011899026034799 0 -0.10891170974610299 0.18692473159281189 0 -0.10052097384535261 0.18397568794098931 0 -0.1139001206803032 0.17011899026034799 0 -0.10052097384535261 0.18397568794098931 0 -0.092498868781894977 0.17711756537340351 0 -0.1139001206803032 0.17011899026034799 0 -0.099188476887072358 0.16416396530409641 0 -0.092498868781894977 0.17711756537340351 0 -0.1086212409151375 0.15506404846438651 0 -0.1139001206803032 0.17011899026034799 0 -0.099188476887072358 0.16416396530409641 0 -0.099959812547282048 0.15398238266025241 0 -0.1086212409151375 0.15506404846438651 0 -0.099188476887072358 0.16416396530409641 0 -0.099959812547282048 0.15398238266025241 0 -0.099188476887072358 0.16416396530409641 0 -0.092083775730485651 0.15781661533779731 0 -0.092083775730485651 0.15781661533779731 0 -0.084975916080972658 0.16412512208823821 0 -0.08351132556124477 0.15280500195966329 0 -0.099188476887072358 0.16416396530409641 0 -0.092083775730485651 0.15781661533779731 0 -0.084975916080972658 0.16412512208823821 0 -0.099188476887072358 0.16416396530409641 0 -0.084975916080972658 0.16412512208823821 0 -0.092498868781894977 0.17711756537340351 0 -0.084975916080972658 0.16412512208823821 0 -0.071347945888267983 0.15687081540539871 0 -0.08351132556124477 0.15280500195966329 0 -0.071195264721896495 0.17485857912703409 0 -0.087559281766898631 0.18929452602615471 0 -0.092498868781894977 0.17711756537340351 0 -0.071195264721896495 0.17485857912703409 0 -0.087559281766898631 0.18929452602615471 0 -0.084975916080972658 0.16412512208823821 0 -0.092498868781894977 0.17711756537340351 0 -0.071195264721896495 0.17485857912703409 0 -0.10052097384535261 0.18397568794098931 0 -0.092498868781894977 0.17711756537340351 0 -0.087559281766898631 0.18929452602615471 0 -0.071195264721896495 0.17485857912703409 0 -0.087559281766898631 0.18929452602615471 0 -0.067388635888915832 0.1904710519810621 0 -0.071195264721896495 0.17485857912703409 0 -0.067388635888915832 0.1904710519810621 0 -0.051477336082066477 0.18071726734358551 0 -0.071195264721896495 0.17485857912703409 0 -0.054831247676894367 0.16042263222791339 0 -0.071195264721896495 0.17485857912703409 0 -0.071347945888267983 0.15687081540539871 0 -0.054831247676894367 0.16042263222791339 0 -0.084975916080972658 0.16412512208823821 0 -0.071195264721896495 0.17485857912703409 0 -0.071347945888267983 0.15687081540539871 0 -0.071347945888267983 0.15687081540539871 0 -0.074504786156419422 0.1444019197521855 0 -0.060910260657033991 0.14579767084252851 0 -0.071347945888267983 0.15687081540539871 0 -0.074504786156419422 0.1444019197521855 0 -0.08351132556124477 0.15280500195966329 0 -0.074504786156419422 0.1444019197521855 0 -0.068020210738541934 0.13459236349039069 0 -0.060910260657033991 0.14579767084252851 0 -0.068020210738541934 0.13459236349039069 0 -0.059318247912867827 0.1221784767991817 0 -0.075764082082433945 0.1207516838383373 0 -0.068020210738541934 0.13459236349039069 0 -0.079470004337078293 0.12897165542909389 0 -0.075764082082433945 0.1207516838383373 0 -0.068020210738541934 0.13459236349039069 0 -0.075764082082433945 0.1207516838383373 0 -0.074504786156419422 0.1444019197521855 0 -0.068020210738541934 0.13459236349039069 0 -0.079283741652555972 0.13624505373069101 0 -0.068020210738541934 0.13459236349039069 0 -0.079283741652555972 0.13624505373069101 0 -0.079470004337078293 0.12897165542909389 0 -0.079283741652555972 0.13624505373069101 0 -0.088692618089681013 0.13179577295251249 0 -0.086894745164491805 0.1421753237650307 0 -0.079470004337078293 0.12897165542909389 0 -0.088692618089681013 0.13179577295251249 0 -0.086798718529954813 0.1249968462659438 0 -0.079283741652555972 0.13624505373069101 0 -0.079470004337078293 0.12897165542909389 0 -0.088692618089681013 0.13179577295251249 0 -0.088692618089681013 0.13179577295251249 0 -0.091339185791838251 0.1268171323101677 0 -0.086798718529954813 0.1249968462659438 0 -0.095581701250125092 0.1295036791735529 0 -0.088692618089681013 0.13179577295251249 0 -0.091339185791838251 0.1268171323101677 0 -0.094400698351579881 0.1367107307206957 0 -0.095581701250125092 0.1295036791735529 0 -0.088692618089681013 0.13179577295251249 0 -0.094400698351579881 0.1367107307206957 0 -0.088692618089681013 0.13179577295251249 0 -0.086894745164491805 0.1421753237650307 0 -0.094400698351579881 0.1367107307206957 0 -0.097456292697632868 0.14417391077344011 0 -0.086894745164491805 0.1421753237650307 0 -0.097456292697632868 0.14417391077344011 0 -0.086894745164491805 0.1421753237650307 0 -0.0921878150541557 0.15060275170907991 0 -0.086894745164491805 0.1421753237650307 0 -0.0921878150541557 0.15060275170907991 0 -0.08351132556124477 0.15280500195966329 0 -0.092083775730485651 0.15781661533779731 0 -0.0921878150541557 0.15060275170907991 0 -0.08351132556124477 0.15280500195966329 0 -0.074504786156419422 0.1444019197521855 0 -0.079283741652555972 0.13624505373069101 0 -0.086894745164491805 0.1421753237650307 0 -0.074504786156419422 0.1444019197521855 0 -0.086894745164491805 0.1421753237650307 0 -0.08351132556124477 0.15280500195966329 0 -0.1227339044231103 0.25087223714607509 0 -0.1060017494306192 0.22595699138347969 0 -0.09356627060547823 0.24489395558504479 0 -0.1227339044231103 0.25087223714607509 0 -0.09356627060547823 0.24489395558504479 0 -0.1227339044231103 0.25087223714607509 0 -0.1223852791108696 0.23072817290439029 0 -0.1060017494306192 0.22595699138347969 0 -0.1223852791108696 0.23072817290439029 0 -0.1060017494306192 0.22595699138347969 0 -0.11468363305538271 0.2132229840445507 0 -0.1272922135250811 0.21448824437160449 0 -0.1223852791108696 0.23072817290439029 0 -0.11468363305538271 0.2132229840445507 0 -0.1060017494306192 0.22595699138347969 0 -0.090920003328891622 0.22160743433151861 0 -0.09356627060547823 0.24489395558504479 0 -0.1060017494306192 0.22595699138347969 0 -0.097349089047715776 0.2140179897354085 0 -0.090920003328891622 0.22160743433151861 0 -0.097349089047715776 0.2140179897354085 0 -0.098984287943522459 0.2081583005240748 0 -0.10559313463755229 0.2130120382139887 0 -0.097349089047715776 0.2140179897354085 0 -0.098984287943522459 0.2081583005240748 0 -0.090615961618358193 0.20834705883544841 0 -0.098984287943522459 0.2081583005240748 0 -0.097905376089477872 0.2024860641724946 0 -0.090615961618358193 0.20834705883544841 0 -0.10022745020630119 0.20498311186937651 0 -0.098984287943522459 0.2081583005240748 0 -0.10392329881190079 0.20373047292527521 0 -0.10022745020630119 0.20498311186937651 0 -0.10392329881190079 0.20373047292527521 0 -0.097905376089477872 0.2024860641724946 0 -0.10022745020630119 0.20498311186937651 0 -0.098984287943522459 0.2081583005240748 0 -0.097905376089477872 0.2024860641724946 0 -0.098984287943522459 0.2081583005240748 0 -0.10392329881190079 0.20373047292527521 0 -0.10559313463755229 0.2130120382139887 0 -0.10392329881190079 0.20373047292527521 0 -0.11468363305538271 0.2132229840445507 0 -0.10392329881190079 0.20373047292527521 0 -0.10559313463755229 0.2130120382139887 0 -0.11468363305538271 0.2132229840445507 0 -0.10392329881190079 0.20373047292527521 0 -0.11468363305538271 0.2132229840445507 0 -0.10940553217334741 0.20261155878546261 0 -0.1060017494306192 0.22595699138347969 0 -0.097349089047715776 0.2140179897354085 0 -0.10559313463755229 0.2130120382139887 0 -0.1060017494306192 0.22595699138347969 0 -0.10559313463755229 0.2130120382139887 0 -0.11468363305538271 0.2132229840445507 0 -0.1272922135250811 0.21448824437160449 0 -0.11468363305538271 0.2132229840445507 0 -0.1198078654218684 0.2066002925135472 0 -0.12667539791660859 0.20237367136630849 0 -0.1272922135250811 0.21448824437160449 0 -0.1198078654218684 0.2066002925135472 0 -0.1198078654218684 0.2066002925135472 0 -0.1141198568899605 0.20314746067204889 0 -0.11938362821632729 0.19993953153083499 0 -0.11468363305538271 0.2132229840445507 0 -0.1141198568899605 0.20314746067204889 0 -0.10940553217334741 0.20261155878546261 0 -0.11468363305538271 0.2132229840445507 0 -0.1198078654218684 0.2066002925135472 0 -0.1141198568899605 0.20314746067204889 0 -0.1141198568899605 0.20314746067204889 0 -0.10940553217334741 0.20261155878546261 0 -0.1114148864274648 0.20004649038870051 0 -0.1141198568899605 0.20314746067204889 0 -0.1114148864274648 0.20004649038870051 0 -0.1135624708078033 0.19793728776386871 0 -0.10940553217334741 0.20261155878546261 0 -0.1114148864274648 0.20004649038870051 0 -0.1095050179622553 0.19712339329686629 0 -0.1114148864274648 0.20004649038870051 0 -0.1095050179622553 0.19712339329686629 0 -0.1135624708078033 0.19793728776386871 0 -0.1095050179622553 0.19712339329686629 0 -0.1135624708078033 0.19793728776386871 0 -0.1125880702033592 0.19304977968700579 0 -0.1135624708078033 0.19793728776386871 0 -0.11938362821632729 0.19993953153083499 0 -0.1164300680861562 0.19457499107142739 0 -0.1141198568899605 0.20314746067204889 0 -0.1135624708078033 0.19793728776386871 0 -0.11938362821632729 0.19993953153083499 0 -0.1259253811844363 0.1950154811115489 0 -0.11938362821632729 0.19993953153083499 0 -0.1164300680861562 0.19457499107142739 0 -0.1259253811844363 0.1950154811115489 0 -0.12667539791660859 0.20237367136630849 0 -0.11938362821632729 0.19993953153083499 0 -0.12667539791660859 0.20237367136630849 0 -0.1198078654218684 0.2066002925135472 0 -0.11938362821632729 0.19993953153083499 0 -0.13058369197003861 0.1842047739155343 0 -0.1164300680861562 0.19457499107142739 0 -0.13058369197003861 0.1842047739155343 0 -0.1150918178321991 0.18945424008098691 0 -0.1164300680861562 0.19457499107142739 0 -0.1259253811844363 0.1950154811115489 0 -0.13058369197003861 0.1842047739155343 0 -0.1164300680861562 0.19457499107142739 0 -0.10891170974610299 0.18692473159281189 0 -0.1095050179622553 0.19712339329686629 0 -0.1125880702033592 0.19304977968700579 0 -0.1135624708078033 0.19793728776386871 0 -0.1164300680861562 0.19457499107142739 0 -0.1125880702033592 0.19304977968700579 0 -0.1150918178321991 0.18945424008098691 0 -0.1164300680861562 0.19457499107142739 0 -0.1125880702033592 0.19304977968700579 0 -0.10891170974610299 0.18692473159281189 0 -0.1150918178321991 0.18945424008098691 0 -0.1125880702033592 0.19304977968700579 0 -0.10891170974610299 0.18692473159281189 0 -0.10392329881190079 0.20373047292527521 0 -0.10891170974610299 0.18692473159281189 0 -0.10392329881190079 0.20373047292527521 0 -0.1095050179622553 0.19712339329686629 0 -0.10392329881190079 0.20373047292527521 0 -0.098785145336125466 0.19306210607823229 0 -0.087559281766898631 0.18929452602615471 0 -0.10392329881190079 0.20373047292527521 0 -0.097905376089477872 0.2024860641724946 0 -0.087559281766898631 0.18929452602615471 0 -0.10891170974610299 0.18692473159281189 0 -0.10392329881190079 0.20373047292527521 0 -0.10303528193487051 0.19192324963432719 0 -0.10891170974610299 0.18692473159281189 0 -0.10052097384535261 0.18397568794098931 0 -0.10303528193487051 0.19192324963432719 0 -0.10392329881190079 0.20373047292527521 0 -0.087559281766898631 0.18929452602615471 0 -0.10392329881190079 0.20373047292527521 0 -0.10303528193487051 0.19192324963432719 0 -0.098785145336125466 0.19306210607823229 0 -0.10392329881190079 0.20373047292527521 0 -0.10940553217334741 0.20261155878546261 0 -0.1095050179622553 0.19712339329686629 0 -0.10052097384535261 0.18397568794098931 0 -0.10303528193487051 0.19192324963432719 0 -0.098785145336125466 0.19306210607823229 0 -0.10052097384535261 0.18397568794098931 0 -0.098785145336125466 0.19306210607823229 0 -0.087559281766898631 0.18929452602615471 0 -0.089019389115749553 0.19980188473855379 0 -0.078945218649088433 0.1999620948704072 0 -0.090615961618358193 0.20834705883544841 0 -0.097905376089477872 0.2024860641724946 0 -0.087559281766898631 0.18929452602615471 0 -0.089019389115749553 0.19980188473855379 0 -0.087559281766898631 0.18929452602615471 0 -0.089019389115749553 0.19980188473855379 0 -0.078945218649088433 0.1999620948704072 0 -0.078945218649088433 0.1999620948704072 0 -0.067388635888915832 0.1904710519810621 0 -0.058913879317958322 0.20814631767811911 0 -0.087559281766898631 0.18929452602615471 0 -0.078945218649088433 0.1999620948704072 0 -0.067388635888915832 0.1904710519810621 0 -0.078974457312182889 0.21255029647981111 0 -0.075492977670062592 0.22544394270741239 0 -0.058913879317958322 0.20814631767811911 0 -0.078945218649088433 0.1999620948704072 0 -0.078974457312182889 0.21255029647981111 0 -0.058913879317958322 0.20814631767811911 0 -0.078945218649088433 0.1999620948704072 0 -0.078974457312182889 0.21255029647981111 0 -0.090615961618358193 0.20834705883544841 0 -0.097905376089477872 0.2024860641724946 0 -0.089019389115749553 0.19980188473855379 0 -0.090615961618358193 0.20834705883544841 0 -0.078974457312182889 0.21255029647981111 0 -0.090615961618358193 0.20834705883544841 0 -0.090920003328891622 0.22160743433151861 0 -0.097349089047715776 0.2140179897354085 0 -0.090615961618358193 0.20834705883544841 0 -0.090920003328891622 0.22160743433151861 0 -0.090920003328891622 0.22160743433151861 0 -0.075492977670062592 0.22544394270741239 0 -0.09356627060547823 0.24489395558504479 0 -0.078974457312182889 0.21255029647981111 0 -0.090920003328891622 0.22160743433151861 0 -0.075492977670062592 0.22544394270741239 0 -0.075492977670062592 0.22544394270741239 0 -0.064398636787846131 0.23891567402401451 0 -0.058913879317958322 0.20814631767811911 0 -0.075492977670062592 0.22544394270741239 0 -0.064398636787846131 0.23891567402401451 0 -0.09356627060547823 0.24489395558504479 0 -0.069813202312178205 0.26212621135074171 0 -0.064398636787846131 0.23891567402401451 0 -0.09356627060547823 0.24489395558504479 0 -0.064398636787846131 0.23891567402401451 0 -0.09356627060547823 0.24489395558504479 0 -0.064398636787846131 0.23891567402401451 0 -0.03523100297021408 0.23293739246298409 0 -0.04113464427212335 0.26116734569307282 0 -0.064398636787846131 0.23891567402401451 0 -0.03523100297021408 0.23293739246298409 0 -0.064398636787846131 0.23891567402401451 0 -0.03523100297021408 0.23293739246298409 0 -0.058913879317958322 0.20814631767811911 0 -0.03523100297021408 0.23293739246298409 0 -0.058913879317958322 0.20814631767811911 0 -0.030859676396975549 0.21244650138636439 0 -0.058913879317958322 0.20814631767811911 0 -0.035768034071556168 0.19399652815911159 0 -0.030859676396975549 0.21244650138636439 0 -0.067388635888915832 0.1904710519810621 0 -0.058913879317958322 0.20814631767811911 0 -0.051477336082066477 0.18071726734358551 0 -0.058913879317958322 0.20814631767811911 0 -0.035768034071556168 0.19399652815911159 0 -0.051477336082066477 0.18071726734358551 0 -0.035768034071556168 0.19399652815911159 0 -0.020212667781047518 0.19320416274639179 0 -0.030859676396975549 0.21244650138636439 0 -0.035768034071556168 0.19399652815911159 0 -0.020212667781047518 0.19320416274639179 0 -0.034893521230731812 0.1772148178170069 0 -0.01310974482110018 0.20920826685286961 0 -0.0051093000487504314 0.1846651001043764 0 -0.020212667781047518 0.19320416274639179 0 -0.01310974482110018 0.20920826685286961 0 -0.0051093000487504314 0.1846651001043764 0 -0.0002295966527396387 0.1997002616795697 0 -0.01310974482110018 0.20920826685286961 0 -0.0051093000487504314 0.1846651001043764 0 -0.01310974482110018 0.20920826685286961 0 -0.0060633691525819947 0.22695911090195381 0 0.0063224202229716069 0.20980241785704271 0 -0.0002295966527396387 0.1997002616795697 0 -0.01310974482110018 0.20920826685286961 0 0.0063224202229716069 0.20980241785704271 0 -0.020212667781047518 0.19320416274639179 0 -0.01310974482110018 0.20920826685286961 0 -0.030859676396975549 0.21244650138636439 0 -0.01310974482110018 0.20920826685286961 0 -0.030859676396975549 0.21244650138636439 0 -0.0060633691525819947 0.22695911090195381 0 -0.04113464427212335 0.26116734569307282 0 -0.03523100297021408 0.23293739246298409 0 -0.0088747255821837664 0.2494613688607428 0 -0.03523100297021408 0.23293739246298409 0 -0.030859676396975549 0.21244650138636439 0 -0.0060633691525819947 0.22695911090195381 0 -0.03523100297021408 0.23293739246298409 0 -0.0060633691525819947 0.22695911090195381 0 -0.0060633691525819947 0.22695911090195381 0 -0.0088747255821837664 0.2494613688607428 0 0.0098496930463878168 0.2367105302594294 0 -0.03523100297021408 0.23293739246298409 0 -0.0060633691525819947 0.22695911090195381 0 -0.0088747255821837664 0.2494613688607428 0 -0.039992975876450947 0.1417109676152537 0 -0.054831247676894367 0.16042263222791339 0 -0.033695540326963667 0.1603249722315245 0 -0.039992975876450947 0.1417109676152537 0 -0.054676856852524477 0.1334073186913769 0 -0.044567530445561068 0.12202022744282311 0 -0.039992975876450947 0.1417109676152537 0 -0.023998087056488839 0.12438149757571661 0 -0.044567530445561068 0.12202022744282311 0 -0.039992975876450947 0.1417109676152537 0 -0.044567530445561068 0.12202022744282311 0 -0.039992975876450947 0.1417109676152537 0 -0.054676856852524477 0.1334073186913769 0 -0.060910260657033991 0.14579767084252851 0 -0.054676856852524477 0.1334073186913769 0 -0.044567530445561068 0.12202022744282311 0 -0.059318247912867827 0.1221784767991817 0 -0.068020210738541934 0.13459236349039069 0 -0.054676856852524477 0.1334073186913769 0 -0.059318247912867827 0.1221784767991817 0 -0.068020210738541934 0.13459236349039069 0 -0.054676856852524477 0.1334073186913769 0 -0.060910260657033991 0.14579767084252851 0 -0.039992975876450947 0.1417109676152537 0 -0.060910260657033991 0.14579767084252851 0 -0.054831247676894367 0.16042263222791339 0 -0.071347945888267983 0.15687081540539871 0 -0.060910260657033991 0.14579767084252851 0 -0.054831247676894367 0.16042263222791339 0 -0.071195264721896495 0.17485857912703409 0 -0.054831247676894367 0.16042263222791339 0 -0.051477336082066477 0.18071726734358551 0 -0.054831247676894367 0.16042263222791339 0 -0.051477336082066477 0.18071726734358551 0 -0.034893521230731812 0.1772148178170069 0 -0.035768034071556168 0.19399652815911159 0 -0.051477336082066477 0.18071726734358551 0 -0.034893521230731812 0.1772148178170069 0 -0.054831247676894367 0.16042263222791339 0 -0.034893521230731812 0.1772148178170069 0 -0.033695540326963667 0.1603249722315245 0 -0.033695540326963667 0.1603249722315245 0 -0.01870832858634108 0.17269484947873009 0 -0.020051628264400139 0.14958159401871829 0 -0.034893521230731812 0.1772148178170069 0 -0.033695540326963667 0.1603249722315245 0 -0.01870832858634108 0.17269484947873009 0 -0.020212667781047518 0.19320416274639179 0 -0.034893521230731812 0.1772148178170069 0 -0.01870832858634108 0.17269484947873009 0 -0.01870832858634108 0.17269484947873009 0 -0.0051093000487504314 0.1846651001043764 0 0.0028911447235999768 0.16012193335588359 0 -0.020212667781047518 0.19320416274639179 0 -0.01870832858634108 0.17269484947873009 0 -0.0051093000487504314 0.1846651001043764 0 -0.0051093000487504314 0.1846651001043764 0 0.0028911447235999768 0.16012193335588359 0 -0.01870832858634108 0.17269484947873009 0 0.0028911447235999768 0.16012193335588359 0 -0.01870832858634108 0.17269484947873009 0 -0.020051628264400139 0.14958159401871829 0 0.0028911447235999768 0.16012193335588359 0 -0.020051628264400139 0.14958159401871829 0 -0.0066385160417633 0.138458195590481 0 0.0028911447235999768 0.16012193335588359 0 -0.039992975876450947 0.1417109676152537 0 -0.033695540326963667 0.1603249722315245 0 -0.020051628264400139 0.14958159401871829 0 -0.039992975876450947 0.1417109676152537 0 -0.020051628264400139 0.14958159401871829 0 -0.023998087056488839 0.12438149757571661 0 -0.020051628264400139 0.14958159401871829 0 -0.0066385160417633 0.138458195590481 0 -0.023998087056488839 0.12438149757571661 0 -0.0066385160417633 0.138458195590481 0 -0.0040711314881198071 0.12236567810505571 0 -0.023998087056488839 0.12438149757571661 0 -0.0066385160417633 0.138458195590481 0 -0.0040711314881198071 0.12236567810505571 0 0.0093734844019246148 0.1402358959951398 0 -0.0040711314881198071 0.12236567810505571 0 -0.023998087056488839 0.12438149757571661 0 -0.0040711314881198071 0.12236567810505571 0 -0.01248359171126882 0.1072687940098062 0 -0.023998087056488839 0.12438149757571661 0 -0.0040711314881198071 0.12236567810505571 0 -0.01248359171126882 0.1072687940098062 0 0.0051786685062501364 0.11355488139551401 0 -0.01248359171126882 0.1072687940098062 0 0.001746293437441046 0.099474429017154267 0 0.0051786685062501364 0.11355488139551401 0 -0.01248359171126882 0.1072687940098062 0 -0.012638843144925711 0.085680916954803094 0 0.001746293437441046 0.099474429017154267 0 -0.01248359171126882 0.1072687940098062 0 -0.028406256304092849 0.098433804266620351 0 -0.03271612079927344 0.11216021713308801 0 -0.01248359171126882 0.1072687940098062 0 -0.028406256304092849 0.098433804266620351 0 -0.012638843144925711 0.085680916954803094 0 -0.01248359171126882 0.1072687940098062 0 -0.023998087056488839 0.12438149757571661 0 -0.03271612079927344 0.11216021713308801 0 -0.001122932215326987 0.066514027061002887 0 -0.012638843144925711 0.085680916954803094 0 -0.016808949900331691 0.067251763143295645 0 -0.001122932215326987 0.066514027061002887 0 -0.012638843144925711 0.085680916954803094 0 0.01008110677542242 0.086747618059568585 0 -0.012638843144925711 0.085680916954803094 0 0.01008110677542242 0.086747618059568585 0 0.001746293437441046 0.099474429017154267 0 -0.028406256304092849 0.098433804266620351 0 -0.012638843144925711 0.085680916954803094 0 -0.030282096995858081 0.086175352376249112 0 -0.012638843144925711 0.085680916954803094 0 -0.030282096995858081 0.086175352376249112 0 -0.026308587848760809 0.075800793449478737 0 -0.012638843144925711 0.085680916954803094 0 -0.026308587848760809 0.075800793449478737 0 -0.016808949900331691 0.067251763143295645 0 -0.026308587848760809 0.075800793449478737 0 -0.016808949900331691 0.067251763143295645 0 -0.031344245009606218 0.062538348995434812 0 -0.031344245009606218 0.062538348995434812 0 -0.050058348736175373 0.079351968735109329 0 -0.031344245009606218 0.062538348995434812 0 -0.050058348736175373 0.079351968735109329 0 -0.047323210026151079 0.063650369159158796 0 -0.026308587848760809 0.075800793449478737 0 -0.031344245009606218 0.062538348995434812 0 -0.039663792056768087 0.080585017158775682 0 -0.031344245009606218 0.062538348995434812 0 -0.039663792056768087 0.080585017158775682 0 -0.050058348736175373 0.079351968735109329 0 -0.028406256304092849 0.098433804266620351 0 -0.030282096995858081 0.086175352376249112 0 -0.044393005624742923 0.09037623005156771 0 -0.039663792056768087 0.080585017158775682 0 -0.044393005624742923 0.09037623005156771 0 -0.050058348736175373 0.079351968735109329 0 -0.039663792056768087 0.080585017158775682 0 -0.050058348736175373 0.079351968735109329 0 -0.030282096995858081 0.086175352376249112 0 -0.039663792056768087 0.080585017158775682 0 -0.044393005624742923 0.09037623005156771 0 -0.030282096995858081 0.086175352376249112 0 -0.026308587848760809 0.075800793449478737 0 -0.039663792056768087 0.080585017158775682 0 -0.054605539538826901 0.078812560790712138 0 -0.053716639583774199 0.082638747097960458 0 -0.07137490519257142 0.076823304247788091 0 -0.053716639583774199 0.082638747097960458 0 -0.049142085014671183 0.10232948727039259 0 -0.068148061398008275 0.095604606549889018 0 -0.053716639583774199 0.082638747097960458 0 -0.049142085014671183 0.10232948727039259 0 -0.044393005624742923 0.09037623005156771 0 -0.053716639583774199 0.082638747097960458 0 -0.049142085014671183 0.10232948727039259 0 -0.053716639583774199 0.082638747097960458 0 -0.068148061398008275 0.095604606549889018 0 -0.044393005624742923 0.09037623005156771 0 -0.053716639583774199 0.082638747097960458 0 -0.050058348736175373 0.079351968735109329 0 -0.054605539538826901 0.078812560790712138 0 -0.050058348736175373 0.079351968735109329 0 -0.054605539538826901 0.078812560790712138 0 -0.053716639583774199 0.082638747097960458 0 -0.050058348736175373 0.079351968735109329 0 -0.053716639583774199 0.082638747097960458 0 -0.050058348736175373 0.079351968735109329 0 -0.054605539538826901 0.078812560790712138 0 -0.053716639583774199 0.082638747097960458 0 -0.054605539538826901 0.078812560790712138 0 -0.047323210026151079 0.063650369159158796 0 -0.060399291480276729 0.05387390012351892 0 -0.054605539538826901 0.078812560790712138 0 -0.060399291480276729 0.05387390012351892 0 -0.054605539538826901 0.078812560790712138 0 -0.050058348736175373 0.079351968735109329 0 -0.047323210026151079 0.063650369159158796 0 -0.054605539538826901 0.078812560790712138 0 -0.07137490519257142 0.076823304247788091 0 -0.060399291480276729 0.05387390012351892 0 -0.044567530445561068 0.12202022744282311 0 -0.049142085014671183 0.10232948727039259 0 -0.03271612079927344 0.11216021713308801 0 -0.044567530445561068 0.12202022744282311 0 -0.049142085014671183 0.10232948727039259 0 -0.023998087056488839 0.12438149757571661 0 -0.03271612079927344 0.11216021713308801 0 -0.044567530445561068 0.12202022744282311 0 -0.028406256304092849 0.098433804266620351 0 -0.03271612079927344 0.11216021713308801 0 -0.049142085014671183 0.10232948727039259 0 -0.028406256304092849 0.098433804266620351 0 -0.044393005624742923 0.09037623005156771 0 -0.049142085014671183 0.10232948727039259 0 -0.049142085014671183 0.10232948727039259 0 -0.066990391924045184 0.10988694409192321 0 -0.068148061398008275 0.095604606549889018 0 -0.044567530445561068 0.12202022744282311 0 -0.049142085014671183 0.10232948727039259 0 -0.059318247912867827 0.1221784767991817 0 -0.049142085014671183 0.10232948727039259 0 -0.059318247912867827 0.1221784767991817 0 -0.066990391924045184 0.10988694409192321 0 -0.059318247912867827 0.1221784767991817 0 -0.066990391924045184 0.10988694409192321 0 -0.075764082082433945 0.1207516838383373 0 -0.059318247912867827 0.1221784767991817 0 -0.075764082082433945 0.1207516838383373 0 -0.066990391924045184 0.10988694409192321 0 -0.075764082082433945 0.1207516838383373 0 -0.082579483212244412 0.10857046600181521 0 -0.079470004337078293 0.12897165542909389 0 -0.075764082082433945 0.1207516838383373 0 -0.086798718529954813 0.1249968462659438 0 -0.075764082082433945 0.1207516838383373 0 -0.087129676830405622 0.11265857122744451 0 -0.086938594268372804 0.1197822155119905 0 -0.075764082082433945 0.1207516838383373 0 -0.086798718529954813 0.1249968462659438 0 -0.086938594268372804 0.1197822155119905 0 -0.075764082082433945 0.1207516838383373 0 -0.086938594268372804 0.1197822155119905 0 -0.075764082082433945 0.1207516838383373 0 -0.082579483212244412 0.10857046600181521 0 -0.075764082082433945 0.1207516838383373 0 -0.087129676830405622 0.11265857122744451 0 -0.082579483212244412 0.10857046600181521 0 -0.087129676830405622 0.11265857122744451 0 -0.082579483212244412 0.10857046600181521 0 -0.087129676830405622 0.11265857122744451 0 -0.086938594268372804 0.1197822155119905 0 -0.088623958854793267 0.1166956365951388 0 -0.087129676830405622 0.11265857122744451 0 -0.086938594268372804 0.1197822155119905 0 -0.088623958854793267 0.1166956365951388 0 -0.087129676830405622 0.11265857122744451 0 -0.092606083198761902 0.11757882899468031 0 -0.087129676830405622 0.11265857122744451 0 -0.09334056042644244 0.11125349425753731 0 -0.092606083198761902 0.11757882899468031 0 -0.088623958854793267 0.1166956365951388 0 -0.092606083198761902 0.11757882899468031 0 -0.087129676830405622 0.11265857122744451 0 -0.092606083198761902 0.11757882899468031 0 -0.090747794809458507 0.12277454793430601 0 -0.086938594268372804 0.1197822155119905 0 -0.094343482141766966 0.11913978887770291 0 -0.086938594268372804 0.1197822155119905 0 -0.094343482141766966 0.11913978887770291 0 -0.092606083198761902 0.11757882899468031 0 -0.086938594268372804 0.1197822155119905 0 -0.094343482141766966 0.11913978887770291 0 -0.092606083198761902 0.11757882899468031 0 -0.094343482141766966 0.11913978887770291 0 -0.094875096279971829 0.12501481522452321 0 -0.090747794809458507 0.12277454793430601 0 -0.094343482141766966 0.11913978887770291 0 -0.094875096279971829 0.12501481522452321 0 -0.091339185791838251 0.1268171323101677 0 -0.090747794809458507 0.12277454793430601 0 -0.090747794809458507 0.12277454793430601 0 -0.086798718529954813 0.1249968462659438 0 -0.086938594268372804 0.1197822155119905 0 -0.086798718529954813 0.1249968462659438 0 -0.086938594268372804 0.1197822155119905 0 -0.091339185791838251 0.1268171323101677 0 -0.090747794809458507 0.12277454793430601 0 -0.086798718529954813 0.1249968462659438 0 -0.088623958854793267 0.1166956365951388 0 -0.092606083198761902 0.11757882899468031 0 -0.086938594268372804 0.1197822155119905 0 -0.09334056042644244 0.11125349425753731 0 -0.087473988408769049 0.099822479952968321 0 -0.09759634982054248 0.10651666272496289 0 -0.087129676830405622 0.11265857122744451 0 -0.087473988408769049 0.099822479952968321 0 -0.087129676830405622 0.11265857122744451 0 -0.09334056042644244 0.11125349425753731 0 -0.087473988408769049 0.099822479952968321 0 -0.087473988408769049 0.099822479952968321 0 -0.082579483212244412 0.10857046600181521 0 -0.087129676830405622 0.11265857122744451 0 -0.087473988408769049 0.099822479952968321 0 -0.082579483212244412 0.10857046600181521 0 -0.087473988408769049 0.099822479952968321 0 -0.082579483212244412 0.10857046600181521 0 -0.079352264774441988 0.093730537948406079 0 -0.082579483212244412 0.10857046600181521 0 -0.068148061398008275 0.095604606549889018 0 -0.079352264774441988 0.093730537948406079 0 -0.082579483212244412 0.10857046600181521 0 -0.068148061398008275 0.095604606549889018 0 -0.066990391924045184 0.10988694409192321 0 -0.082579483212244412 0.10857046600181521 0 -0.068148061398008275 0.095604606549889018 0 -0.053716639583774199 0.082638747097960458 0 -0.068148061398008275 0.095604606549889018 0 -0.07137490519257142 0.076823304247788091 0 -0.068148061398008275 0.095604606549889018 0 -0.07137490519257142 0.076823304247788091 0 -0.078323764992340464 0.083119470477675039 0 -0.068148061398008275 0.095604606549889018 0 -0.079352264774441988 0.093730537948406079 0 -0.078323764992340464 0.083119470477675039 0 -0.07137490519257142 0.076823304247788091 0 -0.076493180538745709 0.059919101075706263 0 -0.060399291480276729 0.05387390012351892 0 -0.054605539538826901 0.078812560790712138 0 -0.07137490519257142 0.076823304247788091 0 -0.07137490519257142 0.076823304247788091 0 -0.088144270846316264 0.074834047704866527 0 -0.088144270846316264 0.074834047704866527 0 -0.092923505192914341 0.074267113725938846 0 -0.088871931550255509 0.047706527749933413 0 -0.07137490519257142 0.076823304247788091 0 -0.088144270846316264 0.074834047704866527 0 -0.076493180538745709 0.059919101075706263 0 -0.088144270846316264 0.074834047704866527 0 -0.092923505192914341 0.074267113725938846 0 -0.087889807338697556 0.084320562289678588 0 -0.088144270846316264 0.074834047704866527 0 -0.092923505192914341 0.074267113725938846 0 -0.07137490519257142 0.076823304247788091 0 -0.088144270846316264 0.074834047704866527 0 -0.078323764992340464 0.083119470477675039 0 -0.087473988408769049 0.099822479952968321 0 -0.079352264774441988 0.093730537948406079 0 -0.082146365966373425 0.08756099618810903 0 -0.079352264774441988 0.093730537948406079 0 -0.082146365966373425 0.08756099618810903 0 -0.078323764992340464 0.083119470477675039 0 -0.087473988408769049 0.099822479952968321 0 -0.082146365966373425 0.08756099618810903 0 -0.087889807338697556 0.084320562289678588 0 -0.088144270846316264 0.074834047704866527 0 -0.078323764992340464 0.083119470477675039 0 -0.084797096519731829 0.082994314954028425 0 -0.082146365966373425 0.08756099618810903 0 -0.078323764992340464 0.083119470477675039 0 -0.084797096519731829 0.082994314954028425 0 -0.082146365966373425 0.08756099618810903 0 -0.084797096519731829 0.082994314954028425 0 -0.087889807338697556 0.084320562289678588 0 -0.092923505192914341 0.074267113725938846 0 -0.087889807338697556 0.084320562289678588 0 -0.088144270846316264 0.074834047704866527 0 -0.084797096519731829 0.082994314954028425 0 -0.087889807338697556 0.084320562289678588 0 -0.092923505192914341 0.074267113725938846 0 -0.087889807338697556 0.084320562289678588 0 -0.094937634529627141 0.086482648955311631 0 -0.088144270846316264 0.074834047704866527 0 -0.087889807338697556 0.084320562289678588 0 -0.087473988408769049 0.099822479952968321 0 -0.094937634529627141 0.086482648955311631 0 -0.087473988408769049 0.099822479952968321 0 -0.087889807338697556 0.084320562289678588 0 -0.094937634529627141 0.086482648955311631 0 -0.087473988408769049 0.099822479952968321 0 -0.087889807338697556 0.084320562289678588 0 -0.094937634529627141 0.086482648955311631 0 -0.10855123064519399 0.083169500867426055 0 -0.1011760774494975 0.096391062062732485 0 -0.094937634529627141 0.086482648955311631 0 -0.1024012806504857 0.073142817957655148 0 -0.094937634529627141 0.086482648955311631 0 -0.10855123064519399 0.083169500867426055 0 -0.1024012806504857 0.073142817957655148 0 -0.10855123064519399 0.083169500867426055 0 -0.1126029263635963 0.094212146244145714 0 -0.1011760774494975 0.096391062062732485 0 -0.092923505192914341 0.074267113725938846 0 -0.1025437394857965 0.063260498151869071 0 -0.1037123930287292 0.05271923142178702 0 -0.092923505192914341 0.074267113725938846 0 -0.1037123930287292 0.05271923142178702 0 -0.092923505192914341 0.074267113725938846 0 -0.1024012806504857 0.073142817957655148 0 -0.1025437394857965 0.063260498151869071 0 -0.092923505192914341 0.074267113725938846 0 -0.1024012806504857 0.073142817957655148 0 -0.092923505192914341 0.074267113725938846 0 -0.094937634529627141 0.086482648955311631 0 -0.1024012806504857 0.073142817957655148 0 -0.10855123064519399 0.083169500867426055 0 -0.1024012806504857 0.073142817957655148 0 -0.11218469164902591 0.071982266345698029 0 -0.1024012806504857 0.073142817957655148 0 -0.11218469164902591 0.071982266345698029 0 -0.1024012806504857 0.073142817957655148 0 -0.1061201971104495 0.06649597052318329 0 -0.11218469164902591 0.071982266345698029 0 -0.1024012806504857 0.073142817957655148 0 -0.1061201971104495 0.06649597052318329 0 -0.1025437394857965 0.063260498151869071 0 -0.1024012806504857 0.073142817957655148 0 -0.1061201971104495 0.06649597052318329 0 -0.1061201971104495 0.06649597052318329 0 -0.11218469164902591 0.071982266345698029 0 -0.1061201971104495 0.06649597052318329 0 -0.1096119630183208 0.060255110983463027 0 -0.1061201971104495 0.06649597052318329 0 -0.1025437394857965 0.063260498151869071 0 -0.1096119630183208 0.060255110983463027 0 -0.1061201971104495 0.06649597052318329 0 -0.1025437394857965 0.063260498151869071 0 -0.1061201971104495 0.06649597052318329 0 -0.11406998824213239 0.065543775524720502 0 -0.1096119630183208 0.060255110983463027 0 -0.1061201971104495 0.06649597052318329 0 -0.11406998824213239 0.065543775524720502 0 -0.11218469164902591 0.071982266345698029 0 -0.11406998824213239 0.065543775524720502 0 -0.11218469164902591 0.071982266345698029 0 -0.11780178071117491 0.07131594232368195 0 -0.11218469164902591 0.071982266345698029 0 -0.11780178071117491 0.07131594232368195 0 -0.11218469164902591 0.071982266345698029 0 -0.1243425397447641 0.08298096554381712 0 -0.11218469164902591 0.071982266345698029 0 -0.11780178071117491 0.07131594232368195 0 -0.1243425397447641 0.08298096554381712 0 -0.1261097761478473 0.073665903059318333 0 -0.11780178071117491 0.07131594232368195 0 -0.1243425397447641 0.08298096554381712 0 -0.1261097761478473 0.073665903059318333 0 -0.11780178071117491 0.07131594232368195 0 -0.1217887293392805 0.064899453336333693 0 -0.11406998824213239 0.065543775524720502 0 -0.11780178071117491 0.07131594232368195 0 -0.1217887293392805 0.064899453336333693 0 -0.11406998824213239 0.065543775524720502 0 -0.1217887293392805 0.064899453336333693 0 -0.11751586636580159 0.05979291838249208 0 -0.10855123064519399 0.083169500867426055 0 -0.1243425397447641 0.08298096554381712 0 -0.1126029263635963 0.094212146244145714 0 -0.1243425397447641 0.08298096554381712 0 -0.12411649597171361 0.1008762861716014 0 -0.1126029263635963 0.094212146244145714 0 -0.10855123064519399 0.083169500867426055 0 -0.11218469164902591 0.071982266345698029 0 -0.1243425397447641 0.08298096554381712 0 -0.1126029263635963 0.094212146244145714 0 -0.1171875495443879 0.117157903724839 0 -0.12411649597171361 0.1008762861716014 0 -0.1126029263635963 0.094212146244145714 0 -0.1171875495443879 0.117157903724839 0 -0.1126029263635963 0.094212146244145714 0 -0.1171875495443879 0.117157903724839 0 -0.1058943349292551 0.1081429336315804 0 -0.1299490763653168 0.1160507506032664 0 -0.12411649597171361 0.1008762861716014 0 -0.1171875495443879 0.117157903724839 0 -0.1299490763653168 0.1160507506032664 0 -0.1171875495443879 0.117157903724839 0 -0.1171875495443879 0.117157903724839 0 -0.1184153662018054 0.1233030506956697 0 -0.098153682511499279 0.1188092269243913 0 -0.12721695531630731 0.12525514860580869 0 -0.1184153662018054 0.1233030506956697 0 -0.1299490763653168 0.1160507506032664 0 -0.1171875495443879 0.117157903724839 0 -0.1184153662018054 0.1233030506956697 0 -0.1171875495443879 0.117157903724839 0 -0.1184153662018054 0.1233030506956697 0 -0.1171875495443879 0.117157903724839 0 -0.098153682511499279 0.1188092269243913 0 -0.1058943349292551 0.1081429336315804 0 -0.1184153662018054 0.1233030506956697 0 -0.098153682511499279 0.1188092269243913 0 -0.1171875495443879 0.117157903724839 0 -0.098153682511499279 0.1188092269243913 0 -0.1030662927161598 0.12697676692388379 0 -0.1184153662018054 0.1233030506956697 0 -0.098153682511499279 0.1188092269243913 0 -0.1030662927161598 0.12697676692388379 0 -0.098153682511499279 0.1188092269243913 0 -0.094343482141766966 0.11913978887770291 0 -0.1030662927161598 0.12697676692388379 0 -0.094875096279971829 0.12501481522452321 0 -0.094343482141766966 0.11913978887770291 0 -0.1030662927161598 0.12697676692388379 0 -0.094343482141766966 0.11913978887770291 0 -0.092606083198761902 0.11757882899468031 0 -0.098153682511499279 0.1188092269243913 0 -0.094343482141766966 0.11913978887770291 0 -0.092606083198761902 0.11757882899468031 0 -0.098153682511499279 0.1188092269243913 0 -0.098153682511499279 0.1188092269243913 0 -0.094343482141766966 0.11913978887770291 0 -0.09334056042644244 0.11125349425753731 0 -0.098153682511499279 0.1188092269243913 0 -0.09759634982054248 0.10651666272496289 0 -0.098153682511499279 0.1188092269243913 0 -0.09759634982054248 0.10651666272496289 0 -0.1058943349292551 0.1081429336315804 0 -0.09334056042644244 0.11125349425753731 0 -0.092606083198761902 0.11757882899468031 0 -0.098153682511499279 0.1188092269243913 0 -0.09759634982054248 0.10651666272496289 0 -0.1011760774494975 0.096391062062732485 0 -0.1058943349292551 0.1081429336315804 0 -0.087473988408769049 0.099822479952968321 0 -0.094937634529627141 0.086482648955311631 0 -0.1011760774494975 0.096391062062732485 0 -0.087473988408769049 0.099822479952968321 0 -0.09759634982054248 0.10651666272496289 0 -0.1011760774494975 0.096391062062732485 0 -0.1126029263635963 0.094212146244145714 0 -0.1011760774494975 0.096391062062732485 0 -0.1058943349292551 0.1081429336315804 0 -0.1239055540856334 0.012388859614741119 0 -0.1145012808645442 0.03117134911763542 0 -0.091979118021767892 0.01322932767534655 0 -0.1068076453563892 -0.0055775227136052579 0 -0.1239055540856334 0.012388859614741119 0 -0.091979118021767892 0.01322932767534655 0 -0.1145012808645442 0.03117134911763542 0 -0.09868794484033562 0.036487613275618717 0 -0.091979118021767892 0.01322932767534655 0 -0.1145012808645442 0.03117134911763542 0 -0.091979118021767892 0.01322932767534655 0 -0.1239055540856334 0.012388859614741119 0 -0.1145012808645442 0.03117134911763542 0 -0.1145012808645442 0.03117134911763542 0 -0.1168261493290888 0.050712840416214162 0 -0.1037123930287292 0.05271923142178702 0 -0.13093618953821079 0.044264029686706431 0 -0.1145012808645442 0.03117134911763542 0 -0.1168261493290888 0.050712840416214162 0 -0.13093618953821079 0.044264029686706431 0 -0.1145012808645442 0.03117134911763542 0 -0.1252825019001855 0.057553411651729003 0 -0.11751586636580159 0.05979291838249208 0 -0.1168261493290888 0.050712840416214162 0 -0.1252825019001855 0.057553411651729003 0 -0.1217887293392805 0.064899453336333693 0 -0.11751586636580159 0.05979291838249208 0 -0.1252825019001855 0.057553411651729003 0 -0.13093618953821079 0.044264029686706431 0 -0.1168261493290888 0.050712840416214162 0 -0.1168261493290888 0.050712840416214162 0 -0.1096119630183208 0.060255110983463027 0 -0.1037123930287292 0.05271923142178702 0 -0.11751586636580159 0.05979291838249208 0 -0.1168261493290888 0.050712840416214162 0 -0.1096119630183208 0.060255110983463027 0 -0.11406998824213239 0.065543775524720502 0 -0.11751586636580159 0.05979291838249208 0 -0.1096119630183208 0.060255110983463027 0 -0.092923505192914341 0.074267113725938846 0 -0.1037123930287292 0.05271923142178702 0 -0.088871931550255509 0.047706527749933413 0 -0.1025437394857965 0.063260498151869071 0 -0.1096119630183208 0.060255110983463027 0 -0.1037123930287292 0.05271923142178702 0 -0.1145012808645442 0.03117134911763542 0 -0.1037123930287292 0.05271923142178702 0 -0.09868794484033562 0.036487613275618717 0 -0.1037123930287292 0.05271923142178702 0 -0.09868794484033562 0.036487613275618717 0 -0.088871931550255509 0.047706527749933413 0 -0.1145012808645442 0.03117134911763542 0 -0.1037123930287292 0.05271923142178702 0 -0.09868794484033562 0.036487613275618717 0 -0.084728658658383457 0.033876203897360603 0 -0.088871931550255509 0.047706527749933413 0 -0.084728658658383457 0.033876203897360603 0 -0.088871931550255509 0.047706527749933413 0 -0.075896714475304772 0.044245672542823182 0 -0.088144270846316264 0.074834047704866527 0 -0.088871931550255509 0.047706527749933413 0 -0.076493180538745709 0.059919101075706263 0 -0.088144270846316264 0.074834047704866527 0 -0.088871931550255509 0.047706527749933413 0 -0.088871931550255509 0.047706527749933413 0 -0.076493180538745709 0.059919101075706263 0 -0.075896714475304772 0.044245672542823182 0 -0.076493180538745709 0.059919101075706263 0 -0.075896714475304772 0.044245672542823182 0 -0.060399291480276729 0.05387390012351892 0 -0.075896714475304772 0.044245672542823182 0 -0.068207584404253452 0.027711878243081151 0 -0.060399291480276729 0.05387390012351892 0 -0.084728658658383457 0.033876203897360603 0 -0.075896714475304772 0.044245672542823182 0 -0.068207584404253452 0.027711878243081151 0 -0.069456955178992599 -0.0047126937669436757 0 -0.068207584404253452 0.027711878243081151 0 -0.049878246708470478 0.0024770775972122409 0 -0.069456955178992599 -0.0047126937669436757 0 -0.068207584404253452 0.027711878243081151 0 -0.091979118021767892 0.01322932767534655 0 -0.084728658658383457 0.033876203897360603 0 -0.068207584404253452 0.027711878243081151 0 -0.091979118021767892 0.01322932767534655 0 -0.09868794484033562 0.036487613275618717 0 -0.084728658658383457 0.033876203897360603 0 -0.091979118021767892 0.01322932767534655 0 -0.069456955178992599 -0.0047126937669436757 0 -0.091979118021767892 0.01322932767534655 0 -0.068207584404253452 0.027711878243081151 0 -0.049878246708470478 0.0024770775972122409 0 -0.03806594706950843 0.019537307710195219 0 -0.068207584404253452 0.027711878243081151 0 -0.03806594706950843 0.019537307710195219 0 -0.040208625365871817 0.043675067151018272 0 -0.03806594706950843 0.019537307710195219 0 -0.040208625365871817 0.043675067151018272 0 -0.023544975315763411 0.029804765512977439 0 -0.028885176352328928 -0.0016442082084496101 0 -0.049878246708470478 0.0024770775972122409 0 -0.03806594706950843 0.019537307710195219 0 -0.047323210026151079 0.063650369159158796 0 -0.060399291480276729 0.05387390012351892 0 -0.040208625365871817 0.043675067151018272 0 -0.068207584404253452 0.027711878243081151 0 -0.060399291480276729 0.05387390012351892 0 -0.040208625365871817 0.043675067151018272 0 -0.031344245009606218 0.062538348995434812 0 -0.047323210026151079 0.063650369159158796 0 -0.040208625365871817 0.043675067151018272 0 -0.031344245009606218 0.062538348995434812 0 -0.01263014128303871 0.045724729255758677 0 -0.016808949900331691 0.067251763143295645 0 -0.031344245009606218 0.062538348995434812 0 -0.01263014128303871 0.045724729255758677 0 -0.031344245009606218 0.062538348995434812 0 -0.040208625365871817 0.043675067151018272 0 -0.01263014128303871 0.045724729255758677 0 -0.040208625365871817 0.043675067151018272 0 -0.01263014128303871 0.045724729255758677 0 -0.023544975315763411 0.029804765512977439 0 -0.01263014128303871 0.045724729255758677 0 -0.0085536225945432344 0.025418226429912271 0 0.0060839624435279991 0.028911109516081591 0 -0.01263014128303871 0.045724729255758677 0 -0.023544975315763411 0.029804765512977439 0 -0.0085536225945432344 0.025418226429912271 0 -0.01263014128303871 0.045724729255758677 0 0.0060839624435279991 0.028911109516081591 0 -0.001122932215326987 0.066514027061002887 0 -0.01263014128303871 0.045724729255758677 0 0.011589431733439629 0.051075332422207131 0 -0.001122932215326987 0.066514027061002887 0 -0.016808949900331691 0.067251763143295645 0 -0.01263014128303871 0.045724729255758677 0 -0.028885176352328928 -0.0016442082084496101 0 -0.005955033776784309 -0.00065162974896590398 0 -0.018266540265854829 0.014668497018002741 0 -0.028885176352328928 -0.0016442082084496101 0 -0.03806594706950843 0.019537307710195219 0 -0.018266540265854829 0.014668497018002741 0 -0.03806594706950843 0.019537307710195219 0 -0.018266540265854829 0.014668497018002741 0 -0.023544975315763411 0.029804765512977439 0 -0.018266540265854829 0.014668497018002741 0 -0.023544975315763411 0.029804765512977439 0 -0.0085536225945432344 0.025418226429912271 0 -0.018266540265854829 0.014668497018002741 0 -0.0085536225945432344 0.025418226429912271 0 -0.0049285621695675319 0.012539313644648871 0 -0.0085536225945432344 0.025418226429912271 0 -0.0049285621695675319 0.012539313644648871 0 0.0035326163374157708 0.018639759186314251 0 -0.005955033776784309 -0.00065162974896590398 0 -0.018266540265854829 0.014668497018002741 0 -0.0049285621695675319 0.012539313644648871 0 -0.005955033776784309 -0.00065162974896590398 0 -0.0049285621695675319 0.012539313644648871 0 0.0080705234781095411 0.0063488255175038772 0 -0.005955033776784309 -0.00065162974896590398 0 0.0080705234781095411 0.0063488255175038772 0 0.0064494369519845218 -0.003400704004759007 0 0.0080705234781095411 0.0063488255175038772 0 0.019107150695238669 0.017210472485221971 0 0.018106675171310972 -0.0051844803352407024 0 0.0080705234781095411 0.0063488255175038772 0 0.0035326163374157708 0.018639759186314251 0 0.019107150695238669 0.017210472485221971 0 -0.0049285621695675319 0.012539313644648871 0 0.0080705234781095411 0.0063488255175038772 0 0.0035326163374157708 0.018639759186314251 0 0.0060839624435279991 0.028911109516081591 0 0.019107150695238669 0.017210472485221971 0 0.020271557234582589 0.043274907734966957 0 0.0035326163374157708 0.018639759186314251 0 0.0060839624435279991 0.028911109516081591 0 -0.0085536225945432344 0.025418226429912271 0 0.0035326163374157708 0.018639759186314251 0 0.0060839624435279991 0.028911109516081591 0 0.0035326163374157708 0.018639759186314251 0 0.0060839624435279991 0.028911109516081591 0 0.019107150695238669 0.017210472485221971 0 0.0060839624435279991 0.028911109516081591 0 0.019107150695238669 0.017210472485221971 0 0.019107150695238669 0.017210472485221971 0 0.020271557234582589 0.043274907734966957 0 0.019107150695238669 0.017210472485221971 0 0.018106675171310972 -0.0051844803352407024 0 0.019107150695238669 0.017210472485221971 0 0.039864691636193668 -0.0014390661307540731 0 0.019107150695238669 0.017210472485221971 0 0.018106675171310972 -0.0051844803352407024 0 0.039864691636193668 -0.0014390661307540731 0 0.011589431733439629 0.051075332422207131 0 0.017094901023353849 0.073239555328332068 0 0.0060839624435279991 0.028911109516081591 0 0.011589431733439629 0.051075332422207131 0 0.020271557234582589 0.043274907734966957 0 -0.01263014128303871 0.045724729255758677 0 0.0060839624435279991 0.028911109516081591 0 0.011589431733439629 0.051075332422207131 0 0.0060839624435279991 0.028911109516081591 0 0.011589431733439629 0.051075332422207131 0 0.020271557234582589 0.043274907734966957 0 0.036537296516895551 0.051835038148153267 0 0.036072412973853822 0.035317452257250782 0 0.019107150695238669 0.017210472485221971 0 0.020271557234582589 0.043274907734966957 0 0.036072412973853822 0.035317452257250782 0 0.011589431733439629 0.051075332422207131 0 0.020271557234582589 0.043274907734966957 0 0.02143596377392492 0.069339342984712074 0 0.020271557234582589 0.043274907734966957 0 0.036537296516895551 0.051835038148153267 0 0.02143596377392492 0.069339342984712074 0 0.020271557234582589 0.043274907734966957 0 0.02143596377392492 0.069339342984712074 0 0.036537296516895551 0.051835038148153267 0 0.057660231692759113 0.049252619069185162 0 0.044885798065328997 0.068371657500845673 0 0.036537296516895551 0.051835038148153267 0 0.036072412973853822 0.035317452257250782 0 0.057660231692759113 0.049252619069185162 0 0.036072412973853822 0.035317452257250782 0 0.057660231692759113 0.049252619069185162 0 0.049280008625647277 0.02112223860711529 0 0.057660231692759113 0.049252619069185162 0 0.049280008625647277 0.02112223860711529 0 0.057660231692759113 0.049252619069185162 0 0.049280008625647277 0.02112223860711529 0 0.068777540873091847 0.032626396854153049 0 0.019107150695238669 0.017210472485221971 0 0.049280008625647277 0.02112223860711529 0 0.039864691636193668 -0.0014390661307540731 0 0.019107150695238669 0.017210472485221971 0 0.036072412973853822 0.035317452257250782 0 0.049280008625647277 0.02112223860711529 0 0.049280008625647277 0.02112223860711529 0 0.066131257640678939 0.01483685386439387 0 0.068777540873091847 0.032626396854153049 0 0.049280008625647277 0.02112223860711529 0 0.057640412731564762 0.0021444022285601791 0 0.066131257640678939 0.01483685386439387 0 0.049280008625647277 0.02112223860711529 0 0.057640412731564762 0.0021444022285601791 0 0.039864691636193668 -0.0014390661307540731 0 0.066131257640678939 0.01483685386439387 0 0.083985513779162302 0.01266978384428228 0 0.072303873178155398 -0.0037094104512239751 0 0.057640412731564762 0.0021444022285601791 0 0.066131257640678939 0.01483685386439387 0 0.072303873178155398 -0.0037094104512239751 0 0.083985513779162302 0.01266978384428228 0 0.072303873178155398 -0.0037094104512239751 0 0.083985513779162302 0.01266978384428228 0 0.068777540873091847 0.032626396854153049 0 0.088402727350918947 0.035681072825984428 0 0.083985513779162302 0.01266978384428228 0 0.088402727350918947 0.035681072825984428 0 0.083985513779162302 0.01266978384428228 0 0.09967817344476225 0.018742851135535692 0 0.095082641669973572 0.02822941455488728 0 0.083985513779162302 0.01266978384428228 0 0.088402727350918947 0.035681072825984428 0 0.095082641669973572 0.02822941455488728 0 0.083985513779162302 0.01266978384428228 0 0.095082641669973572 0.02822941455488728 0 0.066131257640678939 0.01483685386439387 0 0.083985513779162302 0.01266978384428228 0 0.068777540873091847 0.032626396854153049 0 0.068777540873091847 0.032626396854153049 0 0.07005415769613417 0.049420335079464001 0 0.080798740897883942 0.045659379330919667 0 0.057660231692759113 0.049252619069185162 0 0.068777540873091847 0.032626396854153049 0 0.07005415769613417 0.049420335079464001 0 0.068777540873091847 0.032626396854153049 0 0.080798740897883942 0.045659379330919667 0 0.057660231692759113 0.049252619069185162 0 0.066722044610755232 0.061122887876718927 0 0.07005415769613417 0.049420335079464001 0 0.07005415769613417 0.049420335079464001 0 0.078698844312667326 0.057747610761632977 0 0.080798740897883942 0.045659379330919667 0 0.066722044610755232 0.061122887876718927 0 0.07005415769613417 0.049420335079464001 0 0.078698844312667326 0.057747610761632977 0 0.09281994092267587 0.058692361807686451 0 0.088402727350918947 0.035681072825984428 0 0.078698844312667326 0.057747610761632977 0 0.09281994092267587 0.058692361807686451 0 0.080697220254415336 0.069853039229330116 0 0.078698844312667326 0.057747610761632977 0 0.09281994092267587 0.058692361807686451 0 0.080798740897883942 0.045659379330919667 0 0.09281994092267587 0.058692361807686451 0 0.080798740897883942 0.045659379330919667 0 0.09281994092267587 0.058692361807686451 0 0.088402727350918947 0.035681072825984428 0 0.080798740897883942 0.045659379330919667 0 0.068777540873091847 0.032626396854153049 0 0.088402727350918947 0.035681072825984428 0 0.080798740897883942 0.045659379330919667 0 0.088402727350918947 0.035681072825984428 0 0.1061797695607848 0.043789045265492328 0 0.095082641669973572 0.02822941455488728 0 0.1061797695607848 0.043789045265492328 0 0.095082641669973572 0.02822941455488728 0 0.09281994092267587 0.058692361807686451 0 0.088402727350918947 0.035681072825984428 0 0.1061797695607848 0.043789045265492328 0 0.1061797695607848 0.043789045265492328 0 0.1129893759307532 0.025833363727857779 0 0.095082641669973572 0.02822941455488728 0 0.09281994092267587 0.058692361807686451 0 0.1061797695607848 0.043789045265492328 0 0.1088461529736402 0.061132543667061653 0 0.1061797695607848 0.043789045265492328 0 0.1088461529736402 0.061132543667061653 0 0.1229811220089092 0.058672679096008942 0 0.1061797695607848 0.043789045265492328 0 0.1229811220089092 0.058672679096008942 0 0.12803759028011469 0.039978624473627038 0 0.1061797695607848 0.043789045265492328 0 0.1129893759307532 0.025833363727857779 0 0.12803759028011469 0.039978624473627038 0 0.1129893759307532 0.025833363727857779 0 0.12787947970148539 0.015902068553405958 0 0.12803759028011469 0.039978624473627038 0 0.1129893759307532 0.025833363727857779 0 0.10665516239915999 0.0082388424151153949 0 0.12787947970148539 0.015902068553405958 0 0.10665516239915999 0.0082388424151153949 0 0.12787947970148539 0.015902068553405958 0 0.1206137002203433 -0.0013104439519602269 0 0.083985513779162302 0.01266978384428228 0 0.10665516239915999 0.0082388424151153949 0 0.099044760328135611 -0.0097913334577598293 0 0.083985513779162302 0.01266978384428228 0 0.10665516239915999 0.0082388424151153949 0 0.09967817344476225 0.018742851135535692 0 0.1129893759307532 0.025833363727857779 0 0.10665516239915999 0.0082388424151153949 0 0.09967817344476225 0.018742851135535692 0 0.1129893759307532 0.025833363727857779 0 0.09967817344476225 0.018742851135535692 0 0.095082641669973572 0.02822941455488728 0 0.1029641026850371 0.1115379473785662 0 0.097892021803862389 0.085115154593125242 0 0.087923039202796927 0.099976199094101645 0 0.1029641026850371 0.1115379473785662 0 0.097892021803862389 0.085115154593125242 0 0.1029641026850371 0.1115379473785662 0 0.1115609170094202 0.091627563170870369 0 0.097892021803862389 0.085115154593125242 0 0.1029641026850371 0.1115379473785662 0 0.09239004177268334 0.12275275557792401 0 0.10688264450994731 0.13195142679376881 0 0.1029641026850371 0.1115379473785662 0 0.10688264450994731 0.13195142679376881 0 0.1029641026850371 0.1115379473785662 0 0.1196350537283823 0.1239826396570102 0 0.1275422097745075 0.1090516154021169 0 0.1029641026850371 0.1115379473785662 0 0.1196350537283823 0.1239826396570102 0 0.10688264450994731 0.13195142679376881 0 0.1029641026850371 0.1115379473785662 0 0.1275422097745075 0.1090516154021169 0 0.1115609170094202 0.091627563170870369 0 0.1251657654797956 0.09376062153051698 0 0.1275422097745075 0.1090516154021169 0 0.1029641026850371 0.1115379473785662 0 0.1115609170094202 0.091627563170870369 0 0.1275422097745075 0.1090516154021169 0 0.10899285320123581 0.076226491669101643 0 0.1251657654797956 0.09376062153051698 0 0.1115609170094202 0.091627563170870369 0 0.10899285320123581 0.076226491669101643 0 0.1251657654797956 0.09376062153051698 0 0.1249726142695281 0.076367868842034128 0 0.10899285320123581 0.076226491669101643 0 0.1251657654797956 0.09376062153051698 0 0.1229811220089092 0.058672679096008942 0 0.1249726142695281 0.076367868842034128 0 0.1164481856133283 0.068099895818551581 0 0.1249726142695281 0.076367868842034128 0 0.1164481856133283 0.068099895818551581 0 0.10899285320123581 0.076226491669101643 0 0.1088461529736402 0.061132543667061653 0 0.1229811220089092 0.058672679096008942 0 0.1164481856133283 0.068099895818551581 0 0.1088461529736402 0.061132543667061653 0 0.1164481856133283 0.068099895818551581 0 0.10899285320123581 0.076226491669101643 0 0.09281994092267587 0.058692361807686451 0 0.097892021803862389 0.085115154593125242 0 0.09281994092267587 0.058692361807686451 0 0.10899285320123581 0.076226491669101643 0 0.097892021803862389 0.085115154593125242 0 0.09281994092267587 0.058692361807686451 0 0.10899285320123581 0.076226491669101643 0 0.09281994092267587 0.058692361807686451 0 0.1088461529736402 0.061132543667061653 0 0.10899285320123581 0.076226491669101643 0 0.1115609170094202 0.091627563170870369 0 0.10899285320123581 0.076226491669101643 0 0.097892021803862389 0.085115154593125242 0 0.097892021803862389 0.085115154593125242 0 0.08081438871496599 0.085620247802975932 0 0.087923039202796927 0.099976199094101645 0 0.097892021803862389 0.085115154593125242 0 0.08081438871496599 0.085620247802975932 0 0.080697220254415336 0.069853039229330116 0 0.09281994092267587 0.058692361807686451 0 0.097892021803862389 0.085115154593125242 0 0.080697220254415336 0.069853039229330116 0 0.08081438871496599 0.085620247802975932 0 0.080697220254415336 0.069853039229330116 0 0.066040454759870665 0.077382999531255131 0 0.066722044610755232 0.061122887876718927 0 0.066040454759870665 0.077382999531255131 0 0.057660231692759113 0.049252619069185162 0 0.066722044610755232 0.061122887876718927 0 0.066040454759870665 0.077382999531255131 0 0.066722044610755232 0.061122887876718927 0 0.080697220254415336 0.069853039229330116 0 0.066040454759870665 0.077382999531255131 0 0.066722044610755232 0.061122887876718927 0 0.078698844312667326 0.057747610761632977 0 0.080697220254415336 0.069853039229330116 0 0.066040454759870665 0.077382999531255131 0 0.06524293482282803 0.096408757039516985 0 0.08081438871496599 0.085620247802975932 0 0.066040454759870665 0.077382999531255131 0 0.071519207553884898 0.095773846567067528 0 0.066040454759870665 0.077382999531255131 0 0.071519207553884898 0.095773846567067528 0 0.066040454759870665 0.077382999531255131 0 0.06524293482282803 0.096408757039516985 0 0.071519207553884898 0.095773846567067528 0 0.06524293482282803 0.096408757039516985 0 0.064445414885785646 0.1154345145477788 0 0.071519207553884898 0.095773846567067528 0 0.076997960347912217 0.114164693602876 0 0.06524293482282803 0.096408757039516985 0 0.069394808700741023 0.1061123888407807 0 0.071519207553884898 0.095773846567067528 0 0.06524293482282803 0.096408757039516985 0 0.069394808700741023 0.1061123888407807 0 0.064445414885785646 0.1154345145477788 0 0.069394808700741023 0.1061123888407807 0 0.071519207553884898 0.095773846567067528 0 0.076997960347912217 0.114164693602876 0 0.08081438871496599 0.085620247802975932 0 0.071519207553884898 0.095773846567067528 0 0.087923039202796927 0.099976199094101645 0 0.1029641026850371 0.1115379473785662 0 0.087923039202796927 0.099976199094101645 0 0.076997960347912217 0.114164693602876 0 0.071519207553884898 0.095773846567067528 0 0.087923039202796927 0.099976199094101645 0 0.076997960347912217 0.114164693602876 0 0.09239004177268334 0.12275275557792401 0 0.077730857039083015 0.1166248504026382 0 0.082715459547836892 0.13335695453648641 0 0.077730857039083015 0.1166248504026382 0 0.082715459547836892 0.13335695453648641 0 0.1029641026850371 0.1115379473785662 0 0.09239004177268334 0.12275275557792401 0 0.076997960347912217 0.114164693602876 0 0.1029641026850371 0.1115379473785662 0 0.076997960347912217 0.114164693602876 0 0.09239004177268334 0.12275275557792401 0 0.076997960347912217 0.114164693602876 0 0.077730857039083015 0.1166248504026382 0 0.077730857039083015 0.1166248504026382 0 0.064064859464598889 0.1245131028383636 0 0.077730857039083015 0.1166248504026382 0 0.064064859464598889 0.1245131028383636 0 0.074395719959488599 0.12681442484719491 0 0.076997960347912217 0.114164693602876 0 0.064445414885785646 0.1154345145477788 0 0.076997960347912217 0.114164693602876 0 0.077730857039083015 0.1166248504026382 0 0.064445414885785646 0.1154345145477788 0 0.076997960347912217 0.114164693602876 0 0.077730857039083015 0.1166248504026382 0 0.069394808700741023 0.1061123888407807 0 0.076997960347912217 0.114164693602876 0 0.064445414885785646 0.1154345145477788 0 0.077730857039083015 0.1166248504026382 0 0.064445414885785646 0.1154345145477788 0 0.064064859464598889 0.1245131028383636 0 0.064445414885785646 0.1154345145477788 0 0.064064859464598889 0.1245131028383636 0 0.064445414885785646 0.1154345145477788 0 0.064064859464598889 0.1245131028383636 0 0.051058486328005817 0.1249924663335195 0 0.064445414885785646 0.1154345145477788 0 0.051039546490554491 0.10565116118425071 0 0.040150619483017527 0.1178921865910867 0 0.064445414885785646 0.1154345145477788 0 0.051058486328005817 0.1249924663335195 0 0.040150619483017527 0.1178921865910867 0 0.064445414885785646 0.1154345145477788 0 0.040150619483017527 0.1178921865910867 0 0.06524293482282803 0.096408757039516985 0 0.051039546490554491 0.10565116118425071 0 0.044507760984755687 0.093410701612831354 0 0.06524293482282803 0.096408757039516985 0 0.064445414885785646 0.1154345145477788 0 0.051039546490554491 0.10565116118425071 0 0.051039546490554491 0.10565116118425071 0 0.034977321700281047 0.10367280206244391 0 0.044507760984755687 0.093410701612831354 0 0.051039546490554491 0.10565116118425071 0 0.034977321700281047 0.10367280206244391 0 0.040150619483017527 0.1178921865910867 0 0.034977321700281047 0.10367280206244391 0 0.044507760984755687 0.093410701612831354 0 0.03104426042015845 0.094575031809888285 0 0.034977321700281047 0.10367280206244391 0 0.031471776514152477 0.1114915824877947 0 0.040150619483017527 0.1178921865910867 0 0.066040454759870665 0.077382999531255131 0 0.051635300668162597 0.081377029918667909 0 0.044885798065328997 0.068371657500845673 0 0.057660231692759113 0.049252619069185162 0 0.066040454759870665 0.077382999531255131 0 0.044885798065328997 0.068371657500845673 0 0.057660231692759113 0.049252619069185162 0 0.066040454759870665 0.077382999531255131 0 0.06524293482282803 0.096408757039516985 0 0.051635300668162597 0.081377029918667909 0 0.044507760984755687 0.093410701612831354 0 0.066040454759870665 0.077382999531255131 0 0.06524293482282803 0.096408757039516985 0 0.051635300668162597 0.081377029918667909 0 0.051635300668162597 0.081377029918667909 0 0.044507760984755687 0.093410701612831354 0 0.03115540800077353 0.081963362119184216 0 0.044507760984755687 0.093410701612831354 0 0.03115540800077353 0.081963362119184216 0 0.03104426042015845 0.094575031809888285 0 0.036537296516895551 0.051835038148153267 0 0.044885798065328997 0.068371657500845673 0 0.02143596377392492 0.069339342984712074 0 0.044885798065328997 0.068371657500845673 0 0.02143596377392492 0.069339342984712074 0 0.03115540800077353 0.081963362119184216 0 0.051635300668162597 0.081377029918667909 0 0.044885798065328997 0.068371657500845673 0 0.03115540800077353 0.081963362119184216 0 0.011589431733439629 0.051075332422207131 0 0.02143596377392492 0.069339342984712074 0 0.017094901023353849 0.073239555328332068 0 0.017094901023353849 0.073239555328332068 0 0.02260037031326766 0.09540377823445706 0 0.02143596377392492 0.069339342984712074 0 0.03115540800077353 0.081963362119184216 0 0.02260037031326766 0.09540377823445706 0 0.02143596377392492 0.069339342984712074 0 0.017094901023353849 0.073239555328332068 0 0.02260037031326766 0.09540377823445706 0 0.02143596377392492 0.069339342984712074 0 0.02260037031326766 0.09540377823445706 0 0.017094901023353849 0.073239555328332068 0 0.01008110677542242 0.086747618059568585 0 0.02260037031326766 0.09540377823445706 0 0.03115540800077353 0.081963362119184216 0 0.03104426042015845 0.094575031809888285 0 0.02260037031326766 0.09540377823445706 0 -0.001122932215326987 0.066514027061002887 0 0.011589431733439629 0.051075332422207131 0 0.017094901023353849 0.073239555328332068 0 -0.001122932215326987 0.066514027061002887 0 0.017094901023353849 0.073239555328332068 0 0.01008110677542242 0.086747618059568585 0 0.031471776514152477 0.1114915824877947 0 0.040150619483017527 0.1178921865910867 0 0.01585582408024943 0.12034985863439621 0 0.040150619483017527 0.1178921865910867 0 0.01585582408024943 0.12034985863439621 0 0.02875464113416178 0.132787586561738 0 0.040150619483017527 0.1178921865910867 0 0.01585582408024943 0.12034985863439621 0 0.02293585234678865 0.1118832134094757 0 0.017809148074939399 0.1143575972189831 0 0.01585582408024943 0.12034985863439621 0 0.031471776514152477 0.1114915824877947 0 0.02293585234678865 0.1118832134094757 0 0.01585582408024943 0.12034985863439621 0 0.017809148074939399 0.1143575972189831 0 0.019529818414427799 0.10909384487069181 0 0.01318695313949058 0.10563787410520301 0 0.02293585234678865 0.1118832134094757 0 0.017809148074939399 0.1143575972189831 0 0.019529818414427799 0.10909384487069181 0 0.017809148074939399 0.1143575972189831 0 0.01585582408024943 0.12034985863439621 0 0.031471776514152477 0.1114915824877947 0 0.02293585234678865 0.1118832134094757 0 0.023019877699255349 0.10479416099978631 0 0.034977321700281047 0.10367280206244391 0 0.031471776514152477 0.1114915824877947 0 0.023019877699255349 0.10479416099978631 0 0.034977321700281047 0.10367280206244391 0 0.023194003737993941 0.097793660523738696 0 0.023019877699255349 0.10479416099978631 0 0.034977321700281047 0.10367280206244391 0 0.03104426042015845 0.094575031809888285 0 0.023194003737993941 0.097793660523738696 0 0.03104426042015845 0.094575031809888285 0 0.02260037031326766 0.09540377823445706 0 0.023194003737993941 0.097793660523738696 0 0.02260037031326766 0.09540377823445706 0 0.023019877699255349 0.10479416099978631 0 0.02260037031326766 0.09540377823445706 0 0.023194003737993941 0.097793660523738696 0 0.023019877699255349 0.10479416099978631 0 0.02260037031326766 0.09540377823445706 0 0.023194003737993941 0.097793660523738696 0 0.023019877699255349 0.10479416099978631 0 0.019529818414427799 0.10909384487069181 0 0.01318695313949058 0.10563787410520301 0 0.02260037031326766 0.09540377823445706 0 0.023019877699255349 0.10479416099978631 0 0.01318695313949058 0.10563787410520301 0 0.02293585234678865 0.1118832134094757 0 0.023019877699255349 0.10479416099978631 0 0.019529818414427799 0.10909384487069181 0 0.01008110677542242 0.086747618059568585 0 0.01318695313949058 0.10563787410520301 0 0.001746293437441046 0.099474429017154267 0 0.01008110677542242 0.086747618059568585 0 0.02260037031326766 0.09540377823445706 0 0.01318695313949058 0.10563787410520301 0 0.01318695313949058 0.10563787410520301 0 0.001746293437441046 0.099474429017154267 0 0.0051786685062501364 0.11355488139551401 0 -0.0040711314881198071 0.12236567810505571 0 0.01585582408024943 0.12034985863439621 0 -0.0040711314881198071 0.12236567810505571 0 0.01585582408024943 0.12034985863439621 0 0.0051786685062501364 0.11355488139551401 0 0.017809148074939399 0.1143575972189831 0 0.01585582408024943 0.12034985863439621 0 0.0051786685062501364 0.11355488139551401 0 0.017809148074939399 0.1143575972189831 0 0.01318695313949058 0.10563787410520301 0 0.0051786685062501364 0.11355488139551401 0 0.01585582408024943 0.12034985863439621 0 0.0093734844019246148 0.1402358959951398 0 0.019175794372575061 0.1420125532773556 0 0.01585582408024943 0.12034985863439621 0 0.0093734844019246148 0.1402358959951398 0 -0.0040711314881198071 0.12236567810505571 0 0.01585582408024943 0.12034985863439621 0 0.0093734844019246148 0.1402358959951398 0 0.01585582408024943 0.12034985863439621 0 0.02875464113416178 0.132787586561738 0 0.019175794372575061 0.1420125532773556 0 0.02875464113416178 0.132787586561738 0 0.024372358668444671 0.14761785525777979 0 0.019175794372575061 0.1420125532773556 0 0.024372358668444671 0.14761785525777979 0 0.019175794372575061 0.1420125532773556 0 0.0093734844019246148 0.1402358959951398 0 0.0028911447235999768 0.16012193335588359 0 -0.0066385160417633 0.138458195590481 0 0.0093734844019246148 0.1402358959951398 0 0.0028911447235999768 0.16012193335588359 0 0.024372358668444671 0.14761785525777979 0 0.0028911447235999768 0.16012193335588359 0 0.024372358668444671 0.14761785525777979 0 0.019175794372575061 0.1420125532773556 0 0.0028911447235999768 0.16012193335588359 0 0.0093734844019246148 0.1402358959951398 0 0.019175794372575061 0.1420125532773556 0 0.0028911447235999768 0.16012193335588359 0 0.024372358668444671 0.14761785525777979 0 0.0028911447235999768 0.16012193335588359 0 0.01852164154057858 0.16227041524836189 0 0.0028911447235999768 0.16012193335588359 0 0.015052313123675569 0.17766171686724971 0 0.01852164154057858 0.16227041524836189 0 -0.0051093000487504314 0.1846651001043764 0 0.015052313123675569 0.17766171686724971 0 0.01097823803592044 0.19512526190399021 0 -0.0051093000487504314 0.1846651001043764 0 0.0028911447235999768 0.16012193335588359 0 0.015052313123675569 0.17766171686724971 0 0.015052313123675569 0.17766171686724971 0 0.01097823803592044 0.19512526190399021 0 0.02918766397572245 0.1890796655758557 0 0.015052313123675569 0.17766171686724971 0 0.044761672166097027 0.16961089774138069 0 0.02918766397572245 0.1890796655758557 0 0.024372358668444671 0.14761785525777979 0 0.01852164154057858 0.16227041524836189 0 0.044761672166097027 0.16961089774138069 0 0.015052313123675569 0.17766171686724971 0 0.01852164154057858 0.16227041524836189 0 0.044761672166097027 0.16961089774138069 0 0.024372358668444671 0.14761785525777979 0 0.044761672166097027 0.16961089774138069 0 0.036122037095208157 0.1529802459252686 0 0.044761672166097027 0.16961089774138069 0 0.065150985663745928 0.19160394022498439 0 0.062595541864356036 0.15956536807517649 0 0.024372358668444671 0.14761785525777979 0 0.044761672166097027 0.16961089774138069 0 0.044761672166097027 0.16961089774138069 0 0.02918766397572245 0.1890796655758557 0 0.040452347619428668 0.1907054836672889 0 0.044761672166097027 0.16961089774138069 0 0.040452347619428668 0.1907054836672889 0 0.051003679999880508 0.19857843719230159 0 0.044761672166097027 0.16961089774138069 0 0.051003679999880508 0.19857843719230159 0 0.065150985663745928 0.19160394022498439 0 0.044761672166097027 0.16961089774138069 0 0.065150985663745928 0.19160394022498439 0 0.044761672166097027 0.16961089774138069 0 0.036122037095208157 0.1529802459252686 0 0.062595541864356036 0.15956536807517649 0 0.044218609066521503 0.13606547904807129 0 0.036122037095208157 0.1529802459252686 0 0.062880818734207394 0.15275975946727299 0 0.036122037095208157 0.1529802459252686 0 0.062880818734207394 0.15275975946727299 0 0.036122037095208157 0.1529802459252686 0 0.062880818734207394 0.15275975946727299 0 0.062595541864356036 0.15956536807517649 0 0.064064859464598889 0.1245131028383636 0 0.051058486328005817 0.1249924663335195 0 0.044218609066521503 0.13606547904807129 0 0.064064859464598889 0.1245131028383636 0 0.044218609066521503 0.13606547904807129 0 0.062880818734207394 0.15275975946727299 0 0.064064859464598889 0.1245131028383636 0 0.044218609066521503 0.13606547904807129 0 0.040150619483017527 0.1178921865910867 0 0.02875464113416178 0.132787586561738 0 0.044218609066521503 0.13606547904807129 0 0.02875464113416178 0.132787586561738 0 0.024372358668444671 0.14761785525777979 0 0.044218609066521503 0.13606547904807129 0 0.051058486328005817 0.1249924663335195 0 0.040150619483017527 0.1178921865910867 0 0.044218609066521503 0.13606547904807129 0 0.024372358668444671 0.14761785525777979 0 0.044218609066521503 0.13606547904807129 0 0.024372358668444671 0.14761785525777979 0 0.044218609066521503 0.13606547904807129 0 0.036122037095208157 0.1529802459252686 0 0.030117459547579929 0.24963394962891691 0 0.024692788286370771 0.2378906868054243 0 0.013934948341719671 0.25121939395090209 0 0.024692788286370771 0.2378906868054243 0 0.0098496930463878168 0.2367105302594294 0 0.013934948341719671 0.25121939395090209 0 -0.0088747255821837664 0.2494613688607428 0 0.0098496930463878168 0.2367105302594294 0 0.013934948341719671 0.25121939395090209 0 -0.0060633691525819947 0.22695911090195381 0 0.023104264665050209 0.22098082934092339 0 -0.0060633691525819947 0.22695911090195381 0 0.0098496930463878168 0.2367105302594294 0 0.023104264665050209 0.22098082934092339 0 -0.0060633691525819947 0.22695911090195381 0 0.023104264665050209 0.22098082934092339 0 0.0063224202229716069 0.20980241785704271 0 0.024692788286370771 0.2378906868054243 0 0.023104264665050209 0.22098082934092339 0 0.041548458483987867 0.23682620797254869 0 0.024692788286370771 0.2378906868054243 0 0.0098496930463878168 0.2367105302594294 0 0.023104264665050209 0.22098082934092339 0 0.023104264665050209 0.22098082934092339 0 0.022012789612794018 0.2051561445331489 0 0.03685637433601472 0.20555293415961789 0 0.023104264665050209 0.22098082934092339 0 0.022012789612794018 0.2051561445331489 0 0.0063224202229716069 0.20980241785704271 0 0.022012789612794018 0.2051561445331489 0 0.0063224202229716069 0.20980241785704271 0 0.01097823803592044 0.19512526190399021 0 -0.0002295966527396387 0.1997002616795697 0 -0.0051093000487504314 0.1846651001043764 0 0.01097823803592044 0.19512526190399021 0 -0.0002295966527396387 0.1997002616795697 0 0.0063224202229716069 0.20980241785704271 0 0.01097823803592044 0.19512526190399021 0 0.022012789612794018 0.2051561445331489 0 0.02918766397572245 0.1890796655758557 0 0.03685637433601472 0.20555293415961789 0 0.022012789612794018 0.2051561445331489 0 0.01097823803592044 0.19512526190399021 0 0.02918766397572245 0.1890796655758557 0 0.02918766397572245 0.1890796655758557 0 0.040452347619428668 0.1907054836672889 0 0.03685637433601472 0.20555293415961789 0 0.040452347619428668 0.1907054836672889 0 0.051003679999880508 0.19857843719230159 0 0.03685637433601472 0.20555293415961789 0 0.051003679999880508 0.19857843719230159 0 0.03685637433601472 0.20555293415961789 0 0.051003679999880508 0.19857843719230159 0 0.052271898482682648 0.2150025477798945 0 0.065150985663745928 0.19160394022498439 0 0.051003679999880508 0.19857843719230159 0 0.065150985663745928 0.19160394022498439 0 0.051003679999880508 0.19857843719230159 0 0.052271898482682648 0.2150025477798945 0 0.047665101322878031 0.2117593083281063 0 0.052271898482682648 0.2150025477798945 0 0.047665101322878031 0.2117593083281063 0 0.023104264665050209 0.22098082934092339 0 0.047665101322878031 0.2117593083281063 0 0.03685637433601472 0.20555293415961789 0 0.023104264665050209 0.22098082934092339 0 0.052271898482682648 0.2150025477798945 0 0.023104264665050209 0.22098082934092339 0 0.052271898482682648 0.2150025477798945 0 0.047665101322878031 0.2117593083281063 0 0.051003679999880508 0.19857843719230159 0 0.047665101322878031 0.2117593083281063 0 0.03685637433601472 0.20555293415961789 0 0.023104264665050209 0.22098082934092339 0 0.052271898482682648 0.2150025477798945 0 0.041548458483987867 0.23682620797254869 0 0.052271898482682648 0.2150025477798945 0 0.056630279462484383 0.2321654104436103 0 0.041548458483987867 0.23682620797254869 0 0.052271898482682648 0.2150025477798945 0 0.07255248627533406 0.22928032041736701 0 0.052271898482682648 0.2150025477798945 0 0.056630279462484383 0.2321654104436103 0 0.07255248627533406 0.22928032041736701 0 0.056630279462484383 0.2321654104436103 0 0.041548458483987867 0.23682620797254869 0 0.060429709782307661 0.25005067720832758 0 0.041548458483987867 0.23682620797254869 0 0.041683451620690148 0.26180632169527729 0 0.060429709782307661 0.25005067720832758 0 0.030117459547579929 0.24963394962891691 0 0.024692788286370771 0.2378906868054243 0 0.041548458483987867 0.23682620797254869 0 0.030117459547579929 0.24963394962891691 0 0.041548458483987867 0.23682620797254869 0 0.041683451620690148 0.26180632169527729 0 0.092833074067986632 0.24355809305483769 0 0.07255248627533406 0.22928032041736701 0 0.092833074067986632 0.24355809305483769 0 0.07723364578999406 0.24996218202503059 0 0.07255248627533406 0.22928032041736701 0 0.056630279462484383 0.2321654104436103 0 0.07255248627533406 0.22928032041736701 0 0.060429709782307661 0.25005067720832758 0 0.07723364578999406 0.24996218202503059 0 0.07255248627533406 0.22928032041736701 0 0.060429709782307661 0.25005067720832758 0 0.092833074067986632 0.24355809305483769 0 0.07255248627533406 0.22928032041736701 0 0.099047500920282944 0.22816659841202269 0 0.07255248627533406 0.22928032041736701 0 0.081323140764983967 0.20904812216048091 0 0.099047500920282944 0.22816659841202269 0 0.081323140764983967 0.20904812216048091 0 0.099047500920282944 0.22816659841202269 0 0.052271898482682648 0.2150025477798945 0 0.081323140764983967 0.20904812216048091 0 0.052271898482682648 0.2150025477798945 0 0.07255248627533406 0.22928032041736701 0 0.081323140764983967 0.20904812216048091 0 0.052271898482682648 0.2150025477798945 0 0.081323140764983967 0.20904812216048091 0 0.065150985663745928 0.19160394022498439 0 0.081323140764983967 0.20904812216048091 0 0.065150985663745928 0.19160394022498439 0 0.081323140764983967 0.20904812216048091 0 0.1031586115929371 0.1886290976280815 0 0.089417789343322812 0.17964061995107949 0 0.081323140764983967 0.20904812216048091 0 0.065150985663745928 0.19160394022498439 0 0.089417789343322812 0.17964061995107949 0 0.081323140764983967 0.20904812216048091 0 0.1031586115929371 0.1886290976280815 0 0.107843906105401 0.20361235032481181 0 0.1031586115929371 0.1886290976280815 0 0.1187372653786766 0.1937075773958232 0 0.107843906105401 0.20361235032481181 0 0.1187372653786766 0.1937075773958232 0 0.107843906105401 0.20361235032481181 0 0.1237359875975472 0.2197482113043033 0 0.1093636113416756 0.21800952768569701 0 0.107843906105401 0.20361235032481181 0 0.1237359875975472 0.2197482113043033 0 0.1187372653786766 0.1937075773958232 0 0.1237359875975472 0.2197482113043033 0 0.081323140764983967 0.20904812216048091 0 0.1093636113416756 0.21800952768569701 0 0.107843906105401 0.20361235032481181 0 0.081323140764983967 0.20904812216048091 0 0.107843906105401 0.20361235032481181 0 0.081323140764983967 0.20904812216048091 0 0.1093636113416756 0.21800952768569701 0 0.099047500920282944 0.22816659841202269 0 0.1093636113416756 0.21800952768569701 0 0.099047500920282944 0.22816659841202269 0 0.1148410123248513 0.23188113170683089 0 0.1093636113416756 0.21800952768569701 0 0.1237359875975472 0.2197482113043033 0 0.1148410123248513 0.23188113170683089 0 0.1237359875975472 0.2197482113043033 0 0.1148410123248513 0.23188113170683089 0 0.12873470981641769 0.24578884521278349 0 0.099047500920282944 0.22816659841202269 0 0.1148410123248513 0.23188113170683089 0 0.1167718610755803 0.24728507466356589 0 0.1148410123248513 0.23188113170683089 0 0.1167718610755803 0.24728507466356589 0 0.12873470981641769 0.24578884521278349 0 0.092833074067986632 0.24355809305483769 0 0.099047500920282944 0.22816659841202269 0 0.1167718610755803 0.24728507466356589 0 0.099047500920282944 0.22816659841202269 0 0.1167718610755803 0.24728507466356589 0 0.092833074067986632 0.24355809305483769 0 0.1167718610755803 0.24728507466356589 0 0.1131136618606392 0.25783586569230832 0 0.088432958747773627 0.15254921547009309 0 0.082715459547836892 0.13335695453648641 0 0.088432958747773627 0.15254921547009309 0 0.078028136881430732 0.1573180375973843 0 0.086112294161955857 0.1564025654748756 0 0.088432958747773627 0.15254921547009309 0 0.08898524756904648 0.15440311536546519 0 0.098399944650224808 0.15642677884984399 0 0.08898524756904648 0.15440311536546519 0 0.086112294161955857 0.1564025654748756 0 0.098399944650224808 0.15642677884984399 0 0.088432958747773627 0.15254921547009309 0 0.08898524756904648 0.15440311536546519 0 0.086112294161955857 0.1564025654748756 0 0.088432958747773627 0.15254921547009309 0 0.08898524756904648 0.15440311536546519 0 0.077730857039083015 0.1166248504026382 0 0.082715459547836892 0.13335695453648641 0 0.074395719959488599 0.12681442484719491 0 0.088432958747773627 0.15254921547009309 0 0.082715459547836892 0.13335695453648641 0 0.10688264450994731 0.13195142679376881 0 0.064064859464598889 0.1245131028383636 0 0.074395719959488599 0.12681442484719491 0 0.062880818734207394 0.15275975946727299 0 0.082715459547836892 0.13335695453648641 0 0.074395719959488599 0.12681442484719491 0 0.062880818734207394 0.15275975946727299 0 0.064064859464598889 0.1245131028383636 0 0.062880818734207394 0.15275975946727299 0 0.088432958747773627 0.15254921547009309 0 0.062880818734207394 0.15275975946727299 0 0.078028136881430732 0.1573180375973843 0 0.088432958747773627 0.15254921547009309 0 0.062880818734207394 0.15275975946727299 0 0.088432958747773627 0.15254921547009309 0 0.082715459547836892 0.13335695453648641 0 0.062880818734207394 0.15275975946727299 0 0.062880818734207394 0.15275975946727299 0 0.062595541864356036 0.15956536807517649 0 0.062880818734207394 0.15275975946727299 0 0.062595541864356036 0.15956536807517649 0 0.071116280837394186 0.15996879716165691 0 0.062595541864356036 0.15956536807517649 0 0.075786616816277047 0.16884410638727851 0 0.071116280837394186 0.15996879716165691 0 0.065150985663745928 0.19160394022498439 0 0.062595541864356036 0.15956536807517649 0 0.075786616816277047 0.16884410638727851 0 0.075786616816277047 0.16884410638727851 0 0.076290289890699622 0.16135671428117221 0 0.080788668207744954 0.1620567864812831 0 0.062880818734207394 0.15275975946727299 0 0.078028136881430732 0.1573180375973843 0 0.071116280837394186 0.15996879716165691 0 0.075786616816277047 0.16884410638727851 0 0.076290289890699622 0.16135671428117221 0 0.071116280837394186 0.15996879716165691 0 0.076290289890699622 0.16135671428117221 0 0.078028136881430732 0.1573180375973843 0 0.071116280837394186 0.15996879716165691 0 0.065150985663745928 0.19160394022498439 0 0.075786616816277047 0.16884410638727851 0 0.089417789343322812 0.17964061995107949 0 0.065150985663745928 0.19160394022498439 0 0.089417789343322812 0.17964061995107949 0 0.078028136881430732 0.1573180375973843 0 0.083335327526024849 0.1598053853303236 0 0.086112294161955857 0.1564025654748756 0 0.083335327526024849 0.1598053853303236 0 0.080788668207744954 0.1620567864812831 0 0.08694480350792598 0.1640958640687992 0 0.083335327526024849 0.1598053853303236 0 0.08694480350792598 0.1640958640687992 0 0.086112294161955857 0.1564025654748756 0 0.078028136881430732 0.1573180375973843 0 0.083335327526024849 0.1598053853303236 0 0.080788668207744954 0.1620567864812831 0 0.076290289890699622 0.16135671428117221 0 0.078028136881430732 0.1573180375973843 0 0.080788668207744954 0.1620567864812831 0 0.075786616816277047 0.16884410638727851 0 0.089417789343322812 0.17964061995107949 0 0.08694480350792598 0.1640958640687992 0 0.075786616816277047 0.16884410638727851 0 0.080788668207744954 0.1620567864812831 0 0.08694480350792598 0.1640958640687992 0 0.089417789343322812 0.17964061995107949 0 0.08694480350792598 0.1640958640687992 0 0.094007048780939212 0.16713369892758201 0 0.08694480350792598 0.1640958640687992 0 0.086112294161955857 0.1564025654748756 0 0.094007048780939212 0.16713369892758201 0 0.089417789343322812 0.17964061995107949 0 0.107213176443575 0.1653779746235059 0 0.11368459302289929 0.16767729967717371 0 0.089417789343322812 0.17964061995107949 0 0.094007048780939212 0.16713369892758201 0 0.107213176443575 0.1653779746235059 0 0.086112294161955857 0.1564025654748756 0 0.094007048780939212 0.16713369892758201 0 0.107213176443575 0.1653779746235059 0 0.086112294161955857 0.1564025654748756 0 0.107213176443575 0.1653779746235059 0 0.10901846822593569 0.16471421725265459 0 0.086112294161955857 0.1564025654748756 0 0.098399944650224808 0.15642677884984399 0 0.10901846822593569 0.16471421725265459 0 0.086112294161955857 0.1564025654748756 0 0.10901846822593569 0.16471421725265459 0 0.107213176443575 0.1653779746235059 0 0.10901846822593569 0.16471421725265459 0 0.098399944650224808 0.15642677884984399 0 0.10901846822593569 0.16471421725265459 0 0.10704951286179019 0.15812665332700199 0 0.1031586115929371 0.1886290976280815 0 0.089417789343322812 0.17964061995107949 0 0.11368459302289929 0.16767729967717371 0 0.089417789343322812 0.17964061995107949 0 0.11368459302289929 0.16767729967717371 0 0.1187372653786766 0.1937075773958232 0 0.11368459302289929 0.16767729967717371 0 0.13289196577071291 0.17337686854289761 0 0.1031586115929371 0.1886290976280815 0 0.1187372653786766 0.1937075773958232 0 0.11368459302289929 0.16767729967717371 0 0.1187372653786766 0.1937075773958232 0 0.11368459302289929 0.16767729967717371 0 0.1128979369469684 0.16328784065041599 0 0.1219418862909001 0.15570240597071011 0 0.13560933689494259 0.15493746800422251 0 0.1128979369469684 0.16328784065041599 0 0.13560933689494259 0.15493746800422251 0 0.12548128083099949 0.1624516085292497 0 0.11368459302289929 0.16767729967717371 0 0.13289196577071291 0.17337686854289761 0 0.1128979369469684 0.16328784065041599 0 0.13560933689494259 0.15493746800422251 0 0.11368459302289929 0.16767729967717371 0 0.12548128083099949 0.1624516085292497 0 0.13289196577071291 0.17337686854289761 0 0.1128979369469684 0.16328784065041599 0 0.1108011863348472 0.15236490620897339 0 0.1128979369469684 0.16328784065041599 0 0.1219418862909001 0.15570240597071011 0 0.1108011863348472 0.15236490620897339 0 0.10704951286179019 0.15812665332700199 0 0.1128979369469684 0.16328784065041599 0 0.1108011863348472 0.15236490620897339 0 0.10901846822593569 0.16471421725265459 0 0.10704951286179019 0.15812665332700199 0 0.1128979369469684 0.16328784065041599 0 0.10901846822593569 0.16471421725265459 0 0.1128979369469684 0.16328784065041599 0 0.10901846822593569 0.16471421725265459 0 0.11368459302289929 0.16767729967717371 0 0.10901846822593569 0.16471421725265459 0 0.1128979369469684 0.16328784065041599 0 0.11368459302289929 0.16767729967717371 0 0.107213176443575 0.1653779746235059 0 0.10901846822593569 0.16471421725265459 0 0.11368459302289929 0.16767729967717371 0 0.1128979369469684 0.16328784065041599 0 0.11368459302289929 0.16767729967717371 0 0.1128979369469684 0.16328784065041599 0 0.11368459302289929 0.16767729967717371 0 0.12548128083099949 0.1624516085292497 0 0.1108011863348472 0.15236490620897339 0 0.12845908498684261 0.15221940901922831 0 0.1108011863348472 0.15236490620897339 0 0.10688264450994731 0.13195142679376881 0 0.12108774993883829 0.13955064940840381 0 0.1108011863348472 0.15236490620897339 0 0.12108774993883829 0.13955064940840381 0 0.12845908498684261 0.15221940901922831 0 0.1219418862909001 0.15570240597071011 0 0.1108011863348472 0.15236490620897339 0 0.12845908498684261 0.15221940901922831 0 0.088432958747773627 0.15254921547009309 0 0.1108011863348472 0.15236490620897339 0 0.088432958747773627 0.15254921547009309 0 0.1108011863348472 0.15236490620897339 0 0.10688264450994731 0.13195142679376881 0 0.098399944650224808 0.15642677884984399 0 0.10704951286179019 0.15812665332700199 0 0.1108011863348472 0.15236490620897339 0 0.088432958747773627 0.15254921547009309 0 0.098399944650224808 0.15642677884984399 0 0.1108011863348472 0.15236490620897339 0 0.1108011863348472 0.15236490620897339 0 0.10688264450994731 0.13195142679376881 0 0.09239004177268334 0.12275275557792401 0 0.082715459547836892 0.13335695453648641 0 0.10688264450994731 0.13195142679376881 0 0.1196350537283823 0.1239826396570102 0 0.10688264450994731 0.13195142679376881 0 0.12108774993883829 0.13955064940840381 0 0.12108774993883829 0.13955064940840381 0 0.13969856173358139 0.1278215593021943 0 0.13597850652759369 0.1432023917810909 0 0.1196350537283823 0.1239826396570102 0 0.12108774993883829 0.13955064940840381 0 0.13969856173358139 0.1278215593021943 0 0.13969856173358139 0.1278215593021943 0 0.15832073684291689 0.14658709535802919 0 0.16602771162010799 0.12374488412625601 0 0.13969856173358139 0.1278215593021943 0 0.13597850652759369 0.1432023917810909 0 0.15832073684291689 0.14658709535802919 0 0.13560933689494259 0.15493746800422251 0 0.14633688130424671 0.1650848373277207 0 0.15832073684291689 0.14658709535802919 0 0.13560933689494259 0.15493746800422251 0 0.13597850652759369 0.1432023917810909 0 0.15832073684291689 0.14658709535802919 0 0.13560933689494259 0.15493746800422251 0 0.15832073684291689 0.14658709535802919 0 0.13560933689494259 0.15493746800422251 0 0.13597850652759369 0.1432023917810909 0 0.12845908498684261 0.15221940901922831 0 0.12108774993883829 0.13955064940840381 0 0.13597850652759369 0.1432023917810909 0 0.12845908498684261 0.15221940901922831 0 0.1219418862909001 0.15570240597071011 0 0.13560933689494259 0.15493746800422251 0 0.12845908498684261 0.15221940901922831 0 0.13560933689494259 0.15493746800422251 0 0.12548128083099949 0.1624516085292497 0 0.13507986620022541 0.16396269560102261 0 0.12548128083099949 0.1624516085292497 0 0.13507986620022541 0.16396269560102261 0 0.13289196577071291 0.17337686854289761 0 0.13507986620022541 0.16396269560102261 0 0.13289196577071291 0.17337686854289761 0 0.14633688130424671 0.1650848373277207 0 0.13560933689494259 0.15493746800422251 0 0.13507986620022541 0.16396269560102261 0 0.14633688130424671 0.1650848373277207 0 0.1187372653786766 0.1937075773958232 0 0.13289196577071291 0.17337686854289761 0 0.13815898369162391 0.1895217641553939 0 0.13289196577071291 0.17337686854289761 0 0.1523012412309431 0.180419648294498 0 0.13289196577071291 0.17337686854289761 0 0.1523012412309431 0.180419648294498 0 0.13815898369162391 0.1895217641553939 0 0.13289196577071291 0.17337686854289761 0 0.1523012412309431 0.180419648294498 0 0.14633688130424671 0.1650848373277207 0 0.14633688130424671 0.1650848373277207 0 0.1611843042207243 0.1685140760922775 0 0.15832073684291689 0.14658709535802919 0 0.1523012412309431 0.180419648294498 0 0.14633688130424671 0.1650848373277207 0 0.1611843042207243 0.1685140760922775 0 0.1611843042207243 0.1685140760922775 0 0.1772521450343415 0.16301637143503969 0 0.15832073684291689 0.14658709535802919 0 0.1523012412309431 0.180419648294498 0 0.1611843042207243 0.1685140760922775 0 0.17171051669117299 0.18746242804609911 0 0.1611843042207243 0.1685140760922775 0 0.17171051669117299 0.18746242804609911 0 0.1772521450343415 0.16301637143503969 0 0.1523012412309431 0.180419648294498 0 0.17171051669117299 0.18746242804609911 0 0.1523012412309431 0.180419648294498 0 0.17171051669117299 0.18746242804609911 0 0.1638840289403922 0.18851208599290051 0 0.1523012412309431 0.180419648294498 0 0.15830313649475281 0.19248298050720811 0 0.1638840289403922 0.18851208599290051 0 0.17171051669117299 0.18746242804609911 0 0.1971068242123076 0.18405637454447729 0 0.17171051669117299 0.18746242804609911 0 0.1772521450343415 0.16301637143503969 0 0.1971068242123076 0.18405637454447729 0 0.1772521450343415 0.16301637143503969 0 0.18103213679089131 0.1382367227118359 0 0.19941614708223679 0.1619890834733522 0 0.1772521450343415 0.16301637143503969 0 0.18103213679089131 0.1382367227118359 0 0.15832073684291689 0.14658709535802919 0 0.18103213679089131 0.1382367227118359 0 0.1882960935358324 0.1191796925105941 0 0.16602771162010799 0.12374488412625601 0 0.18103213679089131 0.1382367227118359 0 0.15832073684291689 0.14658709535802919 0 0.16602771162010799 0.12374488412625601 0 0.18103213679089131 0.1382367227118359 0 0.15832073684291689 0.14658709535802919 0 0.13815624585661629 0.23048021017611231 0 0.1548360807382704 0.22536686627486899 0 0.15416999431614689 0.25470819667627531 0 0.12873470981641769 0.24578884521278349 0 0.13815624585661629 0.23048021017611231 0 0.15416999431614689 0.25470819667627531 0 0.1237359875975472 0.2197482113043033 0 0.12873470981641769 0.24578884521278349 0 0.13815624585661629 0.23048021017611231 0 0.1237359875975472 0.2197482113043033 0 0.12873470981641769 0.24578884521278349 0 0.13815624585661629 0.23048021017611231 0 0.1548360807382704 0.22536686627486899 0 0.13677746952519579 0.20418027958531071 0 0.1548360807382704 0.22536686627486899 0 0.13677746952519579 0.20418027958531071 0 0.15735126572937541 0.21163645072694029 0 0.13677746952519579 0.20418027958531071 0 0.16617496509407739 0.20015058331689359 0 0.15735126572937541 0.21163645072694029 0 0.1237359875975472 0.2197482113043033 0 0.13815624585661629 0.23048021017611231 0 0.13677746952519579 0.20418027958531071 0 0.1187372653786766 0.1937075773958232 0 0.1237359875975472 0.2197482113043033 0 0.13677746952519579 0.20418027958531071 0 0.1187372653786766 0.1937075773958232 0 0.13677746952519579 0.20418027958531071 0 0.13815898369162391 0.1895217641553939 0 0.13677746952519579 0.20418027958531071 0 0.16617496509407739 0.20015058331689359 0 0.13677746952519579 0.20418027958531071 0 0.15008697655259121 0.1959244469584403 0 0.16617496509407739 0.20015058331689359 0 0.1523012412309431 0.180419648294498 0 0.13815898369162391 0.1895217641553939 0 0.15008697655259121 0.1959244469584403 0 0.13677746952519579 0.20418027958531071 0 0.13815898369162391 0.1895217641553939 0 0.15008697655259121 0.1959244469584403 0 0.1523012412309431 0.180419648294498 0 0.15008697655259121 0.1959244469584403 0 0.15830313649475281 0.19248298050720811 0 0.15008697655259121 0.1959244469584403 0 0.15830313649475281 0.19248298050720811 0 0.16617496509407739 0.20015058331689359 0 0.15830313649475281 0.19248298050720811 0 0.1638840289403922 0.18851208599290051 0 0.16617496509407739 0.20015058331689359 0 0.17171051669117299 0.18746242804609911 0 0.1638840289403922 0.18851208599290051 0 0.17171051669117299 0.18746242804609911 0 0.1638840289403922 0.18851208599290051 0 0.16617496509407739 0.20015058331689359 0 0.16617496509407739 0.20015058331689359 0 0.18222708005847299 0.20800883802362169 0 0.19557246066295919 0.19612088704847769 0 0.16617496509407739 0.20015058331689359 0 0.19557246066295919 0.19612088704847769 0 0.17171051669117299 0.18746242804609911 0 0.16617496509407739 0.20015058331689359 0 0.19557246066295919 0.19612088704847769 0 0.17171051669117299 0.18746242804609911 0 0.19557246066295919 0.19612088704847769 0 0.18222708005847299 0.20800883802362169 0 0.171616547559958 0.21684807373068801 0 0.19504311887786299 0.2204656317862988 0 0.16617496509407739 0.20015058331689359 0 0.18222708005847299 0.20800883802362169 0 0.171616547559958 0.21684807373068801 0 0.16617496509407739 0.20015058331689359 0 0.171616547559958 0.21684807373068801 0 0.15735126572937541 0.21163645072694029 0 0.1548360807382704 0.22536686627486899 0 0.171616547559958 0.21684807373068801 0 0.15735126572937541 0.21163645072694029 0 0.1548360807382704 0.22536686627486899 0 0.171616547559958 0.21684807373068801 0 0.17460655659700491 0.23758691423128711 0 0.171616547559958 0.21684807373068801 0 0.17460655659700491 0.23758691423128711 0 0.19504311887786299 0.2204656317862988 0 0.17460655659700491 0.23758691423128711 0 0.19504311887786299 0.2204656317862988 0 0.17460655659700491 0.23758691423128711 0 0.1720695186081462 0.25607045171479381 0 0.1896583975426101 0.25428690195052023 0 0.1548360807382704 0.22536686627486899 0 0.17460655659700491 0.23758691423128711 0 0.15416999431614689 0.25470819667627531 0 0.17460655659700491 0.23758691423128711 0 0.15416999431614689 0.25470819667627531 0 0.1720695186081462 0.25607045171479381 0 0.17460655659700491 0.23758691423128711 0 0.15416999431614689 0.25470819667627531 0 0.20174767153441731 0.2387647242659709 0 0.2209906985987084 0.24029481342423861 0 0.21276590656789779 0.25643570043419361 0 0.17460655659700491 0.23758691423128711 0 0.20174767153441731 0.2387647242659709 0 0.1896583975426101 0.25428690195052023 0 0.20174767153441731 0.2387647242659709 0 0.1896583975426101 0.25428690195052023 0 0.21276590656789779 0.25643570043419361 0 0.17460655659700491 0.23758691423128711 0 0.20174767153441731 0.2387647242659709 0 0.19504311887786299 0.2204656317862988 0 0.20174767153441731 0.2387647242659709 0 0.2174213510224198 0.22351838376928709 0 0.2209906985987084 0.24029481342423861 0 0.20174767153441731 0.2387647242659709 0 0.19504311887786299 0.2204656317862988 0 0.2174213510224198 0.22351838376928709 0 0.19504311887786299 0.2204656317862988 0 0.2174213510224198 0.22351838376928709 0 0.21547968115872171 0.2033443493413111 0 0.19504311887786299 0.2204656317862988 0 0.21547968115872171 0.2033443493413111 0 0.20915830777304889 0.201050598573845 0 0.19504311887786299 0.2204656317862988 0 0.21547968115872171 0.2033443493413111 0 0.19504311887786299 0.2204656317862988 0 0.20106464673403621 0.20131804306144119 0 0.20915830777304889 0.201050598573845 0 0.19504311887786299 0.2204656317862988 0 0.19233404040940891 0.20573151834897599 0 0.20106464673403621 0.20131804306144119 0 0.18222708005847299 0.20800883802362169 0 0.19504311887786299 0.2204656317862988 0 0.19233404040940891 0.20573151834897599 0 0.18222708005847299 0.20800883802362169 0 0.19233404040940891 0.20573151834897599 0 0.19557246066295919 0.19612088704847769 0 0.20106464673403621 0.20131804306144119 0 0.19557246066295919 0.19612088704847769 0 0.20915830777304889 0.201050598573845 0 0.19233404040940891 0.20573151834897599 0 0.20106464673403621 0.20131804306144119 0 0.19557246066295919 0.19612088704847769 0 0.19557246066295919 0.19612088704847769 0 0.20915830777304889 0.201050598573845 0 0.17171051669117299 0.18746242804609911 0 0.19557246066295919 0.19612088704847769 0 0.1971068242123076 0.18405637454447729 0 0.19557246066295919 0.19612088704847769 0 0.20915830777304889 0.201050598573845 0 0.22080551705130799 0.19266203617695821 0 0.19557246066295919 0.19612088704847769 0 0.22080551705130799 0.19266203617695821 0 0.1971068242123076 0.18405637454447729 0 0.19557246066295919 0.19612088704847769 0 0.22080551705130799 0.19266203617695821 0 0.20106464673403621 0.20131804306144119 0 0.20915830777304889 0.201050598573845 0 0.21547968115872171 0.2033443493413111 0 0.20915830777304889 0.201050598573845 0 0.21705555755924999 0.20202411629129699 0 0.21547968115872171 0.2033443493413111 0 0.20915830777304889 0.201050598573845 0 0.21547968115872171 0.2033443493413111 0 0.21705555755924999 0.20202411629129699 0 0.20915830777304889 0.201050598573845 0 0.23359159302681101 0.2002432324853155 0 0.22080551705130799 0.19266203617695821 0 0.2460385734396569 0.18920318530543959 0 0.22209662556752191 0.18300705844379139 0 0.22080551705130799 0.19266203617695821 0 0.2460385734396569 0.18920318530543959 0 0.20915830777304889 0.201050598573845 0 0.23359159302681101 0.2002432324853155 0 0.22080551705130799 0.19266203617695821 0 0.23359159302681101 0.2002432324853155 0 0.22080551705130799 0.19266203617695821 0 0.2460385734396569 0.18920318530543959 0 0.20915830777304889 0.201050598573845 0 0.21705555755924999 0.20202411629129699 0 0.23359159302681101 0.2002432324853155 0 0.23359159302681101 0.2002432324853155 0 0.2460385734396569 0.18920318530543959 0 0.25802487828057302 0.1994358663967849 0 0.23359159302681101 0.2002432324853155 0 0.25802487828057302 0.1994358663967849 0 0.2460385734396569 0.18920318530543959 0 0.25349537602672823 0.18818103532368241 0 0.2331027006983418 0.20973897470638689 0 0.25072572023796252 0.21613360007146101 0 0.23359159302681101 0.2002432324853155 0 0.25072572023796252 0.21613360007146101 0 0.25802487828057302 0.1994358663967849 0 0.23359159302681101 0.2002432324853155 0 0.2331027006983418 0.20973897470638689 0 0.25072572023796252 0.21613360007146101 0 0.21705555755924999 0.20202411629129699 0 0.23359159302681101 0.2002432324853155 0 0.2331027006983418 0.20973897470638689 0 0.2174213510224198 0.22351838376928709 0 0.21547968115872171 0.2033443493413111 0 0.2331027006983418 0.20973897470638689 0 0.21547968115872171 0.2033443493413111 0 0.2331027006983418 0.20973897470638689 0 0.21547968115872171 0.2033443493413111 0 0.21705555755924999 0.20202411629129699 0 0.2331027006983418 0.20973897470638689 0 0.2174213510224198 0.22351838376928709 0 0.23628245528872799 0.2305186003203101 0 0.2209906985987084 0.24029481342423861 0 0.2174213510224198 0.22351838376928709 0 0.2331027006983418 0.20973897470638689 0 0.23628245528872799 0.2305186003203101 0 0.23628245528872799 0.2305186003203101 0 0.25906221533013651 0.23356136806212319 0 0.25072572023796252 0.21613360007146101 0 0.2331027006983418 0.20973897470638689 0 0.23628245528872799 0.2305186003203101 0 0.25072572023796252 0.21613360007146101 0 0.23628245528872799 0.2305186003203101 0 0.2547613770694917 0.25048554029458758 0 0.23628245528872799 0.2305186003203101 0 0.2355448804725927 0.2533513940011422 0 0.2547613770694917 0.25048554029458758 0 0.23628245528872799 0.2305186003203101 0 0.2209906985987084 0.24029481342423861 0 0.2355448804725927 0.2533513940011422 0 0.20633183353997381 0.1409065886458036 0 0.19941614708223679 0.1619890834733522 0 0.22975035383415859 0.1551407554432169 0 0.20633183353997381 0.1409065886458036 0 0.22748597012624949 0.13451412216177541 0 0.2138997412531328 0.1202283329347348 0 0.20633183353997381 0.1409065886458036 0 0.19761841113380271 0.12819905176743751 0 0.2138997412531328 0.1202283329347348 0 0.20633183353997381 0.1409065886458036 0 0.2138997412531328 0.1202283329347348 0 0.18103213679089131 0.1382367227118359 0 0.19761841113380271 0.12819905176743751 0 0.1882960935358324 0.1191796925105941 0 0.18103213679089131 0.1382367227118359 0 0.20633183353997381 0.1409065886458036 0 0.19761841113380271 0.12819905176743751 0 0.18103213679089131 0.1382367227118359 0 0.20633183353997381 0.1409065886458036 0 0.19941614708223679 0.1619890834733522 0 0.1772521450343415 0.16301637143503969 0 0.19941614708223679 0.1619890834733522 0 0.1971068242123076 0.18405637454447729 0 0.1971068242123076 0.18405637454447729 0 0.22209662556752191 0.18300705844379139 0 0.22250313173344219 0.18065032104285481 0 0.19941614708223679 0.1619890834733522 0 0.1971068242123076 0.18405637454447729 0 0.22250313173344219 0.18065032104285481 0 0.1971068242123076 0.18405637454447729 0 0.22250313173344219 0.18065032104285481 0 0.22080551705130799 0.19266203617695821 0 0.1971068242123076 0.18405637454447729 0 0.22209662556752191 0.18300705844379139 0 0.19941614708223679 0.1619890834733522 0 0.22250313173344219 0.18065032104285481 0 0.22975035383415859 0.1551407554432169 0 0.22250313173344219 0.18065032104285481 0 0.2478994392545768 0.17724426754123229 0 0.22975035383415859 0.1551407554432169 0 0.2460385734396569 0.18920318530543959 0 0.22209662556752191 0.18300705844379139 0 0.22250313173344219 0.18065032104285481 0 0.2460385734396569 0.18920318530543959 0 0.22209662556752191 0.18300705844379139 0 0.22250313173344219 0.18065032104285481 0 0.2478994392545768 0.17724426754123229 0 0.2460385734396569 0.18920318530543959 0 0.22250313173344219 0.18065032104285481 0 0.2478994392545768 0.17724426754123229 0 0.2460385734396569 0.18920318530543959 0 0.2478994392545768 0.17724426754123229 0 0.25349537602672823 0.18818103532368241 0 0.2478994392545768 0.17724426754123229 0 0.22975035383415859 0.1551407554432169 0 0.25400653856103839 0.1574630067942083 0 0.22975035383415859 0.1551407554432169 0 0.22748597012624949 0.13451412216177541 0 0.25047310382802501 0.1370642377708515 0 0.22975035383415859 0.1551407554432169 0 0.25047310382802501 0.1370642377708515 0 0.25400653856103839 0.1574630067942083 0 0.20633183353997381 0.1409065886458036 0 0.22975035383415859 0.1551407554432169 0 0.22748597012624949 0.13451412216177541 0 0.22748597012624949 0.13451412216177541 0 0.23612921919198929 0.1174087876014337 0 0.25047310382802501 0.1370642377708515 0 0.23612921919198929 0.1174087876014337 0 0.2594969357278758 0.1147204900598618 0 0.25047310382802501 0.1370642377708515 0 0.23612921919198929 0.1174087876014337 0 0.24517959065024439 0.097151366915424864 0 0.2594969357278758 0.1147204900598618 0 0.24517959065024439 0.097151366915424864 0 0.22146764896629151 0.099550077223665906 0 0.23612921919198929 0.1174087876014337 0 0.24517959065024439 0.097151366915424864 0 0.22146764896629151 0.099550077223665906 0 0.22748597012624949 0.13451412216177541 0 0.23612921919198929 0.1174087876014337 0 0.2138997412531328 0.1202283329347348 0 0.23612921919198929 0.1174087876014337 0 0.22146764896629151 0.099550077223665906 0 0.2138997412531328 0.1202283329347348 0 0.22146764896629151 0.099550077223665906 0 0.2138997412531328 0.1202283329347348 0 0.19761841113380271 0.12819905176743751 0 0.2138997412531328 0.1202283329347348 0 0.20163445481808451 0.11748190615177979 0 0.2138997412531328 0.1202283329347348 0 0.20607843535211179 0.1063486919085998 0 0.20163445481808451 0.11748190615177979 0 0.22146764896629151 0.099550077223665906 0 0.20127653104291929 0.10159261947276969 0 0.20967177477299059 0.087269921287724053 0 0.22146764896629151 0.099550077223665906 0 0.2138997412531328 0.1202283329347348 0 0.20607843535211179 0.1063486919085998 0 0.22146764896629151 0.099550077223665906 0 0.20607843535211179 0.1063486919085998 0 0.20127653104291929 0.10159261947276969 0 0.22146764896629151 0.099550077223665906 0 0.20127653104291929 0.10159261947276969 0 0.20607843535211179 0.1063486919085998 0 0.20127653104291929 0.10159261947276969 0 0.20607843535211179 0.1063486919085998 0 0.20127653104291929 0.10159261947276969 0 0.1947967877404792 0.109736372298591 0 0.20127653104291929 0.10159261947276969 0 0.1766984239534484 0.104078951449216 0 0.20127653104291929 0.10159261947276969 0 0.1766984239534484 0.104078951449216 0 0.18655412113451411 0.087010727905265484 0 0.20127653104291929 0.10159261947276969 0 0.1947967877404792 0.109736372298591 0 0.1766984239534484 0.104078951449216 0 0.20127653104291929 0.10159261947276969 0 0.18655412113451411 0.087010727905265484 0 0.1947967877404792 0.109736372298591 0 0.1882960935358324 0.1191796925105941 0 0.20163445481808451 0.11748190615177979 0 0.19761841113380271 0.12819905176743751 0 0.1882960935358324 0.1191796925105941 0 0.20163445481808451 0.11748190615177979 0 0.20607843535211179 0.1063486919085998 0 0.1947967877404792 0.109736372298591 0 0.20163445481808451 0.11748190615177979 0 0.20394326551085201 0.070325902567326751 0 0.18655412113451411 0.087010727905265484 0 0.18696317246961011 0.073101088491610511 0 0.20394326551085201 0.070325902567326751 0 0.18877645852754629 0.061316979525878168 0 0.18696317246961011 0.073101088491610511 0 0.20967177477299059 0.087269921287724053 0 0.20394326551085201 0.070325902567326751 0 0.18655412113451411 0.087010727905265484 0 0.20127653104291929 0.10159261947276969 0 0.20967177477299059 0.087269921287724053 0 0.18655412113451411 0.087010727905265484 0 0.20967177477299059 0.087269921287724053 0 0.20394326551085201 0.070325902567326751 0 0.22993100964328789 0.076425120777695338 0 0.20394326551085201 0.070325902567326751 0 0.22993100964328789 0.076425120777695338 0 0.22165313120014271 0.05602445057934597 0 0.22993100964328789 0.076425120777695338 0 0.23839437032028399 0.053300164331724569 0 0.22146764896629151 0.099550077223665906 0 0.22993100964328789 0.076425120777695338 0 0.24517959065024439 0.097151366915424864 0 0.22146764896629151 0.099550077223665906 0 0.22993100964328789 0.076425120777695338 0 0.22146764896629151 0.099550077223665906 0 0.20967177477299059 0.087269921287724053 0 0.22993100964328789 0.076425120777695338 0 0.24517959065024439 0.097151366915424864 0 0.22993100964328789 0.076425120777695338 0 0.25406584887904149 0.084098820201965296 0 0.22993100964328789 0.076425120777695338 0 0.24939052508189871 0.069900897231193387 0 0.23839437032028399 0.053300164331724569 0 0.22993100964328789 0.076425120777695338 0 0.24939052508189871 0.069900897231193387 0 0.25406584887904149 0.084098820201965296 0 0.24939052508189871 0.069900897231193387 0 0.23839437032028399 0.053300164331724569 0 0.25502676051908679 0.060379980911997373 0 0.23839437032028399 0.053300164331724569 0 0.24973239695049149 0.043585542690916738 0 0.23311146290033219 0.048000855876026961 0 0.23839437032028399 0.053300164331724569 0 0.24973239695049149 0.043585542690916738 0 0.25502676051908679 0.060379980911997373 0 0.24973239695049149 0.043585542690916738 0 0.23445808764485079 0.031360337939261913 0 0.25624527539316588 0.030277916158690629 0 0.24973239695049149 0.043585542690916738 0 0.23445808764485079 0.031360337939261913 0 0.2226659531304104 0.03909326590212174 0 0.24973239695049149 0.043585542690916738 0 0.2226659531304104 0.03909326590212174 0 0.23311146290033219 0.048000855876026961 0 0.24973239695049149 0.043585542690916738 0 0.2226659531304104 0.03909326590212174 0 0.24973239695049149 0.043585542690916738 0 0.23445808764485079 0.031360337939261913 0 0.23445808764485079 0.031360337939261913 0 0.2226659531304104 0.03909326590212174 0 0.21350375549500669 0.029588228190323269 0 0.23445808764485079 0.031360337939261913 0 0.2226659531304104 0.03909326590212174 0 0.22993100964328789 0.076425120777695338 0 0.23839437032028399 0.053300164331724569 0 0.22165313120014271 0.05602445057934597 0 0.23839437032028399 0.053300164331724569 0 0.23311146290033219 0.048000855876026961 0 0.22165313120014271 0.05602445057934597 0 0.2226659531304104 0.03909326590212174 0 0.23311146290033219 0.048000855876026961 0 0.22165313120014271 0.05602445057934597 0 0.2408432317846676 0.013844885715334449 0 0.25845021563213932 0.015627020347416629 0 0.2436413306404871 -0.00076180485788342601 0 0.2408432317846676 0.013844885715334449 0 0.2281297420242622 0.0086620935979782147 0 0.2436413306404871 -0.00076180485788342601 0 0.23445808764485079 0.031360337939261913 0 0.25845021563213932 0.015627020347416629 0 0.25624527539316588 0.030277916158690629 0 0.23445808764485079 0.031360337939261913 0 0.2408432317846676 0.013844885715334449 0 0.25845021563213932 0.015627020347416629 0 0.23445808764485079 0.031360337939261913 0 0.25845021563213932 0.015627020347416629 0 0.23445808764485079 0.031360337939261913 0 0.2408432317846676 0.013844885715334449 0 0.2281297420242622 0.0086620935979782147 0 0.23445808764485079 0.031360337939261913 0 0.2160619612118258 0.016636502786990769 0 0.21350375549500669 0.029588228190323269 0 0.23445808764485079 0.031360337939261913 0 0.2281297420242622 0.0086620935979782147 0 0.2160619612118258 0.016636502786990769 0 0.23445808764485079 0.031360337939261913 0 0.2160619612118258 0.016636502786990769 0 0.2281297420242622 0.0086620935979782147 0 0.21342499714513219 0.00043043798660082077 0 0.2160619612118258 0.016636502786990769 0 0.2281297420242622 0.0086620935979782147 0 0.21342499714513219 0.00043043798660082077 0 0.22645603309500489 -0.0079266425461590843 0 0.2160619612118258 0.016636502786990769 0 0.19804141064875441 0.021189344826631859 0 0.19766583477880109 0.001912667634719362 0 0.2160619612118258 0.016636502786990769 0 0.19766583477880109 0.001912667634719362 0 0.21342499714513219 0.00043043798660082077 0 0.2160619612118258 0.016636502786990769 0 0.19766583477880109 0.001912667634719362 0 0.2160619612118258 0.016636502786990769 0 0.21350375549500669 0.029588228190323269 0 0.19804141064875441 0.021189344826631859 0 0.21350375549500669 0.029588228190323269 0 0.19804141064875441 0.021189344826631859 0 0.20176224371474999 0.035623831600669703 0 0.19804141064875441 0.021189344826631859 0 0.20176224371474999 0.035623831600669703 0 0.18085853429908941 0.032154397299218401 0 0.19804141064875441 0.021189344826631859 0 0.19766583477880109 0.001912667634719362 0 0.17839613439305321 0.01122044144786965 0 0.20394326551085201 0.070325902567326751 0 0.22165313120014271 0.05602445057934597 0 0.20572120582897871 0.050205122714000371 0 0.2226659531304104 0.03909326590212174 0 0.22165313120014271 0.05602445057934597 0 0.20572120582897871 0.050205122714000371 0 0.2226659531304104 0.03909326590212174 0 0.20176224371474999 0.035623831600669703 0 0.2226659531304104 0.03909326590212174 0 0.20572120582897871 0.050205122714000371 0 0.2226659531304104 0.03909326590212174 0 0.20572120582897871 0.050205122714000371 0 0.20176224371474999 0.035623831600669703 0 0.2226659531304104 0.03909326590212174 0 0.21350375549500669 0.029588228190323269 0 0.20176224371474999 0.035623831600669703 0 0.20176224371474999 0.035623831600669703 0 0.1906219141180705 0.046444720926510329 0 0.18085853429908941 0.032154397299218401 0 0.20176224371474999 0.035623831600669703 0 0.18085853429908941 0.032154397299218401 0 0.20572120582897871 0.050205122714000371 0 0.20176224371474999 0.035623831600669703 0 0.1906219141180705 0.046444720926510329 0 0.20572120582897871 0.050205122714000371 0 0.18877645852754629 0.061316979525878168 0 0.20394326551085201 0.070325902567326751 0 0.20572120582897871 0.050205122714000371 0 0.18877645852754629 0.061316979525878168 0 0.20572120582897871 0.050205122714000371 0 0.1906219141180705 0.046444720926510329 0 0.18877645852754629 0.061316979525878168 0 0.18877645852754629 0.061316979525878168 0 0.17599112821998819 0.052923273492784993 0 0.17183171122611399 0.072428836337756125 0 0.1906219141180705 0.046444720926510329 0 0.18877645852754629 0.061316979525878168 0 0.17599112821998819 0.052923273492784993 0 0.1906219141180705 0.046444720926510329 0 0.17599112821998819 0.052923273492784993 0 0.18085853429908941 0.032154397299218401 0 0.17599112821998819 0.052923273492784993 0 0.18085853429908941 0.032154397299218401 0 0.16428472638220501 0.044149646530729413 0 0.16428472638220501 0.044149646530729413 0 0.15966325546770879 0.029195721699167249 0 0.14599657220745449 0.046840281329065432 0 0.18085853429908941 0.032154397299218401 0 0.16428472638220501 0.044149646530729413 0 0.15966325546770879 0.029195721699167249 0 0.16428472638220501 0.044149646530729413 0 0.158914141716784 0.059634558833410983 0 0.14599657220745449 0.046840281329065432 0 0.17599112821998819 0.052923273492784993 0 0.16428472638220501 0.044149646530729413 0 0.158914141716784 0.059634558833410983 0 0.17599112821998819 0.052923273492784993 0 0.158914141716784 0.059634558833410983 0 0.17183171122611399 0.072428836337756125 0 0.19766583477880109 0.001912667634719362 0 0.17839613439305321 0.01122044144786965 0 0.17926970834577641 -0.01281116751755198 0 0.18085853429908941 0.032154397299218401 0 0.17839613439305321 0.01122044144786965 0 0.15966325546770879 0.029195721699167249 0 0.19804141064875441 0.021189344826631859 0 0.18085853429908941 0.032154397299218401 0 0.17839613439305321 0.01122044144786965 0 0.17839613439305321 0.01122044144786965 0 0.15966325546770879 0.029195721699167249 0 0.1587549426863048 0.010424559420693411 0 0.17839613439305321 0.01122044144786965 0 0.1587549426863048 0.010424559420693411 0 0.1593946414982633 -0.009684733403574142 0 0.1587549426863048 0.010424559420693411 0 0.1436785318816691 0.01409523824339134 0 0.13941868320877371 -0.0044837161440816689 0 0.15966325546770879 0.029195721699167249 0 0.1587549426863048 0.010424559420693411 0 0.1436785318816691 0.01409523824339134 0 0.15966325546770879 0.029195721699167249 0 0.1436785318816691 0.01409523824339134 0 0.14240808096065999 0.02955997232538728 0 0.14240808096065999 0.02955997232538728 0 0.12787947970148539 0.015902068553405958 0 0.12803759028011469 0.039978624473627038 0 0.1436785318816691 0.01409523824339134 0 0.14240808096065999 0.02955997232538728 0 0.12787947970148539 0.015902068553405958 0 0.1436785318816691 0.01409523824339134 0 0.12787947970148539 0.015902068553405958 0 0.13941868320877371 -0.0044837161440816689 0 0.12787947970148539 0.015902068553405958 0 0.1206137002203433 -0.0013104439519602269 0 0.13941868320877371 -0.0044837161440816689 0 0.158914141716784 0.059634558833410983 0 0.14599657220745449 0.046840281329065432 0 0.13782873159075601 0.059252961018171527 0 0.158914141716784 0.059634558833410983 0 0.14599657220745449 0.046840281329065432 0 0.15966325546770879 0.029195721699167249 0 0.14240808096065999 0.02955997232538728 0 0.14599657220745449 0.046840281329065432 0 0.14240808096065999 0.02955997232538728 0 0.14599657220745449 0.046840281329065432 0 0.12803759028011469 0.039978624473627038 0 0.14599657220745449 0.046840281329065432 0 0.12803759028011469 0.039978624473627038 0 0.13782873159075601 0.059252961018171527 0 0.1229811220089092 0.058672679096008942 0 0.12803759028011469 0.039978624473627038 0 0.13782873159075601 0.059252961018171527 0 0.1229811220089092 0.058672679096008942 0 0.1249726142695281 0.076367868842034128 0 0.1387662035705626 0.073971985522963149 0 0.1229811220089092 0.058672679096008942 0 0.13782873159075601 0.059252961018171527 0 0.1387662035705626 0.073971985522963149 0 0.13782873159075601 0.059252961018171527 0 0.1387662035705626 0.073971985522963149 0 0.1503632928562772 0.07141359349816162 0 0.158914141716784 0.059634558833410983 0 0.13782873159075601 0.059252961018171527 0 0.1503632928562772 0.07141359349816162 0 0.1387662035705626 0.073971985522963149 0 0.1503632928562772 0.07141359349816162 0 0.14938035220201409 0.087090158497103456 0 0.1503632928562772 0.07141359349816162 0 0.14938035220201409 0.087090158497103456 0 0.16331304135248301 0.078015124417451467 0 0.1387662035705626 0.073971985522963149 0 0.14938035220201409 0.087090158497103456 0 0.13551953939940869 0.085886036127315948 0 0.14938035220201409 0.087090158497103456 0 0.13551953939940869 0.085886036127315948 0 0.13806992081041369 0.096631543291763766 0 0.1249726142695281 0.076367868842034128 0 0.13551953939940869 0.085886036127315948 0 0.1251657654797956 0.09376062153051698 0 0.13551953939940869 0.085886036127315948 0 0.1251657654797956 0.09376062153051698 0 0.13806992081041369 0.096631543291763766 0 0.1249726142695281 0.076367868842034128 0 0.1387662035705626 0.073971985522963149 0 0.13551953939940869 0.085886036127315948 0 0.1275422097745075 0.1090516154021169 0 0.15212031686397789 0.1065652834256664 0 0.1275422097745075 0.1090516154021169 0 0.13806992081041369 0.096631543291763766 0 0.15212031686397789 0.1065652834256664 0 0.1251657654797956 0.09376062153051698 0 0.1275422097745075 0.1090516154021169 0 0.13806992081041369 0.096631543291763766 0 0.1196350537283823 0.1239826396570102 0 0.13969856173358139 0.1278215593021943 0 0.1275422097745075 0.1090516154021169 0 0.13969856173358139 0.1278215593021943 0 0.1275422097745075 0.1090516154021169 0 0.15212031686397789 0.1065652834256664 0 0.13969856173358139 0.1278215593021943 0 0.15212031686397789 0.1065652834256664 0 0.16602771162010799 0.12374488412625601 0 0.14938035220201409 0.087090158497103456 0 0.15212031686397789 0.1065652834256664 0 0.16402333272779129 0.093482271062317254 0 0.14938035220201409 0.087090158497103456 0 0.13806992081041369 0.096631543291763766 0 0.15212031686397789 0.1065652834256664 0 0.15212031686397789 0.1065652834256664 0 0.1766984239534484 0.104078951449216 0 0.16402333272779129 0.093482271062317254 0 0.15212031686397789 0.1065652834256664 0 0.1766984239534484 0.104078951449216 0 0.1766984239534484 0.104078951449216 0 0.17321482928014251 0.086015660905069541 0 0.16402333272779129 0.093482271062317254 0 0.15212031686397789 0.1065652834256664 0 0.16602771162010799 0.12374488412625601 0 0.1766984239534484 0.104078951449216 0 0.1882960935358324 0.1191796925105941 0 0.16602771162010799 0.12374488412625601 0 0.1766984239534484 0.104078951449216 0 0.1947967877404792 0.109736372298591 0 0.1882960935358324 0.1191796925105941 0 0.1766984239534484 0.104078951449216 0 0.1766984239534484 0.104078951449216 0 0.18655412113451411 0.087010727905265484 0 0.17321482928014251 0.086015660905069541 0 0.18655412113451411 0.087010727905265484 0 0.17321482928014251 0.086015660905069541 0 0.17183171122611399 0.072428836337756125 0 0.18655412113451411 0.087010727905265484 0 0.17183171122611399 0.072428836337756125 0 0.18877645852754629 0.061316979525878168 0 0.18696317246961011 0.073101088491610511 0 0.17183171122611399 0.072428836337756125 0 0.18877645852754629 0.061316979525878168 0 0.17183171122611399 0.072428836337756125 0 0.18655412113451411 0.087010727905265484 0 0.18696317246961011 0.073101088491610511 0 0.17183171122611399 0.072428836337756125 0 0.158914141716784 0.059634558833410983 0 0.1503632928562772 0.07141359349816162 0 0.16331304135248301 0.078015124417451467 0 0.158914141716784 0.059634558833410983 0 0.17183171122611399 0.072428836337756125 0 0.16331304135248301 0.078015124417451467 0 0.17183171122611399 0.072428836337756125 0 0.16331304135248301 0.078015124417451467 0 0.158914141716784 0.059634558833410983 0 0.17183171122611399 0.072428836337756125 0 0.14938035220201409 0.087090158497103456 0 0.16331304135248301 0.078015124417451467 0 0.16402333272779129 0.093482271062317254 0 0.17321482928014251 0.086015660905069541 0 0.17183171122611399 0.072428836337756125 0 0.16331304135248301 0.078015124417451467 0 0.17321482928014251 0.086015660905069541 0 0.16331304135248301 0.078015124417451467 0 0.16402333272779129 0.093482271062317254 0 0.1093092102949773 0.48433066151938181 0 0.08948247561453182 0.47639955959921731 0 0.1093092102949773 0.48433066151938181 0 0.11167799322967641 0.46542027745300307 0 0.08948247561453182 0.47639955959921731 0 0.1093092102949773 0.48433066151938181 0 0.08948247561453182 0.47639955959921731 0 0.093446337679981895 0.5 0 0.1093092102949773 0.48433066151938181 0 0.1214751295986214 0.5 0 0.093446337679981895 0.5 0 0.1093092102949773 0.48433066151938181 0 0.12913594497542269 0.4922617634395462 0 0.1093092102949773 0.48433066151938181 0 0.1212537369551656 0.47930491265371861 0 0.12913594497542269 0.4922617634395462 0 0.1093092102949773 0.48433066151938181 0 0.1214751295986214 0.5 0 0.12913594497542269 0.4922617634395462 0 0.1212537369551656 0.47930491265371861 0 0.11167799322967641 0.46542027745300307 0 0.13489179932058601 0.47520694820294329 0 0.11167799322967641 0.46542027745300307 0 0.13489179932058601 0.47520694820294329 0 0.1093092102949773 0.48433066151938181 0 0.1212537369551656 0.47930491265371861 0 0.11167799322967641 0.46542027745300307 0 0.11167799322967641 0.46542027745300307 0 0.12538255451051489 0.46175031820821733 0 0.13489179932058601 0.47520694820294329 0 0.11670602350672719 0.45482467392050863 0 0.11167799322967641 0.46542027745300307 0 0.1007718691126208 0.45601775571297182 0 0.11670602350672719 0.45482467392050863 0 0.12682681964967091 0.45079899369208493 0 0.12538255451051489 0.46175031820821733 0 0.11670602350672719 0.45482467392050863 0 0.11167799322967641 0.46542027745300307 0 0.12538255451051489 0.46175031820821733 0 0.11670602350672719 0.45482467392050863 0 0.12024985197527439 0.43885410538400937 0 0.12682681964967091 0.45079899369208493 0 0.11670602350672719 0.45482467392050863 0 0.12024985197527439 0.43885410538400937 0 0.1007718691126208 0.45601775571297182 0 0.12024985197527439 0.43885410538400937 0 0.1007718691126208 0.45601775571297182 0 0.12024985197527439 0.43885410538400937 0 0.1038607410500017 0.44373102572786688 0 0.1025589701939915 0.43580757476211313 0 0.12024985197527439 0.43885410538400937 0 0.1038607410500017 0.44373102572786688 0 0.1007718691126208 0.45601775571297182 0 0.1038607410500017 0.44373102572786688 0 0.1007718691126208 0.45601775571297182 0 0.091862272918120366 0.44424466705237359 0 0.1038607410500017 0.44373102572786688 0 0.091862272918120366 0.44424466705237359 0 0.1025589701939915 0.43580757476211313 0 0.11167799322967641 0.46542027745300307 0 0.088464187138766873 0.45563360670306291 0 0.11167799322967641 0.46542027745300307 0 0.088464187138766873 0.45563360670306291 0 0.08948247561453182 0.47639955959921731 0 0.11167799322967641 0.46542027745300307 0 0.1007718691126208 0.45601775571297182 0 0.088464187138766873 0.45563360670306291 0 0.088464187138766873 0.45563360670306291 0 0.069655740934086663 0.46846845767905199 0 0.08948247561453182 0.47639955959921731 0 0.091862272918120366 0.44424466705237359 0 0.081614468481894756 0.43822491310659228 0 0.092668286227970353 0.43050900383757412 0 0.1007718691126208 0.45601775571297182 0 0.088464187138766873 0.45563360670306291 0 0.091862272918120366 0.44424466705237359 0 0.088464187138766873 0.45563360670306291 0 0.091862272918120366 0.44424466705237359 0 0.079553619463075154 0.44531940292036859 0 0.091862272918120366 0.44424466705237359 0 0.079553619463075154 0.44531940292036859 0 0.081614468481894756 0.43822491310659228 0 0.088464187138766873 0.45563360670306291 0 0.065250381047855507 0.44584693595312658 0 0.070576787728738197 0.44264689178668759 0 0.065250381047855507 0.44584693595312658 0 0.061551392764612828 0.4268526322018063 0 0.088464187138766873 0.45563360670306291 0 0.079553619463075154 0.44531940292036859 0 0.065250381047855507 0.44584693595312658 0 0.079553619463075154 0.44531940292036859 0 0.081614468481894756 0.43822491310659228 0 0.070576787728738197 0.44264689178668759 0 0.079553619463075154 0.44531940292036859 0 0.070576787728738197 0.44264689178668759 0 0.065250381047855507 0.44584693595312658 0 0.065250381047855507 0.44584693595312658 0 0.069655740934086663 0.46846845767905199 0 0.059716057417249731 0.45646633488845167 0 0.065250381047855507 0.44584693595312658 0 0.069655740934086663 0.46846845767905199 0 0.088464187138766873 0.45563360670306291 0 0.065250381047855507 0.44584693595312658 0 0.069655740934086663 0.46846845767905199 0 0.069655740934086663 0.46846845767905199 0 0.073320548941316108 0.48728724572308602 0 0.058926322975225091 0.48667091010940622 0 0.069655740934086663 0.46846845767905199 0 0.08948247561453182 0.47639955959921731 0 0.073320548941316108 0.48728724572308602 0 0.069655740934086663 0.46846845767905199 0 0.073320548941316108 0.48728724572308602 0 0.069655740934086663 0.46846845767905199 0 0.08948247561453182 0.47639955959921731 0 0.08948247561453182 0.47639955959921731 0 0.093446337679981895 0.5 0 0.073320548941316108 0.48728724572308602 0 0.093446337679981895 0.5 0 0.073320548941316108 0.48728724572308602 0 0.065417545761342288 0.5 0 0.073320548941316108 0.48728724572308602 0 0.065417545761342288 0.5 0 0.058926322975225091 0.48667091010940622 0 0.065417545761342288 0.5 0 0.058926322975225091 0.48667091010940622 0 0.037388753842702849 0.5 0 0.058926322975225091 0.48667091010940622 0 0.048849025396677549 0.47759884714489248 0 0.037388753842702849 0.5 0 0.069655740934086663 0.46846845767905199 0 0.058926322975225091 0.48667091010940622 0 0.048849025396677549 0.47759884714489248 0 0.069655740934086663 0.46846845767905199 0 0.048849025396677549 0.47759884714489248 0 0.052137795548189113 0.46146091899319669 0 0.048849025396677549 0.47759884714489248 0 0.033512641628466899 0.48123205414313958 0 0.037267792397210689 0.4666101730869755 0 0.048849025396677549 0.47759884714489248 0 0.033512641628466899 0.48123205414313958 0 0.037388753842702849 0.5 0 0.037388753842702849 0.5 0 0.017722735816672889 0.4865367714744952 0 0.009359961924063475 0.49999999999999978 0 0.033512641628466899 0.48123205414313958 0 0.037388753842702849 0.5 0 0.017722735816672889 0.4865367714744952 0 0.017722735816672889 0.4865367714744952 0 0.022029809532765839 0.47070054820874829 0 0.0096861434105247612 0.47287632887528502 0 0.033512641628466899 0.48123205414313958 0 0.017722735816672889 0.4865367714744952 0 0.022029809532765839 0.47070054820874829 0 0.033512641628466899 0.48123205414313958 0 0.022029809532765839 0.47070054820874829 0 0.037267792397210689 0.4666101730869755 0 0.017722735816672889 0.4865367714744952 0 0.0096861434105247612 0.47287632887528502 0 0.0053271639523440693 0.4729643893840601 0 0.01356645677479785 0.46912365628279351 0 0.0096861434105247612 0.47287632887528502 0 0.0053271639523440693 0.4729643893840601 0 0.022029809532765839 0.47070054820874829 0 0.01356645677479785 0.46912365628279351 0 0.0096861434105247612 0.47287632887528502 0 0.0096861434105247612 0.47287632887528502 0 0.0053271639523440693 0.4729643893840601 0 -0.0074484094115179781 0.48578015025658661 0 0.0053271639523440693 0.4729643893840601 0 0.009359961924063475 0.49999999999999978 0 0.017722735816672889 0.4865367714744952 0 0.0053271639523440693 0.4729643893840601 0 0.009359961924063475 0.49999999999999978 0 0.0053271639523440693 0.4729643893840601 0 0.009359961924063475 0.49999999999999978 0 0.00037720514520743698 0.43978019324700213 0 0.015846034793874791 0.44704942667435033 0 0.020254684332462851 0.42687727336555881 0 0.00037720514520743698 0.43978019324700213 0 0.0028521845487759082 0.45637229131553109 0 0.015846034793874791 0.44704942667435033 0 0.00037720514520743698 0.43978019324700213 0 0.0028521845487759082 0.45637229131553109 0 0.0053271639523440693 0.4729643893840601 0 0.0028521845487759082 0.45637229131553109 0 0.0053271639523440693 0.4729643893840601 0 0.0028521845487759082 0.45637229131553109 0 0.01468085385938799 0.46155016355805861 0 0.01356645677479785 0.46912365628279351 0 0.0053271639523440693 0.4729643893840601 0 0.01468085385938799 0.46155016355805861 0 0.0028521845487759082 0.45637229131553109 0 0.01468085385938799 0.46155016355805861 0 0.015846034793874791 0.44704942667435033 0 0.01468085385938799 0.46155016355805861 0 0.02725755168781438 0.45592267134754438 0 0.015846034793874791 0.44704942667435033 0 0.022029809532765839 0.47070054820874829 0 0.01356645677479785 0.46912365628279351 0 0.01468085385938799 0.46155016355805861 0 0.022029809532765839 0.47070054820874829 0 0.01468085385938799 0.46155016355805861 0 0.02725755168781438 0.45592267134754438 0 0.022029809532765839 0.47070054820874829 0 0.02725755168781438 0.45592267134754438 0 0.037267792397210689 0.4666101730869755 0 0.02725755168781438 0.45592267134754438 0 0.015846034793874791 0.44704942667435033 0 0.029186146818732699 0.44379149494622477 0 0.015846034793874791 0.44704942667435033 0 0.029186146818732699 0.44379149494622477 0 0.020254684332462851 0.42687727336555881 0 0.029186146818732699 0.44379149494622477 0 0.039819930589350377 0.45274599868433218 0 0.042752532690160397 0.43636210465933989 0 0.039819930589350377 0.45274599868433218 0 0.051820312138867647 0.45008902692843128 0 0.042752532690160397 0.43636210465933989 0 0.02725755168781438 0.45592267134754438 0 0.029186146818732699 0.44379149494622477 0 0.039819930589350377 0.45274599868433218 0 0.048849025396677549 0.47759884714489248 0 0.037267792397210689 0.4666101730869755 0 0.052137795548189113 0.46146091899319669 0 0.02725755168781438 0.45592267134754438 0 0.039819930589350377 0.45274599868433218 0 0.037267792397210689 0.4666101730869755 0 0.039819930589350377 0.45274599868433218 0 0.037267792397210689 0.4666101730869755 0 0.052137795548189113 0.46146091899319669 0 0.069655740934086663 0.46846845767905199 0 0.052137795548189113 0.46146091899319669 0 0.069655740934086663 0.46846845767905199 0 0.052137795548189113 0.46146091899319669 0 0.059716057417249731 0.45646633488845167 0 0.052137795548189113 0.46146091899319669 0 0.059716057417249731 0.45646633488845167 0 0.051820312138867647 0.45008902692843128 0 0.039819930589350377 0.45274599868433218 0 0.052137795548189113 0.46146091899319669 0 0.051820312138867647 0.45008902692843128 0 0.065250381047855507 0.44584693595312658 0 0.042752532690160397 0.43636210465933989 0 0.065250381047855507 0.44584693595312658 0 0.058147399449374561 0.43638103890648638 0 0.042752532690160397 0.43636210465933989 0 0.065250381047855507 0.44584693595312658 0 0.051820312138867647 0.45008902692843128 0 0.042752532690160397 0.43636210465933989 0 0.065250381047855507 0.44584693595312658 0 0.059716057417249731 0.45646633488845167 0 0.051820312138867647 0.45008902692843128 0 0.065250381047855507 0.44584693595312658 0 0.058147399449374561 0.43638103890648638 0 0.061551392764612828 0.4268526322018063 0 0.058147399449374561 0.43638103890648638 0 0.061551392764612828 0.4268526322018063 0 0.056505213194653889 0.42967412873137439 0 0.058147399449374561 0.43638103890648638 0 0.056505213194653889 0.42967412873137439 0 0.051284483336273473 0.42989248637335908 0 0.061551392764612828 0.4268526322018063 0 0.055037577228354687 0.42557035744384591 0 0.055193020945232402 0.41882312321954801 0 0.061551392764612828 0.4268526322018063 0 0.055037577228354687 0.42557035744384591 0 0.056505213194653889 0.42967412873137439 0 0.051284483336273473 0.42989248637335908 0 0.048803575559729487 0.42124378247458921 0 0.042752532690160397 0.43636210465933989 0 0.055037577228354687 0.42557035744384591 0 0.051284483336273473 0.42989248637335908 0 0.048803575559729487 0.42124378247458921 0 0.055037577228354687 0.42557035744384591 0 0.056505213194653889 0.42967412873137439 0 0.051284483336273473 0.42989248637335908 0 0.055037577228354687 0.42557035744384591 0 0.055193020945232402 0.41882312321954801 0 0.048803575559729487 0.42124378247458921 0 0.058147399449374561 0.43638103890648638 0 0.051284483336273473 0.42989248637335908 0 0.042752532690160397 0.43636210465933989 0 0.057852404481377857 0.40785832845048448 0 0.056669588060003641 0.40216349811474161 0 0.063623187894370922 0.4224051949507146 0 0.061551392764612828 0.4268526322018063 0 0.057852404481377857 0.40785832845048448 0 0.055193020945232402 0.41882312321954801 0 0.061551392764612828 0.4268526322018063 0 0.057852404481377857 0.40785832845048448 0 0.063623187894370922 0.4224051949507146 0 0.056669588060003641 0.40216349811474161 0 0.06524759801477166 0.40826025896865492 0 0.063623187894370922 0.4224051949507146 0 0.056669588060003641 0.40216349811474161 0 0.063623187894370922 0.4224051949507146 0 0.061551392764612828 0.4268526322018063 0 0.057852404481377857 0.40785832845048448 0 0.057852404481377857 0.40785832845048448 0 0.055193020945232402 0.41882312321954801 0 0.052208927292505952 0.41272375519672821 0 0.055193020945232402 0.41882312321954801 0 0.048803575559729487 0.42124378247458921 0 0.052208927292505952 0.41272375519672821 0 0.052208927292505952 0.41272375519672821 0 0.043222691299804432 0.40789017558238638 0 0.051591040877752833 0.4061885631776655 0 0.048803575559729487 0.42124378247458921 0 0.052208927292505952 0.41272375519672821 0 0.043222691299804432 0.40789017558238638 0 0.057852404481377857 0.40785832845048448 0 0.052208927292505952 0.41272375519672821 0 0.051591040877752833 0.4061885631776655 0 0.048803575559729487 0.42124378247458921 0 0.043222691299804432 0.40789017558238638 0 0.035902155025079027 0.41672014736422169 0 0.043222691299804432 0.40789017558238638 0 0.035902155025079027 0.41672014736422169 0 0.028817552881799761 0.40620223709753789 0 0.048803575559729487 0.42124378247458921 0 0.035902155025079027 0.41672014736422169 0 0.042752532690160397 0.43636210465933989 0 0.035902155025079027 0.41672014736422169 0 0.042752532690160397 0.43636210465933989 0 0.020254684332462851 0.42687727336555881 0 0.042752532690160397 0.43636210465933989 0 0.020254684332462851 0.42687727336555881 0 0.029186146818732699 0.44379149494622477 0 0.042752532690160397 0.43636210465933989 0 0.020254684332462851 0.42687727336555881 0 0.035902155025079027 0.41672014736422169 0 0.020254684332462851 0.42687727336555881 0 0.020254684332462851 0.42687727336555881 0 0.02085728858136527 0.4132836805625611 0 0.0078109793767169068 0.41026934540448318 0 0.035902155025079027 0.41672014736422169 0 0.020254684332462851 0.42687727336555881 0 0.02085728858136527 0.4132836805625611 0 0.035902155025079027 0.41672014736422169 0 0.02085728858136527 0.4132836805625611 0 0.028817552881799761 0.40620223709753789 0 0.02085728858136527 0.4132836805625611 0 0.01522990597359305 0.40222957144504939 0 0.028817552881799761 0.40620223709753789 0 -0.0030105477665597312 0.4170689220085107 0 0.020254684332462851 0.42687727336555881 0 0.0078109793767169068 0.41026934540448318 0 0.02085728858136527 0.4132836805625611 0 0.0078109793767169068 0.41026934540448318 0 0.01522990597359305 0.40222957144504939 0 -0.0045238398806965096 0.4069239118610441 0 0.0078109793767169068 0.41026934540448318 0 0.003348370527736913 0.40231092329299561 0 -0.0030105477665597312 0.4170689220085107 0 -0.0045238398806965096 0.4069239118610441 0 0.0078109793767169068 0.41026934540448318 0 0.00037720514520743698 0.43978019324700213 0 0.020254684332462851 0.42687727336555881 0 -0.0030105477665597312 0.4170689220085107 0 0.020254684332462851 0.42687727336555881 0 -0.0030105477665597312 0.4170689220085107 0 0.00037720514520743698 0.43978019324700213 0 0.020254684332462851 0.42687727336555881 0 -0.008402902028776485 0.39090803488626452 0 0.0092988122906734628 0.38618988597547449 0 0.01056501085937925 0.37501715316717033 0 -0.008402902028776485 0.39090803488626452 0 0.0092988122906734628 0.38618988597547449 0 0.0076610489330497522 0.39476800953277352 0 -0.008402902028776485 0.39090803488626452 0 0.01056501085937925 0.37501715316717033 0 0.0092988122906734628 0.38618988597547449 0 0.01243854078822371 0.38025472305165819 0 0.01757649060754422 0.38467761443573301 0 0.0092988122906734628 0.38618988597547449 0 0.01749134484434851 0.39117758655058671 0 0.01757649060754422 0.38467761443573301 0 0.0092988122906734628 0.38618988597547449 0 0.01243854078822371 0.38025472305165819 0 0.01056501085937925 0.37501715316717033 0 -0.008402902028776485 0.39090803488626452 0 0.0076610489330497522 0.39476800953277352 0 0.003348370527736913 0.40231092329299561 0 0.0078109793767169068 0.41026934540448318 0 0.003348370527736913 0.40231092329299561 0 0.01522990597359305 0.40222957144504939 0 0.0076610489330497522 0.39476800953277352 0 0.003348370527736913 0.40231092329299561 0 0.01522990597359305 0.40222957144504939 0 0.0076610489330497522 0.39476800953277352 0 0.01522990597359305 0.40222957144504939 0 0.01749134484434851 0.39117758655058671 0 0.0092988122906734628 0.38618988597547449 0 0.0076610489330497522 0.39476800953277352 0 0.01749134484434851 0.39117758655058671 0 0.02544391373382543 0.39563486455053631 0 0.031077264506931209 0.38108826216521252 0 0.034603500462454632 0.39747666549429478 0 0.01522990597359305 0.40222957144504939 0 0.01749134484434851 0.39117758655058671 0 0.02544391373382543 0.39563486455053631 0 0.01522990597359305 0.40222957144504939 0 0.028817552881799761 0.40620223709753789 0 0.02544391373382543 0.39563486455053631 0 0.028817552881799761 0.40620223709753789 0 0.02544391373382543 0.39563486455053631 0 0.034603500462454632 0.39747666549429478 0 0.01243854078822371 0.38025472305165819 0 0.031077264506931209 0.38108826216521252 0 0.01243854078822371 0.38025472305165819 0 0.01056501085937925 0.37501715316717033 0 0.031077264506931209 0.38108826216521252 0 0.01749134484434851 0.39117758655058671 0 0.02544391373382543 0.39563486455053631 0 0.031077264506931209 0.38108826216521252 0 0.01243854078822371 0.38025472305165819 0 0.01757649060754422 0.38467761443573301 0 0.031077264506931209 0.38108826216521252 0 0.01749134484434851 0.39117758655058671 0 0.01757649060754422 0.38467761443573301 0 0.031077264506931209 0.38108826216521252 0 0.031077264506931209 0.38108826216521252 0 0.049715988225638733 0.38192180127876768 0 0.039515130014726098 0.36626902745432938 0 0.031077264506931209 0.38108826216521252 0 0.045687475372468207 0.39490357021184991 0 0.049715988225638733 0.38192180127876768 0 0.031077264506931209 0.38108826216521252 0 0.049715988225638733 0.38192180127876768 0 0.031077264506931209 0.38108826216521252 0 0.034603500462454632 0.39747666549429478 0 0.045687475372468207 0.39490357021184991 0 0.043222691299804432 0.40789017558238638 0 0.028817552881799761 0.40620223709753789 0 0.034603500462454632 0.39747666549429478 0 0.043222691299804432 0.40789017558238638 0 0.045687475372468207 0.39490357021184991 0 0.051591040877752833 0.4061885631776655 0 0.043222691299804432 0.40789017558238638 0 0.034603500462454632 0.39747666549429478 0 0.045687475372468207 0.39490357021184991 0 0.056669588060003641 0.40216349811474161 0 0.049715988225638733 0.38192180127876768 0 0.068142805447468979 0.39554119772056112 0 0.056669588060003641 0.40216349811474161 0 0.049715988225638733 0.38192180127876768 0 0.045687475372468207 0.39490357021184991 0 0.056669588060003641 0.40216349811474161 0 0.049715988225638733 0.38192180127876768 0 0.045687475372468207 0.39490357021184991 0 0.051591040877752833 0.4061885631776655 0 0.056669588060003641 0.40216349811474161 0 0.057852404481377857 0.40785832845048448 0 0.051591040877752833 0.4061885631776655 0 0.056669588060003641 0.40216349811474161 0 0.049715988225638733 0.38192180127876768 0 0.072188308600100948 0.38292678199993269 0 0.049715988225638733 0.38192180127876768 0 0.072188308600100948 0.38292678199993269 0 0.061660124581144317 0.36771835371290451 0 0.049715988225638733 0.38192180127876768 0 0.072188308600100948 0.38292678199993269 0 0.068142805447468979 0.39554119772056112 0 0.072188308600100948 0.38292678199993269 0 0.079243862742551213 0.39622613455174499 0 0.094660628974563121 0.3839317627210988 0 0.072188308600100948 0.38292678199993269 0 0.094660628974563121 0.3839317627210988 0 0.081036766120190951 0.36685290355897621 0 0.072188308600100948 0.38292678199993269 0 0.094660628974563121 0.3839317627210988 0 0.088137548728228973 0.41107833791384552 0 0.094660628974563121 0.3839317627210988 0 0.079243862742551213 0.39622613455174499 0 0.088137548728228973 0.41107833791384552 0 0.094660628974563121 0.3839317627210988 0 0.079243862742551213 0.39622613455174499 0 0.073090021962394017 0.40765259240328727 0 0.088137548728228973 0.41107833791384552 0 0.079243862742551213 0.39622613455174499 0 0.068142805447468979 0.39554119772056112 0 0.073090021962394017 0.40765259240328727 0 0.072188308600100948 0.38292678199993269 0 0.079243862742551213 0.39622613455174499 0 0.068142805447468979 0.39554119772056112 0 0.068142805447468979 0.39554119772056112 0 0.06524759801477166 0.40826025896865492 0 0.073090021962394017 0.40765259240328727 0 0.056669588060003641 0.40216349811474161 0 0.068142805447468979 0.39554119772056112 0 0.06524759801477166 0.40826025896865492 0 0.06524759801477166 0.40826025896865492 0 0.068703123796870894 0.41434494561971802 0 0.073090021962394017 0.40765259240328727 0 0.068703123796870894 0.41434494561971802 0 0.074847055859572062 0.41946480313908929 0 0.063623187894370922 0.4224051949507146 0 0.06524759801477166 0.40826025896865492 0 0.068703123796870894 0.41434494561971802 0 0.063623187894370922 0.4224051949507146 0 0.068703123796870894 0.41434494561971802 0 0.074847055859572062 0.41946480313908929 0 0.073090021962394017 0.40765259240328727 0 0.070576787728738197 0.44264689178668759 0 0.063623187894370922 0.4224051949507146 0 0.070576787728738197 0.44264689178668759 0 0.061551392764612828 0.4268526322018063 0 0.063623187894370922 0.4224051949507146 0 0.065250381047855507 0.44584693595312658 0 0.061551392764612828 0.4268526322018063 0 0.081614468481894756 0.43822491310659228 0 0.074847055859572062 0.41946480313908929 0 0.072665374991143977 0.43068545074577091 0 0.070576787728738197 0.44264689178668759 0 0.063623187894370922 0.4224051949507146 0 0.072665374991143977 0.43068545074577091 0 0.074847055859572062 0.41946480313908929 0 0.063623187894370922 0.4224051949507146 0 0.072665374991143977 0.43068545074577091 0 0.081614468481894756 0.43822491310659228 0 0.070576787728738197 0.44264689178668759 0 0.072665374991143977 0.43068545074577091 0 0.081614468481894756 0.43822491310659228 0 0.074847055859572062 0.41946480313908929 0 0.088137548728228973 0.41107833791384552 0 0.081614468481894756 0.43822491310659228 0 0.088137548728228973 0.41107833791384552 0 0.081614468481894756 0.43822491310659228 0 0.092668286227970353 0.43050900383757412 0 0.088137548728228973 0.41107833791384552 0 0.074847055859572062 0.41946480313908929 0 0.073090021962394017 0.40765259240328727 0 0.088137548728228973 0.41107833791384552 0 0.1026738201463215 0.42003118105227177 0 0.1152917750279176 0.41421882104088781 0 0.10524138819014819 0.40156225013242819 0 0.088137548728228973 0.41107833791384552 0 0.1026738201463215 0.42003118105227177 0 0.10524138819014819 0.40156225013242819 0 0.092668286227970353 0.43050900383757412 0 0.088137548728228973 0.41107833791384552 0 0.1026738201463215 0.42003118105227177 0 0.092668286227970353 0.43050900383757412 0 0.1026738201463215 0.42003118105227177 0 0.1025589701939915 0.43580757476211313 0 0.1026738201463215 0.42003118105227177 0 0.1025589701939915 0.43580757476211313 0 0.1121449525096726 0.42701109862678233 0 0.091862272918120366 0.44424466705237359 0 0.092668286227970353 0.43050900383757412 0 0.1025589701939915 0.43580757476211313 0 0.12024985197527439 0.43885410538400937 0 0.1025589701939915 0.43580757476211313 0 0.1121449525096726 0.42701109862678233 0 0.12024985197527439 0.43885410538400937 0 0.1121449525096726 0.42701109862678233 0 0.12345599453356319 0.42298546559395528 0 0.1026738201463215 0.42003118105227177 0 0.1121449525096726 0.42701109862678233 0 0.1152917750279176 0.41421882104088781 0 0.1121449525096726 0.42701109862678233 0 0.12345599453356319 0.42298546559395528 0 0.1152917750279176 0.41421882104088781 0 0.12345599453356319 0.42298546559395528 0 0.1152917750279176 0.41421882104088781 0 0.13019387432109469 0.41210112859365627 0 0.1152917750279176 0.41421882104088781 0 0.1232592487437264 0.40009817765520761 0 0.13019387432109469 0.41210112859365627 0 0.1152917750279176 0.41421882104088781 0 0.1232592487437264 0.40009817765520761 0 0.10524138819014819 0.40156225013242819 0 0.1232592487437264 0.40009817765520761 0 0.1150327794132948 0.38484282210875659 0 0.10524138819014819 0.40156225013242819 0 0.1232592487437264 0.40009817765520761 0 0.1150327794132948 0.38484282210875659 0 0.1354049298520266 0.38575388149641487 0 0.1150327794132948 0.38484282210875659 0 0.094660628974563121 0.3839317627210988 0 0.1001080942545349 0.36126148729167529 0 0.1150327794132948 0.38484282210875659 0 0.094660628974563121 0.3839317627210988 0 0.1150327794132948 0.38484282210875659 0 0.094660628974563121 0.3839317627210988 0 0.10524138819014819 0.40156225013242819 0 0.088137548728228973 0.41107833791384552 0 0.094660628974563121 0.3839317627210988 0 0.10524138819014819 0.40156225013242819 0 0.1001080942545349 0.36126148729167529 0 0.1064650386922408 0.32899058510605639 0 0.083719729142652161 0.34352451213737739 0 0.1001080942545349 0.36126148729167529 0 0.1064650386922408 0.32899058510605639 0 0.12552793273443119 0.3449818076293521 0 0.094660628974563121 0.3839317627210988 0 0.1001080942545349 0.36126148729167529 0 0.1150327794132948 0.38484282210875659 0 0.1001080942545349 0.36126148729167529 0 0.12578682555482579 0.36718800952306202 0 0.1001080942545349 0.36126148729167529 0 0.12552793273443119 0.3449818076293521 0 0.12578682555482579 0.36718800952306202 0 0.12443874514323949 0.3180739555120331 0 0.1064650386922408 0.32899058510605639 0 0.1036828743795235 0.2970051460550156 0 0.1064650386922408 0.32899058510605639 0 0.082163446158792952 0.31503362871067642 0 0.1036828743795235 0.2970051460550156 0 0.12443874514323949 0.3180739555120331 0 0.1064650386922408 0.32899058510605639 0 0.12552793273443119 0.3449818076293521 0 0.1064650386922408 0.32899058510605639 0 0.083719729142652161 0.34352451213737739 0 0.082163446158792952 0.31503362871067642 0 0.082163446158792952 0.31503362871067642 0 0.060644017938062289 0.33306211136633712 0 0.066992413185350305 0.30434095712210529 0 0.082163446158792952 0.31503362871067642 0 0.060644017938062289 0.33306211136633712 0 0.083719729142652161 0.34352451213737739 0 0.082163446158792952 0.31503362871067642 0 0.060644017938062289 0.33306211136633712 0 0.083719729142652161 0.34352451213737739 0 0.068885596269599322 0.35340623947550942 0 0.060644017938062289 0.33306211136633712 0 0.083719729142652161 0.34352451213737739 0 0.068885596269599322 0.35340623947550942 0 0.081036766120190951 0.36685290355897621 0 0.1001080942545349 0.36126148729167529 0 0.083719729142652161 0.34352451213737739 0 0.081036766120190951 0.36685290355897621 0 0.094660628974563121 0.3839317627210988 0 0.1001080942545349 0.36126148729167529 0 0.081036766120190951 0.36685290355897621 0 0.068885596269599322 0.35340623947550942 0 0.081036766120190951 0.36685290355897621 0 0.061660124581144317 0.36771835371290451 0 0.072188308600100948 0.38292678199993269 0 0.081036766120190951 0.36685290355897621 0 0.061660124581144317 0.36771835371290451 0 0.049715988225638733 0.38192180127876768 0 0.061660124581144317 0.36771835371290451 0 0.044420288971485408 0.36650619765038323 0 0.061660124581144317 0.36771835371290451 0 0.054946923495524602 0.35435669924542651 0 0.044420288971485408 0.36650619765038323 0 0.049715988225638733 0.38192180127876768 0 0.044420288971485408 0.36650619765038323 0 0.068885596269599322 0.35340623947550942 0 0.054946923495524602 0.35435669924542651 0 0.060644017938062289 0.33306211136633712 0 0.054946923495524602 0.35435669924542651 0 0.039124589717332167 0.3510905940219986 0 0.060644017938062289 0.33306211136633712 0 0.068885596269599322 0.35340623947550942 0 0.061660124581144317 0.36771835371290451 0 0.054946923495524602 0.35435669924542651 0 0.054946923495524602 0.35435669924542651 0 0.039124589717332167 0.3510905940219986 0 0.044420288971485408 0.36650619765038323 0 0.039124589717332167 0.3510905940219986 0 0.044420288971485408 0.36650619765038323 0 0.039124589717332167 0.3510905940219986 0 0.02484480028835509 0.36305387359458358 0 0.049715988225638733 0.38192180127876768 0 0.044420288971485408 0.36650619765038323 0 0.039515130014726098 0.36626902745432938 0 0.039124589717332167 0.3510905940219986 0 0.044420288971485408 0.36650619765038323 0 0.039515130014726098 0.36626902745432938 0 0.039124589717332167 0.3510905940219986 0 0.039515130014726098 0.36626902745432938 0 0.02484480028835509 0.36305387359458358 0 0.01056501085937925 0.37501715316717033 0 0.039515130014726098 0.36626902745432938 0 0.02484480028835509 0.36305387359458358 0 0.01056501085937925 0.37501715316717033 0 0.031077264506931209 0.38108826216521252 0 0.039515130014726098 0.36626902745432938 0 0.01056501085937925 0.37501715316717033 0 0.039515130014726098 0.36626902745432938 0 0.01056501085937925 0.37501715316717033 0 0.02484480028835509 0.36305387359458358 0 0.039124589717332167 0.3510905940219986 0 0.02484480028835509 0.36305387359458358 0 0.019923393183516581 0.34391185551719888 0 0.02484480028835509 0.36305387359458358 0 0.019923393183516581 0.34391185551719888 0 0.0082414124624708082 0.3577395566097098 0 -0.0055326551113767594 0.34543169974770299 0 0.019923393183516581 0.34391185551719888 0 0.0082414124624708082 0.3577395566097098 0 -0.0076829965872000456 0.3656654274793914 0 0.01056501085937925 0.37501715316717033 0 0.0082414124624708082 0.3577395566097098 0 0.01056501085937925 0.37501715316717033 0 0.02484480028835509 0.36305387359458358 0 0.0082414124624708082 0.3577395566097098 0 -0.0055326551113767594 0.34543169974770299 0 0.019923393183516581 0.34391185551719888 0 0.0066265164643505917 0.3220266769105431 0 0.019923393183516581 0.34391185551719888 0 0.0066265164643505917 0.3220266769105431 0 0.03075721106520192 0.32673343427415469 0 0.039124589717332167 0.3510905940219986 0 0.019923393183516581 0.34391185551719888 0 0.03075721106520192 0.32673343427415469 0 0.03075721106520192 0.32673343427415469 0 0.022389832413069369 0.30237627452631161 0 0.0066265164643505917 0.3220266769105431 0 0.03075721106520192 0.32673343427415469 0 0.022389832413069369 0.30237627452631161 0 0.03075721106520192 0.32673343427415469 0 0.060644017938062289 0.33306211136633712 0 0.047825292768981773 0.30617650762107679 0 0.039124589717332167 0.3510905940219986 0 0.03075721106520192 0.32673343427415469 0 0.060644017938062289 0.33306211136633712 0 0.039124589717332167 0.3510905940219986 0 0.03075721106520192 0.32673343427415469 0 0.039124589717332167 0.3510905940219986 0 0.060644017938062289 0.33306211136633712 0 0.060644017938062289 0.33306211136633712 0 0.047825292768981773 0.30617650762107679 0 0.066992413185350305 0.30434095712210529 0 0.047825292768981773 0.30617650762107679 0 0.06489397071002917 0.28589942772890992 0 0.066992413185350305 0.30434095712210529 0 0.047825292768981773 0.30617650762107679 0 0.04127431130217761 0.28464684070864221 0 0.06489397071002917 0.28589942772890992 0 0.047825292768981773 0.30617650762107679 0 0.04127431130217761 0.28464684070864221 0 0.022389832413069369 0.30237627452631161 0 0.03075721106520192 0.32673343427415469 0 0.047825292768981773 0.30617650762107679 0 0.022389832413069369 0.30237627452631161 0 0.04127431130217761 0.28464684070864221 0 0.022389832413069369 0.30237627452631161 0 0.022559933914210961 0.2710704132537296 0 0.022389832413069369 0.30237627452631161 0 0.004077076870887434 0.28300151641227123 0 0.022559933914210961 0.2710704132537296 0 -0.0070955422578270009 0.30074513276953663 0 0.022389832413069369 0.30237627452631161 0 0.004077076870887434 0.28300151641227123 0 -0.0070955422578270009 0.30074513276953663 0 0.0066265164643505917 0.3220266769105431 0 0.022389832413069369 0.30237627452631161 0 0.013934948341719671 0.25121939395090209 0 0.004018561062066754 0.26569628968702352 0 0.022559933914210961 0.2710704132537296 0 -0.0088747255821837664 0.2494613688607428 0 0.013934948341719671 0.25121939395090209 0 0.004018561062066754 0.26569628968702352 0 0.004077076870887434 0.28300151641227123 0 0.004018561062066754 0.26569628968702352 0 0.022559933914210961 0.2710704132537296 0 0.030117459547579929 0.24963394962891691 0 0.013934948341719671 0.25121939395090209 0 0.022559933914210961 0.2710704132537296 0 0.030117459547579929 0.24963394962891691 0 0.022559933914210961 0.2710704132537296 0 0.041683451620690148 0.26180632169527729 0 0.04127431130217761 0.28464684070864221 0 0.022559933914210961 0.2710704132537296 0 0.041683451620690148 0.26180632169527729 0 0.04127431130217761 0.28464684070864221 0 0.041683451620690148 0.26180632169527729 0 0.055754717694415999 0.27085306915165352 0 0.04127431130217761 0.28464684070864221 0 0.055754717694415999 0.27085306915165352 0 0.06489397071002917 0.28589942772890992 0 0.041683451620690148 0.26180632169527729 0 0.055754717694415999 0.27085306915165352 0 0.060429709782307661 0.25005067720832758 0 0.07723364578999406 0.24996218202503059 0 0.060429709782307661 0.25005067720832758 0 0.074309022900044638 0.2674745262336789 0 0.055754717694415999 0.27085306915165352 0 0.060429709782307661 0.25005067720832758 0 0.074309022900044638 0.2674745262336789 0 0.092833074067986632 0.24355809305483769 0 0.07723364578999406 0.24996218202503059 0 0.086043935924297266 0.25944729321094212 0 0.07723364578999406 0.24996218202503059 0 0.086043935924297266 0.25944729321094212 0 0.074309022900044638 0.2674745262336789 0 0.092833074067986632 0.24355809305483769 0 0.086043935924297266 0.25944729321094212 0 0.099403447778799642 0.25751330756580898 0 0.090080423073496799 0.272861330353322 0 0.084162166708514646 0.2868998189696621 0 0.10026387057235191 0.28127303504717882 0 0.086043935924297266 0.25944729321094212 0 0.090080423073496799 0.272861330353322 0 0.074309022900044638 0.2674745262336789 0 0.090080423073496799 0.272861330353322 0 0.074309022900044638 0.2674745262336789 0 0.084162166708514646 0.2868998189696621 0 0.055754717694415999 0.27085306915165352 0 0.074309022900044638 0.2674745262336789 0 0.06489397071002917 0.28589942772890992 0 0.074309022900044638 0.2674745262336789 0 0.06489397071002917 0.28589942772890992 0 0.084162166708514646 0.2868998189696621 0 0.06489397071002917 0.28589942772890992 0 0.066992413185350305 0.30434095712210529 0 0.084162166708514646 0.2868998189696621 0 0.082163446158792952 0.31503362871067642 0 0.066992413185350305 0.30434095712210529 0 0.084162166708514646 0.2868998189696621 0 0.082163446158792952 0.31503362871067642 0 0.084162166708514646 0.2868998189696621 0 0.1036828743795235 0.2970051460550156 0 0.082163446158792952 0.31503362871067642 0 0.1036828743795235 0.2970051460550156 0 0.084162166708514646 0.2868998189696621 0 0.10026387057235191 0.28127303504717882 0 0.1036828743795235 0.2970051460550156 0 0.12443874514323949 0.3180739555120331 0 0.1036828743795235 0.2970051460550156 0 0.12505432598176769 0.29739914708593762 0 0.10026387057235191 0.28127303504717882 0 0.1036828743795235 0.2970051460550156 0 0.12520230260025361 0.27897666339935417 0 0.1036828743795235 0.2970051460550156 0 0.12520230260025361 0.27897666339935417 0 0.12505432598176769 0.29739914708593762 0 0.1036828743795235 0.2970051460550156 0 0.12520230260025361 0.27897666339935417 0 0.1193333333441149 0.26953453643164821 0 0.10562311926227549 0.26921197830514798 0 0.12520230260025361 0.27897666339935417 0 0.10026387057235191 0.28127303504717882 0 0.10562311926227549 0.26921197830514798 0 0.12520230260025361 0.27897666339935417 0 0.1193333333441149 0.26953453643164821 0 0.1131136618606392 0.25783586569230832 0 0.1337334320352887 0.27182947912126348 0 0.10562311926227549 0.26921197830514798 0 0.12520230260025361 0.27897666339935417 0 0.1131136618606392 0.25783586569230832 0 0.1337334320352887 0.27182947912126348 0 0.1131136618606392 0.25783586569230832 0 0.1251495828882434 0.25897058060394063 0 0.1337334320352887 0.27182947912126348 0 0.1167718610755803 0.24728507466356589 0 0.1131136618606392 0.25783586569230832 0 0.1251495828882434 0.25897058060394063 0 0.1167718610755803 0.24728507466356589 0 0.12873470981641769 0.24578884521278349 0 0.1251495828882434 0.25897058060394063 0 0.1193333333441149 0.26953453643164821 0 0.1131136618606392 0.25783586569230832 0 0.10562311926227549 0.26921197830514798 0 0.1131136618606392 0.25783586569230832 0 0.099403447778799642 0.25751330756580898 0 0.10562311926227549 0.26921197830514798 0 0.092833074067986632 0.24355809305483769 0 0.1131136618606392 0.25783586569230832 0 0.099403447778799642 0.25751330756580898 0 0.086043935924297266 0.25944729321094212 0 0.10562311926227549 0.26921197830514798 0 0.092833074067986632 0.24355809305483769 0 0.1131136618606392 0.25783586569230832 0 0.086043935924297266 0.25944729321094212 0 0.099403447778799642 0.25751330756580898 0 0.10562311926227549 0.26921197830514798 0 0.086043935924297266 0.25944729321094212 0 0.090080423073496799 0.272861330353322 0 0.10562311926227549 0.26921197830514798 0 0.090080423073496799 0.272861330353322 0 0.10026387057235191 0.28127303504717882 0 0.10562311926227549 0.26921197830514798 0 0.14495340973886081 0.27321230202069741 0 0.1337334320352887 0.27182947912126348 0 0.1494305237903267 0.28340336417114192 0 0.14495340973886081 0.27321230202069741 0 0.15416999431614689 0.25470819667627531 0 0.1337334320352887 0.27182947912126348 0 0.14495340973886081 0.27321230202069741 0 0.15416999431614689 0.25470819667627531 0 0.15876226950436709 0.27023001061876462 0 0.1337334320352887 0.27182947912126348 0 0.1494305237903267 0.28340336417114192 0 0.14495340973886081 0.27321230202069741 0 0.1494305237903267 0.28340336417114192 0 0.15876226950436709 0.27023001061876462 0 0.15416999431614689 0.25470819667627531 0 0.1337334320352887 0.27182947912126348 0 0.12873470981641769 0.24578884521278349 0 0.1337334320352887 0.27182947912126348 0 0.12873470981641769 0.24578884521278349 0 0.15416999431614689 0.25470819667627531 0 0.1337334320352887 0.27182947912126348 0 0.12873470981641769 0.24578884521278349 0 0.1251495828882434 0.25897058060394063 0 0.1337334320352887 0.27182947912126348 0 0.1337334320352887 0.27182947912126348 0 0.13615384164093261 0.28443850152524569 0 0.1494305237903267 0.28340336417114192 0 0.1337334320352887 0.27182947912126348 0 0.13615384164093261 0.28443850152524569 0 0.1193333333441149 0.26953453643164821 0 0.1337334320352887 0.27182947912126348 0 0.12520230260025361 0.27897666339935417 0 0.1337334320352887 0.27182947912126348 0 0.12520230260025361 0.27897666339935417 0 0.13615384164093261 0.28443850152524569 0 0.1337334320352887 0.27182947912126348 0 0.12520230260025361 0.27897666339935417 0 0.12520230260025361 0.27897666339935417 0 0.13615384164093261 0.28443850152524569 0 0.12505432598176769 0.29739914708593762 0 0.12520230260025361 0.27897666339935417 0 0.13615384164093261 0.28443850152524569 0 0.13615384164093261 0.28443850152524569 0 0.12505432598176769 0.29739914708593762 0 0.1410596513033856 0.30999511136495322 0 0.13615384164093261 0.28443850152524569 0 0.1410596513033856 0.30999511136495322 0 0.12443874514323949 0.3180739555120331 0 0.12505432598176769 0.29739914708593762 0 0.1410596513033856 0.30999511136495322 0 0.1410596513033856 0.30999511136495322 0 0.15883860515165571 0.29575202611383311 0 0.16613815442116889 0.32311699101526759 0 0.13615384164093261 0.28443850152524569 0 0.1494305237903267 0.28340336417114192 0 0.15883860515165571 0.29575202611383311 0 0.13615384164093261 0.28443850152524569 0 0.1410596513033856 0.30999511136495322 0 0.15883860515165571 0.29575202611383311 0 0.13615384164093261 0.28443850152524569 0 0.15883860515165571 0.29575202611383311 0 0.1494305237903267 0.28340336417114192 0 0.16259753742134819 0.28298473151537817 0 0.15883860515165571 0.29575202611383311 0 0.16259753742134819 0.28298473151537817 0 0.17378150555545521 0.28967291564263759 0 0.17671705778798619 0.27301762379321048 0 0.16259753742134819 0.28298473151537817 0 0.15883860515165571 0.29575202611383311 0 0.17378150555545521 0.28967291564263759 0 0.15883860515165571 0.29575202611383311 0 0.18152336866237739 0.30706555070242308 0 0.16613815442116889 0.32311699101526759 0 0.15883860515165571 0.29575202611383311 0 0.18152336866237739 0.30706555070242308 0 0.15883860515165571 0.29575202611383311 0 0.18152336866237739 0.30706555070242308 0 0.17378150555545521 0.28967291564263759 0 0.18152336866237739 0.30706555070242308 0 0.17378150555545521 0.28967291564263759 0 0.18923095875390861 0.28954464608834313 0 0.17378150555545521 0.28967291564263759 0 0.17671705778798619 0.27301762379321048 0 0.18923095875390861 0.28954464608834313 0 0.16259753742134819 0.28298473151537817 0 0.17671705778798619 0.27301762379321048 0 0.15876226950436709 0.27023001061876462 0 0.17671705778798619 0.27301762379321048 0 0.15876226950436709 0.27023001061876462 0 0.1720695186081462 0.25607045171479381 0 0.1494305237903267 0.28340336417114192 0 0.16259753742134819 0.28298473151537817 0 0.15876226950436709 0.27023001061876462 0 0.15416999431614689 0.25470819667627531 0 0.15876226950436709 0.27023001061876462 0 0.1720695186081462 0.25607045171479381 0 0.17671705778798619 0.27301762379321048 0 0.1720695186081462 0.25607045171479381 0 0.1896583975426101 0.25428690195052023 0 0.1896583975426101 0.25428690195052023 0 0.19761190387993341 0.27277624083392382 0 0.21276590656789779 0.25643570043419361 0 0.17671705778798619 0.27301762379321048 0 0.19761190387993341 0.27277624083392382 0 0.18923095875390861 0.28954464608834313 0 0.17671705778798619 0.27301762379321048 0 0.1896583975426101 0.25428690195052023 0 0.19761190387993341 0.27277624083392382 0 0.21600292275595859 0.27842254430521002 0 0.21276590656789779 0.25643570043419361 0 0.22746198242224011 0.26756481535365562 0 0.19761190387993341 0.27277624083392382 0 0.21600292275595859 0.27842254430521002 0 0.2044393790316309 0.28860320477591539 0 0.19761190387993341 0.27277624083392382 0 0.21600292275595859 0.27842254430521002 0 0.21276590656789779 0.25643570043419361 0 0.21276590656789779 0.25643570043419361 0 0.22746198242224011 0.26756481535365562 0 0.2355448804725927 0.2533513940011422 0 0.2209906985987084 0.24029481342423861 0 0.21276590656789779 0.25643570043419361 0 0.2355448804725927 0.2533513940011422 0 0.21600292275595859 0.27842254430521002 0 0.22746198242224011 0.26756481535365562 0 0.2317479347729034 0.28352139040173902 0 0.22746198242224011 0.26756481535365562 0 0.24080751802265821 0.26782919490645091 0 0.2317479347729034 0.28352139040173902 0 0.24080751802265821 0.26782919490645091 0 0.2317479347729034 0.28352139040173902 0 0.25247188767848938 0.27667676178031908 0 0.24080751802265821 0.26782919490645091 0 0.25120020640246649 0.2628551711644711 0 0.25247188767848938 0.27667676178031908 0 0.2355448804725927 0.2533513940011422 0 0.2547613770694917 0.25048554029458758 0 0.25120020640246649 0.2628551711644711 0 0.24080751802265821 0.26782919490645091 0 0.2355448804725927 0.2533513940011422 0 0.25120020640246649 0.2628551711644711 0 0.22746198242224011 0.26756481535365562 0 0.24080751802265821 0.26782919490645091 0 0.2355448804725927 0.2533513940011422 0 0.24493664756020159 0.29477744396150529 0 0.22969507791961299 0.30304396932693278 0 0.24355908623514039 0.3145146852661348 0 0.24493664756020159 0.29477744396150529 0 0.24355908623514039 0.3145146852661348 0 0.25656390719381639 0.30837390478115673 0 0.24493664756020159 0.29477744396150529 0 0.2317479347729034 0.28352139040173902 0 0.25247188767848938 0.27667676178031908 0 0.24493664756020159 0.29477744396150529 0 0.2317479347729034 0.28352139040173902 0 0.22969507791961299 0.30304396932693278 0 0.21600292275595859 0.27842254430521002 0 0.2317479347729034 0.28352139040173902 0 0.21743681545196189 0.29914485629315912 0 0.2317479347729034 0.28352139040173902 0 0.22969507791961299 0.30304396932693278 0 0.2317479347729034 0.28352139040173902 0 0.22969507791961299 0.30304396932693278 0 0.21743681545196189 0.29914485629315912 0 0.22969507791961299 0.30304396932693278 0 0.22051327692640199 0.31099092926789879 0 0.21743681545196189 0.29914485629315912 0 0.22969507791961299 0.30304396932693278 0 0.22051327692640199 0.31099092926789879 0 0.2276422210663227 0.32256654825212672 0 0.22051327692640199 0.31099092926789879 0 0.2111952796859215 0.30975534380257042 0 0.21743681545196189 0.29914485629315912 0 0.2111952796859215 0.30975534380257042 0 0.2025976372665492 0.30272230677786283 0 0.20419462344898021 0.31853177674187289 0 0.2111952796859215 0.30975534380257042 0 0.21743681545196189 0.29914485629315912 0 0.2025976372665492 0.30272230677786283 0 0.21600292275595859 0.27842254430521002 0 0.21743681545196189 0.29914485629315912 0 0.2044393790316309 0.28860320477591539 0 0.21743681545196189 0.29914485629315912 0 0.2044393790316309 0.28860320477591539 0 0.2025976372665492 0.30272230677786283 0 0.19761190387993341 0.27277624083392382 0 0.2044393790316309 0.28860320477591539 0 0.18923095875390861 0.28954464608834313 0 0.2044393790316309 0.28860320477591539 0 0.18923095875390861 0.28954464608834313 0 0.2025976372665492 0.30272230677786283 0 0.18152336866237739 0.30706555070242308 0 0.18923095875390861 0.28954464608834313 0 0.2025976372665492 0.30272230677786283 0 0.18152336866237739 0.30706555070242308 0 0.2025976372665492 0.30272230677786283 0 0.20419462344898021 0.31853177674187289 0 0.18152336866237739 0.30706555070242308 0 0.1907248173791618 0.32662081642647828 0 0.20419462344898021 0.31853177674187289 0 0.18152336866237739 0.30706555070242308 0 0.20419462344898021 0.31853177674187289 0 0.19811897320690899 0.32945154272945198 0 0.20419462344898021 0.31853177674187289 0 0.20422272979851061 0.32655686262656541 0 0.1907248173791618 0.32662081642647828 0 0.19811897320690899 0.32945154272945198 0 0.20419462344898021 0.31853177674187289 0 0.1907248173791618 0.32662081642647828 0 0.19106446282787909 0.34149625895653052 0 0.19842324715096391 0.33681507312183279 0 0.1907248173791618 0.32662081642647828 0 0.19811897320690899 0.32945154272945198 0 0.19842324715096391 0.33681507312183279 0 0.19811897320690899 0.32945154272945198 0 0.20543237407304979 0.33371050647034228 0 0.20422272979851061 0.32655686262656541 0 0.19811897320690899 0.32945154272945198 0 0.19842324715096391 0.33681507312183279 0 0.20543237407304979 0.33371050647034228 0 0.19842324715096391 0.33681507312183279 0 0.20579433184206419 0.34137328977819059 0 0.19940452357671981 0.34823802437000367 0 0.19106446282787909 0.34149625895653052 0 0.19842324715096391 0.33681507312183279 0 0.19940452357671981 0.34823802437000367 0 0.2108403970246566 0.3305625854746635 0 0.20419462344898021 0.31853177674187289 0 0.22612601828346821 0.3369855704296672 0 0.20579433184206419 0.34137328977819059 0 0.20543237407304979 0.33371050647034228 0 0.2155052445855434 0.33837712308658863 0 0.19842324715096391 0.33681507312183279 0 0.20579433184206419 0.34137328977819059 0 0.20543237407304979 0.33371050647034228 0 0.20543237407304979 0.33371050647034228 0 0.2108403970246566 0.3305625854746635 0 0.2155052445855434 0.33837712308658863 0 0.20543237407304979 0.33371050647034228 0 0.2108403970246566 0.3305625854746635 0 0.20422272979851061 0.32655686262656541 0 0.2108403970246566 0.3305625854746635 0 0.2155052445855434 0.33837712308658863 0 0.22612601828346821 0.3369855704296672 0 0.2155052445855434 0.33837712308658863 0 0.22612601828346821 0.3369855704296672 0 0.21209741857827569 0.34871347900040239 0 0.20579433184206419 0.34137328977819059 0 0.2155052445855434 0.33837712308658863 0 0.21209741857827569 0.34871347900040239 0 0.20419462344898021 0.31853177674187289 0 0.21122053661159509 0.31753955138291778 0 0.22689289568382209 0.3296925998796007 0 0.20419462344898021 0.31853177674187289 0 0.22612601828346821 0.3369855704296672 0 0.20419462344898021 0.31853177674187289 0 0.22689289568382209 0.3296925998796007 0 0.2111952796859215 0.30975534380257042 0 0.20419462344898021 0.31853177674187289 0 0.21122053661159509 0.31753955138291778 0 0.2108403970246566 0.3305625854746635 0 0.20419462344898021 0.31853177674187289 0 0.20422272979851061 0.32655686262656541 0 0.22051327692640199 0.31099092926789879 0 0.2111952796859215 0.30975534380257042 0 0.21122053661159509 0.31753955138291778 0 0.21122053661159509 0.31753955138291778 0 0.2276422210663227 0.32256654825212672 0 0.22689289568382209 0.3296925998796007 0 0.22969507791961299 0.30304396932693278 0 0.2276422210663227 0.32256654825212672 0 0.24355908623514039 0.3145146852661348 0 0.22969507791961299 0.30304396932693278 0 0.2276422210663227 0.32256654825212672 0 0.21122053661159509 0.31753955138291778 0 0.2276422210663227 0.32256654825212672 0 0.22051327692640199 0.31099092926789879 0 0.21122053661159509 0.31753955138291778 0 0.2276422210663227 0.32256654825212672 0 0.2276422210663227 0.32256654825212672 0 0.22689289568382209 0.3296925998796007 0 0.20419462344898021 0.31853177674187289 0 0.22612601828346821 0.3369855704296672 0 0.22689289568382209 0.3296925998796007 0 0.22612601828346821 0.3369855704296672 0 0.22994008234277249 0.33584351576837951 0 0.24689717996490121 0.35446310595431729 0 0.22612601828346821 0.3369855704296672 0 0.22689289568382209 0.3296925998796007 0 0.22612601828346821 0.3369855704296672 0 0.22679794197123149 0.33483852749207271 0 0.22689289568382209 0.3296925998796007 0 0.22994008234277249 0.33584351576837951 0 0.23574242351706909 0.33410610635903248 0 0.22689289568382209 0.3296925998796007 0 0.23574242351706909 0.33410610635903248 0 0.2276422210663227 0.32256654825212672 0 0.22689289568382209 0.3296925998796007 0 0.23574242351706909 0.33410610635903248 0 0.22612601828346821 0.3369855704296672 0 0.22689289568382209 0.3296925998796007 0 0.22679794197123149 0.33483852749207271 0 0.22689289568382209 0.3296925998796007 0 0.22679794197123149 0.33483852749207271 0 0.22994008234277249 0.33584351576837951 0 0.22612601828346821 0.3369855704296672 0 0.22679794197123149 0.33483852749207271 0 0.22994008234277249 0.33584351576837951 0 0.22994008234277249 0.33584351576837951 0 0.23574242351706909 0.33410610635903248 0 0.2276422210663227 0.32256654825212672 0 0.23574242351706909 0.33410610635903248 0 0.25024539495860471 0.32948581921388143 0 0.22994008234277249 0.33584351576837951 0 0.23574242351706909 0.33410610635903248 0 0.24689717996490121 0.35446310595431729 0 0.23574242351706909 0.33410610635903248 0 0.24970619560142029 0.34107022916115398 0 0.24689717996490121 0.35446310595431729 0 0.23574242351706909 0.33410610635903248 0 0.24970619560142029 0.34107022916115398 0 0.23574242351706909 0.33410610635903248 0 0.24970619560142029 0.34107022916115398 0 0.25024539495860471 0.32948581921388143 0 0.23574242351706909 0.33410610635903248 0 0.25024539495860471 0.32948581921388143 0 0.2276422210663227 0.32256654825212672 0 0.25024539495860471 0.32948581921388143 0 0.24355908623514039 0.3145146852661348 0 0.25024539495860471 0.32948581921388143 0 0.25227126871228428 0.32884042606120589 0 0.2276422210663227 0.32256654825212672 0 0.24355908623514039 0.3145146852661348 0 0.25024539495860471 0.32948581921388143 0 0.24552398609084661 0.36101024514759988 0 0.24689717996490121 0.35446310595431729 0 0.2534212812203816 0.37031918559375299 0 0.24552398609084661 0.36101024514759988 0 0.24689717996490121 0.35446310595431729 0 0.23283290844138671 0.36423404354432531 0 0.24357920446830811 0.36785341153054107 0 0.24552398609084661 0.36101024514759988 0 0.23283290844138671 0.36423404354432531 0 0.24357920446830811 0.36785341153054107 0 0.23283290844138671 0.36423404354432531 0 0.24253864212061771 0.3758501718364865 0 0.24357920446830811 0.36785341153054107 0 0.24253864212061771 0.3758501718364865 0 0.2534212812203816 0.37031918559375299 0 0.24357920446830811 0.36785341153054107 0 0.24552398609084661 0.36101024514759988 0 0.2534212812203816 0.37031918559375299 0 0.22612601828346821 0.3369855704296672 0 0.24689717996490121 0.35446310595431729 0 0.23283290844138671 0.36423404354432531 0 0.24552398609084661 0.36101024514759988 0 0.24689717996490121 0.35446310595431729 0 0.22612601828346821 0.3369855704296672 0 0.24689717996490121 0.35446310595431729 0 0.24970619560142029 0.34107022916115398 0 0.24689717996490121 0.35446310595431729 0 0.22612601828346821 0.3369855704296672 0 0.23283290844138671 0.36423404354432531 0 0.22612601828346821 0.3369855704296672 0 0.223361642655871 0.36327466179135409 0 0.22612601828346821 0.3369855704296672 0 0.223361642655871 0.36327466179135409 0 0.21209741857827569 0.34871347900040239 0 0.22612601828346821 0.3369855704296672 0 0.223361642655871 0.36327466179135409 0 0.23283290844138671 0.36423404354432531 0 0.223361642655871 0.36327466179135409 0 0.23283290844138671 0.36423404354432531 0 0.22059726702827531 0.38956375315304098 0 0.223361642655871 0.36327466179135409 0 0.20826767026234211 0.37492727848467639 0 0.2034662526176727 0.36052201956058838 0 0.223361642655871 0.36327466179135409 0 0.2034662526176727 0.36052201956058838 0 0.21209741857827569 0.34871347900040239 0 0.2034662526176727 0.36052201956058838 0 0.21209741857827569 0.34871347900040239 0 0.19940452357671981 0.34823802437000367 0 0.20579433184206419 0.34137328977819059 0 0.21209741857827569 0.34871347900040239 0 0.19940452357671981 0.34823802437000367 0 0.2034662526176727 0.36052201956058838 0 0.19940452357671981 0.34823802437000367 0 0.18724875692220239 0.35382868312476051 0 0.19106446282787909 0.34149625895653052 0 0.19940452357671981 0.34823802437000367 0 0.18724875692220239 0.35382868312476051 0 0.2034662526176727 0.36052201956058838 0 0.19065692301311779 0.37150151210880011 0 0.18724875692220239 0.35382868312476051 0 0.20826767026234211 0.37492727848467639 0 0.2034662526176727 0.36052201956058838 0 0.19065692301311779 0.37150151210880011 0 0.19065692301311779 0.37150151210880011 0 0.1707056286134567 0.36318693234134858 0 0.17738380920326399 0.38763121164039432 0 0.19065692301311779 0.37150151210880011 0 0.1707056286134567 0.36318693234134858 0 0.18724875692220239 0.35382868312476051 0 0.1707056286134567 0.36318693234134858 0 0.15087127062830111 0.36110833104436629 0 0.15577708029075829 0.38666494088407288 0 0.1707056286134567 0.36318693234134858 0 0.16491126661967109 0.34573115503684632 0 0.17517736119058139 0.35157401520020359 0 0.1707056286134567 0.36318693234134858 0 0.16491126661967109 0.34573115503684632 0 0.15087127062830111 0.36110833104436629 0 0.1707056286134567 0.36318693234134858 0 0.17517736119058139 0.35157401520020359 0 0.18724875692220239 0.35382868312476051 0 0.16491126661967109 0.34573115503684632 0 0.17517736119058139 0.35157401520020359 0 0.1793938110041777 0.34064644917368248 0 0.17517736119058139 0.35157401520020359 0 0.18724875692220239 0.35382868312476051 0 0.1793938110041777 0.34064644917368248 0 0.19106446282787909 0.34149625895653052 0 0.18724875692220239 0.35382868312476051 0 0.1793938110041777 0.34064644917368248 0 0.1907248173791618 0.32662081642647828 0 0.19106446282787909 0.34149625895653052 0 0.1793938110041777 0.34064644917368248 0 0.1907248173791618 0.32662081642647828 0 0.1793938110041777 0.34064644917368248 0 0.16613815442116889 0.32311699101526759 0 0.18152336866237739 0.30706555070242308 0 0.1907248173791618 0.32662081642647828 0 0.16613815442116889 0.32311699101526759 0 0.16491126661967109 0.34573115503684632 0 0.1793938110041777 0.34064644917368248 0 0.16613815442116889 0.32311699101526759 0 0.16491126661967109 0.34573115503684632 0 0.16613815442116889 0.32311699101526759 0 0.1459654609658434 0.33555172120465981 0 0.1410596513033856 0.30999511136495322 0 0.1459654609658434 0.33555172120465981 0 0.1410596513033856 0.30999511136495322 0 0.16613815442116889 0.32311699101526759 0 0.1459654609658434 0.33555172120465981 0 0.12443874514323949 0.3180739555120331 0 0.1410596513033856 0.30999511136495322 0 0.1459654609658434 0.33555172120465981 0 0.12443874514323949 0.3180739555120331 0 0.1459654609658434 0.33555172120465981 0 0.12552793273443119 0.3449818076293521 0 0.12552793273443119 0.3449818076293521 0 0.12578682555482579 0.36718800952306202 0 0.15087127062830111 0.36110833104436629 0 0.12578682555482579 0.36718800952306202 0 0.15087127062830111 0.36110833104436629 0 0.1354049298520266 0.38575388149641487 0 0.15087127062830111 0.36110833104436629 0 0.15577708029075829 0.38666494088407288 0 0.1459654609658434 0.33555172120465981 0 0.15087127062830111 0.36110833104436629 0 0.1459654609658434 0.33555172120465981 0 0.12552793273443119 0.3449818076293521 0 0.15087127062830111 0.36110833104436629 0 0.16491126661967109 0.34573115503684632 0 0.1459654609658434 0.33555172120465981 0 0.15087127062830111 0.36110833104436629 0 0.1485151529734694 0.39705749977719401 0 0.1354049298520266 0.38575388149641487 0 0.13839074565787671 0.40211016255910209 0 0.1485151529734694 0.39705749977719401 0 0.15577708029075829 0.38666494088407288 0 0.15920581770058179 0.40452680472608432 0 0.1485151529734694 0.39705749977719401 0 0.13839074565787671 0.40211016255910209 0 0.14986105045861081 0.40646438558588438 0 0.1485151529734694 0.39705749977719401 0 0.14986105045861081 0.40646438558588438 0 0.15920581770058179 0.40452680472608432 0 0.1485151529734694 0.39705749977719401 0 0.15577708029075829 0.38666494088407288 0 0.1354049298520266 0.38575388149641487 0 0.15087127062830111 0.36110833104436629 0 0.15577708029075829 0.38666494088407288 0 0.1354049298520266 0.38575388149641487 0 0.15577708029075829 0.38666494088407288 0 0.1354049298520266 0.38575388149641487 0 0.1150327794132948 0.38484282210875659 0 0.12578682555482579 0.36718800952306202 0 0.1354049298520266 0.38575388149641487 0 0.1150327794132948 0.38484282210875659 0 0.1354049298520266 0.38575388149641487 0 0.1232592487437264 0.40009817765520761 0 0.1354049298520266 0.38575388149641487 0 0.13839074565787671 0.40211016255910209 0 0.1232592487437264 0.40009817765520761 0 0.13839074565787671 0.40211016255910209 0 0.13019387432109469 0.41210112859365627 0 0.12345599453356319 0.42298546559395528 0 0.13019387432109469 0.41210112859365627 0 0.13972783483792811 0.42169045505504682 0 0.13019387432109469 0.41210112859365627 0 0.13972783483792811 0.42169045505504682 0 0.13954337631887759 0.41059153294842249 0 0.13839074565787671 0.40211016255910209 0 0.13019387432109469 0.41210112859365627 0 0.13954337631887759 0.41059153294842249 0 0.12024985197527439 0.43885410538400937 0 0.12345599453356319 0.42298546559395528 0 0.13972783483792811 0.42169045505504682 0 0.12024985197527439 0.43885410538400937 0 0.13972783483792811 0.42169045505504682 0 0.12024985197527439 0.43885410538400937 0 0.13972783483792811 0.42169045505504682 0 0.14388769205448471 0.43220228231059471 0 0.13972783483792811 0.42169045505504682 0 0.14388769205448471 0.43220228231059471 0 0.16094856445929889 0.41360557092910449 0 0.14388769205448471 0.43220228231059471 0 0.16094856445929889 0.41360557092910449 0 0.13972783483792811 0.42169045505504682 0 0.14986105045861081 0.40646438558588438 0 0.15920581770058179 0.40452680472608432 0 0.13972783483792811 0.42169045505504682 0 0.15920581770058179 0.40452680472608432 0 0.13972783483792811 0.42169045505504682 0 0.16094856445929889 0.41360557092910449 0 0.15920581770058179 0.40452680472608432 0 0.13972783483792811 0.42169045505504682 0 0.13954337631887759 0.41059153294842249 0 0.14986105045861081 0.40646438558588438 0 0.13839074565787671 0.40211016255910209 0 0.13954337631887759 0.41059153294842249 0 0.14986105045861081 0.40646438558588438 0 0.16094856445929889 0.41360557092910449 0 0.15920581770058179 0.40452680472608432 0 0.16094856445929889 0.41360557092910449 0 0.17862803969783669 0.40796419913597948 0 0.1740930426419853 0.42184798287752251 0 0.16094856445929889 0.41360557092910449 0 0.1740930426419853 0.42184798287752251 0 0.1664766141181665 0.44240371395273748 0 0.14388769205448471 0.43220228231059471 0 0.16094856445929889 0.41360557092910449 0 0.1664766141181665 0.44240371395273748 0 0.16094856445929889 0.41360557092910449 0 0.1664766141181665 0.44240371395273748 0 0.18319515795043681 0.43338246610026288 0 0.1740930426419853 0.42184798287752251 0 0.1664766141181665 0.44240371395273748 0 0.18319515795043681 0.43338246610026288 0 0.1740930426419853 0.42184798287752251 0 0.18609582307284309 0.41885770318416532 0 0.17862803969783669 0.40796419913597948 0 0.1740930426419853 0.42184798287752251 0 0.18609582307284309 0.41885770318416532 0 0.17862803969783669 0.40796419913597948 0 0.18609582307284309 0.41885770318416532 0 0.19305560775020611 0.40474921065138242 0 0.17862803969783669 0.40796419913597948 0 0.1874952488323719 0.3987263969645588 0 0.17930680976567509 0.393594695674158 0 0.17862803969783669 0.40796419913597948 0 0.1874952488323719 0.3987263969645588 0 0.19305560775020611 0.40474921065138242 0 0.16094856445929889 0.41360557092910449 0 0.17862803969783669 0.40796419913597948 0 0.17930680976567509 0.393594695674158 0 0.17930680976567509 0.393594695674158 0 0.16786992459773861 0.39328993434021148 0 0.17738380920326399 0.38763121164039432 0 0.15577708029075829 0.38666494088407288 0 0.16786992459773861 0.39328993434021148 0 0.15920581770058179 0.40452680472608432 0 0.15577708029075829 0.38666494088407288 0 0.15920581770058179 0.40452680472608432 0 0.16094856445929889 0.41360557092910449 0 0.17930680976567509 0.393594695674158 0 0.15920581770058179 0.40452680472608432 0 0.16094856445929889 0.41360557092910449 0 0.17930680976567509 0.393594695674158 0 0.17930680976567509 0.393594695674158 0 0.16786992459773861 0.39328993434021148 0 0.15920581770058179 0.40452680472608432 0 0.15577708029075829 0.38666494088407288 0 0.16786992459773861 0.39328993434021148 0 0.17738380920326399 0.38763121164039432 0 0.15577708029075829 0.38666494088407288 0 0.17738380920326399 0.38763121164039432 0 0.1707056286134567 0.36318693234134858 0 0.15577708029075829 0.38666494088407288 0 0.17738380920326399 0.38763121164039432 0 0.17930680976567509 0.393594695674158 0 0.17738380920326399 0.38763121164039432 0 0.19899053811576969 0.38859748239671549 0 0.19065692301311779 0.37150151210880011 0 0.17738380920326399 0.38763121164039432 0 0.19899053811576969 0.38859748239671549 0 0.20826767026234211 0.37492727848467639 0 0.19065692301311779 0.37150151210880011 0 0.19899053811576969 0.38859748239671549 0 0.17738380920326399 0.38763121164039432 0 0.19899053811576969 0.38859748239671549 0 0.1874952488323719 0.3987263969645588 0 0.19899053811576969 0.38859748239671549 0 0.19305560775020611 0.40474921065138242 0 0.1874952488323719 0.3987263969645588 0 0.17930680976567509 0.393594695674158 0 0.19899053811576969 0.38859748239671549 0 0.19899053811576969 0.38859748239671549 0 0.19305560775020611 0.40474921065138242 0 0.20859830699061499 0.39591311399761919 0 0.19899053811576969 0.38859748239671549 0 0.20859830699061499 0.39591311399761919 0 0.22059726702827531 0.38956375315304098 0 0.19305560775020611 0.40474921065138242 0 0.20859830699061499 0.39591311399761919 0 0.20893360318362339 0.4097973660042028 0 0.20859830699061499 0.39591311399761919 0 0.22059726702827531 0.38956375315304098 0 0.22025952617203531 0.39277565393006991 0 0.20859830699061499 0.39591311399761919 0 0.21758388040774729 0.40226974284023997 0 0.22025952617203531 0.39277565393006991 0 0.20859830699061499 0.39591311399761919 0 0.21758388040774729 0.40226974284023997 0 0.20893360318362339 0.4097973660042028 0 0.223361642655871 0.36327466179135409 0 0.20826767026234211 0.37492727848467639 0 0.22059726702827531 0.38956375315304098 0 0.19899053811576969 0.38859748239671549 0 0.22059726702827531 0.38956375315304098 0 0.20826767026234211 0.37492727848467639 0 0.19899053811576969 0.38859748239671549 0 0.22059726702827531 0.38956375315304098 0 0.223361642655871 0.36327466179135409 0 0.22059726702827531 0.38956375315304098 0 0.22059726702827531 0.38956375315304098 0 0.2381947228791837 0.39035072590783221 0 0.23283290844138671 0.36423404354432531 0 0.22059726702827531 0.38956375315304098 0 0.2381947228791837 0.39035072590783221 0 0.22059726702827531 0.38956375315304098 0 0.22025952617203531 0.39277565393006991 0 0.22059726702827531 0.38956375315304098 0 0.22795957282203069 0.39973243832367089 0 0.2381947228791837 0.39035072590783221 0 0.22059726702827531 0.38956375315304098 0 0.22025952617203531 0.39277565393006991 0 0.22795957282203069 0.39973243832367089 0 0.21758388040774729 0.40226974284023997 0 0.22025952617203531 0.39277565393006991 0 0.22795957282203069 0.39973243832367089 0 0.21758388040774729 0.40226974284023997 0 0.22795957282203069 0.39973243832367089 0 0.22389274738290871 0.41193733649462638 0 0.22795957282203069 0.39973243832367089 0 0.2381947228791837 0.39035072590783221 0 0.2423690698637527 0.41068341282488402 0 0.2381947228791837 0.39035072590783221 0 0.2423690698637527 0.41068341282488402 0 0.2381947228791837 0.39035072590783221 0 0.2423690698637527 0.41068341282488402 0 0.25989716078510899 0.39132127684936002 0 0.2381947228791837 0.39035072590783221 0 0.25989716078510899 0.39132127684936002 0 0.23283290844138671 0.36423404354432531 0 0.2381947228791837 0.39035072590783221 0 0.2381947228791837 0.39035072590783221 0 0.24253864212061771 0.3758501718364865 0 0.25989716078510899 0.39132127684936002 0 0.23283290844138671 0.36423404354432531 0 0.2381947228791837 0.39035072590783221 0 0.24253864212061771 0.3758501718364865 0 0.24654341684832171 0.43101609974193572 0 0.2423690698637527 0.41068341282488402 0 0.23092197002883019 0.42517200378240227 0 0.24654341684832171 0.43101609974193572 0 0.23092197002883019 0.42517200378240227 0 0.22713066752128369 0.44127722194697022 0 0.24654341684832171 0.43101609974193572 0 0.2423690698637527 0.41068341282488402 0 0.25793411246256109 0.41493537008320369 0 0.24654341684832171 0.43101609974193572 0 0.2423690698637527 0.41068341282488402 0 0.22795957282203069 0.39973243832367089 0 0.2423690698637527 0.41068341282488402 0 0.22389274738290871 0.41193733649462638 0 0.2423690698637527 0.41068341282488402 0 0.22389274738290871 0.41193733649462638 0 0.23092197002883019 0.42517200378240227 0 0.22389274738290871 0.41193733649462638 0 0.23092197002883019 0.42517200378240227 0 0.2131827455156147 0.42643333036183151 0 0.23092197002883019 0.42517200378240227 0 0.2131827455156147 0.42643333036183151 0 0.22713066752128369 0.44127722194697022 0 0.2131827455156147 0.42643333036183151 0 0.19964316404930099 0.41918229540130481 0 0.19706258206583011 0.43203927983507628 0 0.2131827455156147 0.42643333036183151 0 0.19706258206583011 0.43203927983507628 0 0.2098547953355511 0.44265738128224719 0 0.2131827455156147 0.42643333036183151 0 0.2098547953355511 0.44265738128224719 0 0.22713066752128369 0.44127722194697022 0 0.22389274738290871 0.41193733649462638 0 0.2131827455156147 0.42643333036183151 0 0.20893360318362339 0.4097973660042028 0 0.2131827455156147 0.42643333036183151 0 0.20893360318362339 0.4097973660042028 0 0.19964316404930099 0.41918229540130481 0 0.21758388040774729 0.40226974284023997 0 0.22389274738290871 0.41193733649462638 0 0.20893360318362339 0.4097973660042028 0 0.19305560775020611 0.40474921065138242 0 0.20893360318362339 0.4097973660042028 0 0.19964316404930099 0.41918229540130481 0 0.18609582307284309 0.41885770318416532 0 0.19305560775020611 0.40474921065138242 0 0.19964316404930099 0.41918229540130481 0 0.18609582307284309 0.41885770318416532 0 0.19964316404930099 0.41918229540130481 0 0.19706258206583011 0.43203927983507628 0 0.18319515795043681 0.43338246610026288 0 0.18609582307284309 0.41885770318416532 0 0.19706258206583011 0.43203927983507628 0 0.18319515795043681 0.43338246610026288 0 0.19706258206583011 0.43203927983507628 0 0.19224772785335881 0.45176365065181262 0 0.19706258206583011 0.43203927983507628 0 0.19224772785335881 0.45176365065181262 0 0.2098547953355511 0.44265738128224719 0 0.19224772785335881 0.45176365065181262 0 0.2196502537216681 0.46177342361554541 0 0.1977028091433348 0.47780206779562501 0 0.19224772785335881 0.45176365065181262 0 0.2098547953355511 0.44265738128224719 0 0.2196502537216681 0.46177342361554541 0 0.22713066752128369 0.44127722194697022 0 0.2196502537216681 0.46177342361554541 0 0.2401645555336728 0.45517803544211211 0 0.2098547953355511 0.44265738128224719 0 0.22713066752128369 0.44127722194697022 0 0.2196502537216681 0.46177342361554541 0 0.2196502537216681 0.46177342361554541 0 0.2401645555336728 0.45517803544211211 0 0.24004084498241329 0.47911912719687288 0 0.24654341684832171 0.43101609974193572 0 0.22713066752128369 0.44127722194697022 0 0.2401645555336728 0.45517803544211211 0 0.24654341684832171 0.43101609974193572 0 0.2401645555336728 0.45517803544211211 0 0.25735703306735919 0.44768368645741619 0 0.24004084498241329 0.47911912719687288 0 0.22970402171481369 0.5 0 0.25578967585427043 0.5 0 0.2401645555336728 0.45517803544211211 0 0.24004084498241329 0.47911912719687288 0 0.26338312923074853 0.47308785951476839 0 0.2196502537216681 0.46177342361554541 0 0.24004084498241329 0.47911912719687288 0 0.21814325942751739 0.4837389237216087 0 0.24004084498241329 0.47911912719687288 0 0.22970402171481369 0.5 0 0.21814325942751739 0.4837389237216087 0 0.22970402171481369 0.5 0 0.20361836757535709 0.5 0 0.21814325942751739 0.4837389237216087 0 0.20361836757535709 0.5 0 0.21814325942751739 0.4837389237216087 0 0.1977028091433348 0.47780206779562501 0 0.2196502537216681 0.46177342361554541 0 0.21814325942751739 0.4837389237216087 0 0.1977028091433348 0.47780206779562501 0 0.20361836757535709 0.5 0 0.1977028091433348 0.47780206779562501 0 0.17753271343590049 0.50000000000000333 0 0.17753271343590049 0.50000000000000333 0 0.17200466377703319 0.47120185697637051 0 0.17753271343590049 0.50000000000000333 0 0.149503921517261 0.5 0 0.15176494773476851 0.4787241148582902 0 0.17200466377703319 0.47120185697637051 0 0.14997518861511169 0.45638019411379022 0 0.15176494773476851 0.4787241148582902 0 0.17753271343590049 0.50000000000000333 0 0.17200466377703319 0.47120185697637051 0 0.15176494773476851 0.4787241148582902 0 0.1977028091433348 0.47780206779562501 0 0.17753271343590049 0.50000000000000333 0 0.17200466377703319 0.47120185697637051 0 0.19224772785335881 0.45176365065181262 0 0.17200466377703319 0.47120185697637051 0 0.1664766141181665 0.44240371395273748 0 0.19224772785335881 0.45176365065181262 0 0.1977028091433348 0.47780206779562501 0 0.17200466377703319 0.47120185697637051 0 0.18319515795043681 0.43338246610026288 0 0.19224772785335881 0.45176365065181262 0 0.1664766141181665 0.44240371395273748 0 0.17200466377703319 0.47120185697637051 0 0.1664766141181665 0.44240371395273748 0 0.17200466377703319 0.47120185697637051 0 0.1664766141181665 0.44240371395273748 0 0.14997518861511169 0.45638019411379022 0 0.14997518861511169 0.45638019411379022 0 0.13681013684591409 0.4625006977725466 0 0.15176494773476851 0.4787241148582902 0 0.14388769205448471 0.43220228231059471 0 0.1664766141181665 0.44240371395273748 0 0.14997518861511169 0.45638019411379022 0 0.14388769205448471 0.43220228231059471 0 0.14997518861511169 0.45638019411379022 0 0.12682681964967091 0.45079899369208493 0 0.14388769205448471 0.43220228231059471 0 0.12682681964967091 0.45079899369208493 0 0.12024985197527439 0.43885410538400937 0 0.14388769205448471 0.43220228231059471 0 0.12682681964967091 0.45079899369208493 0 0.14997518861511169 0.45638019411379022 0 0.12682681964967091 0.45079899369208493 0 0.13681013684591409 0.4625006977725466 0 0.12682681964967091 0.45079899369208493 0 0.13681013684591409 0.4625006977725466 0 0.12538255451051489 0.46175031820821733 0 0.13681013684591409 0.4625006977725466 0 0.12538255451051489 0.46175031820821733 0 0.13489179932058601 0.47520694820294329 0 0.1212537369551656 0.47930491265371861 0 0.13489179932058601 0.47520694820294329 0 0.12913594497542269 0.4922617634395462 0 0.1214751295986214 0.5 0 0.12913594497542269 0.4922617634395462 0 0.149503921517261 0.5 0 0.12913594497542269 0.4922617634395462 0 0.149503921517261 0.5 0 0.14132415338700949 0.48654820662519488 0 0.13489179932058601 0.47520694820294329 0 0.12913594497542269 0.4922617634395462 0 0.14132415338700949 0.48654820662519488 0 0.149503921517261 0.5 0 0.14132415338700949 0.48654820662519488 0 0.15176494773476851 0.4787241148582902 0 0.13489179932058601 0.47520694820294329 0 0.14132415338700949 0.48654820662519488 0 0.15176494773476851 0.4787241148582902 0 0.13681013684591409 0.4625006977725466 0 0.13489179932058601 0.47520694820294329 0 0.15176494773476851 0.4787241148582902 0 0.35087870012940908 0.47705499687778302 0 0.35922408769538833 0.50000000000000122 0 0.33344116846150118 0.5 0 0.35087870012940908 0.47705499687778302 0 0.35922408769538833 0.50000000000000122 0 0.35087870012940908 0.47705499687778302 0 0.35922408769538833 0.50000000000000122 0 0.37071118391571461 0.48157785736819142 0 0.35922408769538833 0.50000000000000122 0 0.37071118391571461 0.48157785736819142 0 0.38585249959196161 0.5 0 0.35087870012940908 0.47705499687778302 0 0.37071118391571461 0.48157785736819142 0 0.36402865715119948 0.46076047559509681 0 0.37071118391571461 0.48157785736819142 0 0.36402865715119948 0.46076047559509681 0 0.38363050316079028 0.46410512900044032 0 0.36402865715119948 0.46076047559509681 0 0.37676787428539138 0.44729938798690733 0 0.38363050316079028 0.46410512900044032 0 0.35954341074284568 0.44124122564619739 0 0.37655350892226053 0.42837245753683012 0 0.37676787428539138 0.44729938798690733 0 0.36402865715119948 0.46076047559509681 0 0.35954341074284568 0.44124122564619739 0 0.37676787428539138 0.44729938798690733 0 0.35954341074284568 0.44124122564619739 0 0.34684412353015132 0.43804799163392011 0 0.34253331256343061 0.45410999375556432 0 0.36402865715119948 0.46076047559509681 0 0.35954341074284568 0.44124122564619739 0 0.34253331256343061 0.45410999375556432 0 0.35954341074284568 0.44124122564619739 0 0.34253331256343061 0.45410999375556432 0 0.35087870012940908 0.47705499687778302 0 0.36402865715119948 0.46076047559509681 0 0.34253331256343061 0.45410999375556432 0 0.35087870012940908 0.47705499687778302 0 0.34253331256343061 0.45410999375556432 0 0.34253331256343061 0.45410999375556432 0 0.3259149815154575 0.45231271775228249 0 0.32231398504019521 0.469406662503706 0 0.35087870012940908 0.47705499687778302 0 0.34253331256343061 0.45410999375556432 0 0.32231398504019521 0.469406662503706 0 0.34253331256343061 0.45410999375556432 0 0.32231398504019521 0.469406662503706 0 0.34253331256343061 0.45410999375556432 0 0.33910602643018167 0.44468693336365239 0 0.3259149815154575 0.45231271775228249 0 0.34684412353015132 0.43804799163392011 0 0.34253331256343061 0.45410999375556432 0 0.33910602643018167 0.44468693336365239 0 0.34684412353015132 0.43804799163392011 0 0.33910602643018167 0.44468693336365239 0 0.33366328805865553 0.43305891884314551 0 0.34253331256343061 0.45410999375556432 0 0.33910602643018167 0.44468693336365239 0 0.33910602643018167 0.44468693336365239 0 0.33021860878494191 0.44150005273864262 0 0.3259149815154575 0.45231271775228249 0 0.33021860878494191 0.44150005273864262 0 0.32169503563448881 0.43841646658776923 0 0.33366328805865553 0.43305891884314551 0 0.33910602643018167 0.44468693336365239 0 0.33021860878494191 0.44150005273864262 0 0.33366328805865553 0.43305891884314551 0 0.33021860878494191 0.44150005273864262 0 0.32169503563448881 0.43841646658776923 0 0.3259149815154575 0.45231271775228249 0 0.3259149815154575 0.45231271775228249 0 0.31072919053676801 0.45607030916922148 0 0.31178808305166278 0.44349047007905462 0 0.32169503563448881 0.43841646658776923 0 0.31178808305166278 0.44349047007905462 0 0.3133184713032896 0.4310583544592152 0 0.32169503563448881 0.43841646658776923 0 0.3259149815154575 0.45231271775228249 0 0.31178808305166278 0.44349047007905462 0 0.3259149815154575 0.45231271775228249 0 0.32231398504019521 0.469406662503706 0 0.31072919053676801 0.45607030916922148 0 0.32231398504019521 0.469406662503706 0 0.32327735207513592 0.48623299812666732 0 0.30209465751695952 0.48470333125184728 0 0.35087870012940908 0.47705499687778302 0 0.32231398504019521 0.469406662503706 0 0.32327735207513592 0.48623299812666732 0 0.35087870012940908 0.47705499687778302 0 0.33344116846150118 0.5 0 0.32327735207513592 0.48623299812666732 0 0.33344116846150118 0.5 0 0.32327735207513592 0.48623299812666732 0 0.30765824922761409 0.5 0 0.30209465751695952 0.48470333125184728 0 0.30765824922761409 0.5 0 0.28187532999372711 0.49999999999999301 0 0.32327735207513592 0.48623299812666732 0 0.30209465751695952 0.48470333125184728 0 0.30765824922761409 0.5 0 0.32231398504019521 0.469406662503706 0 0.30209465751695952 0.48470333125184728 0 0.32231398504019521 0.469406662503706 0 0.30209465751695952 0.48470333125184728 0 0.29970265674426749 0.46728771885521853 0 0.30209465751695952 0.48470333125184728 0 0.28519673197975448 0.47784568285598261 0 0.29970265674426749 0.46728771885521853 0 0.30209465751695952 0.48470333125184728 0 0.28519673197975448 0.47784568285598261 0 0.28187532999372711 0.49999999999999301 0 0.30209465751695952 0.48470333125184728 0 0.28187532999372711 0.49999999999999301 0 0.28187532999372711 0.49999999999999301 0 0.26338312923074853 0.47308785951476839 0 0.25578967585427043 0.5 0 0.28519673197975448 0.47784568285598261 0 0.28187532999372711 0.49999999999999301 0 0.26338312923074853 0.47308785951476839 0 0.28519673197975448 0.47784568285598261 0 0.26338312923074853 0.47308785951476839 0 0.28534734935032008 0.45940001478432341 0 0.24004084498241329 0.47911912719687288 0 0.26338312923074853 0.47308785951476839 0 0.25578967585427043 0.5 0 0.25735703306735919 0.44768368645741619 0 0.26543788827525111 0.4292197335685739 0 0.25735703306735919 0.44768368645741619 0 0.27256082917140201 0.45065441371232762 0 0.26543788827525111 0.4292197335685739 0 0.2401645555336728 0.45517803544211211 0 0.26338312923074853 0.47308785951476839 0 0.25735703306735919 0.44768368645741619 0 0.26338312923074853 0.47308785951476839 0 0.25735703306735919 0.44768368645741619 0 0.27256082917140201 0.45065441371232762 0 0.26338312923074853 0.47308785951476839 0 0.27256082917140201 0.45065441371232762 0 0.28534734935032008 0.45940001478432341 0 0.27256082917140201 0.45065441371232762 0 0.28517895448539238 0.44121702073840968 0 0.28534734935032008 0.45940001478432341 0 0.27256082917140201 0.45065441371232762 0 0.28517895448539238 0.44121702073840968 0 0.26543788827525111 0.4292197335685739 0 0.28517895448539238 0.44121702073840968 0 0.29711284253268982 0.44863340446299421 0 0.30195797678728381 0.43445156804284518 0 0.28517895448539238 0.44121702073840968 0 0.28534734935032008 0.45940001478432341 0 0.29711284253268982 0.44863340446299421 0 0.28534734935032008 0.45940001478432341 0 0.29970265674426749 0.46728771885521853 0 0.29711284253268982 0.44863340446299421 0 0.28519673197975448 0.47784568285598261 0 0.28534734935032008 0.45940001478432341 0 0.29970265674426749 0.46728771885521853 0 0.32231398504019521 0.469406662503706 0 0.29970265674426749 0.46728771885521853 0 0.31072919053676801 0.45607030916922148 0 0.29970265674426749 0.46728771885521853 0 0.31072919053676801 0.45607030916922148 0 0.29711284253268982 0.44863340446299421 0 0.29711284253268982 0.44863340446299421 0 0.31178808305166278 0.44349047007905462 0 0.30195797678728381 0.43445156804284518 0 0.31072919053676801 0.45607030916922148 0 0.29711284253268982 0.44863340446299421 0 0.31178808305166278 0.44349047007905462 0 0.31178808305166278 0.44349047007905462 0 0.30195797678728381 0.43445156804284518 0 0.3133184713032896 0.4310583544592152 0 0.30195797678728381 0.43445156804284518 0 0.31020106924191121 0.42039441406900779 0 0.28883390061303432 0.42427009169358731 0 0.30195797678728381 0.43445156804284518 0 0.31020106924191121 0.42039441406900779 0 0.3133184713032896 0.4310583544592152 0 0.31020106924191121 0.42039441406900779 0 0.29670877140522461 0.40958203306295587 0 0.3166480648410962 0.40688180501831012 0 0.31020106924191121 0.42039441406900779 0 0.29670877140522461 0.40958203306295587 0 0.28883390061303432 0.42427009169358731 0 0.29670877140522461 0.40958203306295587 0 0.28883390061303432 0.42427009169358731 0 0.27351874348314292 0.41075578067973162 0 0.28517895448539238 0.44121702073840968 0 0.30195797678728381 0.43445156804284518 0 0.28883390061303432 0.42427009169358731 0 0.28517895448539238 0.44121702073840968 0 0.28883390061303432 0.42427009169358731 0 0.26543788827525111 0.4292197335685739 0 0.27351874348314292 0.41075578067973162 0 0.26543788827525111 0.4292197335685739 0 0.28883390061303432 0.42427009169358731 0 0.27351874348314292 0.41075578067973162 0 0.26543788827525111 0.4292197335685739 0 0.27351874348314292 0.41075578067973162 0 0.25793411246256109 0.41493537008320369 0 0.26543788827525111 0.4292197335685739 0 0.24654341684832171 0.43101609974193572 0 0.25793411246256109 0.41493537008320369 0 0.26543788827525111 0.4292197335685739 0 0.24654341684832171 0.43101609974193572 0 0.25735703306735919 0.44768368645741619 0 0.26543788827525111 0.4292197335685739 0 0.25989716078510899 0.39132127684936002 0 0.26562843567640071 0.3702241978056105 0 0.2534212812203816 0.37031918559375299 0 0.25989716078510899 0.39132127684936002 0 0.27110020293549919 0.38393945254275291 0 0.26562843567640071 0.3702241978056105 0 0.24253864212061771 0.3758501718364865 0 0.25989716078510899 0.39132127684936002 0 0.2534212812203816 0.37031918559375299 0 0.2423690698637527 0.41068341282488402 0 0.25793411246256109 0.41493537008320369 0 0.25989716078510899 0.39132127684936002 0 0.27351874348314292 0.41075578067973162 0 0.25793411246256109 0.41493537008320369 0 0.25989716078510899 0.39132127684936002 0 0.27351874348314292 0.41075578067973162 0 0.28159959869103418 0.39229182779088911 0 0.25989716078510899 0.39132127684936002 0 0.28159959869103418 0.39229182779088911 0 0.27351874348314292 0.41075578067973162 0 0.25989716078510899 0.39132127684936002 0 0.28159959869103418 0.39229182779088911 0 0.27110020293549919 0.38393945254275291 0 0.28435969138790179 0.3859852896569016 0 0.26562843567640071 0.3702241978056105 0 0.27110020293549919 0.38393945254275291 0 0.28435969138790179 0.3859852896569016 0 0.28159959869103418 0.39229182779088911 0 0.25989716078510899 0.39132127684936002 0 0.27110020293549919 0.38393945254275291 0 0.28159959869103418 0.39229182779088911 0 0.28435969138790179 0.3859852896569016 0 0.26562843567640071 0.3702241978056105 0 0.28435969138790179 0.3859852896569016 0 0.28159959869103418 0.39229182779088911 0 0.30752831955086107 0.39345138159549781 0 0.29286724832413169 0.37703226071815787 0 0.28435969138790179 0.3859852896569016 0 0.30752831955086107 0.39345138159549781 0 0.29286724832413169 0.37703226071815787 0 0.28435969138790179 0.3859852896569016 0 0.29367182850791068 0.36470797968723928 0 0.28435969138790179 0.3859852896569016 0 0.29367182850791068 0.36470797968723928 0 0.28435969138790179 0.3859852896569016 0 0.28159959869103418 0.39229182779088911 0 0.29670877140522461 0.40958203306295587 0 0.27351874348314292 0.41075578067973162 0 0.28159959869103418 0.39229182779088911 0 0.28159959869103418 0.39229182779088911 0 0.30752831955086107 0.39345138159549781 0 0.29670877140522461 0.40958203306295587 0 0.28159959869103418 0.39229182779088911 0 0.30752831955086107 0.39345138159549781 0 0.29670877140522461 0.40958203306295587 0 0.30752831955086107 0.39345138159549781 0 0.3166480648410962 0.40688180501831012 0 0.29286724832413169 0.37703226071815787 0 0.30752831955086107 0.39345138159549781 0 0.31551393500287728 0.37389038518729117 0 0.30752831955086107 0.39345138159549781 0 0.33345704041068802 0.3946109354001075 0 0.31551393500287728 0.37389038518729117 0 0.33744984813669621 0.38483043719600352 0 0.31551393500287728 0.37389038518729117 0 0.33744984813669621 0.38483043719600352 0 0.33345704041068802 0.3946109354001075 0 0.31551393500287728 0.37389038518729117 0 0.33744984813669621 0.38483043719600352 0 0.33345704041068802 0.3946109354001075 0 0.3593857612705148 0.39577048920471652 0 0.30752831955086107 0.39345138159549781 0 0.33345704041068802 0.3946109354001075 0 0.3166480648410962 0.40688180501831012 0 0.30752831955086107 0.39345138159549781 0 0.33345704041068802 0.3946109354001075 0 0.33345704041068802 0.3946109354001075 0 0.3261905718262928 0.42078727816506423 0 0.3166480648410962 0.40688180501831012 0 0.31020106924191121 0.42039441406900779 0 0.3261905718262928 0.42078727816506423 0 0.3166480648410962 0.40688180501831012 0 0.31020106924191121 0.42039441406900779 0 0.3261905718262928 0.42078727816506423 0 0.3133184713032896 0.4310583544592152 0 0.32169503563448881 0.43841646658776923 0 0.3261905718262928 0.42078727816506423 0 0.3133184713032896 0.4310583544592152 0 0.32169503563448881 0.43841646658776923 0 0.3261905718262928 0.42078727816506423 0 0.33366328805865553 0.43305891884314551 0 0.3261905718262928 0.42078727816506423 0 0.33366328805865553 0.43305891884314551 0 0.34635191706251428 0.42533162422629561 0 0.34684412353015132 0.43804799163392011 0 0.33366328805865553 0.43305891884314551 0 0.34635191706251428 0.42533162422629561 0 0.33345704041068802 0.3946109354001075 0 0.3261905718262928 0.42078727816506423 0 0.34658181115197012 0.40857603861337249 0 0.3261905718262928 0.42078727816506423 0 0.34658181115197012 0.40857603861337249 0 0.34635191706251428 0.42533162422629561 0 0.34658181115197012 0.40857603861337249 0 0.34635191706251428 0.42533162422629561 0 0.36259271248556291 0.41552955263667468 0 0.34658181115197012 0.40857603861337249 0 0.36259271248556291 0.41552955263667468 0 0.3593857612705148 0.39577048920471652 0 0.35954341074284568 0.44124122564619739 0 0.34635191706251428 0.42533162422629561 0 0.36259271248556291 0.41552955263667468 0 0.35954341074284568 0.44124122564619739 0 0.34684412353015132 0.43804799163392011 0 0.34635191706251428 0.42533162422629561 0 0.35954341074284568 0.44124122564619739 0 0.36259271248556291 0.41552955263667468 0 0.37655350892226053 0.42837245753683012 0 0.35954341074284568 0.44124122564619739 0 0.37655350892226053 0.42837245753683012 0 0.36259271248556291 0.41552955263667468 0 0.37860237570873578 0.40535435107100809 0 0.37655350892226053 0.42837245753683012 0 0.3593857612705148 0.39577048920471652 0 0.37860237570873578 0.40535435107100809 0 0.3593857612705148 0.39577048920471652 0 0.38944665199137463 0.39711483705719403 0 0.36259271248556291 0.41552955263667468 0 0.3593857612705148 0.39577048920471652 0 0.37860237570873578 0.40535435107100809 0 0.3593857612705148 0.39577048920471652 0 0.35766902033769832 0.365141310833558 0 0.38393119701231371 0.37247942456241301 0 0.33744984813669621 0.38483043719600352 0 0.3593857612705148 0.39577048920471652 0 0.33744984813669621 0.38483043719600352 0 0.3593857612705148 0.39577048920471652 0 0.35766902033769832 0.365141310833558 0 0.33345704041068802 0.3946109354001075 0 0.3593857612705148 0.39577048920471652 0 0.33345704041068802 0.3946109354001075 0 0.34658181115197012 0.40857603861337249 0 0.3593857612705148 0.39577048920471652 0 0.34524302085685482 0.34825323322118101 0 0.35766902033769832 0.365141310833558 0 0.36102830775015232 0.34223376647878201 0 0.34524302085685482 0.34825323322118101 0 0.35766902033769832 0.365141310833558 0 0.33595858205921991 0.36475113697571337 0 0.35766902033769832 0.365141310833558 0 0.37841574203325312 0.34784401206763188 0 0.38393119701231371 0.37247942456241301 0 0.35766902033769832 0.365141310833558 0 0.36102830775015232 0.34223376647878201 0 0.37841574203325312 0.34784401206763188 0 0.36102830775015232 0.34223376647878201 0 0.37290028705419259 0.32320859957285092 0 0.37841574203325312 0.34784401206763188 0 0.36102830775015232 0.34223376647878201 0 0.37290028705419259 0.32320859957285092 0 0.3509134684687622 0.3267216766986879 0 0.37290028705419259 0.32320859957285092 0 0.3509134684687622 0.3267216766986879 0 0.36738483207513262 0.29857318707806979 0 0.34524302085685482 0.34825323322118101 0 0.36102830775015232 0.34223376647878201 0 0.3509134684687622 0.3267216766986879 0 0.34524302085685482 0.34825323322118101 0 0.3509134684687622 0.3267216766986879 0 0.32900804053957688 0.33071092846311251 0 0.34524302085685482 0.34825323322118101 0 0.32900804053957688 0.33071092846311251 0 0.32391708596197288 0.35164031844053351 0 0.34524302085685482 0.34825323322118101 0 0.32900804053957688 0.33071092846311251 0 0.3509134684687622 0.3267216766986879 0 0.32900804053957688 0.33071092846311251 0 0.34007894614871759 0.30587090539156009 0 0.32900804053957688 0.33071092846311251 0 0.31277306022230061 0.31316862370504261 0 0.32900804053957688 0.33071092846311251 0 0.31277306022230061 0.31316862370504261 0 0.30659528101454792 0.32450278624505879 0 0.32900804053957688 0.33071092846311251 0 0.31277306022230061 0.31316862370504261 0 0.34007894614871759 0.30587090539156009 0 0.32900804053957688 0.33071092846311251 0 0.3091839299211695 0.33754302973927069 0 0.30659528101454792 0.32450278624505879 0 0.32900804053957688 0.33071092846311251 0 0.32391708596197288 0.35164031844053351 0 0.3091839299211695 0.33754302973927069 0 0.32391708596197288 0.35164031844053351 0 0.30763159817433861 0.35363252412139429 0 0.3091839299211695 0.33754302973927069 0 0.34524302085685482 0.34825323322118101 0 0.32391708596197288 0.35164031844053351 0 0.33595858205921991 0.36475113697571337 0 0.33744984813669621 0.38483043719600352 0 0.35766902033769832 0.365141310833558 0 0.33595858205921991 0.36475113697571337 0 0.33744984813669621 0.38483043719600352 0 0.33595858205921991 0.36475113697571337 0 0.31551393500287728 0.37389038518729117 0 0.32391708596197288 0.35164031844053351 0 0.31551393500287728 0.37389038518729117 0 0.30763159817433861 0.35363252412139429 0 0.32391708596197288 0.35164031844053351 0 0.33595858205921991 0.36475113697571337 0 0.31551393500287728 0.37389038518729117 0 0.31551393500287728 0.37389038518729117 0 0.30763159817433861 0.35363252412139429 0 0.29357802186905829 0.36295033317857878 0 0.29286724832413169 0.37703226071815787 0 0.31551393500287728 0.37389038518729117 0 0.29367182850791068 0.36470797968723928 0 0.31551393500287728 0.37389038518729117 0 0.29357802186905829 0.36295033317857878 0 0.31551393500287728 0.37389038518729117 0 0.29367182850791068 0.36470797968723928 0 0.29357802186905829 0.36295033317857878 0 0.30763159817433861 0.35363252412139429 0 0.29357802186905829 0.36295033317857878 0 0.29714919499477499 0.34196555458794731 0 0.30763159817433861 0.35363252412139429 0 0.29714919499477499 0.34196555458794731 0 0.3091839299211695 0.33754302973927069 0 0.29357802186905829 0.36295033317857878 0 0.28453347451730632 0.33998206696897371 0 0.29714919499477499 0.34196555458794731 0 0.29357802186905829 0.36295033317857878 0 0.27164210873523931 0.35201028116986638 0 0.29357802186905829 0.36295033317857878 0 0.27164210873523931 0.35201028116986638 0 0.28453347451730632 0.33998206696897371 0 0.29357802186905829 0.36295033317857878 0 0.28177601723530232 0.36717561629963941 0 0.27164210873523931 0.35201028116986638 0 0.28435969138790179 0.3859852896569016 0 0.29367182850791068 0.36470797968723928 0 0.28177601723530232 0.36717561629963941 0 0.29367182850791068 0.36470797968723928 0 0.29357802186905829 0.36295033317857878 0 0.28177601723530232 0.36717561629963941 0 0.28435969138790179 0.3859852896569016 0 0.28177601723530232 0.36717561629963941 0 0.26562843567640071 0.3702241978056105 0 0.28177601723530232 0.36717561629963941 0 0.26562843567640071 0.3702241978056105 0 0.27164210873523931 0.35201028116986638 0 0.24970619560142029 0.34107022916115398 0 0.24689717996490121 0.35446310595431729 0 0.27164210873523931 0.35201028116986638 0 0.24689717996490121 0.35446310595431729 0 0.26562843567640071 0.3702241978056105 0 0.27164210873523931 0.35201028116986638 0 0.24970619560142029 0.34107022916115398 0 0.27164210873523931 0.35201028116986638 0 0.24689717996490121 0.35446310595431729 0 0.26562843567640071 0.3702241978056105 0 0.2534212812203816 0.37031918559375299 0 0.24689717996490121 0.35446310595431729 0 0.26562843567640071 0.3702241978056105 0 0.24355908623514039 0.3145146852661348 0 0.25227126871228428 0.32884042606120589 0 0.25656390719381639 0.30837390478115673 0 0.25227126871228428 0.32884042606120589 0 0.27158022661211711 0.32268907077994391 0 0.25656390719381639 0.30837390478115673 0 0.25227126871228428 0.32884042606120589 0 0.25656390719381639 0.30837390478115673 0 0.25227126871228428 0.32884042606120589 0 0.27158022661211711 0.32268907077994391 0 0.24970619560142029 0.34107022916115398 0 0.27164210873523931 0.35201028116986638 0 0.25871731720494812 0.337197073983869 0 0.24970619560142029 0.34107022916115398 0 0.25227126871228428 0.32884042606120589 0 0.25871731720494812 0.337197073983869 0 0.25227126871228428 0.32884042606120589 0 0.25871731720494812 0.337197073983869 0 0.2682776605420375 0.33500584627825197 0 0.24970619560142029 0.34107022916115398 0 0.25024539495860471 0.32948581921388143 0 0.25227126871228428 0.32884042606120589 0 0.25024539495860471 0.32948581921388143 0 0.25227126871228428 0.32884042606120589 0 0.25227126871228428 0.32884042606120589 0 0.2682776605420375 0.33500584627825197 0 0.24970619560142029 0.34107022916115398 0 0.25227126871228428 0.32884042606120589 0 0.25227126871228428 0.32884042606120589 0 0.2682776605420375 0.33500584627825197 0 0.27158022661211711 0.32268907077994391 0 0.2682776605420375 0.33500584627825197 0 0.27579343711021831 0.33014234917831631 0 0.27158022661211711 0.32268907077994391 0 0.2682776605420375 0.33500584627825197 0 0.27579343711021831 0.33014234917831631 0 0.28453347451730632 0.33998206696897371 0 0.2682776605420375 0.33500584627825197 0 0.28453347451730632 0.33998206696897371 0 0.27164210873523931 0.35201028116986638 0 0.2682776605420375 0.33500584627825197 0 0.28453347451730632 0.33998206696897371 0 0.27164210873523931 0.35201028116986638 0 0.25871731720494812 0.337197073983869 0 0.2682776605420375 0.33500584627825197 0 0.27579343711021831 0.33014234917831631 0 0.28453347451730632 0.33998206696897371 0 0.28212164469333562 0.32883533141749072 0 0.27158022661211711 0.32268907077994391 0 0.29088918451194989 0.31653771549868209 0 0.27505567670971598 0.3022849722428893 0 0.27840048359522113 0.32235497212123798 0 0.27158022661211711 0.32268907077994391 0 0.29088918451194989 0.31653771549868209 0 0.27579343711021831 0.33014234917831631 0 0.27840048359522113 0.32235497212123798 0 0.28212164469333562 0.32883533141749072 0 0.27158022661211711 0.32268907077994391 0 0.29088918451194989 0.31653771549868209 0 0.27579343711021831 0.33014234917831631 0 0.27840048359522113 0.32235497212123798 0 0.27158022661211711 0.32268907077994391 0 0.27840048359522113 0.32235497212123798 0 0.2955867719087607 0.31776179791313991 0 0.289240101246174 0.32846401898850353 0 0.27840048359522113 0.32235497212123798 0 0.2955867719087607 0.31776179791313991 0 0.27840048359522113 0.32235497212123798 0 0.29088918451194989 0.31653771549868209 0 0.2955867719087607 0.31776179791313991 0 0.27840048359522113 0.32235497212123798 0 0.28212164469333562 0.32883533141749072 0 0.289240101246174 0.32846401898850353 0 0.2955867719087607 0.31776179791313991 0 0.289240101246174 0.32846401898850353 0 0.29932013267968338 0.32913485479428839 0 0.28453347451730632 0.33998206696897371 0 0.28212164469333562 0.32883533141749072 0 0.289240101246174 0.32846401898850353 0 0.289240101246174 0.32846401898850353 0 0.29714919499477499 0.34196555458794731 0 0.29932013267968338 0.32913485479428839 0 0.28453347451730632 0.33998206696897371 0 0.289240101246174 0.32846401898850353 0 0.29714919499477499 0.34196555458794731 0 0.29714919499477499 0.34196555458794731 0 0.29932013267968338 0.32913485479428839 0 0.3091839299211695 0.33754302973927069 0 0.29932013267968338 0.32913485479428839 0 0.3091839299211695 0.33754302973927069 0 0.30659528101454792 0.32450278624505879 0 0.31277306022230061 0.31316862370504261 0 0.2955867719087607 0.31776179791313991 0 0.31019814241178278 0.31038636021742028 0 0.29088918451194989 0.31653771549868209 0 0.2955867719087607 0.31776179791313991 0 0.31019814241178278 0.31038636021742028 0 0.31277306022230061 0.31316862370504261 0 0.2955867719087607 0.31776179791313991 0 0.31277306022230061 0.31316862370504261 0 0.2955867719087607 0.31776179791313991 0 0.30659528101454792 0.32450278624505879 0 0.29088918451194989 0.31653771549868209 0 0.31019814241178278 0.31038636021742028 0 0.2955867719087607 0.31776179791313991 0 0.29932013267968338 0.32913485479428839 0 0.30659528101454792 0.32450278624505879 0 0.31019814241178278 0.31038636021742028 0 0.3100857779418798 0.29398649640713043 0 0.29171922063101902 0.29041942024314271 0 0.31277306022230061 0.31316862370504261 0 0.31019814241178278 0.31038636021742028 0 0.29088918451194989 0.31653771549868209 0 0.31019814241178278 0.31038636021742028 0 0.29171922063101902 0.29041942024314271 0 0.31019814241178278 0.31038636021742028 0 0.3100857779418798 0.29398649640713043 0 0.31534995319341419 0.30874512102553597 0 0.31019814241178278 0.31038636021742028 0 0.29171922063101902 0.29041942024314271 0 0.3100857779418798 0.29398649640713043 0 0.29171922063101902 0.29041942024314271 0 0.30696900394688459 0.27663368713278852 0 0.29088918451194989 0.31653771549868209 0 0.29171922063101902 0.29041942024314271 0 0.27505567670971598 0.3022849722428893 0 0.27158022661211711 0.32268907077994391 0 0.27505567670971598 0.3022849722428893 0 0.25656390719381639 0.30837390478115673 0 0.27521793546658457 0.28776606406400113 0 0.26085654567534822 0.28790738350110751 0 0.27324029885025541 0.27045248026886509 0 0.29171922063101902 0.29041942024314271 0 0.27505567670971598 0.3022849722428893 0 0.27521793546658457 0.28776606406400113 0 0.29171922063101902 0.29041942024314271 0 0.27521793546658457 0.28776606406400113 0 0.27324029885025541 0.27045248026886509 0 0.27505567670971598 0.3022849722428893 0 0.27521793546658457 0.28776606406400113 0 0.26085654567534822 0.28790738350110751 0 0.24493664756020159 0.29477744396150529 0 0.26085654567534822 0.28790738350110751 0 0.25247188767848938 0.27667676178031908 0 0.24493664756020159 0.29477744396150529 0 0.26085654567534822 0.28790738350110751 0 0.25656390719381639 0.30837390478115673 0 0.26085654567534822 0.28790738350110751 0 0.25656390719381639 0.30837390478115673 0 0.27505567670971598 0.3022849722428893 0 0.26085654567534822 0.28790738350110751 0 0.25656390719381639 0.30837390478115673 0 0.2547613770694917 0.25048554029458758 0 0.27324029885025541 0.27045248026886509 0 0.2547613770694917 0.25048554029458758 0 0.26514918415687988 0.26744086222105812 0 0.27324029885025541 0.27045248026886509 0 0.2547613770694917 0.25048554029458758 0 0.25120020640246649 0.2628551711644711 0 0.26514918415687988 0.26744086222105812 0 0.25120020640246649 0.2628551711644711 0 0.25247188767848938 0.27667676178031908 0 0.26514918415687988 0.26744086222105812 0 0.26085654567534822 0.28790738350110751 0 0.26514918415687988 0.26744086222105812 0 0.26085654567534822 0.28790738350110751 0 0.25247188767848938 0.27667676178031908 0 0.26514918415687988 0.26744086222105812 0 0.26085654567534822 0.28790738350110751 0 0.26514918415687988 0.26744086222105812 0 0.27324029885025541 0.27045248026886509 0 0.2547613770694917 0.25048554029458758 0 0.27219591292813861 0.25787237161431359 0 0.2751065541431949 0.2491946056611444 0 0.27324029885025541 0.27045248026886509 0 0.27219591292813861 0.25787237161431359 0 0.28567542164961263 0.26135686023265758 0 0.2547613770694917 0.25048554029458758 0 0.27324029885025541 0.27045248026886509 0 0.27219591292813861 0.25787237161431359 0 0.27219591292813861 0.25787237161431359 0 0.28567542164961263 0.26135686023265758 0 0.2751065541431949 0.2491946056611444 0 0.28567542164961263 0.26135686023265758 0 0.2751065541431949 0.2491946056611444 0 0.28654083416370429 0.2492468420736853 0 0.28567542164961263 0.26135686023265758 0 0.29146074775926728 0.27263380862840569 0 0.29934555114052552 0.25902095441144518 0 0.29934555114052552 0.25902095441144518 0 0.2956810109953999 0.24413942294282001 0 0.28654083416370429 0.2492468420736853 0 0.28567542164961263 0.26135686023265758 0 0.29934555114052552 0.25902095441144518 0 0.28654083416370429 0.2492468420736853 0 0.29171922063101902 0.29041942024314271 0 0.27324029885025541 0.27045248026886509 0 0.29171922063101902 0.29041942024314271 0 0.29146074775926728 0.27263380862840569 0 0.30696900394688459 0.27663368713278852 0 0.29171922063101902 0.29041942024314271 0 0.27324029885025541 0.27045248026886509 0 0.29146074775926728 0.27263380862840569 0 0.27324029885025541 0.27045248026886509 0 0.28567542164961263 0.26135686023265758 0 0.29146074775926728 0.27263380862840569 0 0.29146074775926728 0.27263380862840569 0 0.30696900394688459 0.27663368713278852 0 0.29934555114052552 0.25902095441144518 0 0.30696900394688459 0.27663368713278852 0 0.29934555114052552 0.25902095441144518 0 0.32018797107052499 0.25783133363748673 0 0.29934555114052552 0.25902095441144518 0 0.32018797107052499 0.25783133363748673 0 0.30610178343330602 0.24484271462858009 0 0.32018797107052499 0.25783133363748673 0 0.34016336296145722 0.25618681752814609 0 0.33103562163067829 0.23723050569429979 0 0.32018797107052499 0.25783133363748673 0 0.34016336296145722 0.25618681752814609 0 0.33434218310566172 0.26832923273674358 0 0.34016336296145722 0.25618681752814609 0 0.33434218310566172 0.26832923273674358 0 0.34713047557010562 0.26570743674668351 0 0.33434218310566172 0.26832923273674358 0 0.32489844794123762 0.28059585002576809 0 0.34546907707456609 0.2787354962669743 0 0.33434218310566172 0.26832923273674358 0 0.34713047557010562 0.26570743674668351 0 0.34546907707456609 0.2787354962669743 0 0.32018797107052499 0.25783133363748673 0 0.33434218310566172 0.26832923273674358 0 0.32489844794123762 0.28059585002576809 0 0.30696900394688459 0.27663368713278852 0 0.32018797107052499 0.25783133363748673 0 0.32489844794123762 0.28059585002576809 0 0.3100857779418798 0.29398649640713043 0 0.30696900394688459 0.27663368713278852 0 0.32489844794123762 0.28059585002576809 0 0.3100857779418798 0.29398649640713043 0 0.32489844794123762 0.28059585002576809 0 0.32444549652982568 0.29575885537533753 0 0.31277306022230061 0.31316862370504261 0 0.34007894614871759 0.30587090539156009 0 0.32444549652982568 0.29575885537533753 0 0.31534995319341419 0.30874512102553597 0 0.34007894614871759 0.30587090539156009 0 0.31277306022230061 0.31316862370504261 0 0.31534995319341419 0.30874512102553597 0 0.34007894614871759 0.30587090539156009 0 0.31019814241178278 0.31038636021742028 0 0.31534995319341419 0.30874512102553597 0 0.31277306022230061 0.31316862370504261 0 0.31019814241178278 0.31038636021742028 0 0.31534995319341419 0.30874512102553597 0 0.3100857779418798 0.29398649640713043 0 0.32444549652982568 0.29575885537533753 0 0.31534995319341419 0.30874512102553597 0 0.32444549652982568 0.29575885537533753 0 0.34007894614871759 0.30587090539156009 0 0.33653967100308518 0.29023214321905361 0 0.34007894614871759 0.30587090539156009 0 0.33653967100308518 0.29023214321905361 0 0.35041854854652882 0.29120668727453192 0 0.32489844794123762 0.28059585002576809 0 0.33653967100308518 0.29023214321905361 0 0.34546907707456609 0.2787354962669743 0 0.32489844794123762 0.28059585002576809 0 0.32444549652982568 0.29575885537533753 0 0.33653967100308518 0.29023214321905361 0 0.33653967100308518 0.29023214321905361 0 0.35041854854652882 0.29120668727453192 0 0.34546907707456609 0.2787354962669743 0 0.35041854854652882 0.29120668727453192 0 0.36392629704386759 0.28312524353645369 0 0.34546907707456609 0.2787354962669743 0 0.34007894614871759 0.30587090539156009 0 0.36738483207513262 0.29857318707806979 0 0.3509134684687622 0.3267216766986879 0 0.34007894614871759 0.30587090539156009 0 0.36738483207513262 0.29857318707806979 0 0.34007894614871759 0.30587090539156009 0 0.35041854854652882 0.29120668727453192 0 0.36738483207513262 0.29857318707806979 0 0.37290028705419259 0.32320859957285092 0 0.36738483207513262 0.29857318707806979 0 0.35041854854652882 0.29120668727453192 0 0.36738483207513262 0.29857318707806979 0 0.36392629704386759 0.28312524353645369 0 0.36738483207513262 0.29857318707806979 0 0.36392629704386759 0.28312524353645369 0 0.36738483207513262 0.29857318707806979 0 0.36392629704386759 0.28312524353645369 0 0.37622665716265158 0.28627757373224572 0 0.36392629704386759 0.28312524353645369 0 0.37573998115665908 0.27310950311602522 0 0.37622665716265158 0.28627757373224572 0 0.36392629704386759 0.28312524353645369 0 0.36046776201260311 0.26767729999483753 0 0.37573998115665908 0.27310950311602522 0 0.36392629704386759 0.28312524353645369 0 0.36046776201260311 0.26767729999483753 0 0.36046776201260311 0.26767729999483753 0 0.3707475312894572 0.26420280805648588 0 0.37573998115665908 0.27310950311602522 0 0.3707475312894572 0.26420280805648588 0 0.3673620431539209 0.25795929889553482 0 0.37942033883464582 0.25806513021954602 0 0.3673620431539209 0.25795929889553482 0 0.37942033883464582 0.25806513021954602 0 0.36887479386189043 0.2474827054564625 0 0.3673620431539209 0.25795929889553482 0 0.36887479386189043 0.2474827054564625 0 0.36163906272355062 0.24861522184860879 0 0.3673620431539209 0.25795929889553482 0 0.35520999269623971 0.25760833720671578 0 0.36163906272355062 0.24861522184860879 0 0.36046776201260311 0.26767729999483753 0 0.3707475312894572 0.26420280805648588 0 0.3673620431539209 0.25795929889553482 0 0.36046776201260311 0.26767729999483753 0 0.3673620431539209 0.25795929889553482 0 0.35520999269623971 0.25760833720671578 0 0.36046776201260311 0.26767729999483753 0 0.35520999269623971 0.25760833720671578 0 0.34713047557010562 0.26570743674668351 0 0.35520999269623971 0.25760833720671578 0 0.36163906272355062 0.24861522184860879 0 0.34848594644122949 0.24707326179316411 0 0.34016336296145722 0.25618681752814609 0 0.35520999269623971 0.25760833720671578 0 0.34848594644122949 0.24707326179316411 0 0.34016336296145722 0.25618681752814609 0 0.35520999269623971 0.25760833720671578 0 0.34713047557010562 0.26570743674668351 0 0.36046776201260311 0.26767729999483753 0 0.34713047557010562 0.26570743674668351 0 0.34546907707456609 0.2787354962669743 0 0.36392629704386759 0.28312524353645369 0 0.36046776201260311 0.26767729999483753 0 0.34546907707456609 0.2787354962669743 0 0.38874089862111783 0.25700505867602402 0 0.38755606871125697 0.28312240795869292 0 0.40112124178770642 0.2819112933214809 0 0.40149009126058283 0.26619783043997192 0 0.40112124178770642 0.2819112933214809 0 0.40759103763107229 0.27482363127230841 0 0.40149009126058283 0.26619783043997192 0 0.38874089862111783 0.25700505867602402 0 0.40112124178770642 0.2819112933214809 0 0.38874089862111783 0.25700505867602402 0 0.40112124178770642 0.2819112933214809 0 0.40112124178770642 0.2819112933214809 0 0.40871023545732299 0.28179010632988699 0 0.40759103763107229 0.27482363127230841 0 0.40149009126058283 0.26619783043997192 0 0.39892283241838922 0.25612734664940218 0 0.40789920283657871 0.25785259403854849 0 0.39892283241838922 0.25612734664940218 0 0.40334293913003832 0.25038292789593369 0 0.40789920283657871 0.25785259403854849 0 0.39892283241838922 0.25612734664940218 0 0.40334293913003832 0.25038292789593369 0 0.39518133878715439 0.24806285062132549 0 0.39892283241838922 0.25612734664940218 0 0.38874089862111783 0.25700505867602402 0 0.39518133878715439 0.24806285062132549 0 0.40149009126058283 0.26619783043997192 0 0.39892283241838922 0.25612734664940218 0 0.38874089862111783 0.25700505867602402 0 0.3707475312894572 0.26420280805648588 0 0.37942033883464582 0.25806513021954602 0 0.37573998115665908 0.27310950311602522 0 0.37942033883464582 0.25806513021954602 0 0.38755606871125697 0.28312240795869292 0 0.38874089862111783 0.25700505867602402 0 0.37942033883464582 0.25806513021954602 0 0.38755606871125697 0.28312240795869292 0 0.37942033883464582 0.25806513021954602 0 0.37573998115665908 0.27310950311602522 0 0.38755606871125697 0.28312240795869292 0 0.37573998115665908 0.27310950311602522 0 0.37622665716265158 0.28627757373224572 0 0.38755606871125697 0.28312240795869292 0 0.36738483207513262 0.29857318707806979 0 0.38652610682634198 0.2934575269719869 0 0.36738483207513262 0.29857318707806979 0 0.37622665716265158 0.28627757373224572 0 0.38652610682634198 0.2934575269719869 0 0.37622665716265158 0.28627757373224572 0 0.38652610682634198 0.2934575269719869 0 0.38755606871125697 0.28312240795869292 0 0.36738483207513262 0.29857318707806979 0 0.38652610682634198 0.2934575269719869 0 0.3871915946852359 0.31046910681319251 0 0.37290028705419259 0.32320859957285092 0 0.36738483207513262 0.29857318707806979 0 0.3871915946852359 0.31046910681319251 0 0.38652610682634198 0.2934575269719869 0 0.3871915946852359 0.31046910681319251 0 0.39874565317062172 0.30090353811667642 0 0.3871915946852359 0.31046910681319251 0 0.39874565317062172 0.30090353811667642 0 0.40325727546245999 0.31436186277443301 0 0.39874565317062172 0.30090353811667642 0 0.41162662633704772 0.29977103786254689 0 0.40325727546245999 0.31436186277443301 0 0.38652610682634198 0.2934575269719869 0 0.405667381577549 0.28834186686589519 0 0.40112124178770642 0.2819112933214809 0 0.38652610682634198 0.2934575269719869 0 0.405667381577549 0.28834186686589519 0 0.38652610682634198 0.2934575269719869 0 0.39874565317062172 0.30090353811667642 0 0.405667381577549 0.28834186686589519 0 0.38652610682634198 0.2934575269719869 0 0.38755606871125697 0.28312240795869292 0 0.40112124178770642 0.2819112933214809 0 0.39874565317062172 0.30090353811667642 0 0.405667381577549 0.28834186686589519 0 0.41162662633704772 0.29977103786254689 0 0.405667381577549 0.28834186686589519 0 0.40112124178770642 0.2819112933214809 0 0.40871023545732299 0.28179010632988699 0 0.40871023545732299 0.28179010632988699 0 0.41300716484211158 0.28739353466353251 0 0.41638253944549569 0.27834990682418231 0 0.405667381577549 0.28834186686589519 0 0.40871023545732299 0.28179010632988699 0 0.41300716484211158 0.28739353466353251 0 0.405667381577549 0.28834186686589519 0 0.41300716484211158 0.28739353466353251 0 0.41162662633704772 0.29977103786254689 0 0.41300716484211158 0.28739353466353251 0 0.41162662633704772 0.29977103786254689 0 0.42228046204204389 0.29124010999512551 0 0.41300716484211158 0.28739353466353251 0 0.42228046204204389 0.29124010999512551 0 0.41638253944549569 0.27834990682418231 0 0.41162662633704772 0.29977103786254689 0 0.41614831507083011 0.31398796274804919 0 0.40325727546245999 0.31436186277443301 0 0.41162662633704772 0.29977103786254689 0 0.42432677220082432 0.30409613818899062 0 0.42228046204204389 0.29124010999512551 0 0.41162662633704772 0.29977103786254689 0 0.42432677220082432 0.30409613818899062 0 0.41614831507083011 0.31398796274804919 0 0.42432677220082432 0.30409613818899062 0 0.43851890408309979 0.29747982506595411 0 0.43431890876985568 0.31989267209427008 0 0.42432677220082432 0.30409613818899062 0 0.42228046204204389 0.29124010999512551 0 0.43851890408309979 0.29747982506595411 0 0.42228046204204389 0.29124010999512551 0 0.43066264762182599 0.28112382300837951 0 0.43851890408309979 0.29747982506595411 0 0.42228046204204389 0.29124010999512551 0 0.43066264762182599 0.28112382300837951 0 0.41638253944549569 0.27834990682418231 0 0.42575005604312799 0.2679054483667252 0 0.44156299304423963 0.25894039049657858 0 0.44332409194243261 0.27264516726072519 0 0.43066264762182599 0.28112382300837951 0 0.42575005604312799 0.2679054483667252 0 0.44332409194243261 0.27264516726072519 0 0.43066264762182599 0.28112382300837951 0 0.42575005604312799 0.2679054483667252 0 0.41638253944549569 0.27834990682418231 0 0.42575005604312799 0.2679054483667252 0 0.41638253944549569 0.27834990682418231 0 0.41233027957426582 0.26751707508173861 0 0.40149009126058283 0.26619783043997192 0 0.41233027957426582 0.26751707508173861 0 0.40759103763107229 0.27482363127230841 0 0.41638253944549569 0.27834990682418231 0 0.41233027957426582 0.26751707508173861 0 0.40759103763107229 0.27482363127230841 0 0.40871023545732299 0.28179010632988699 0 0.41638253944549569 0.27834990682418231 0 0.40759103763107229 0.27482363127230841 0 0.40789920283657871 0.25785259403854849 0 0.41690905877226392 0.25883756797348828 0 0.41440001586393188 0.24805281619075681 0 0.40334293913003832 0.25038292789593369 0 0.40789920283657871 0.25785259403854849 0 0.41440001586393188 0.24805281619075681 0 0.40149009126058283 0.26619783043997192 0 0.41233027957426582 0.26751707508173861 0 0.40789920283657871 0.25785259403854849 0 0.41233027957426582 0.26751707508173861 0 0.40789920283657871 0.25785259403854849 0 0.41690905877226392 0.25883756797348828 0 0.42575005604312799 0.2679054483667252 0 0.41233027957426582 0.26751707508173861 0 0.41690905877226392 0.25883756797348828 0 0.41690905877226392 0.25883756797348828 0 0.42767619269703833 0.25363002151095998 0 0.41440001586393188 0.24805281619075681 0 0.42575005604312799 0.2679054483667252 0 0.42767619269703833 0.25363002151095998 0 0.44156299304423963 0.25894039049657858 0 0.42575005604312799 0.2679054483667252 0 0.41690905877226392 0.25883756797348828 0 0.42767619269703833 0.25363002151095998 0 0.42767619269703833 0.25363002151095998 0 0.44156299304423963 0.25894039049657858 0 0.44132365885682051 0.24416629740396889 0 0.44156299304423963 0.25894039049657858 0 0.45626244630759588 0.26429396779189918 0 0.45511480877640331 0.24853964527587741 0 0.44156299304423963 0.25894039049657858 0 0.44332409194243261 0.27264516726072519 0 0.45626244630759588 0.26429396779189918 0 0.44156299304423963 0.25894039049657858 0 0.45511480877640331 0.24853964527587741 0 0.44132365885682051 0.24416629740396889 0 0.43066264762182599 0.28112382300837951 0 0.44332409194243261 0.27264516726072519 0 0.44582866563395901 0.28480568947758123 0 0.44332409194243261 0.27264516726072519 0 0.45657525510035962 0.27928106388378948 0 0.45626244630759588 0.26429396779189918 0 0.44332409194243261 0.27264516726072519 0 0.45657525510035962 0.27928106388378948 0 0.44582866563395901 0.28480568947758123 0 0.45657525510035962 0.27928106388378948 0 0.45626244630759588 0.26429396779189918 0 0.47525366611679759 0.27563391233672307 0 0.45626244630759588 0.26429396779189918 0 0.47118953213562309 0.25465912028967069 0 0.47525366611679759 0.27563391233672307 0 0.45626244630759588 0.26429396779189918 0 0.47118953213562309 0.25465912028967069 0 0.45511480877640331 0.24853964527587741 0 0.47118953213562309 0.25465912028967069 0 0.47525366611679759 0.27563391233672307 0 0.5 0.25700437610689419 0 0.47525366611679759 0.27563391233672307 0 0.5 0.25700437610689419 0 0.5 0.28299645854240779 0 0.47118953213562309 0.25465912028967069 0 0.5 0.25700437610689419 0 0.48254497541643743 0.23911994854186369 0 0.5 0.3089885409779215 0 0.48126544435610868 0.29705461458201188 0 0.48164429529023672 0.3121688249533271 0 0.47525366611679759 0.27563391233672307 0 0.5 0.28299645854240779 0 0.48126544435610868 0.29705461458201188 0 0.5 0.3089885409779215 0 0.5 0.28299645854240779 0 0.48126544435610868 0.29705461458201188 0 0.47525366611679759 0.27563391233672307 0 0.48126544435610868 0.29705461458201188 0 0.46006242942207698 0.29349856816905762 0 0.48126544435610868 0.29705461458201188 0 0.46624001793592229 0.3086084189180554 0 0.46006242942207698 0.29349856816905762 0 0.48126544435610868 0.29705461458201188 0 0.48164429529023672 0.3121688249533271 0 0.46624001793592229 0.3086084189180554 0 0.46624001793592229 0.3086084189180554 0 0.46006242942207698 0.29349856816905762 0 0.451606370815615 0.30792820902889168 0 0.45657525510035962 0.27928106388378948 0 0.47525366611679759 0.27563391233672307 0 0.46006242942207698 0.29349856816905762 0 0.45657525510035962 0.27928106388378948 0 0.46006242942207698 0.29349856816905762 0 0.44582866563395901 0.28480568947758123 0 0.46006242942207698 0.29349856816905762 0 0.44582866563395901 0.28480568947758123 0 0.43851890408309979 0.29747982506595411 0 0.43066264762182599 0.28112382300837951 0 0.44582866563395901 0.28480568947758123 0 0.43851890408309979 0.29747982506595411 0 0.43851890408309979 0.29747982506595411 0 0.451606370815615 0.30792820902889168 0 0.43431890876985568 0.31989267209427008 0 0.46006242942207698 0.29349856816905762 0 0.43851890408309979 0.29747982506595411 0 0.451606370815615 0.30792820902889168 0 0.451606370815615 0.30792820902889168 0 0.45631230794343042 0.32441380146862592 0 0.43431890876985568 0.31989267209427008 0 0.44687953404259029 0.34128391297691968 0 0.45631230794343042 0.32441380146862592 0 0.43431890876985568 0.31989267209427008 0 0.46452075261383841 0.3405922605449061 0 0.45631230794343042 0.32441380146862592 0 0.47430826348276112 0.32817733524871251 0 0.44687953404259029 0.34128391297691968 0 0.46452075261383841 0.3405922605449061 0 0.45631230794343042 0.32441380146862592 0 0.46624001793592229 0.3086084189180554 0 0.45631230794343042 0.32441380146862592 0 0.47430826348276112 0.32817733524871251 0 0.46624001793592229 0.3086084189180554 0 0.451606370815615 0.30792820902889168 0 0.45631230794343042 0.32441380146862592 0 0.48164429529023672 0.3121688249533271 0 0.46624001793592229 0.3086084189180554 0 0.47430826348276112 0.32817733524871251 0 0.46452075261383841 0.3405922605449061 0 0.47430826348276112 0.32817733524871251 0 0.47907095221405582 0.35081422177756327 0 0.50000000000000222 0.33498062341343521 0 0.47907095221405582 0.35081422177756327 0 0.47430826348276112 0.32817733524871251 0 0.50000000000000222 0.33498062341343521 0 0.47907095221405582 0.35081422177756327 0 0.5 0.3089885409779215 0 0.48164429529023672 0.3121688249533271 0 0.50000000000000222 0.33498062341343521 0 0.48164429529023672 0.3121688249533271 0 0.47430826348276112 0.32817733524871251 0 0.50000000000000222 0.33498062341343521 0 0.5 0.35734004029471428 0 0.47876703724976211 0.37587891112188981 0 0.5 0.3796994571759934 0 0.5 0.35734004029471428 0 0.47907095221405582 0.35081422177756327 0 0.47876703724976211 0.37587891112188981 0 0.50000000000000222 0.33498062341343521 0 0.5 0.35734004029471428 0 0.47907095221405582 0.35081422177756327 0 0.47907095221405582 0.35081422177756327 0 0.45814190442810832 0.36664782014169062 0 0.47876703724976211 0.37587891112188981 0 0.47907095221405582 0.35081422177756327 0 0.45814190442810832 0.36664782014169062 0 0.44687953404259029 0.34128391297691968 0 0.46452075261383841 0.3405922605449061 0 0.45814190442810832 0.36664782014169062 0 0.46452075261383841 0.3405922605449061 0 0.47907095221405582 0.35081422177756327 0 0.45814190442810832 0.36664782014169062 0 0.44687953404259029 0.34128391297691968 0 0.43776008511293668 0.35814728897552278 0 0.42996296607624551 0.34171017886232319 0 0.44687953404259029 0.34128391297691968 0 0.45814190442810832 0.36664782014169062 0 0.43776008511293668 0.35814728897552278 0 0.45814190442810832 0.36664782014169062 0 0.43776008511293668 0.35814728897552278 0 0.4372128566421607 0.38248141850581779 0 0.45814190442810832 0.36664782014169062 0 0.4372128566421607 0.38248141850581779 0 0.43776008511293668 0.35814728897552278 0 0.41684982553432898 0.35913771714159992 0 0.4372128566421607 0.38248141850581779 0 0.41684982553432898 0.35913771714159992 0 0.40508319844097579 0.37909612588760883 0 0.4372128566421607 0.38248141850581779 0 0.41684982553432898 0.35913771714159992 0 0.3972386234381784 0.35120965649500763 0 0.40508319844097579 0.37909612588760883 0 0.41684982553432898 0.35913771714159992 0 0.41449979923901681 0.33113850862477773 0 0.3972386234381784 0.35120965649500763 0 0.41684982553432898 0.35913771714159992 0 0.42996296607624551 0.34171017886232319 0 0.41449979923901681 0.33113850862477773 0 0.43776008511293668 0.35814728897552278 0 0.41684982553432898 0.35913771714159992 0 0.42996296607624551 0.34171017886232319 0 0.44687953404259029 0.34128391297691968 0 0.42996296607624551 0.34171017886232319 0 0.43431890876985568 0.31989267209427008 0 0.42996296607624551 0.34171017886232319 0 0.43431890876985568 0.31989267209427008 0 0.41449979923901681 0.33113850862477773 0 0.42432677220082432 0.30409613818899062 0 0.43431890876985568 0.31989267209427008 0 0.41614831507083011 0.31398796274804919 0 0.41614831507083011 0.31398796274804919 0 0.41449979923901681 0.33113850862477773 0 0.40325727546245999 0.31436186277443301 0 0.43431890876985568 0.31989267209427008 0 0.41614831507083011 0.31398796274804919 0 0.41449979923901681 0.33113850862477773 0 0.41449979923901681 0.33113850862477773 0 0.39225055365205608 0.32970529105798219 0 0.3972386234381784 0.35120965649500763 0 0.41449979923901681 0.33113850862477773 0 0.39225055365205608 0.32970529105798219 0 0.40325727546245999 0.31436186277443301 0 0.3871915946852359 0.31046910681319251 0 0.39225055365205608 0.32970529105798219 0 0.40325727546245999 0.31436186277443301 0 0.37290028705419259 0.32320859957285092 0 0.3871915946852359 0.31046910681319251 0 0.39225055365205608 0.32970529105798219 0 0.37290028705419259 0.32320859957285092 0 0.39225055365205608 0.32970529105798219 0 0.37841574203325312 0.34784401206763188 0 0.39225055365205608 0.32970529105798219 0 0.37841574203325312 0.34784401206763188 0 0.3972386234381784 0.35120965649500763 0 0.37290028705419259 0.32320859957285092 0 0.37841574203325312 0.34784401206763188 0 0.37841574203325312 0.34784401206763188 0 0.38393119701231371 0.37247942456241301 0 0.3972386234381784 0.35120965649500763 0 0.37841574203325312 0.34784401206763188 0 0.38393119701231371 0.37247942456241301 0 0.38393119701231371 0.37247942456241301 0 0.3972386234381784 0.35120965649500763 0 0.40508319844097579 0.37909612588760883 0 0.40508319844097579 0.37909612588760883 0 0.38944665199137463 0.39711483705719403 0 0.41628380885622518 0.39831501686996079 0 0.38944665199137463 0.39711483705719403 0 0.39356360710167648 0.41550368942746418 0 0.41628380885622518 0.39831501686996079 0 0.38944665199137463 0.39711483705719403 0 0.41628380885622518 0.39831501686996079 0 0.38393119701231371 0.37247942456241301 0 0.40508319844097579 0.37909612588760883 0 0.38944665199137463 0.39711483705719403 0 0.3593857612705148 0.39577048920471652 0 0.38393119701231371 0.37247942456241301 0 0.38944665199137463 0.39711483705719403 0 0.38393119701231371 0.37247942456241301 0 0.38944665199137463 0.39711483705719403 0 0.38944665199137463 0.39711483705719403 0 0.37860237570873578 0.40535435107100809 0 0.39356360710167648 0.41550368942746418 0 0.3593857612705148 0.39577048920471652 0 0.38944665199137463 0.39711483705719403 0 0.37860237570873578 0.40535435107100809 0 0.37860237570873578 0.40535435107100809 0 0.37655350892226053 0.42837245753683012 0 0.39356360710167648 0.41550368942746418 0 0.37655350892226053 0.42837245753683012 0 0.39356360710167648 0.41550368942746418 0 0.37655350892226053 0.42837245753683012 0 0.39356360710167648 0.41550368942746418 0 0.3998693752306296 0.44366912628497729 0 0.39356360710167648 0.41550368942746418 0 0.3998693752306296 0.44366912628497729 0 0.39356360710167648 0.41550368942746418 0 0.41628380885622518 0.39831501686996079 0 0.38944665199137463 0.39711483705719403 0 0.39356360710167648 0.41550368942746418 0 0.39356360710167648 0.41550368942746418 0 0.42570964345087381 0.42637675543124048 0 0.41628380885622518 0.39831501686996079 0 0.39356360710167648 0.41550368942746418 0 0.42570964345087381 0.42637675543124048 0 0.3998693752306296 0.44366912628497729 0 0.42570964345087381 0.42637675543124048 0 0.41628380885622518 0.39831501686996079 0 0.44418920590414829 0.39956296926574858 0 0.40508319844097579 0.37909612588760883 0 0.41628380885622518 0.39831501686996079 0 0.4372128566421607 0.38248141850581779 0 0.41628380885622518 0.39831501686996079 0 0.44418920590414829 0.39956296926574858 0 0.41628380885622518 0.39831501686996079 0 0.4372128566421607 0.38248141850581779 0 0.44418920590414829 0.39956296926574858 0 0.41628380885622518 0.39831501686996079 0 0.4372128566421607 0.38248141850581779 0 0.4372128566421607 0.38248141850581779 0 0.44418920590414829 0.39956296926574858 0 0.4573557834871631 0.3850433632952725 0 0.45814190442810832 0.36664782014169062 0 0.4372128566421607 0.38248141850581779 0 0.4573557834871631 0.3850433632952725 0 0.44418920590414829 0.39956296926574858 0 0.4720946029520724 0.40081092166151072 0 0.44418920590414829 0.39956296926574858 0 0.4573557834871631 0.3850433632952725 0 0.4720946029520724 0.40081092166151072 0 0.45814190442810832 0.36664782014169062 0 0.4573557834871631 0.3850433632952725 0 0.47876703724976211 0.37587891112188981 0 0.47876703724976211 0.37587891112188981 0 0.4720946029520724 0.40081092166151072 0 0.48771541005045782 0.38961204100416658 0 0.4573557834871631 0.3850433632952725 0 0.47876703724976211 0.37587891112188981 0 0.4720946029520724 0.40081092166151072 0 0.4720946029520724 0.40081092166151072 0 0.49999999999999689 0.40205887405727259 0 0.48771541005045782 0.38961204100416658 0 0.4720946029520724 0.40081092166151072 0 0.49999999999999689 0.40205887405727259 0 0.49999999999999689 0.40205887405727259 0 0.48771541005045782 0.38961204100416658 0 0.5 0.3796994571759934 0 0.47876703724976211 0.37587891112188981 0 0.48771541005045782 0.38961204100416658 0 0.5 0.3796994571759934 0 0.49999999999999689 0.40205887405727259 0 0.48055001591938418 0.42779937071755147 0 0.5 0.45894948740217639 0 0.4720946029520724 0.40081092166151072 0 0.49999999999999689 0.40205887405727259 0 0.48055001591938418 0.42779937071755147 0 0.4720946029520724 0.40081092166151072 0 0.48055001591938418 0.42779937071755147 0 0.45734025538024442 0.42610987680345302 0 0.48055001591938418 0.42779937071755147 0 0.45734025538024442 0.42610987680345302 0 0.47195270393538691 0.45080271619872442 0 0.42570964345087381 0.42637675543124048 0 0.44418920590414829 0.39956296926574858 0 0.45734025538024442 0.42610987680345302 0 0.42570964345087381 0.42637675543124048 0 0.45734025538024442 0.42610987680345302 0 0.44797518659576041 0.44768763950684881 0 0.44418920590414829 0.39956296926574858 0 0.4720946029520724 0.40081092166151072 0 0.45734025538024442 0.42610987680345302 0 0.44797518659576041 0.44768763950684881 0 0.46636122886711129 0.47609654397594248 0 0.43296405179080238 0.47326309311454101 0 0.5 0.5 0 0.46636122886711129 0.47609654397594248 0 0.43524391253610573 0.5 0 0.44797518659576041 0.44768763950684881 0 0.47195270393538691 0.45080271619872442 0 0.46636122886711129 0.47609654397594248 0 0.45734025538024442 0.42610987680345302 0 0.44797518659576041 0.44768763950684881 0 0.47195270393538691 0.45080271619872442 0 0.47195270393538691 0.45080271619872442 0 0.5 0.45894948740217639 0 0.46636122886711129 0.47609654397594248 0 0.48055001591938418 0.42779937071755147 0 0.47195270393538691 0.45080271619872442 0 0.5 0.45894948740217639 0 0.5 0.45894948740217639 0 0.5 0.5 0 0.46636122886711129 0.47609654397594248 0 0.46636122886711129 0.47609654397594248 0 0.43524391253610573 0.5 0 0.43296405179080238 0.47326309311454101 0 0.43524391253610573 0.5 0 0.412480911488535 0.50000000000000355 0 0.43296405179080238 0.47326309311454101 0 0.412480911488535 0.50000000000000355 0 0.40617514335958188 0.47183456314249062 0 0.412480911488535 0.50000000000000355 0 0.43296405179080238 0.47326309311454101 0 0.40617514335958188 0.47183456314249062 0 0.44797518659576041 0.44768763950684881 0 0.43296405179080238 0.47326309311454101 0 0.42256719753182381 0.45213378101590052 0 0.42570964345087381 0.42637675543124048 0 0.44797518659576041 0.44768763950684881 0 0.42256719753182381 0.45213378101590052 0 0.42570964345087381 0.42637675543124048 0 0.42256719753182381 0.45213378101590052 0 0.3998693752306296 0.44366912628497729 0 0.42256719753182381 0.45213378101590052 0 0.3998693752306296 0.44366912628497729 0 0.40617514335958188 0.47183456314249062 0 0.43296405179080238 0.47326309311454101 0 0.42256719753182381 0.45213378101590052 0 0.40617514335958188 0.47183456314249062 0 0.3998693752306296 0.44366912628497729 0 0.40617514335958188 0.47183456314249062 0 0.3998693752306296 0.44366912628497729 0 0.38363050316079028 0.46410512900044032 0 0.40617514335958188 0.47183456314249062 0 0.37655350892226053 0.42837245753683012 0 0.3998693752306296 0.44366912628497729 0 0.37676787428539138 0.44729938798690733 0 0.3998693752306296 0.44366912628497729 0 0.37676787428539138 0.44729938798690733 0 0.38363050316079028 0.46410512900044032 0 0.37071118391571461 0.48157785736819142 0 0.38363050316079028 0.46410512900044032 0 0.39177004830331652 0.48350350990222518 0 0.37071118391571461 0.48157785736819142 0 0.38585249959196161 0.5 0 0.39177004830331652 0.48350350990222518 0 0.412480911488535 0.50000000000000355 0 0.40617514335958188 0.47183456314249062 0 0.39177004830331652 0.48350350990222518 0 0.412480911488535 0.50000000000000355 0 0.38585249959196161 0.5 0 0.39177004830331652 0.48350350990222518 0 0.38363050316079028 0.46410512900044032 0 0.40617514335958188 0.47183456314249062 0 0.39177004830331652 0.48350350990222518 0 0.33902379709282993 0.076943230415861791 0 0.3267451852266085 0.082581292564858078 0 0.34835565072551461 0.086714031914992051 0 0.32466004647743268 0.089111089521133002 0 0.34033146450518181 0.098649512411928514 0 0.34835565072551461 0.086714031914992051 0 0.32466004647743268 0.089111089521133002 0 0.34835565072551461 0.086714031914992051 0 0.3267451852266085 0.082581292564858078 0 0.32466004647743268 0.089111089521133002 0 0.34835565072551461 0.086714031914992051 0 0.34331351869693583 0.064131113388745553 0 0.31946691316865872 0.066900113421212562 0 0.34019188114949089 0.058908921437540583 0 0.34331351869693583 0.064131113388745553 0 0.31946691316865872 0.066900113421212562 0 0.33902379709282993 0.076943230415861791 0 0.31946691316865872 0.066900113421212562 0 0.3267451852266085 0.082581292564858078 0 0.33902379709282993 0.076943230415861791 0 0.34331351869693583 0.064131113388745553 0 0.31946691316865872 0.066900113421212562 0 0.31946691316865872 0.066900113421212562 0 0.31454091733966782 0.079847779458631668 0 0.3267451852266085 0.082581292564858078 0 0.32466004647743268 0.089111089521133002 0 0.306212134185255 0.090977288332276612 0 0.31454091733966782 0.079847779458631668 0 0.32466004647743268 0.089111089521133002 0 0.306212134185255 0.090977288332276612 0 0.31454091733966782 0.079847779458631668 0 0.3267451852266085 0.082581292564858078 0 0.32466004647743268 0.089111089521133002 0 0.3267451852266085 0.082581292564858078 0 0.32466004647743268 0.089111089521133002 0 0.32466004647743268 0.089111089521133002 0 0.31708153411390111 0.1128438732431566 0 0.33044358828469877 0.1032898307602681 0 0.32466004647743268 0.089111089521133002 0 0.31708153411390111 0.1128438732431566 0 0.32466004647743268 0.089111089521133002 0 0.31708153411390111 0.1128438732431566 0 0.306212134185255 0.090977288332276612 0 0.31708153411390111 0.1128438732431566 0 0.32538961368414671 0.1295577055210948 0 0.31708153411390111 0.1128438732431566 0 0.3391687707524379 0.1130478269580017 0 0.32538961368414671 0.1295577055210948 0 0.31537366818111012 0.1181922069087771 0 0.31708153411390111 0.1128438732431566 0 0.32538961368414671 0.1295577055210948 0 0.31537366818111012 0.1181922069087771 0 0.31708153411390111 0.1128438732431566 0 0.31537366818111012 0.1181922069087771 0 0.32538961368414671 0.1295577055210948 0 0.3391687707524379 0.1130478269580017 0 0.34049442826644483 0.1282184755742749 0 0.32538961368414671 0.1295577055210948 0 0.31708153411390111 0.1128438732431566 0 0.3391687707524379 0.1130478269580017 0 0.33044358828469877 0.1032898307602681 0 0.32466004647743268 0.089111089521133002 0 0.33044358828469877 0.1032898307602681 0 0.34033146450518181 0.098649512411928514 0 0.3391687707524379 0.1130478269580017 0 0.33044358828469877 0.1032898307602681 0 0.34033146450518181 0.098649512411928514 0 0.35438554111839349 0.10538356059748651 0 0.36764150974296023 0.092618336100092985 0 0.34835565072551461 0.086714031914992051 0 0.34033146450518181 0.098649512411928514 0 0.35438554111839349 0.10538356059748651 0 0.34835565072551461 0.086714031914992051 0 0.3391687707524379 0.1130478269580017 0 0.34033146450518181 0.098649512411928514 0 0.35438554111839349 0.10538356059748651 0 0.3391687707524379 0.1130478269580017 0 0.35438554111839349 0.10538356059748651 0 0.35564452209045871 0.12886933465245379 0 0.3391687707524379 0.1130478269580017 0 0.34049442826644483 0.1282184755742749 0 0.35564452209045871 0.12886933465245379 0 0.36944182873917708 0.1122609912856367 0 0.35564452209045871 0.12886933465245379 0 0.35438554111839349 0.10538356059748651 0 0.36944182873917708 0.1122609912856367 0 0.35564452209045871 0.12886933465245379 0 0.36944182873917708 0.1122609912856367 0 0.36764150974296023 0.092618336100092985 0 0.38303872231716862 0.094862948776621422 0 0.35438554111839349 0.10538356059748651 0 0.36944182873917708 0.1122609912856367 0 0.36764150974296023 0.092618336100092985 0 0.36764150974296023 0.092618336100092985 0 0.3580724188865182 0.075977895246574584 0 0.37509942327119078 0.078112531066449775 0 0.33902379709282993 0.076943230415861791 0 0.34835565072551461 0.086714031914992051 0 0.3580724188865182 0.075977895246574584 0 0.36764150974296023 0.092618336100092985 0 0.34835565072551461 0.086714031914992051 0 0.3580724188865182 0.075977895246574584 0 0.34331351869693583 0.064131113388745553 0 0.3580724188865182 0.075977895246574584 0 0.36716012422521288 0.061362113356278239 0 0.33902379709282993 0.076943230415861791 0 0.34331351869693583 0.064131113388745553 0 0.3580724188865182 0.075977895246574584 0 0.34331351869693583 0.064131113388745553 0 0.36716012422521288 0.061362113356278239 0 0.3580724188865182 0.075977895246574584 0 0.36716012422521288 0.061362113356278239 0 0.37509942327119078 0.078112531066449775 0 0.37486687670851798 0.062662955812298693 0 0.36716012422521288 0.061362113356278239 0 0.37509942327119078 0.078112531066449775 0 0.36716012422521288 0.061362113356278239 0 0.37509942327119078 0.078112531066449775 0 0.37432558683510991 0.060530080211103447 0 0.37148518067924191 0.060859900097984067 0 0.37096529103100578 0.055423652108107631 0 0.37486687670851798 0.062662955812298693 0 0.37148518067924191 0.060859900097984067 0 0.36716012422521288 0.061362113356278239 0 0.37486687670851798 0.062662955812298693 0 0.37148518067924191 0.060859900097984067 0 0.37486687670851798 0.062662955812298693 0 0.37432558683510991 0.060530080211103447 0 0.37148518067924191 0.060859900097984067 0 0.37257476988681498 0.051365262231325537 0 0.36557357116037609 0.044801623328242238 0 0.38375924518918408 0.050781668963146301 0 0.37486687670851798 0.062662955812298693 0 0.37432558683510991 0.060530080211103447 0 0.37432558683510991 0.060530080211103447 0 0.37148518067924191 0.060859900097984067 0 0.37432558683510991 0.060530080211103447 0 0.37096529103100578 0.055423652108107631 0 0.3755590920488453 0.054533224712105977 0 0.37096529103100578 0.055423652108107631 0 0.36537895099052181 0.057604175089629978 0 0.36701665000466471 0.051286142045026531 0 0.37148518067924191 0.060859900097984067 0 0.37096529103100578 0.055423652108107631 0 0.36537895099052181 0.057604175089629978 0 0.37148518067924191 0.060859900097984067 0 0.36716012422521288 0.061362113356278239 0 0.37148518067924191 0.060859900097984067 0 0.36716012422521288 0.061362113356278239 0 0.36537895099052181 0.057604175089629978 0 0.37148518067924191 0.060859900097984067 0 0.36537895099052181 0.057604175089629978 0 0.36537895099052181 0.057604175089629978 0 0.35733784365552468 0.053316810286804288 0 0.36716012422521288 0.061362113356278239 0 0.36537895099052181 0.057604175089629978 0 0.35785135708019772 0.057844609047706892 0 0.36537895099052181 0.057604175089629978 0 0.35785135708019772 0.057844609047706892 0 0.35733784365552468 0.053316810286804288 0 0.36716012422521288 0.061362113356278239 0 0.36537895099052181 0.057604175089629978 0 0.36537895099052181 0.057604175089629978 0 0.36137056776552229 0.049147245457385462 0 0.36537895099052181 0.057604175089629978 0 0.36137056776552229 0.049147245457385462 0 0.35733784365552468 0.053316810286804288 0 0.36537895099052181 0.057604175089629978 0 0.36137056776552229 0.049147245457385462 0 0.36701665000466471 0.051286142045026531 0 0.36137056776552229 0.049147245457385462 0 0.35929739731274318 0.044773248349162208 0 0.36137056776552229 0.049147245457385462 0 0.36701665000466471 0.051286142045026531 0 0.36557357116037609 0.044801623328242238 0 0.36137056776552229 0.049147245457385462 0 0.36557357116037609 0.044801623328242238 0 0.36701665000466471 0.051286142045026531 0 0.37257476988681498 0.051365262231325537 0 0.36557357116037609 0.044801623328242238 0 0.37096529103100578 0.055423652108107631 0 0.36701665000466471 0.051286142045026531 0 0.37257476988681498 0.051365262231325537 0 0.37096529103100578 0.055423652108107631 0 0.37257476988681498 0.051365262231325537 0 0.3755590920488453 0.054533224712105977 0 0.36557357116037609 0.044801623328242238 0 0.38154262617449242 0.028290697132988079 0 0.36557357116037609 0.044801623328242238 0 0.35929739731274318 0.044773248349162208 0 0.36251217002147762 0.027825544292287781 0 0.36557357116037609 0.044801623328242238 0 0.36251217002147762 0.027825544292287781 0 0.38154262617449242 0.028290697132988079 0 0.36557357116037609 0.044801623328242238 0 0.35929739731274318 0.044773248349162208 0 0.36137056776552229 0.049147245457385462 0 0.36557357116037609 0.044801623328242238 0 0.35929739731274318 0.044773248349162208 0 0.35929739731274318 0.044773248349162208 0 0.34735834867125859 0.019584116330226119 0 0.35929739731274318 0.044773248349162208 0 0.34523501214807317 0.035888762370361253 0 0.34044798832604162 0.044688028978473487 0 0.35929739731274318 0.044773248349162208 0 0.35189422333682968 0.048874812953421602 0 0.34044798832604162 0.044688028978473487 0 0.35929739731274318 0.044773248349162208 0 0.34044798832604162 0.044688028978473487 0 0.35929739731274318 0.044773248349162208 0 0.34523501214807317 0.035888762370361253 0 0.34735834867125859 0.019584116330226119 0 0.34709449989686519 0.050950710984411597 0 0.35189422333682968 0.048874812953421602 0 0.34044798832604162 0.044688028978473487 0 0.34331351869693583 0.064131113388745553 0 0.36716012422521288 0.061362113356278239 0 0.35785135708019772 0.057844609047706892 0 0.34709449989686519 0.050950710984411597 0 0.35189422333682968 0.048874812953421602 0 0.35199937574866652 0.052281185933460428 0 0.34709449989686519 0.050950710984411597 0 0.34585586944683211 0.055834930975881727 0 0.35199937574866652 0.052281185933460428 0 0.34709449989686519 0.050950710984411597 0 0.34585586944683211 0.055834930975881727 0 0.34053234740183141 0.051802300594339913 0 0.34331351869693583 0.064131113388745553 0 0.35157293233900277 0.056306587145348037 0 0.35785135708019772 0.057844609047706892 0 0.34331351869693583 0.064131113388745553 0 0.34585586944683211 0.055834930975881727 0 0.35157293233900277 0.056306587145348037 0 0.34585586944683211 0.055834930975881727 0 0.35157293233900277 0.056306587145348037 0 0.35199937574866652 0.052281185933460428 0 0.35157293233900277 0.056306587145348037 0 0.35785135708019772 0.057844609047706892 0 0.35733784365552468 0.053316810286804288 0 0.36137056776552229 0.049147245457385462 0 0.35733784365552468 0.053316810286804288 0 0.35733784365552468 0.053316810286804288 0 0.35738958329707998 0.049857555435412183 0 0.35445823030644269 0.05141298146258716 0 0.35929739731274318 0.044773248349162208 0 0.35738958329707998 0.049857555435412183 0 0.35189422333682968 0.048874812953421602 0 0.36137056776552229 0.049147245457385462 0 0.35733784365552468 0.053316810286804288 0 0.35738958329707998 0.049857555435412183 0 0.36137056776552229 0.049147245457385462 0 0.35929739731274318 0.044773248349162208 0 0.35738958329707998 0.049857555435412183 0 0.35738958329707998 0.049857555435412183 0 0.35189422333682968 0.048874812953421602 0 0.35445823030644269 0.05141298146258716 0 0.35189422333682968 0.048874812953421602 0 0.35199937574866652 0.052281185933460428 0 0.35445823030644269 0.05141298146258716 0 0.35157293233900277 0.056306587145348037 0 0.35199937574866652 0.052281185933460428 0 0.35436299005923899 0.053103964852542963 0 0.35157293233900277 0.056306587145348037 0 0.35733784365552468 0.053316810286804288 0 0.35436299005923899 0.053103964852542963 0 0.35733784365552468 0.053316810286804288 0 0.35436299005923899 0.053103964852542963 0 0.35445823030644269 0.05141298146258716 0 0.35199937574866652 0.052281185933460428 0 0.35436299005923899 0.053103964852542963 0 0.35445823030644269 0.05141298146258716 0 0.36997691005305738 0.0133569062958892 0 0.38222171901499219 0.0014491754458128259 0 0.36566695631497897 -0.00042693242977795128 0 0.36997691005305738 0.0133569062958892 0 0.35843343456752352 0.010472460465553741 0 0.36566695631497897 -0.00042693242977795128 0 0.36997691005305738 0.0133569062958892 0 0.36251217002147762 0.027825544292287781 0 0.38154262617449242 0.028290697132988079 0 0.36997691005305738 0.0133569062958892 0 0.36251217002147762 0.027825544292287781 0 0.35843343456752352 0.010472460465553741 0 0.36251217002147762 0.027825544292287781 0 0.34735834867125859 0.019584116330226119 0 0.35843343456752352 0.010472460465553741 0 0.35929739731274318 0.044773248349162208 0 0.36251217002147762 0.027825544292287781 0 0.34735834867125859 0.019584116330226119 0 0.34735834867125859 0.019584116330226119 0 0.35094613059855462 -0.00077100707376717595 0 0.33541930002977283 -0.0056050156887093791 0 0.34735834867125859 0.019584116330226119 0 0.35843343456752352 0.010472460465553741 0 0.35094613059855462 -0.00077100707376717595 0 0.35843343456752352 0.010472460465553741 0 0.36566695631497897 -0.00042693242977795128 0 0.35094613059855462 -0.00077100707376717595 0 0.34735834867125859 0.019584116330226119 0 0.32339846795248017 0.0072697835914626481 0 0.33541930002977283 -0.0056050156887093791 0 0.34735834867125859 0.019584116330226119 0 0.33541930002977283 -0.0056050156887093791 0 0.34735834867125859 0.019584116330226119 0 0.32339846795248017 0.0072697835914626481 0 0.33383631428224803 0.03450965582358375 0 0.34523501214807317 0.035888762370361253 0 0.34735834867125859 0.019584116330226119 0 0.33383631428224803 0.03450965582358375 0 0.32339846795248017 0.0072697835914626481 0 0.33383631428224803 0.03450965582358375 0 0.318650816987673 0.025599371422625961 0 0.32339846795248017 0.0072697835914626481 0 0.33383631428224803 0.03450965582358375 0 0.318650816987673 0.025599371422625961 0 0.32339846795248017 0.0072697835914626481 0 0.31050051262315881 0.017598214274969649 0 0.318650816987673 0.025599371422625961 0 0.3185823546684961 0.037397516245877387 0 0.30643617771795523 0.030626843779900891 0 0.32339846795248017 0.0072697835914626481 0 0.31004690263439783 0.001501081606903704 0 0.31050051262315881 0.017598214274969649 0 0.33034344641857938 0.050390905300361437 0 0.34019188114949089 0.058908921437540583 0 0.31406470397644592 0.056561075672076813 0 0.34331351869693583 0.064131113388745553 0 0.34585586944683211 0.055834930975881727 0 0.34019188114949089 0.058908921437540583 0 0.34585586944683211 0.055834930975881727 0 0.34019188114949089 0.058908921437540583 0 0.34053234740183141 0.051802300594339913 0 0.33034344641857938 0.050390905300361437 0 0.34019188114949089 0.058908921437540583 0 0.34053234740183141 0.051802300594339913 0 0.33034344641857938 0.050390905300361437 0 0.34053234740183141 0.051802300594339913 0 0.34044798832604162 0.044688028978473487 0 0.34709449989686519 0.050950710984411597 0 0.34053234740183141 0.051802300594339913 0 0.34044798832604162 0.044688028978473487 0 0.34523501214807317 0.035888762370361253 0 0.34044798832604162 0.044688028978473487 0 0.33383631428224803 0.03450965582358375 0 0.33034344641857938 0.050390905300361437 0 0.34044798832604162 0.044688028978473487 0 0.32831972310159929 0.042623508257532063 0 0.34044798832604162 0.044688028978473487 0 0.33383631428224803 0.03450965582358375 0 0.32831972310159929 0.042623508257532063 0 0.33034344641857938 0.050390905300361437 0 0.32831972310159929 0.042623508257532063 0 0.31891603758340242 0.047248116381197289 0 0.32831972310159929 0.042623508257532063 0 0.3185823546684961 0.037397516245877387 0 0.31891603758340242 0.047248116381197289 0 0.318650816987673 0.025599371422625961 0 0.33383631428224803 0.03450965582358375 0 0.3185823546684961 0.037397516245877387 0 0.33383631428224803 0.03450965582358375 0 0.32831972310159929 0.042623508257532063 0 0.3185823546684961 0.037397516245877387 0 0.3185823546684961 0.037397516245877387 0 0.31891603758340242 0.047248116381197289 0 0.30424527531863238 0.044681175381814889 0 0.34019188114949089 0.058908921437540583 0 0.31406470397644592 0.056561075672076813 0 0.33034344641857938 0.050390905300361437 0 0.31891603758340242 0.047248116381197289 0 0.31406470397644592 0.056561075672076813 0 0.31946691316865872 0.066900113421212562 0 0.34019188114949089 0.058908921437540583 0 0.31406470397644592 0.056561075672076813 0 0.31406470397644592 0.056561075672076813 0 0.30424527531863238 0.044681175381814889 0 0.28793752680340079 0.054213229906614271 0 0.31406470397644592 0.056561075672076813 0 0.28793752680340079 0.054213229906614271 0 0.29562030764038172 0.069669113453680959 0 0.31406470397644592 0.056561075672076813 0 0.28793752680340079 0.054213229906614271 0 0.31891603758340242 0.047248116381197289 0 0.31406470397644592 0.056561075672076813 0 0.30424527531863238 0.044681175381814889 0 0.3185823546684961 0.037397516245877387 0 0.30424527531863238 0.044681175381814889 0 0.30643617771795523 0.030626843779900891 0 0.30424527531863238 0.044681175381814889 0 0.29376420817663002 0.036892642265172658 0 0.30643617771795523 0.030626843779900891 0 0.30424527531863238 0.044681175381814889 0 0.29376420817663002 0.036892642265172658 0 0.28793752680340079 0.054213229906614271 0 0.29376420817663002 0.036892642265172658 0 0.29160069927009641 0.022130113473754629 0 0.28071903660328412 0.039691386021448803 0 0.29376420817663002 0.036892642265172658 0 0.28793752680340079 0.054213229906614271 0 0.28071903660328412 0.039691386021448803 0 0.28793752680340079 0.054213229906614271 0 0.28071903660328412 0.039691386021448803 0 0.28793752680340079 0.054213229906614271 0 0.29562030764038172 0.069669113453680959 0 0.30224603864571942 0.0091713283342977278 0 0.29051384870842328 0.0071426417814425434 0 0.3011288723279183 -0.0065638295255527968 0 0.31004690263439783 0.001501081606903704 0 0.30224603864571942 0.0091713283342977278 0 0.31050051262315881 0.017598214274969649 0 0.31004690263439783 0.001501081606903704 0 0.30224603864571942 0.0091713283342977278 0 0.3011288723279183 -0.0065638295255527968 0 0.30224603864571942 0.0091713283342977278 0 0.31050051262315881 0.017598214274969649 0 0.29160069927009641 0.022130113473754629 0 0.31050051262315881 0.017598214274969649 0 0.30643617771795523 0.030626843779900891 0 0.29160069927009641 0.022130113473754629 0 0.318650816987673 0.025599371422625961 0 0.31050051262315881 0.017598214274969649 0 0.30643617771795523 0.030626843779900891 0 0.29376420817663002 0.036892642265172658 0 0.30643617771795523 0.030626843779900891 0 0.29160069927009641 0.022130113473754629 0 0.29160069927009641 0.022130113473754629 0 0.2735005464031694 0.02516954213628228 0 0.28071903660328412 0.039691386021448803 0 0.30224603864571942 0.0091713283342977278 0 0.29160069927009641 0.022130113473754629 0 0.29051384870842328 0.0071426417814425434 0 0.29160069927009641 0.022130113473754629 0 0.29051384870842328 0.0071426417814425434 0 0.27664090870122621 0.010598476045475161 0 0.29051384870842328 0.0071426417814425434 0 0.27664090870122621 0.010598476045475161 0 0.28342910268136351 -0.0043799036818564768 0 0.27664090870122621 0.010598476045475161 0 0.25845021563213932 0.015627020347416629 0 0.26358922855426881 -0.0044770699147358766 0 0.27664090870122621 0.010598476045475161 0 0.26358922855426881 -0.0044770699147358766 0 0.28342910268136351 -0.0043799036818564768 0 0.27664090870122621 0.010598476045475161 0 0.2735005464031694 0.02516954213628228 0 0.25845021563213932 0.015627020347416629 0 0.29160069927009641 0.022130113473754629 0 0.27664090870122621 0.010598476045475161 0 0.2735005464031694 0.02516954213628228 0 0.2735005464031694 0.02516954213628228 0 0.25845021563213932 0.015627020347416629 0 0.25624527539316588 0.030277916158690629 0 0.2735005464031694 0.02516954213628228 0 0.25624527539316588 0.030277916158690629 0 0.26333433375313781 0.036596588993920952 0 0.25845021563213932 0.015627020347416629 0 0.26358922855426881 -0.0044770699147358766 0 0.2436413306404871 -0.00076180485788342601 0 0.28793752680340079 0.054213229906614271 0 0.26101175451304742 0.052613280240951507 0 0.28793752680340079 0.054213229906614271 0 0.27213821374639741 0.061518641496037377 0 0.28034511795797579 0.066635418357708767 0 0.28793752680340079 0.054213229906614271 0 0.27047389300546881 0.042496156546966167 0 0.26101175451304742 0.052613280240951507 0 0.28793752680340079 0.054213229906614271 0 0.27213821374639741 0.061518641496037377 0 0.26101175451304742 0.052613280240951507 0 0.27213821374639741 0.061518641496037377 0 0.26101175451304742 0.052613280240951507 0 0.2735005464031694 0.02516954213628228 0 0.27047389300546881 0.042496156546966167 0 0.26333433375313781 0.036596588993920952 0 0.2735005464031694 0.02516954213628228 0 0.28071903660328412 0.039691386021448803 0 0.27047389300546881 0.042496156546966167 0 0.28793752680340079 0.054213229906614271 0 0.28071903660328412 0.039691386021448803 0 0.27047389300546881 0.042496156546966167 0 0.2735005464031694 0.02516954213628228 0 0.28071903660328412 0.039691386021448803 0 0.27047389300546881 0.042496156546966167 0 0.25810998666037638 0.044975989550131851 0 0.26333433375313781 0.036596588993920952 0 0.27047389300546881 0.042496156546966167 0 0.25810998666037638 0.044975989550131851 0 0.26101175451304742 0.052613280240951507 0 0.25624527539316588 0.030277916158690629 0 0.25810998666037638 0.044975989550131851 0 0.26333433375313781 0.036596588993920952 0 0.24973239695049149 0.043585542690916738 0 0.25810998666037638 0.044975989550131851 0 0.24973239695049149 0.043585542690916738 0 0.25624527539316588 0.030277916158690629 0 0.25810998666037638 0.044975989550131851 0 0.24973239695049149 0.043585542690916738 0 0.25502676051908679 0.060379980911997373 0 0.26101175451304742 0.052613280240951507 0 0.24973239695049149 0.043585542690916738 0 0.25810998666037638 0.044975989550131851 0 0.26101175451304742 0.052613280240951507 0 0.24973239695049149 0.043585542690916738 0 0.26101175451304742 0.052613280240951507 0 0.27213821374639741 0.061518641496037377 0 0.25502676051908679 0.060379980911997373 0 0.26101175451304742 0.052613280240951507 0 0.27213821374639741 0.061518641496037377 0 0.25502676051908679 0.060379980911997373 0 0.26547829649636229 0.073594658810115204 0 0.24939052508189871 0.069900897231193387 0 0.26547829649636229 0.073594658810115204 0 0.25406584887904149 0.084098820201965296 0 0.24939052508189871 0.069900897231193387 0 0.25502676051908679 0.060379980911997373 0 0.26547829649636229 0.073594658810115204 0 0.26547829649636229 0.073594658810115204 0 0.25406584887904149 0.084098820201965296 0 0.26889153233419749 0.094752656607184807 0 0.24517959065024439 0.097151366915424864 0 0.25406584887904149 0.084098820201965296 0 0.26889153233419749 0.094752656607184807 0 0.29260347401815062 0.092353946298943834 0 0.26889153233419749 0.094752656607184807 0 0.27940334496496599 0.076635555060320187 0 0.2867074351980185 0.083880338605704097 0 0.26889153233419749 0.094752656607184807 0 0.26547829649636229 0.073594658810115204 0 0.27940334496496599 0.076635555060320187 0 0.26889153233419749 0.094752656607184807 0 0.27213821374639741 0.061518641496037377 0 0.26547829649636229 0.073594658810115204 0 0.2743412432914254 0.069596068431045377 0 0.26547829649636229 0.073594658810115204 0 0.27940334496496599 0.076635555060320187 0 0.2743412432914254 0.069596068431045377 0 0.27940334496496599 0.076635555060320187 0 0.28034511795797579 0.066635418357708767 0 0.2743412432914254 0.069596068431045377 0 0.27213821374639741 0.061518641496037377 0 0.28034511795797579 0.066635418357708767 0 0.2743412432914254 0.069596068431045377 0 0.28793752680340079 0.054213229906614271 0 0.28034511795797579 0.066635418357708767 0 0.28697917538126799 0.069482353989654938 0 0.28793752680340079 0.054213229906614271 0 0.28697917538126799 0.069482353989654938 0 0.29562030764038172 0.069669113453680959 0 0.29562030764038172 0.069669113453680959 0 0.29382741635220072 0.075818117488511805 0 0.29625973783243259 0.081194917397798702 0 0.28697917538126799 0.069482353989654938 0 0.29562030764038172 0.069669113453680959 0 0.29121358403514669 0.073016205596918848 0 0.29562030764038172 0.069669113453680959 0 0.29382741635220072 0.075818117488511805 0 0.29121358403514669 0.073016205596918848 0 0.29382741635220072 0.075818117488511805 0 0.29121358403514669 0.073016205596918848 0 0.28859595596161391 0.076866165327722585 0 0.29382741635220072 0.075818117488511805 0 0.28859595596161391 0.076866165327722585 0 0.29155127768068512 0.081076572466900088 0 0.27940334496496599 0.076635555060320187 0 0.28034511795797579 0.066635418357708767 0 0.28697917538126799 0.069482353989654938 0 0.27940334496496599 0.076635555060320187 0 0.28697917538126799 0.069482353989654938 0 0.28859595596161391 0.076866165327722585 0 0.28697917538126799 0.069482353989654938 0 0.29121358403514669 0.073016205596918848 0 0.28859595596161391 0.076866165327722585 0 0.27940334496496599 0.076635555060320187 0 0.28859595596161391 0.076866165327722585 0 0.2867074351980185 0.083880338605704097 0 0.2867074351980185 0.083880338605704097 0 0.29260347401815062 0.092353946298943834 0 0.26889153233419749 0.094752656607184807 0 0.28859595596161391 0.076866165327722585 0 0.2867074351980185 0.083880338605704097 0 0.29155127768068512 0.081076572466900088 0 0.2867074351980185 0.083880338605704097 0 0.29260347401815062 0.092353946298943834 0 0.29424262184366551 0.086935564576925806 0 0.2867074351980185 0.083880338605704097 0 0.29424262184366551 0.086935564576925806 0 0.29155127768068512 0.081076572466900088 0 0.29424262184366551 0.086935564576925806 0 0.29155127768068512 0.081076572466900088 0 0.29625973783243259 0.081194917397798702 0 0.29382741635220072 0.075818117488511805 0 0.29155127768068512 0.081076572466900088 0 0.29625973783243259 0.081194917397798702 0 0.29562030764038172 0.069669113453680959 0 0.29625973783243259 0.081194917397798702 0 0.306212134185255 0.090977288332276612 0 0.31454091733966782 0.079847779458631668 0 0.29562030764038172 0.069669113453680959 0 0.306212134185255 0.090977288332276612 0 0.29562030764038172 0.069669113453680959 0 0.306212134185255 0.090977288332276612 0 0.29260347401815062 0.092353946298943834 0 0.306212134185255 0.090977288332276612 0 0.29260347401815062 0.092353946298943834 0 0.29424262184366551 0.086935564576925806 0 0.306212134185255 0.090977288332276612 0 0.29424262184366551 0.086935564576925806 0 0.29625973783243259 0.081194917397798702 0 0.306212134185255 0.090977288332276612 0 0.31946691316865872 0.066900113421212562 0 0.31406470397644592 0.056561075672076813 0 0.29562030764038172 0.069669113453680959 0 0.31946691316865872 0.066900113421212562 0 0.31454091733966782 0.079847779458631668 0 0.29562030764038172 0.069669113453680959 0 0.31946691316865872 0.066900113421212562 0 0.29562030764038172 0.069669113453680959 0 0.31537366818111012 0.1181922069087771 0 0.30398857109963162 0.1052730766038594 0 0.29670162638777769 0.1237850316629848 0 0.31537366818111012 0.1181922069087771 0 0.30398857109963162 0.1052730766038594 0 0.31537366818111012 0.1181922069087771 0 0.31708153411390111 0.1128438732431566 0 0.30398857109963162 0.1052730766038594 0 0.31708153411390111 0.1128438732431566 0 0.306212134185255 0.090977288332276612 0 0.31708153411390111 0.1128438732431566 0 0.306212134185255 0.090977288332276612 0 0.30398857109963162 0.1052730766038594 0 0.29260347401815062 0.092353946298943834 0 0.30398857109963162 0.1052730766038594 0 0.29260347401815062 0.092353946298943834 0 0.306212134185255 0.090977288332276612 0 0.30398857109963162 0.1052730766038594 0 0.29260347401815062 0.092353946298943834 0 0.28422741729073708 0.1094261826121633 0 0.26889153233419749 0.094752656607184807 0 0.29260347401815062 0.092353946298943834 0 0.30398857109963162 0.1052730766038594 0 0.28422741729073708 0.1094261826121633 0 0.30398857109963162 0.1052730766038594 0 0.29670162638777769 0.1237850316629848 0 0.28422741729073708 0.1094261826121633 0 0.29670162638777769 0.1237850316629848 0 0.28422741729073708 0.1094261826121633 0 0.27687383502595703 0.1273869845765267 0 0.28422741729073708 0.1094261826121633 0 0.2594969357278758 0.1147204900598618 0 0.27687383502595703 0.1273869845765267 0 0.28422741729073708 0.1094261826121633 0 0.26889153233419749 0.094752656607184807 0 0.2594969357278758 0.1147204900598618 0 0.24517959065024439 0.097151366915424864 0 0.26889153233419749 0.094752656607184807 0 0.24517959065024439 0.097151366915424864 0 0.26889153233419749 0.094752656607184807 0 0.2594969357278758 0.1147204900598618 0 0.2594969357278758 0.1147204900598618 0 0.25047310382802501 0.1370642377708515 0 0.27687383502595703 0.1273869845765267 0 0.25047310382802501 0.1370642377708515 0 0.27687383502595703 0.1273869845765267 0 0.27386963280527488 0.15083646336042369 0 0.27687383502595703 0.1273869845765267 0 0.27386963280527488 0.15083646336042369 0 0.29063400195096711 0.14335056477226121 0 0.25047310382802501 0.1370642377708515 0 0.27386963280527488 0.15083646336042369 0 0.25400653856103839 0.1574630067942083 0 0.2478994392545768 0.17724426754123229 0 0.25400653856103839 0.1574630067942083 0 0.27329574677571139 0.17383821403960981 0 0.2478994392545768 0.17724426754123229 0 0.27329574677571139 0.17383821403960981 0 0.25349537602672823 0.18818103532368241 0 0.2478994392545768 0.17724426754123229 0 0.27329574677571139 0.17383821403960981 0 0.27329574677571139 0.17383821403960981 0 0.26424836848699601 0.19391584280684679 0 0.25349537602672823 0.18818103532368241 0 0.27329574677571139 0.17383821403960981 0 0.26424836848699601 0.19391584280684679 0 0.27766318520397881 0.18757205164644419 0 0.27329574677571139 0.17383821403960981 0 0.28833028155006901 0.18206827228939601 0 0.27766318520397881 0.18757205164644419 0 0.27386963280527488 0.15083646336042369 0 0.25400653856103839 0.1574630067942083 0 0.27329574677571139 0.17383821403960981 0 0.27386963280527488 0.15083646336042369 0 0.27329574677571139 0.17383821403960981 0 0.29869205429684631 0.17043216053798901 0 0.27329574677571139 0.17383821403960981 0 0.28833028155006901 0.18206827228939601 0 0.29869205429684631 0.17043216053798901 0 0.27329574677571139 0.17383821403960981 0 0.29869205429684631 0.17043216053798901 0 0.28833028155006901 0.18206827228939601 0 0.27766318520397881 0.18757205164644419 0 0.28878726622016748 0.19104432780286881 0 0.28833028155006901 0.18206827228939601 0 0.29850522645111982 0.1804174306647251 0 0.29869205429684631 0.17043216053798901 0 0.28833028155006901 0.18206827228939601 0 0.28878726622016748 0.19104432780286881 0 0.2967958037883705 0.18886063791074581 0 0.28833028155006901 0.18206827228939601 0 0.29850522645111982 0.1804174306647251 0 0.2967958037883705 0.18886063791074581 0 0.29850522645111982 0.1804174306647251 0 0.30514878976914311 0.18432894992300011 0 0.2967958037883705 0.18886063791074581 0 0.29850522645111982 0.1804174306647251 0 0.3037230601817949 0.17532329131025759 0 0.30514878976914311 0.18432894992300011 0 0.29850522645111982 0.1804174306647251 0 0.3037230601817949 0.17532329131025759 0 0.29869205429684631 0.17043216053798901 0 0.3037230601817949 0.17532329131025759 0 0.30729864421206199 0.16927787833797239 0 0.31351341359646873 0.1769116664790773 0 0.3037230601817949 0.17532329131025759 0 0.30514878976914311 0.18432894992300011 0 0.31351341359646873 0.1769116664790773 0 0.30514878976914311 0.18432894992300011 0 0.31481569705081469 0.18743851074498111 0 0.31351341359646873 0.1769116664790773 0 0.29869205429684631 0.17043216053798901 0 0.30703286123897972 0.1443121837233835 0 0.31272213320709258 0.15887856478790779 0 0.29869205429684631 0.17043216053798901 0 0.30703286123897972 0.1443121837233835 0 0.29869205429684631 0.17043216053798901 0 0.30729864421206199 0.16927787833797239 0 0.3037230601817949 0.17532329131025759 0 0.29869205429684631 0.17043216053798901 0 0.30729864421206199 0.16927787833797239 0 0.29869205429684631 0.17043216053798901 0 0.30729864421206199 0.16927787833797239 0 0.31272213320709258 0.15887856478790779 0 0.30729864421206199 0.16927787833797239 0 0.31648468055257928 0.167857047323654 0 0.31351341359646873 0.1769116664790773 0 0.30729864421206199 0.16927787833797239 0 0.31272213320709258 0.15887856478790779 0 0.31648468055257928 0.167857047323654 0 0.29869205429684631 0.17043216053798901 0 0.30703286123897972 0.1443121837233835 0 0.29063400195096711 0.14335056477226121 0 0.31537366818111012 0.1181922069087771 0 0.30703286123897972 0.1443121837233835 0 0.29670162638777769 0.1237850316629848 0 0.30703286123897972 0.1443121837233835 0 0.29063400195096711 0.14335056477226121 0 0.31537366818111012 0.1181922069087771 0 0.29670162638777769 0.1237850316629848 0 0.30703286123897972 0.1443121837233835 0 0.29670162638777769 0.1237850316629848 0 0.27687383502595703 0.1273869845765267 0 0.29063400195096711 0.14335056477226121 0 0.27386963280527488 0.15083646336042369 0 0.29869205429684631 0.17043216053798901 0 0.29063400195096711 0.14335056477226121 0 0.27523083700575102 0.23702610554796519 0 0.26604024588714348 0.2425669048914551 0 0.25906221533013651 0.23356136806212319 0 0.2751065541431949 0.2491946056611444 0 0.27523083700575102 0.23702610554796519 0 0.28125795181270657 0.2431642400196343 0 0.2751065541431949 0.2491946056611444 0 0.28125795181270657 0.2431642400196343 0 0.28654083416370429 0.2492468420736853 0 0.2751065541431949 0.2491946056611444 0 0.27523083700575102 0.23702610554796519 0 0.26604024588714348 0.2425669048914551 0 0.2547613770694917 0.25048554029458758 0 0.2751065541431949 0.2491946056611444 0 0.26604024588714348 0.2425669048914551 0 0.23628245528872799 0.2305186003203101 0 0.2547613770694917 0.25048554029458758 0 0.25906221533013651 0.23356136806212319 0 0.2547613770694917 0.25048554029458758 0 0.26604024588714348 0.2425669048914551 0 0.25906221533013651 0.23356136806212319 0 0.25906221533013651 0.23356136806212319 0 0.2714879686936712 0.22379407667114709 0 0.25072572023796252 0.21613360007146101 0 0.27523083700575102 0.23702610554796519 0 0.25906221533013651 0.23356136806212319 0 0.2714879686936712 0.22379407667114709 0 0.27523083700575102 0.23702610554796519 0 0.2714879686936712 0.22379407667114709 0 0.28294991013685672 0.22664942742822711 0 0.2714879686936712 0.22379407667114709 0 0.28040429341073919 0.21262760467029429 0 0.28294991013685672 0.22664942742822711 0 0.2714879686936712 0.22379407667114709 0 0.28040429341073919 0.21262760467029429 0 0.26862020483145621 0.21012392962358831 0 0.28040429341073919 0.21262760467029429 0 0.26862020483145621 0.21012392962358831 0 0.28245816353433512 0.19862850030825421 0 0.26862020483145621 0.21012392962358831 0 0.25072572023796252 0.21613360007146101 0 0.25802487828057302 0.1994358663967849 0 0.2714879686936712 0.22379407667114709 0 0.26862020483145621 0.21012392962358831 0 0.25072572023796252 0.21613360007146101 0 0.2460385734396569 0.18920318530543959 0 0.26424836848699601 0.19391584280684679 0 0.25802487828057302 0.1994358663967849 0 0.2460385734396569 0.18920318530543959 0 0.26424836848699601 0.19391584280684679 0 0.25349537602672823 0.18818103532368241 0 0.2460385734396569 0.18920318530543959 0 0.26424836848699601 0.19391584280684679 0 0.25802487828057302 0.1994358663967849 0 0.28245816353433512 0.19862850030825421 0 0.26862020483145621 0.21012392962358831 0 0.25802487828057302 0.1994358663967849 0 0.28245816353433512 0.19862850030825421 0 0.26424836848699601 0.19391584280684679 0 0.25802487828057302 0.1994358663967849 0 0.28245816353433512 0.19862850030825421 0 0.26424836848699601 0.19391584280684679 0 0.27766318520397881 0.18757205164644419 0 0.28245816353433512 0.19862850030825421 0 0.26424836848699601 0.19391584280684679 0 0.28245816353433512 0.19862850030825421 0 0.28245816353433512 0.19862850030825421 0 0.30530898735608081 0.20454224651006131 0 0.28245816353433512 0.19862850030825421 0 0.29868889702408408 0.19809217685950389 0 0.28878726622016748 0.19104432780286881 0 0.28245816353433512 0.19862850030825421 0 0.29868889702408408 0.19809217685950389 0 0.28245816353433512 0.19862850030825421 0 0.29868889702408408 0.19809217685950389 0 0.30530898735608081 0.20454224651006131 0 0.27766318520397881 0.18757205164644419 0 0.28878726622016748 0.19104432780286881 0 0.28245816353433512 0.19862850030825421 0 0.28878726622016748 0.19104432780286881 0 0.2967958037883705 0.18886063791074581 0 0.29868889702408408 0.19809217685950389 0 0.29868889702408408 0.19809217685950389 0 0.30530898735608081 0.20454224651006131 0 0.31491963051383309 0.19755585341075349 0 0.2967958037883705 0.18886063791074581 0 0.30608425185527749 0.19124183013278739 0 0.29868889702408408 0.19809217685950389 0 0.30514878976914311 0.18432894992300011 0 0.2967958037883705 0.18886063791074581 0 0.30608425185527749 0.19124183013278739 0 0.29868889702408408 0.19809217685950389 0 0.31491963051383309 0.19755585341075349 0 0.30608425185527749 0.19124183013278739 0 0.29868889702408408 0.19809217685950389 0 0.31491963051383309 0.19755585341075349 0 0.30514878976914311 0.18432894992300011 0 0.30608425185527749 0.19124183013278739 0 0.31481569705081469 0.18743851074498111 0 0.30608425185527749 0.19124183013278739 0 0.31491963051383309 0.19755585341075349 0 0.31481569705081469 0.18743851074498111 0 0.30530898735608081 0.20454224651006131 0 0.31370580685821792 0.20722654190871759 0 0.31491963051383309 0.19755585341075349 0 0.30530898735608081 0.20454224651006131 0 0.30524045263180077 0.21634968353441941 0 0.29672317544201132 0.2101838458156054 0 0.30530898735608081 0.20454224651006131 0 0.30524045263180077 0.21634968353441941 0 0.31370580685821792 0.20722654190871759 0 0.30524045263180077 0.21634968353441941 0 0.29672317544201132 0.2101838458156054 0 0.29195328576216811 0.21952826769107051 0 0.29672317544201132 0.2101838458156054 0 0.28788472953731342 0.2102420546213061 0 0.29195328576216811 0.21952826769107051 0 0.28245816353433512 0.19862850030825421 0 0.30530898735608081 0.20454224651006131 0 0.29672317544201132 0.2101838458156054 0 0.28245816353433512 0.19862850030825421 0 0.29672317544201132 0.2101838458156054 0 0.28788472953731342 0.2102420546213061 0 0.28040429341073919 0.21262760467029429 0 0.28245816353433512 0.19862850030825421 0 0.28788472953731342 0.2102420546213061 0 0.28040429341073919 0.21262760467029429 0 0.28788472953731342 0.2102420546213061 0 0.29195328576216811 0.21952826769107051 0 0.28294991013685672 0.22664942742822711 0 0.29033002053462209 0.22844107467992181 0 0.29195328576216811 0.21952826769107051 0 0.28040429341073919 0.21262760467029429 0 0.28294991013685672 0.22664942742822711 0 0.29195328576216811 0.21952826769107051 0 0.27523083700575102 0.23702610554796519 0 0.28294991013685672 0.22664942742822711 0 0.28815358193817597 0.23718940679574241 0 0.28294991013685672 0.22664942742822711 0 0.29033002053462209 0.22844107467992181 0 0.28815358193817597 0.23718940679574241 0 0.29033002053462209 0.22844107467992181 0 0.29826330430128772 0.23039719680464729 0 0.28815358193817597 0.23718940679574241 0 0.29033002053462209 0.22844107467992181 0 0.29195328576216811 0.21952826769107051 0 0.29826330430128772 0.23039719680464729 0 0.30524045263180077 0.21634968353441941 0 0.29195328576216811 0.21952826769107051 0 0.29826330430128772 0.23039719680464729 0 0.30524045263180077 0.21634968353441941 0 0.31104160897098482 0.22806992574551291 0 0.29826330430128772 0.23039719680464729 0 0.30524045263180077 0.21634968353441941 0 0.31104160897098482 0.22806992574551291 0 0.31871221046184561 0.2153076451561701 0 0.29826330430128772 0.23039719680464729 0 0.30610178343330602 0.24484271462858009 0 0.2956810109953999 0.24413942294282001 0 0.31104160897098482 0.22806992574551291 0 0.29826330430128772 0.23039719680464729 0 0.30610178343330602 0.24484271462858009 0 0.31104160897098482 0.22806992574551291 0 0.30610178343330602 0.24484271462858009 0 0.31751279401007038 0.23865465037364031 0 0.29934555114052552 0.25902095441144518 0 0.30610178343330602 0.24484271462858009 0 0.2956810109953999 0.24413942294282001 0 0.2956810109953999 0.24413942294282001 0 0.28815358193817597 0.23718940679574241 0 0.28654083416370429 0.2492468420736853 0 0.29826330430128772 0.23039719680464729 0 0.2956810109953999 0.24413942294282001 0 0.28815358193817597 0.23718940679574241 0 0.27523083700575102 0.23702610554796519 0 0.28815358193817597 0.23718940679574241 0 0.28125795181270657 0.2431642400196343 0 0.28815358193817597 0.23718940679574241 0 0.28125795181270657 0.2431642400196343 0 0.28654083416370429 0.2492468420736853 0 0.34016336296145722 0.25618681752814609 0 0.33103562163067829 0.23723050569429979 0 0.34848594644122949 0.24707326179316411 0 0.32018797107052499 0.25783133363748673 0 0.30610178343330602 0.24484271462858009 0 0.31751279401007038 0.23865465037364031 0 0.32018797107052499 0.25783133363748673 0 0.33103562163067829 0.23723050569429979 0 0.31751279401007038 0.23865465037364031 0 0.33103562163067829 0.23723050569429979 0 0.31751279401007038 0.23865465037364031 0 0.32222296581250692 0.22711843375444071 0 0.31104160897098482 0.22806992574551291 0 0.31751279401007038 0.23865465037364031 0 0.32222296581250692 0.22711843375444071 0 0.31104160897098482 0.22806992574551291 0 0.32222296581250692 0.22711843375444071 0 0.31871221046184561 0.2153076451561701 0 0.32222296581250692 0.22711843375444071 0 0.33281259398895507 0.2163294418025801 0 0.31871221046184561 0.2153076451561701 0 0.33103562163067829 0.23723050569429979 0 0.34709225035605129 0.22259054021777619 0 0.33103562163067829 0.23723050569429979 0 0.33281259398895507 0.2163294418025801 0 0.34709225035605129 0.22259054021777619 0 0.33103562163067829 0.23723050569429979 0 0.32222296581250692 0.22711843375444071 0 0.33281259398895507 0.2163294418025801 0 0.33281259398895507 0.2163294418025801 0 0.32377050707818977 0.20405709717920739 0 0.33671662389746387 0.20045542233901931 0 0.33281259398895507 0.2163294418025801 0 0.33671662389746387 0.20045542233901931 0 0.34907980928829679 0.20864525721341001 0 0.33281259398895507 0.2163294418025801 0 0.34907980928829679 0.20864525721341001 0 0.34709225035605129 0.22259054021777619 0 0.33281259398895507 0.2163294418025801 0 0.31871221046184561 0.2153076451561701 0 0.32377050707818977 0.20405709717920739 0 0.30524045263180077 0.21634968353441941 0 0.31871221046184561 0.2153076451561701 0 0.31370580685821792 0.20722654190871759 0 0.31871221046184561 0.2153076451561701 0 0.31370580685821792 0.20722654190871759 0 0.32377050707818977 0.20405709717920739 0 0.32377050707818977 0.20405709717920739 0 0.31491963051383309 0.19755585341075349 0 0.3260731626852974 0.1931417099530105 0 0.31370580685821792 0.20722654190871759 0 0.32377050707818977 0.20405709717920739 0 0.31491963051383309 0.19755585341075349 0 0.31491963051383309 0.19755585341075349 0 0.3260731626852974 0.1931417099530105 0 0.31481569705081469 0.18743851074498111 0 0.3260731626852974 0.1931417099530105 0 0.33671662389746387 0.20045542233901931 0 0.33740915742855881 0.1857839109002441 0 0.32377050707818977 0.20405709717920739 0 0.3260731626852974 0.1931417099530105 0 0.33671662389746387 0.20045542233901931 0 0.33671662389746387 0.20045542233901931 0 0.34736410848729299 0.1960820345092763 0 0.33740915742855881 0.1857839109002441 0 0.3608735172680374 0.20094267578445901 0 0.35274143455410811 0.18458290630924909 0 0.34736410848729299 0.1960820345092763 0 0.3608735172680374 0.20094267578445901 0 0.35274143455410811 0.18458290630924909 0 0.3608735172680374 0.20094267578445901 0 0.3553143290058518 0.1838209022739774 0 0.3608735172680374 0.20094267578445901 0 0.3553143290058518 0.1838209022739774 0 0.35274143455410811 0.18458290630924909 0 0.34736410848729299 0.1960820345092763 0 0.33740915742855881 0.1857839109002441 0 0.35274143455410811 0.18458290630924909 0 0.33671662389746387 0.20045542233901931 0 0.34736410848729299 0.1960820345092763 0 0.34907980928829679 0.20864525721341001 0 0.34736410848729299 0.1960820345092763 0 0.3608735172680374 0.20094267578445901 0 0.34907980928829679 0.20864525721341001 0 0.3608735172680374 0.20094267578445901 0 0.36398021228794009 0.20719258938510979 0 0.37652365541049199 0.1957558440127303 0 0.36588268595830847 0.189852892193446 0 0.3608735172680374 0.20094267578445901 0 0.3553143290058518 0.1838209022739774 0 0.36588268595830847 0.189852892193446 0 0.3608735172680374 0.20094267578445901 0 0.37652365541049199 0.1957558440127303 0 0.36588268595830847 0.189852892193446 0 0.3760688527705866 0.1811952445289069 0 0.37652365541049199 0.1957558440127303 0 0.36398021228794009 0.20719258938510979 0 0.37652365541049199 0.1957558440127303 0 0.36398021228794009 0.20719258938510979 0 0.37871094216201212 0.22117046359183551 0 0.3821927385995017 0.21143181397150851 0 0.36398021228794009 0.20719258938510979 0 0.3821927385995017 0.21143181397150851 0 0.37652365541049199 0.1957558440127303 0 0.3608735172680374 0.20094267578445901 0 0.36398021228794009 0.20719258938510979 0 0.36398021228794009 0.20719258938510979 0 0.34709225035605129 0.22259054021777619 0 0.36398021228794009 0.20719258938510979 0 0.34709225035605129 0.22259054021777619 0 0.36111374555326398 0.22368521945424491 0 0.36398021228794009 0.20719258938510979 0 0.34907980928829679 0.20864525721341001 0 0.34709225035605129 0.22259054021777619 0 0.3608735172680374 0.20094267578445901 0 0.36398021228794009 0.20719258938510979 0 0.34907980928829679 0.20864525721341001 0 0.33103562163067829 0.23723050569429979 0 0.34709225035605129 0.22259054021777619 0 0.35438169219422211 0.2357254266880498 0 0.34709225035605129 0.22259054021777619 0 0.36111374555326398 0.22368521945424491 0 0.35438169219422211 0.2357254266880498 0 0.36398021228794009 0.20719258938510979 0 0.37636055545452912 0.23209882403056681 0 0.36398021228794009 0.20719258938510979 0 0.37128460895803461 0.23300785248039929 0 0.36398021228794009 0.20719258938510979 0 0.37636055545452912 0.23209882403056681 0 0.37871094216201212 0.22117046359183551 0 0.36398021228794009 0.20719258938510979 0 0.37128460895803461 0.23300785248039929 0 0.37636055545452912 0.23209882403056681 0 0.36398021228794009 0.20719258938510979 0 0.36111374555326398 0.22368521945424491 0 0.37128460895803461 0.23300785248039929 0 0.36111374555326398 0.22368521945424491 0 0.36286199058620511 0.23304613061522941 0 0.35438169219422211 0.2357254266880498 0 0.36111374555326398 0.22368521945424491 0 0.37128460895803461 0.23300785248039929 0 0.36286199058620511 0.23304613061522941 0 0.37942033883464582 0.25806513021954602 0 0.37128460895803461 0.23300785248039929 0 0.36887479386189043 0.2474827054564625 0 0.37128460895803461 0.23300785248039929 0 0.36286199058620511 0.23304613061522941 0 0.36466791563929979 0.23976602383822371 0 0.36286199058620511 0.23304613061522941 0 0.36466791563929979 0.23976602383822371 0 0.35438169219422211 0.2357254266880498 0 0.36466791563929979 0.23976602383822371 0 0.36163906272355062 0.24861522184860879 0 0.35438169219422211 0.2357254266880498 0 0.37128460895803461 0.23300785248039929 0 0.36466791563929979 0.23976602383822371 0 0.36887479386189043 0.2474827054564625 0 0.36466791563929979 0.23976602383822371 0 0.36887479386189043 0.2474827054564625 0 0.36163906272355062 0.24861522184860879 0 0.36163906272355062 0.24861522184860879 0 0.35438169219422211 0.2357254266880498 0 0.34848594644122949 0.24707326179316411 0 0.33103562163067829 0.23723050569429979 0 0.35438169219422211 0.2357254266880498 0 0.34848594644122949 0.24707326179316411 0 0.33376104083761782 0.1463989777052471 0 0.34213246799108982 0.16324024988939911 0 0.33376104083761782 0.1463989777052471 0 0.34213246799108982 0.16324024988939911 0 0.3491436317086814 0.15651235087264789 0 0.33376104083761782 0.1463989777052471 0 0.33726662269641439 0.14303502819687111 0 0.3491436317086814 0.15651235087264789 0 0.33726662269641439 0.14303502819687111 0 0.3491436317086814 0.15651235087264789 0 0.33726662269641439 0.14303502819687111 0 0.34049442826644483 0.1282184755742749 0 0.35032244377635291 0.1388065879384584 0 0.33376104083761782 0.1463989777052471 0 0.32538961368414671 0.1295577055210948 0 0.33376104083761782 0.1463989777052471 0 0.33726662269641439 0.14303502819687111 0 0.32538961368414671 0.1295577055210948 0 0.33726662269641439 0.14303502819687111 0 0.32538961368414671 0.1295577055210948 0 0.33726662269641439 0.14303502819687111 0 0.34049442826644483 0.1282184755742749 0 0.32538961368414671 0.1295577055210948 0 0.31537366818111012 0.1181922069087771 0 0.30703286123897972 0.1443121837233835 0 0.32538961368414671 0.1295577055210948 0 0.30703286123897972 0.1443121837233835 0 0.32538961368414671 0.1295577055210948 0 0.32146708297795601 0.14921175405602449 0 0.33376104083761782 0.1463989777052471 0 0.32538961368414671 0.1295577055210948 0 0.32146708297795601 0.14921175405602449 0 0.33376104083761782 0.1463989777052471 0 0.32146708297795601 0.14921175405602449 0 0.32481380386967379 0.1616666846093647 0 0.30703286123897972 0.1443121837233835 0 0.32146708297795601 0.14921175405602449 0 0.31272213320709258 0.15887856478790779 0 0.32146708297795601 0.14921175405602449 0 0.31272213320709258 0.15887856478790779 0 0.32481380386967379 0.1616666846093647 0 0.31272213320709258 0.15887856478790779 0 0.31648468055257928 0.167857047323654 0 0.32481380386967379 0.1616666846093647 0 0.31648468055257928 0.167857047323654 0 0.32401985997893618 0.1702253405745506 0 0.31351341359646873 0.1769116664790773 0 0.31648468055257928 0.167857047323654 0 0.32401985997893618 0.1702253405745506 0 0.32481380386967379 0.1616666846093647 0 0.31481569705081469 0.18743851074498111 0 0.31351341359646873 0.1769116664790773 0 0.3231549338848691 0.1814510545712581 0 0.32401985997893618 0.1702253405745506 0 0.31351341359646873 0.1769116664790773 0 0.3231549338848691 0.1814510545712581 0 0.32401985997893618 0.1702253405745506 0 0.3231549338848691 0.1814510545712581 0 0.33443576235859879 0.17062599358942571 0 0.3260731626852974 0.1931417099530105 0 0.31481569705081469 0.18743851074498111 0 0.3231549338848691 0.1814510545712581 0 0.3260731626852974 0.1931417099530105 0 0.3231549338848691 0.1814510545712581 0 0.33740915742855881 0.1857839109002441 0 0.3231549338848691 0.1814510545712581 0 0.33443576235859879 0.17062599358942571 0 0.3231549338848691 0.1814510545712581 0 0.33740915742855881 0.1857839109002441 0 0.33443576235859879 0.17062599358942571 0 0.34203450249051348 0.1773739007355197 0 0.33740915742855881 0.1857839109002441 0 0.33443576235859879 0.17062599358942571 0 0.34203450249051348 0.1773739007355197 0 0.33443576235859879 0.17062599358942571 0 0.3446093518401786 0.16822313683403919 0 0.33376104083761782 0.1463989777052471 0 0.32481380386967379 0.1616666846093647 0 0.34213246799108982 0.16324024988939911 0 0.32401985997893618 0.1702253405745506 0 0.33443576235859879 0.17062599358942571 0 0.34213246799108982 0.16324024988939911 0 0.32401985997893618 0.1702253405745506 0 0.32481380386967379 0.1616666846093647 0 0.34213246799108982 0.16324024988939911 0 0.33443576235859879 0.17062599358942571 0 0.34213246799108982 0.16324024988939911 0 0.3446093518401786 0.16822313683403919 0 0.33443576235859879 0.17062599358942571 0 0.34213246799108982 0.16324024988939911 0 0.33443576235859879 0.17062599358942571 0 0.3446093518401786 0.16822313683403919 0 0.34213246799108982 0.16324024988939911 0 0.3446093518401786 0.16822313683403919 0 0.34741096529688531 0.15947929033103561 0 0.34975514074366593 0.16669912876349591 0 0.35638930842160299 0.16473431340240161 0 0.34213246799108982 0.16324024988939911 0 0.34741096529688531 0.15947929033103561 0 0.3491436317086814 0.15651235087264789 0 0.34213246799108982 0.16324024988939911 0 0.3491436317086814 0.15651235087264789 0 0.34741096529688531 0.15947929033103561 0 0.3491436317086814 0.15651235087264789 0 0.35638930842160299 0.16473431340240161 0 0.34741096529688531 0.15947929033103561 0 0.34975514074366593 0.16669912876349591 0 0.34741096529688531 0.15947929033103561 0 0.34597698146795508 0.1644104514544926 0 0.34975514074366593 0.16669912876349591 0 0.34213246799108982 0.16324024988939911 0 0.34741096529688531 0.15947929033103561 0 0.34597698146795508 0.1644104514544926 0 0.34213246799108982 0.16324024988939911 0 0.34597698146795508 0.1644104514544926 0 0.3446093518401786 0.16822313683403919 0 0.3446093518401786 0.16822313683403919 0 0.34975514074366593 0.16669912876349591 0 0.34597698146795508 0.1644104514544926 0 0.3446093518401786 0.16822313683403919 0 0.34975514074366593 0.16669912876349591 0 0.34975514074366593 0.16669912876349591 0 0.35638930842160299 0.16473431340240161 0 0.34975514074366593 0.16669912876349591 0 0.35638930842160299 0.16473431340240161 0 0.36469910136835437 0.1741637716773419 0 0.3491436317086814 0.15651235087264789 0 0.35638930842160299 0.16473431340240161 0 0.34975514074366593 0.16669912876349591 0 0.3553143290058518 0.1838209022739774 0 0.35274143455410811 0.18458290630924909 0 0.34975514074366593 0.16669912876349591 0 0.3553143290058518 0.1838209022739774 0 0.3446093518401786 0.16822313683403919 0 0.34975514074366593 0.16669912876349591 0 0.35274143455410811 0.18458290630924909 0 0.3446093518401786 0.16822313683403919 0 0.35274143455410811 0.18458290630924909 0 0.34975514074366593 0.16669912876349591 0 0.3553143290058518 0.1838209022739774 0 0.36469910136835437 0.1741637716773419 0 0.34203450249051348 0.1773739007355197 0 0.3446093518401786 0.16822313683403919 0 0.35274143455410811 0.18458290630924909 0 0.34203450249051348 0.1773739007355197 0 0.33740915742855881 0.1857839109002441 0 0.35274143455410811 0.18458290630924909 0 0.36588268595830847 0.189852892193446 0 0.36469910136835437 0.1741637716773419 0 0.3760688527705866 0.1811952445289069 0 0.36588268595830847 0.189852892193446 0 0.3553143290058518 0.1838209022739774 0 0.36469910136835437 0.1741637716773419 0 0.36469910136835437 0.1741637716773419 0 0.37377034889129163 0.1697293579504271 0 0.3760688527705866 0.1811952445289069 0 0.35638930842160299 0.16473431340240161 0 0.36469910136835437 0.1741637716773419 0 0.37377034889129163 0.1697293579504271 0 0.35638930842160299 0.16473431340240161 0 0.37702882334469612 0.15862158940519039 0 0.35638930842160299 0.16473431340240161 0 0.37377034889129163 0.1697293579504271 0 0.37702882334469612 0.15862158940519039 0 0.35638930842160299 0.16473431340240161 0 0.36469910136835437 0.1741637716773419 0 0.35638930842160299 0.16473431340240161 0 0.36906301411976511 0.13739775039604449 0 0.37702882334469612 0.15862158940519039 0 0.33726662269641439 0.14303502819687111 0 0.3491436317086814 0.15651235087264789 0 0.35032244377635291 0.1388065879384584 0 0.3491436317086814 0.15651235087264789 0 0.35032244377635291 0.1388065879384584 0 0.36906301411976511 0.13739775039604449 0 0.3491436317086814 0.15651235087264789 0 0.36906301411976511 0.13739775039604449 0 0.3491436317086814 0.15651235087264789 0 0.35638930842160299 0.16473431340240161 0 0.36906301411976511 0.13739775039604449 0 0.35032244377635291 0.1388065879384584 0 0.35564452209045871 0.12886933465245379 0 0.36906301411976511 0.13739775039604449 0 0.34049442826644483 0.1282184755742749 0 0.35032244377635291 0.1388065879384584 0 0.35564452209045871 0.12886933465245379 0 0.36944182873917708 0.1122609912856367 0 0.35564452209045871 0.12886933465245379 0 0.36906301411976511 0.13739775039604449 0 0.36906301411976511 0.13739775039604449 0 0.39332536739931512 0.1353960076637106 0 0.38471932895218941 0.14668760052484661 0 0.36906301411976511 0.13739775039604449 0 0.38898239653084821 0.1182831499194404 0 0.36906301411976511 0.13739775039604449 0 0.39332536739931512 0.1353960076637106 0 0.38898239653084821 0.1182831499194404 0 0.39332536739931512 0.1353960076637106 0 0.40997416597645769 0.1238545406833603 0 0.38898239653084821 0.1182831499194404 0 0.39332536739931512 0.1353960076637106 0 0.38898239653084821 0.1182831499194404 0 0.39332536739931512 0.1353960076637106 0 0.40760789294062338 0.1393837213955483 0 0.40997416597645769 0.1238545406833603 0 0.39332536739931512 0.1353960076637106 0 0.39766833826778908 0.15250886540797909 0 0.40760789294062338 0.1393837213955483 0 0.39332536739931512 0.1353960076637106 0 0.39766833826778908 0.15250886540797909 0 0.39332536739931512 0.1353960076637106 0 0.39766833826778908 0.15250886540797909 0 0.38471932895218941 0.14668760052484661 0 0.36906301411976511 0.13739775039604449 0 0.38471932895218941 0.14668760052484661 0 0.37702882334469612 0.15862158940519039 0 0.39766833826778908 0.15250886540797909 0 0.38471932895218941 0.14668760052484661 0 0.37702882334469612 0.15862158940519039 0 0.39766833826778908 0.15250886540797909 0 0.37702882334469612 0.15862158940519039 0 0.39766833826778908 0.15250886540797909 0 0.37702882334469612 0.15862158940519039 0 0.38768463102348261 0.16934267176097481 0 0.37377034889129163 0.1697293579504271 0 0.37702882334469612 0.15862158940519039 0 0.38768463102348261 0.16934267176097481 0 0.3760688527705866 0.1811952445289069 0 0.38906709853304478 0.18431909864035179 0 0.37652365541049199 0.1957558440127303 0 0.37377034889129163 0.1697293579504271 0 0.38768463102348261 0.16934267176097481 0 0.3760688527705866 0.1811952445289069 0 0.38768463102348261 0.16934267176097481 0 0.3760688527705866 0.1811952445289069 0 0.38906709853304478 0.18431909864035179 0 0.38906709853304478 0.18431909864035179 0 0.40306295583818752 0.17376558709987519 0 0.40539718481455772 0.19139751251635581 0 0.38768463102348261 0.16934267176097481 0 0.38906709853304478 0.18431909864035179 0 0.40306295583818752 0.17376558709987519 0 0.39766833826778908 0.15250886540797909 0 0.40306295583818752 0.17376558709987519 0 0.4145854497202473 0.1634073332519819 0 0.39766833826778908 0.15250886540797909 0 0.38768463102348261 0.16934267176097481 0 0.40306295583818752 0.17376558709987519 0 0.39766833826778908 0.15250886540797909 0 0.40306295583818752 0.17376558709987519 0 0.4145854497202473 0.1634073332519819 0 0.41738161146044461 0.18054197281348389 0 0.43295297293207841 0.17235863765521151 0 0.40306295583818752 0.17376558709987519 0 0.4145854497202473 0.1634073332519819 0 0.41738161146044461 0.18054197281348389 0 0.40306295583818752 0.17376558709987519 0 0.41738161146044461 0.18054197281348389 0 0.40539718481455772 0.19139751251635581 0 0.41738161146044461 0.18054197281348389 0 0.43295297293207841 0.17235863765521151 0 0.42932446901976951 0.20057729345167771 0 0.4145854497202473 0.1634073332519819 0 0.43295297293207841 0.17235863765521151 0 0.42325125370084088 0.14493207391511009 0 0.43295297293207841 0.17235863765521151 0 0.42325125370084088 0.14493207391511009 0 0.44713555419592282 0.15729091164696829 0 0.42325125370084088 0.14493207391511009 0 0.44883416913389268 0.1373552824222409 0 0.42325125370084088 0.14493207391511009 0 0.44883416913389268 0.1373552824222409 0 0.42956277549560001 0.1200577428663613 0 0.42325125370084088 0.14493207391511009 0 0.42956277549560001 0.1200577428663613 0 0.40997416597645769 0.1238545406833603 0 0.42325125370084088 0.14493207391511009 0 0.40760789294062338 0.1393837213955483 0 0.40997416597645769 0.1238545406833603 0 0.39766833826778908 0.15250886540797909 0 0.42325125370084088 0.14493207391511009 0 0.40760789294062338 0.1393837213955483 0 0.39766833826778908 0.15250886540797909 0 0.4145854497202473 0.1634073332519819 0 0.42325125370084088 0.14493207391511009 0 0.39766833826778908 0.15250886540797909 0 0.42325125370084088 0.14493207391511009 0 0.40334293913003832 0.25038292789593369 0 0.40415341680240419 0.24085810535344709 0 0.39518133878715439 0.24806285062132549 0 0.40415341680240419 0.24085810535344709 0 0.39392102783782063 0.23829718479037609 0 0.40165453838736342 0.22638361848078339 0 0.40415341680240419 0.24085810535344709 0 0.39392102783782063 0.23829718479037609 0 0.39518133878715439 0.24806285062132549 0 0.39392102783782063 0.23829718479037609 0 0.39518133878715439 0.24806285062132549 0 0.3879709808117337 0.24183494044298551 0 0.38874089862111783 0.25700505867602402 0 0.39518133878715439 0.24806285062132549 0 0.3879709808117337 0.24183494044298551 0 0.38874089862111783 0.25700505867602402 0 0.37942033883464582 0.25806513021954602 0 0.37636055545452912 0.23209882403056681 0 0.38874089862111783 0.25700505867602402 0 0.37636055545452912 0.23209882403056681 0 0.37942033883464582 0.25806513021954602 0 0.37128460895803461 0.23300785248039929 0 0.37636055545452912 0.23209882403056681 0 0.38874089862111783 0.25700505867602402 0 0.3879709808117337 0.24183494044298551 0 0.37636055545452912 0.23209882403056681 0 0.37942033883464582 0.25806513021954602 0 0.37128460895803461 0.23300785248039929 0 0.39392102783782063 0.23829718479037609 0 0.3879709808117337 0.24183494044298551 0 0.3856510833580466 0.23371078409663501 0 0.3879709808117337 0.24183494044298551 0 0.3856510833580466 0.23371078409663501 0 0.37636055545452912 0.23209882403056681 0 0.39392102783782063 0.23829718479037609 0 0.3856510833580466 0.23371078409663501 0 0.38884827555516999 0.22588461353494549 0 0.3856510833580466 0.23371078409663501 0 0.38232991835543362 0.2285099729487961 0 0.38884827555516999 0.22588461353494549 0 0.3856510833580466 0.23371078409663501 0 0.37636055545452912 0.23209882403056681 0 0.38232991835543362 0.2285099729487961 0 0.37636055545452912 0.23209882403056681 0 0.38232991835543362 0.2285099729487961 0 0.37871094216201212 0.22117046359183551 0 0.38232991835543362 0.2285099729487961 0 0.37871094216201212 0.22117046359183551 0 0.38884827555516999 0.22588461353494549 0 0.37871094216201212 0.22117046359183551 0 0.38884827555516999 0.22588461353494549 0 0.3821927385995017 0.21143181397150851 0 0.38884827555516999 0.22588461353494549 0 0.40165453838736342 0.22638361848078339 0 0.39360574091659328 0.21485460796913711 0 0.39392102783782063 0.23829718479037609 0 0.38884827555516999 0.22588461353494549 0 0.40165453838736342 0.22638361848078339 0 0.40165453838736342 0.22638361848078339 0 0.40388318046055272 0.2086361888881188 0 0.39360574091659328 0.21485460796913711 0 0.40388318046055272 0.2086361888881188 0 0.39360574091659328 0.21485460796913711 0 0.39140026478999101 0.2012359087735168 0 0.38884827555516999 0.22588461353494549 0 0.39360574091659328 0.21485460796913711 0 0.3821927385995017 0.21143181397150851 0 0.39360574091659328 0.21485460796913711 0 0.3821927385995017 0.21143181397150851 0 0.39140026478999101 0.2012359087735168 0 0.38906709853304478 0.18431909864035179 0 0.37652365541049199 0.1957558440127303 0 0.39140026478999101 0.2012359087735168 0 0.3821927385995017 0.21143181397150851 0 0.37652365541049199 0.1957558440127303 0 0.39140026478999101 0.2012359087735168 0 0.38906709853304478 0.18431909864035179 0 0.37652365541049199 0.1957558440127303 0 0.38906709853304478 0.18431909864035179 0 0.40539718481455772 0.19139751251635581 0 0.39140026478999101 0.2012359087735168 0 0.40388318046055272 0.2086361888881188 0 0.40539718481455772 0.19139751251635581 0 0.39140026478999101 0.2012359087735168 0 0.41738161146044461 0.18054197281348389 0 0.40539718481455772 0.19139751251635581 0 0.42932446901976951 0.20057729345167771 0 0.40388318046055272 0.2086361888881188 0 0.40539718481455772 0.19139751251635581 0 0.42932446901976951 0.20057729345167771 0 0.43295297293207841 0.17235863765521151 0 0.42932446901976951 0.20057729345167771 0 0.44791741675075059 0.1898271768733584 0 0.42932446901976951 0.20057729345167771 0 0.41653470465301479 0.21831298894782791 0 0.4320238865344711 0.22335935418415659 0 0.40388318046055272 0.2086361888881188 0 0.42932446901976951 0.20057729345167771 0 0.41653470465301479 0.21831298894782791 0 0.40165453838736342 0.22638361848078339 0 0.40388318046055272 0.2086361888881188 0 0.41653470465301479 0.21831298894782791 0 0.41653470465301479 0.21831298894782791 0 0.4157874488629173 0.2326084897344031 0 0.4320238865344711 0.22335935418415659 0 0.40165453838736342 0.22638361848078339 0 0.41653470465301479 0.21831298894782791 0 0.4157874488629173 0.2326084897344031 0 0.40415341680240419 0.24085810535344709 0 0.40165453838736342 0.22638361848078339 0 0.4157874488629173 0.2326084897344031 0 0.4157874488629173 0.2326084897344031 0 0.4320238865344711 0.22335935418415659 0 0.42601664566557451 0.23988366122272839 0 0.4320238865344711 0.22335935418415659 0 0.42601664566557451 0.23988366122272839 0 0.44132365885682051 0.24416629740396889 0 0.42767619269703833 0.25363002151095998 0 0.42601664566557451 0.23988366122272839 0 0.44132365885682051 0.24416629740396889 0 0.42767619269703833 0.25363002151095998 0 0.42601664566557451 0.23988366122272839 0 0.41440001586393188 0.24805281619075681 0 0.4157874488629173 0.2326084897344031 0 0.42601664566557451 0.23988366122272839 0 0.41440001586393188 0.24805281619075681 0 0.40415341680240419 0.24085810535344709 0 0.4157874488629173 0.2326084897344031 0 0.41440001586393188 0.24805281619075681 0 0.40334293913003832 0.25038292789593369 0 0.40415341680240419 0.24085810535344709 0 0.41440001586393188 0.24805281619075681 0 0.47118953213562309 0.25465912028967069 0 0.46781052422193631 0.23880517324764419 0 0.45511480877640331 0.24853964527587741 0 0.46781052422193631 0.23880517324764419 0 0.45511480877640331 0.24853964527587741 0 0.45376181510796149 0.23083985853266309 0 0.45511480877640331 0.24853964527587741 0 0.44132365885682051 0.24416629740396889 0 0.45376181510796149 0.23083985853266309 0 0.4320238865344711 0.22335935418415659 0 0.44132365885682051 0.24416629740396889 0 0.45376181510796149 0.23083985853266309 0 0.4320238865344711 0.22335935418415659 0 0.45376181510796149 0.23083985853266309 0 0.45288297934651278 0.21072229352491209 0 0.46781052422193631 0.23880517324764419 0 0.45376181510796149 0.23083985853266309 0 0.47644148967325611 0.22086729359814641 0 0.45376181510796149 0.23083985853266309 0 0.45288297934651278 0.21072229352491209 0 0.47644148967325611 0.22086729359814641 0 0.45288297934651278 0.21072229352491209 0 0.47644148967325611 0.22086729359814641 0 0.45288297934651278 0.21072229352491209 0 0.47497408605066749 0.19380972974914629 0 0.47644148967325611 0.22086729359814641 0 0.42932446901976951 0.20057729345167771 0 0.45288297934651278 0.21072229352491209 0 0.42932446901976951 0.20057729345167771 0 0.4320238865344711 0.22335935418415659 0 0.45288297934651278 0.21072229352491209 0 0.42932446901976951 0.20057729345167771 0 0.45288297934651278 0.21072229352491209 0 0.44791741675075059 0.1898271768733584 0 0.45288297934651278 0.21072229352491209 0 0.44791741675075059 0.1898271768733584 0 0.47497408605066749 0.19380972974914629 0 0.47497408605066749 0.19380972974914629 0 0.5 0.20380964511266131 0 0.5 0.1766069965539421 0 0.5 0.20380964511266131 0 0.47644148967325611 0.22086729359814641 0 0.49999999999999939 0.23101229367138049 0 0.47497408605066749 0.19380972974914629 0 0.5 0.20380964511266131 0 0.47644148967325611 0.22086729359814641 0 0.46781052422193631 0.23880517324764419 0 0.47644148967325611 0.22086729359814641 0 0.48254497541643743 0.23911994854186369 0 0.47644148967325611 0.22086729359814641 0 0.49999999999999939 0.23101229367138049 0 0.48254497541643743 0.23911994854186369 0 0.47644148967325611 0.22086729359814641 0 0.49999999999999939 0.23101229367138049 0 0.5 0.25700437610689419 0 0.49999999999999939 0.23101229367138049 0 0.48254497541643743 0.23911994854186369 0 0.47118953213562309 0.25465912028967069 0 0.46781052422193631 0.23880517324764419 0 0.48254497541643743 0.23911994854186369 0 0.44883416913389268 0.1373552824222409 0 0.44713555419592282 0.15729091164696829 0 0.46881698432948332 0.15349347356881571 0 0.44883416913389268 0.1373552824222409 0 0.46881698432948332 0.15349347356881571 0 0.47441708456694442 0.12977849092937169 0 0.44883416913389268 0.1373552824222409 0 0.47441708456694442 0.12977849092937169 0 0.44883416913389268 0.1373552824222409 0 0.47441708456694442 0.12977849092937169 0 0.44980819497705238 0.11199542280144741 0 0.42325125370084088 0.14493207391511009 0 0.44883416913389268 0.1373552824222409 0 0.44713555419592282 0.15729091164696829 0 0.43295297293207841 0.17235863765521151 0 0.44713555419592282 0.15729091164696829 0 0.46131364183119589 0.1734952129030661 0 0.43295297293207841 0.17235863765521151 0 0.44791741675075059 0.1898271768733584 0 0.46131364183119589 0.1734952129030661 0 0.44791741675075059 0.1898271768733584 0 0.47497408605066749 0.19380972974914629 0 0.46131364183119589 0.1734952129030661 0 0.44713555419592282 0.15729091164696829 0 0.46131364183119589 0.1734952129030661 0 0.46881698432948332 0.15349347356881571 0 0.48105744419940361 0.17096383076292981 0 0.5 0.1494043479952227 0 0.46881698432948332 0.15349347356881571 0 0.46131364183119589 0.1734952129030661 0 0.48105744419940361 0.17096383076292981 0 0.46881698432948332 0.15349347356881571 0 0.47497408605066749 0.19380972974914629 0 0.46131364183119589 0.1734952129030661 0 0.48105744419940361 0.17096383076292981 0 0.47497408605066749 0.19380972974914629 0 0.48105744419940361 0.17096383076292981 0 0.5 0.1766069965539421 0 0.48105744419940361 0.17096383076292981 0 0.5 0.1766069965539421 0 0.5 0.1494043479952227 0 0.5 0.1494043479952227 0 0.46881698432948332 0.15349347356881571 0 0.47441708456694442 0.12977849092937169 0 0.47441708456694442 0.12977849092937169 0 0.49999999999999639 0.1222016994365035 0 0.5 0.1494043479952227 0 0.47441708456694442 0.12977849092937169 0 0.49999999999999639 0.1222016994365035 0 0.49999999999999639 0.1222016994365035 0 0.50000000000000056 0.095172134095645983 0 0.47750245762048121 0.10710610013528631 0 0.50000000000000056 0.095172134095645983 0 0.47750245762048121 0.10710610013528631 0 0.47865050447596458 0.085593264044002471 0 0.47750245762048121 0.10710610013528631 0 0.47865050447596458 0.085593264044002471 0 0.46174775709496307 0.094284283941404923 0 0.47441708456694442 0.12977849092937169 0 0.49999999999999639 0.1222016994365035 0 0.47750245762048121 0.10710610013528631 0 0.49424192032897052 0.072904523019167014 0 0.5 0.077428992845372302 0 0.4999999999999975 0.059685851595098739 0 0.50000000000000056 0.095172134095645983 0 0.49424192032897052 0.072904523019167014 0 0.5 0.077428992845372302 0 0.50000000000000056 0.095172134095645983 0 0.49424192032897052 0.072904523019167014 0 0.47865050447596458 0.085593264044002471 0 0.50000000000000056 0.095172134095645983 0 0.49424192032897052 0.072904523019167014 0 0.49424192032897052 0.072904523019167014 0 0.47865050447596458 0.085593264044002471 0 0.47650112124905758 0.069053272592897785 0 0.47865050447596458 0.085593264044002471 0 0.47650112124905758 0.069053272592897785 0 0.46301057324526479 0.075004155236471776 0 0.47650112124905758 0.069053272592897785 0 0.46301057324526479 0.075004155236471776 0 0.46686938492924529 0.056946374029037621 0 0.49424192032897052 0.072904523019167014 0 0.47650112124905758 0.069053272592897785 0 0.47973322326584272 0.054818046635810087 0 0.46301057324526479 0.075004155236471776 0 0.45185489615888469 0.08363932043334206 0 0.44672282901061577 0.073279586493915042 0 0.46301057324526479 0.075004155236471776 0 0.44672282901061577 0.073279586493915042 0 0.45156357821941989 0.061240667109704293 0 0.46301057324526479 0.075004155236471776 0 0.45156357821941989 0.061240667109704293 0 0.46686938492924529 0.056946374029037621 0 0.47865050447596458 0.085593264044002471 0 0.46301057324526479 0.075004155236471776 0 0.46174775709496307 0.094284283941404923 0 0.46301057324526479 0.075004155236471776 0 0.45185489615888469 0.08363932043334206 0 0.46174775709496307 0.094284283941404923 0 0.45185489615888469 0.08363932043334206 0 0.44672282901061577 0.073279586493915042 0 0.43499920745594461 0.081571034114415006 0 0.45185489615888469 0.08363932043334206 0 0.44398092275286949 0.093819106088489534 0 0.43499920745594461 0.081571034114415006 0 0.45185489615888469 0.08363932043334206 0 0.46174775709496307 0.094284283941404923 0 0.44398092275286949 0.093819106088489534 0 0.44672282901061577 0.073279586493915042 0 0.43499920745594461 0.081571034114415006 0 0.43710512597779061 0.067295089484772017 0 0.44672282901061577 0.073279586493915042 0 0.43710512597779061 0.067295089484772017 0 0.45156357821941989 0.061240667109704293 0 0.47441708456694442 0.12977849092937169 0 0.47750245762048121 0.10710610013528631 0 0.44980819497705238 0.11199542280144741 0 0.47750245762048121 0.10710610013528631 0 0.46174775709496307 0.094284283941404923 0 0.44980819497705238 0.11199542280144741 0 0.44398092275286949 0.093819106088489534 0 0.44980819497705238 0.11199542280144741 0 0.43598415288528458 0.10671783832983139 0 0.46174775709496307 0.094284283941404923 0 0.44398092275286949 0.093819106088489534 0 0.44980819497705238 0.11199542280144741 0 0.44883416913389268 0.1373552824222409 0 0.44980819497705238 0.11199542280144741 0 0.42956277549560001 0.1200577428663613 0 0.44980819497705238 0.11199542280144741 0 0.42956277549560001 0.1200577428663613 0 0.43598415288528458 0.10671783832983139 0 0.42956277549560001 0.1200577428663613 0 0.42517509021760019 0.1055960454365468 0 0.43598415288528458 0.10671783832983139 0 0.42956277549560001 0.1200577428663613 0 0.41498283179832213 0.111417094244911 0 0.42517509021760019 0.1055960454365468 0 0.42956277549560001 0.1200577428663613 0 0.40997416597645769 0.1238545406833603 0 0.41498283179832213 0.111417094244911 0 0.40997416597645769 0.1238545406833603 0 0.41498283179832213 0.111417094244911 0 0.40299501264156901 0.1048366708539364 0 0.41566751823683129 0.102337512781993 0 0.41700762875228892 0.091390191788431566 0 0.40299501264156901 0.1048366708539364 0 0.41700762875228892 0.091390191788431566 0 0.40299501264156901 0.1048366708539364 0 0.41498283179832213 0.111417094244911 0 0.41566751823683129 0.102337512781993 0 0.40299501264156901 0.1048366708539364 0 0.41498283179832213 0.111417094244911 0 0.41566751823683129 0.102337512781993 0 0.42517509021760019 0.1055960454365468 0 0.41566751823683129 0.102337512781993 0 0.42291566627568877 0.096856240258873808 0 0.42517509021760019 0.1055960454365468 0 0.41566751823683129 0.102337512781993 0 0.42291566627568877 0.096856240258873808 0 0.41700762875228892 0.091390191788431566 0 0.42291566627568877 0.096856240258873808 0 0.43230738872834312 0.095873340737045759 0 0.42442070544338029 0.089084110550351939 0 0.42291566627568877 0.096856240258873808 0 0.42517509021760019 0.1055960454365468 0 0.43230738872834312 0.095873340737045759 0 0.42517509021760019 0.1055960454365468 0 0.43598415288528458 0.10671783832983139 0 0.43230738872834312 0.095873340737045759 0 0.44398092275286949 0.093819106088489534 0 0.43598415288528458 0.10671783832983139 0 0.43230738872834312 0.095873340737045759 0 0.43230738872834312 0.095873340737045759 0 0.43499920745594461 0.081571034114415006 0 0.42442070544338029 0.089084110550351939 0 0.44398092275286949 0.093819106088489534 0 0.43230738872834312 0.095873340737045759 0 0.43499920745594461 0.081571034114415006 0 0.4256530861862759 0.079121374980383269 0 0.42442070544338029 0.089084110550351939 0 0.41665256339499918 0.075059871150648133 0 0.43499920745594461 0.081571034114415006 0 0.4256530861862759 0.079121374980383269 0 0.42442070544338029 0.089084110550351939 0 0.43710512597779061 0.067295089484772017 0 0.42653986845077962 0.070770484106117984 0 0.42624891121153241 0.05881067727640682 0 0.43499920745594461 0.081571034114415006 0 0.43710512597779061 0.067295089484772017 0 0.42653986845077962 0.070770484106117984 0 0.4256530861862759 0.079121374980383269 0 0.42653986845077962 0.070770484106117984 0 0.41665256339499918 0.075059871150648133 0 0.43499920745594461 0.081571034114415006 0 0.4256530861862759 0.079121374980383269 0 0.42653986845077962 0.070770484106117984 0 0.41665256339499918 0.075059871150648133 0 0.39966233313445659 0.075883419452669368 0 0.41246077911986112 0.060477442699446833 0 0.42653986845077962 0.070770484106117984 0 0.41246077911986112 0.060477442699446833 0 0.42624891121153241 0.05881067727640682 0 0.42653986845077962 0.070770484106117984 0 0.41665256339499918 0.075059871150648133 0 0.41246077911986112 0.060477442699446833 0 0.42442070544338029 0.089084110550351939 0 0.39966233313445659 0.075883419452669368 0 0.42442070544338029 0.089084110550351939 0 0.41700762875228892 0.091390191788431566 0 0.39966233313445659 0.075883419452669368 0 0.42442070544338029 0.089084110550351939 0 0.41665256339499918 0.075059871150648133 0 0.39966233313445659 0.075883419452669368 0 0.42291566627568877 0.096856240258873808 0 0.42442070544338029 0.089084110550351939 0 0.41700762875228892 0.091390191788431566 0 0.41700762875228892 0.091390191788431566 0 0.39753448917648831 0.091090964492226534 0 0.39966233313445659 0.075883419452669368 0 0.39966233313445659 0.075883419452669368 0 0.38303872231716862 0.094862948776621422 0 0.39753448917648831 0.091090964492226534 0 0.39966233313445659 0.075883419452669368 0 0.38303872231716862 0.094862948776621422 0 0.39966233313445659 0.075883419452669368 0 0.39449214182527081 0.05818839718387802 0 0.41246077911986112 0.060477442699446833 0 0.39966233313445659 0.075883419452669368 0 0.41246077911986112 0.060477442699446833 0 0.37486687670851798 0.062662955812298693 0 0.39966233313445659 0.075883419452669368 0 0.37895279951284361 0.078762952294460009 0 0.37486687670851798 0.062662955812298693 0 0.39966233313445659 0.075883419452669368 0 0.37486687670851798 0.062662955812298693 0 0.37895279951284361 0.078762952294460009 0 0.37486687670851798 0.062662955812298693 0 0.37509942327119078 0.078112531066449775 0 0.37895279951284361 0.078762952294460009 0 0.37486687670851798 0.062662955812298693 0 0.39966233313445659 0.075883419452669368 0 0.39449214182527081 0.05818839718387802 0 0.39966233313445659 0.075883419452669368 0 0.37895279951284361 0.078762952294460009 0 0.38303872231716862 0.094862948776621422 0 0.37895279951284361 0.078762952294460009 0 0.38303872231716862 0.094862948776621422 0 0.37509942327119078 0.078112531066449775 0 0.37895279951284361 0.078762952294460009 0 0.38303872231716862 0.094862948776621422 0 0.37509942327119078 0.078112531066449775 0 0.38303872231716862 0.094862948776621422 0 0.36764150974296023 0.092618336100092985 0 0.37509942327119078 0.078112531066449775 0 0.38303872231716862 0.094862948776621422 0 0.36944182873917708 0.1122609912856367 0 0.38303872231716862 0.094862948776621422 0 0.38352869359724012 0.096793610774728034 0 0.36944182873917708 0.1122609912856367 0 0.38303872231716862 0.094862948776621422 0 0.38352869359724012 0.096793610774728034 0 0.38898239653084821 0.1182831499194404 0 0.38352869359724012 0.096793610774728034 0 0.38898239653084821 0.1182831499194404 0 0.39212743366037089 0.104396795594525 0 0.36944182873917708 0.1122609912856367 0 0.38352869359724012 0.096793610774728034 0 0.38898239653084821 0.1182831499194404 0 0.38352869359724012 0.096793610774728034 0 0.39262416099283398 0.097770054498121359 0 0.39212743366037089 0.104396795594525 0 0.38303872231716862 0.094862948776621422 0 0.38352869359724012 0.096793610774728034 0 0.39262416099283398 0.097770054498121359 0 0.38303872231716862 0.094862948776621422 0 0.38352869359724012 0.096793610774728034 0 0.36944182873917708 0.1122609912856367 0 0.36906301411976511 0.13739775039604449 0 0.38898239653084821 0.1182831499194404 0 0.40997416597645769 0.1238545406833603 0 0.38898239653084821 0.1182831499194404 0 0.40299501264156901 0.1048366708539364 0 0.38898239653084821 0.1182831499194404 0 0.40299501264156901 0.1048366708539364 0 0.41700762875228892 0.091390191788431566 0 0.39753448917648831 0.091090964492226534 0 0.40299501264156901 0.1048366708539364 0 0.39753448917648831 0.091090964492226534 0 0.40299501264156901 0.1048366708539364 0 0.39262416099283398 0.097770054498121359 0 0.39753448917648831 0.091090964492226534 0 0.38303872231716862 0.094862948776621422 0 0.39262416099283398 0.097770054498121359 0 0.38898239653084821 0.1182831499194404 0 0.40299501264156901 0.1048366708539364 0 0.39212743366037089 0.104396795594525 0 0.40299501264156901 0.1048366708539364 0 0.39262416099283398 0.097770054498121359 0 0.39212743366037089 0.104396795594525 0 0.39152843374797858 0.025690764928774468 0 0.38819768472706878 0.035263031523967293 0 0.40692739441967479 0.032595527592593911 0 0.39152843374797858 0.025690764928774468 0 0.40558740181790132 0.020339519006613779 0 0.39751168118861041 0.011779770937735299 0 0.39152843374797858 0.025690764928774468 0 0.39751168118861041 0.011779770937735299 0 0.39152843374797858 0.025690764928774468 0 0.40558740181790132 0.020339519006613779 0 0.40692739441967479 0.032595527592593911 0 0.40558740181790132 0.020339519006613779 0 0.39751168118861041 0.011779770937735299 0 0.41464407650779839 0.010275779180182401 0 0.36997691005305738 0.0133569062958892 0 0.38222171901499219 0.0014491754458128259 0 0.38154262617449242 0.028290697132988079 0 0.39751168118861041 0.011779770937735299 0 0.38222171901499219 0.0014491754458128259 0 0.38154262617449242 0.028290697132988079 0 0.39751168118861041 0.011779770937735299 0 0.38154262617449242 0.028290697132988079 0 0.39152843374797858 0.025690764928774468 0 0.39751168118861041 0.011779770937735299 0 0.38154262617449242 0.028290697132988079 0 0.39152843374797858 0.025690764928774468 0 0.38154262617449242 0.028290697132988079 0 0.38819768472706878 0.035263031523967293 0 0.36557357116037609 0.044801623328242238 0 0.38375924518918408 0.050781668963146301 0 0.39541639813282331 0.044936544637238722 0 0.36557357116037609 0.044801623328242238 0 0.38819768472706878 0.035263031523967293 0 0.39541639813282331 0.044936544637238722 0 0.36557357116037609 0.044801623328242238 0 0.38154262617449242 0.028290697132988079 0 0.38819768472706878 0.035263031523967293 0 0.36557357116037609 0.044801623328242238 0 0.39541639813282331 0.044936544637238722 0 0.37432558683510991 0.060530080211103447 0 0.38375924518918408 0.050781668963146301 0 0.39449214182527081 0.05818839718387802 0 0.37486687670851798 0.062662955812298693 0 0.37432558683510991 0.060530080211103447 0 0.39449214182527081 0.05818839718387802 0 0.37432558683510991 0.060530080211103447 0 0.39449214182527081 0.05818839718387802 0 0.37432558683510991 0.060530080211103447 0 0.3755590920488453 0.054533224712105977 0 0.38375924518918408 0.050781668963146301 0 0.37257476988681498 0.051365262231325537 0 0.3755590920488453 0.054533224712105977 0 0.38375924518918408 0.050781668963146301 0 0.39449214182527081 0.05818839718387802 0 0.40401537302117968 0.052194441543388932 0 0.41465869681543183 0.055846714156652717 0 0.39449214182527081 0.05818839718387802 0 0.41465869681543183 0.055846714156652717 0 0.38375924518918408 0.050781668963146301 0 0.39449214182527081 0.05818839718387802 0 0.39541639813282331 0.044936544637238722 0 0.39449214182527081 0.05818839718387802 0 0.40401537302117968 0.052194441543388932 0 0.39541639813282331 0.044936544637238722 0 0.38819768472706878 0.035263031523967293 0 0.39541639813282331 0.044936544637238722 0 0.40692739441967479 0.032595527592593911 0 0.40692739441967479 0.032595527592593911 0 0.42525922510527059 0.045071465946228413 0 0.42332088891162051 0.030558513187352591 0 0.39541639813282331 0.044936544637238722 0 0.42525922510527059 0.045071465946228413 0 0.39541639813282331 0.044936544637238722 0 0.40692739441967479 0.032595527592593911 0 0.42525922510527059 0.045071465946228413 0 0.40401537302117968 0.052194441543388932 0 0.39541639813282331 0.044936544637238722 0 0.42525922510527059 0.045071465946228413 0 0.40401537302117968 0.052194441543388932 0 0.41465869681543183 0.055846714156652717 0 0.42525922510527059 0.045071465946228413 0 0.39449214182527081 0.05818839718387802 0 0.41246077911986112 0.060477442699446833 0 0.41465869681543183 0.055846714156652717 0 0.41246077911986112 0.060477442699446833 0 0.41465869681543183 0.055846714156652717 0 0.42525922510527059 0.045071465946228413 0 0.41246077911986112 0.060477442699446833 0 0.42525922510527059 0.045071465946228413 0 0.41246077911986112 0.060477442699446833 0 0.42624891121153241 0.05881067727640682 0 0.42525922510527059 0.045071465946228413 0 0.42624891121153241 0.05881067727640682 0 0.42525922510527059 0.045071465946228413 0 0.43830805883655027 0.056081086046816893 0 0.43710512597779061 0.067295089484772017 0 0.42624891121153241 0.05881067727640682 0 0.43830805883655027 0.056081086046816893 0 0.42525922510527059 0.045071465946228413 0 0.43634592496074981 0.031725983186960738 0 0.42332088891162051 0.030558513187352591 0 0.42525922510527059 0.045071465946228413 0 0.43634592496074981 0.031725983186960738 0 0.43634592496074981 0.031725983186960738 0 0.43074647684696288 0.022043836817191902 0 0.42332088891162051 0.030558513187352591 0 0.43074647684696288 0.022043836817191902 0 0.4257410446468976 0.013805829094354179 0 0.43800590209711382 0.01335515794905384 0 0.43074647684696288 0.022043836817191902 0 0.41732542322544441 0.021355752393783251 0 0.4257410446468976 0.013805829094354179 0 0.43074647684696288 0.022043836817191902 0 0.42332088891162051 0.030558513187352591 0 0.41732542322544441 0.021355752393783251 0 0.40692739441967479 0.032595527592593911 0 0.42332088891162051 0.030558513187352591 0 0.41732542322544441 0.021355752393783251 0 0.40558740181790132 0.020339519006613779 0 0.41732542322544441 0.021355752393783251 0 0.41464407650779839 0.010275779180182401 0 0.40558740181790132 0.020339519006613779 0 0.40692739441967479 0.032595527592593911 0 0.41732542322544441 0.021355752393783251 0 0.39751168118861041 0.011779770937735299 0 0.41464407650779839 0.010275779180182401 0 0.41720715697657779 -0.0085840230894039613 0 0.41464407650779839 0.010275779180182401 0 0.42652348920148309 0.001950933873237103 0 0.41720715697657779 -0.0085840230894039613 0 0.39751168118861041 0.011779770937735299 0 0.41720715697657779 -0.0085840230894039613 0 0.41732542322544441 0.021355752393783251 0 0.41464407650779839 0.010275779180182401 0 0.4257410446468976 0.013805829094354179 0 0.41464407650779839 0.010275779180182401 0 0.42652348920148309 0.001950933873237103 0 0.4257410446468976 0.013805829094354179 0 0.42652348920148309 0.001950933873237103 0 0.4257410446468976 0.013805829094354179 0 0.43800590209711382 0.01335515794905384 0 0.42652348920148309 0.001950933873237103 0 0.44064422196653508 0.01304644365592759 0 0.43800590209711382 0.01335515794905384 0 0.42652348920148309 0.001950933873237103 0 0.44064422196653508 0.01304644365592759 0 0.42652348920148309 0.001950933873237103 0 0.43845248758782529 0.00074013978569972935 0 0.44064422196653508 0.01304644365592759 0 0.43845248758782529 0.00074013978569972935 0 0.44689860254243641 0.0025673403894810598 0 0.44064422196653508 0.01304644365592759 0 0.44689860254243641 0.0025673403894810598 0 0.45307192782944172 0.01159225666552832 0 0.45464452233266361 -0.0045995981067174637 0 0.44689860254243641 0.0025673403894810598 0 0.45307192782944172 0.01159225666552832 0 0.44064422196653508 0.01304644365592759 0 0.45307192782944172 0.01159225666552832 0 0.44064422196653508 0.01304644365592759 0 0.44743262481623441 0.01838050042769768 0 0.45307192782944172 0.01159225666552832 0 0.44064422196653508 0.01304644365592759 0 0.45307192782944172 0.01159225666552832 0 0.44743262481623441 0.01838050042769768 0 0.44064422196653508 0.01304644365592759 0 0.43800590209711382 0.01335515794905384 0 0.44743262481623441 0.01838050042769768 0 0.44064422196653508 0.01304644365592759 0 0.43800590209711382 0.01335515794905384 0 0.43074647684696288 0.022043836817191902 0 0.43800590209711382 0.01335515794905384 0 0.44743262481623441 0.01838050042769768 0 0.43634592496074981 0.031725983186960738 0 0.43074647684696288 0.022043836817191902 0 0.44743262481623441 0.01838050042769768 0 0.44064422196653508 0.01304644365592759 0 0.44743262481623441 0.01838050042769768 0 0.43634592496074981 0.031725983186960738 0 0.44743262481623441 0.01838050042769768 0 0.44991018857511439 0.031716579823228723 0 0.43634592496074981 0.031725983186960738 0 0.44743262481623441 0.01838050042769768 0 0.45307192782944172 0.01159225666552832 0 0.44743262481623441 0.01838050042769768 0 0.46345385794718991 0.030969347755440298 0 0.44743262481623441 0.01838050042769768 0 0.46345385794718991 0.030969347755440298 0 0.44743262481623441 0.01838050042769768 0 0.46345385794718991 0.030969347755440298 0 0.44991018857511439 0.031716579823228723 0 0.45307192782944172 0.01159225666552832 0 0.46345385794718991 0.030969347755440298 0 0.46887693019765558 0.018865662153400041 0 0.45307192782944172 0.01159225666552832 0 0.46970105056893069 -0.0084248515555132783 0 0.45307192782944172 0.01159225666552832 0 0.47355175318155102 0.0091958774849072861 0 0.45307192782944172 0.01159225666552832 0 0.47355175318155102 0.0091958774849072861 0 0.46887693019765558 0.018865662153400041 0 0.45307192782944172 0.01159225666552832 0 0.47355175318155102 0.0091958774849072861 0 0.46970105056893069 -0.0084248515555132783 0 0.42525922510527059 0.045071465946228413 0 0.43830805883655027 0.056081086046816893 0 0.45154285930685589 0.045190295919508933 0 0.45156357821941989 0.061240667109704293 0 0.43830805883655027 0.056081086046816893 0 0.45154285930685589 0.045190295919508933 0 0.43710512597779061 0.067295089484772017 0 0.45156357821941989 0.061240667109704293 0 0.43830805883655027 0.056081086046816893 0 0.42525922510527059 0.045071465946228413 0 0.45154285930685589 0.045190295919508933 0 0.42525922510527059 0.045071465946228413 0 0.43634592496074981 0.031725983186960738 0 0.45154285930685589 0.045190295919508933 0 0.43634592496074981 0.031725983186960738 0 0.45154285930685589 0.045190295919508933 0 0.44991018857511439 0.031716579823228723 0 0.46345385794718991 0.030969347755440298 0 0.45154285930685589 0.045190295919508933 0 0.47782649350844131 0.045309125892785039 0 0.45154285930685589 0.045190295919508933 0 0.47782649350844131 0.045309125892785039 0 0.46345385794718991 0.030969347755440298 0 0.45154285930685589 0.045190295919508933 0 0.44991018857511439 0.031716579823228723 0 0.45156357821941989 0.061240667109704293 0 0.45154285930685589 0.045190295919508933 0 0.46686938492924529 0.056946374029037621 0 0.45154285930685589 0.045190295919508933 0 0.46686938492924529 0.056946374029037621 0 0.47782649350844131 0.045309125892785039 0 0.47650112124905758 0.069053272592897785 0 0.46686938492924529 0.056946374029037621 0 0.47973322326584272 0.054818046635810087 0 0.46686938492924529 0.056946374029037621 0 0.47973322326584272 0.054818046635810087 0 0.47782649350844131 0.045309125892785039 0 0.46686938492924529 0.056946374029037621 0 0.47782649350844131 0.045309125892785039 0 0.47973322326584272 0.054818046635810087 0 0.48172585418494379 0.045326755149127977 0 0.48848384065793982 0.050636911942688302 0 0.47973322326584272 0.054818046635810087 0 0.48172585418494379 0.045326755149127977 0 0.47782649350844131 0.045309125892785039 0 0.46345385794718991 0.030969347755440298 0 0.47947509107814168 0.043558195083187652 0 0.47539147149240168 0.028936002883223261 0 0.46345385794718991 0.030969347755440298 0 0.47947509107814168 0.043558195083187652 0 0.46345385794718991 0.030969347755440298 0 0.47947509107814168 0.043558195083187652 0 0.47782649350844131 0.045309125892785039 0 0.48172585418494379 0.045326755149127977 0 0.47947509107814168 0.043558195083187652 0 0.48172585418494379 0.045326755149127977 0 0.47947509107814168 0.043558195083187652 0 0.4851067328523086 0.037576980945649083 0 0.47947509107814168 0.043558195083187652 0 0.4851067328523086 0.037576980945649083 0 0.48172585418494379 0.045326755149127977 0 0.47947509107814168 0.043558195083187652 0 0.47782649350844131 0.045309125892785039 0 0.47947509107814168 0.043558195083187652 0 0.47782649350844131 0.045309125892785039 0 0.48172585418494379 0.045326755149127977 0 0.47782649350844131 0.045309125892785039 0 0.47947509107814168 0.043558195083187652 0 0.4851067328523086 0.037576980945649083 0 0.47539147149240168 0.028936002883223261 0 0.49331504485175359 0.038507420260272582 0 0.50000000000000266 0.045409373718622408 0 0.50000000000000033 0.021759245445035949 0 0.4851067328523086 0.037576980945649083 0 0.49331504485175359 0.038507420260272582 0 0.50000000000000033 0.021759245445035949 0 0.50000000000000266 0.045409373718622408 0 0.4871170142104721 0.045351128924718383 0 0.49331504485175359 0.038507420260272582 0 0.50000000000000266 0.045409373718622408 0 0.4871170142104721 0.045351128924718383 0 0.4851067328523086 0.037576980945649083 0 0.49331504485175359 0.038507420260272582 0 0.4871170142104721 0.045351128924718383 0 0.48172585418494379 0.045326755149127977 0 0.4851067328523086 0.037576980945649083 0 0.4871170142104721 0.045351128924718383 0 0.4851067328523086 0.037576980945649083 0 0.4871170142104721 0.045351128924718383 0 0.48172585418494379 0.045326755149127977 0 0.4871170142104721 0.045351128924718383 0 0.49424192032897052 0.072904523019167014 0 0.48848384065793982 0.050636911942688302 0 0.4999999999999975 0.059685851595098739 0 0.49424192032897052 0.072904523019167014 0 0.48848384065793982 0.050636911942688302 0 0.49424192032897052 0.072904523019167014 0 0.47973322326584272 0.054818046635810087 0 0.48848384065793982 0.050636911942688302 0 0.50000000000000266 0.045409373718622408 0 0.4871170142104721 0.045351128924718383 0 0.48848384065793982 0.050636911942688302 0 0.48172585418494379 0.045326755149127977 0 0.4871170142104721 0.045351128924718383 0 0.48848384065793982 0.050636911942688302 0 0.4871170142104721 0.045351128924718383 0 0.48848384065793982 0.050636911942688302 0 0.48172585418494379 0.045326755149127977 0 0.48848384065793982 0.050636911942688302 0 0.50000000000000266 0.045409373718622408 0 0.48848384065793982 0.050636911942688302 0 0.4999999999999975 0.059685851595098739 0 0.48848384065793982 0.050636911942688302 0 0.4999999999999975 0.059685851595098739 0 0.47891564053769381 0.013634825977902131 0 0.47355175318155102 0.0091958774849072861 0 0.49403157853366031 0.0067994983042870766 0 0.47355175318155102 0.0091958774849072861 0 0.49403157853366031 0.0067994983042870766 0 0.47355175318155102 0.0091958774849072861 0 0.49403157853366031 0.0067994983042870766 0 0.46970105056893069 -0.0084248515555132783 0 0.47891564053769381 0.013634825977902131 0 0.47355175318155102 0.0091958774849072861 0 0.46887693019765558 0.018865662153400041 0 0.4851067328523086 0.037576980945649083 0 0.47891564053769381 0.013634825977902131 0 0.47539147149240168 0.028936002883223261 0 0.4851067328523086 0.037576980945649083 0 0.47891564053769381 0.013634825977902131 0 0.47891564053769381 0.013634825977902131 0 0.46887693019765558 0.018865662153400041 0 0.47539147149240168 0.028936002883223261 0 0.4851067328523086 0.037576980945649083 0 0.47891564053769381 0.013634825977902131 0 0.48884599029185649 0.021798769441261349 0 0.46345385794718991 0.030969347755440298 0 0.46887693019765558 0.018865662153400041 0 0.47539147149240168 0.028936002883223261 0 0.47891564053769381 0.013634825977902131 0 0.48884599029185649 0.021798769441261349 0 0.48854083661979669 0.01478871714463249 0 0.4851067328523086 0.037576980945649083 0 0.50000000000000033 0.021759245445035949 0 0.4851067328523086 0.037576980945649083 0 0.48884599029185649 0.021798769441261349 0 0.50000000000000033 0.021759245445035949 0 0.48884599029185649 0.021798769441261349 0 0.49491099098742852 0.015631064290377219 0 0.48854083661979669 0.01478871714463249 0 0.48884599029185649 0.021798769441261349 0 0.50000000000000033 0.021759245445035949 0 0.49491099098742852 0.015631064290377219 0 0.50000000000000033 0.021759245445035949 0 0.49491099098742852 0.015631064290377219 0 0.50000000000000056 0.010534120777174661 0 0.49403157853366031 0.0067994983042870766 0 0.49999999999999961 0.0061011231620585861 0 0.49999999999999539 -0.01127088670643767 0 0.49491099098742852 0.015631064290377219 0 0.50000000000000056 0.010534120777174661 0 0.49403157853366031 0.0067994983042870766 0 0.49491099098742852 0.015631064290377219 0 0.48854083661979669 0.01478871714463249 0 0.49403157853366031 0.0067994983042870766 0 0.50000000000000056 0.010534120777174661 0 0.49403157853366031 0.0067994983042870766 0 0.47891564053769381 0.013634825977902131 0 0.48854083661979669 0.01478871714463249 0 0.49403157853366031 0.0067994983042870766 0 0.49403157853366031 0.0067994983042870766 0 0.49999999999999961 0.0061011231620585861 0 0.50000000000000056 0.010534120777174661 0 0.49403157853366031 0.0067994983042870766 0 0.49999999999999961 0.0061011231620585861 0 0.49999999999999539 -0.01127088670643767 0 0.4791462963819707 -0.01979445358299611 0 0.49403157853366031 0.0067994983042870766 0 0.48571973137113922 -0.0081726733851646503 0 0.49999999999999539 -0.01127088670643767 0 0.48571973137113922 -0.0081726733851646503 0 0.49999999999999539 -0.01127088670643767 0 0.4791462963819707 -0.01979445358299611 0 0.48571973137113922 -0.0081726733851646503 0 0.46970105056893069 -0.0084248515555132783 0 0.4791462963819707 -0.01979445358299611 0 0.49403157853366031 0.0067994983042870766 0 0.46970105056893069 -0.0084248515555132783 0 0.49403157853366031 0.0067994983042870766 0 0.48571973137113922 -0.0081726733851646503 0 0.46970105056893069 -0.0084248515555132783 0 0.46970105056893069 -0.0084248515555132783 0 0.4791462963819707 -0.01979445358299611 0 0.46970105056893069 -0.0084248515555132783 0 0.4791462963819707 -0.01979445358299611 0 0.46162997678168122 -0.02695392627326948 0 0.4791462963819707 -0.01979445358299611 0 0.47434441630589153 -0.037501305774319822 0 0.46162997678168122 -0.02695392627326948 0 0.4791462963819707 -0.01979445358299611 0 0.4895731481909868 -0.032345652123987267 0 0.47434441630589153 -0.037501305774319822 0 0.4791462963819707 -0.01979445358299611 0 0.46162997678168122 -0.02695392627326948 0 0.4791462963819707 -0.01979445358299611 0 0.4895731481909868 -0.032345652123987267 0 0.4791462963819707 -0.01979445358299611 0 0.5 -0.028083868685709001 0 0.4895731481909868 -0.032345652123987267 0 0.49999999999999539 -0.01127088670643767 0 0.4791462963819707 -0.01979445358299611 0 0.5 -0.028083868685709001 0 0.50000000000000067 -0.044896850664980392 0 0.4895731481909868 -0.032345652123987267 0 0.5 -0.028083868685709001 0 0.50000000000000067 -0.044896850664980392 0 0.4895731481909868 -0.032345652123987267 0 0.50000000000000067 -0.044896850664980392 0 0.48613076102177311 -0.045806295241343498 0 0.4895731481909868 -0.032345652123987267 0 0.50000000000000067 -0.044896850664980392 0 0.48864513896103601 -0.059641894386529663 0 0.5 -0.071779936850065174 0 0.50000000000000067 -0.044896850664980392 0 0.48613076102177311 -0.045806295241343498 0 0.48864513896103601 -0.059641894386529663 0 0.48613076102177311 -0.045806295241343498 0 0.48864513896103601 -0.059641894386529663 0 0.47443262939601732 -0.055803028330391941 0 0.48613076102177311 -0.045806295241343498 0 0.47443262939601732 -0.055803028330391941 0 0.47434441630589153 -0.037501305774319822 0 0.47443262939601732 -0.055803028330391941 0 0.47434441630589153 -0.037501305774319822 0 0.45850376460559689 -0.046164950339694422 0 0.48613076102177311 -0.045806295241343498 0 0.4895731481909868 -0.032345652123987267 0 0.47434441630589153 -0.037501305774319822 0 0.47434441630589153 -0.037501305774319822 0 0.45850376460559689 -0.046164950339694422 0 0.46162997678168122 -0.02695392627326948 0 0.45850376460559689 -0.046164950339694422 0 0.44411365718139051 -0.034113398963539807 0 0.46162997678168122 -0.02695392627326948 0 0.47443262939601732 -0.055803028330391941 0 0.45850376460559689 -0.046164950339694422 0 0.45749105825728109 -0.068642100254024216 0 0.45850376460559689 -0.046164950339694422 0 0.43925523665596378 -0.054045609819619728 0 0.45749105825728109 -0.068642100254024216 0 0.43925523665596378 -0.054045609819619728 0 0.44411365718139051 -0.034113398963539807 0 0.43232857921636059 -0.047868068454773899 0 0.45850376460559689 -0.046164950339694422 0 0.43925523665596378 -0.054045609819619728 0 0.44411365718139051 -0.034113398963539807 0 0.43925523665596378 -0.054045609819619728 0 0.44411365718139051 -0.034113398963539807 0 0.44623463942273273 -0.025411833293127951 0 0.45330184166673748 -0.01868633433602869 0 0.43690263276454422 -0.028947817116544022 0 0.44411365718139051 -0.034113398963539807 0 0.44623463942273273 -0.025411833293127951 0 0.44411365718139051 -0.034113398963539807 0 0.46162997678168122 -0.02695392627326948 0 0.44107068435664321 -0.033257301438206703 0 0.43690263276454422 -0.028947817116544022 0 0.45330184166673748 -0.01868633433602869 0 0.43690263276454422 -0.028947817116544022 0 0.44107068435664321 -0.033257301438206703 0 0.44623463942273273 -0.025411833293127951 0 0.43690263276454422 -0.028947817116544022 0 0.45330184166673748 -0.01868633433602869 0 0.43416281859082551 -0.010960681616187171 0 0.43690263276454422 -0.028947817116544022 0 0.44411365718139051 -0.034113398963539807 0 0.44107068435664321 -0.033257301438206703 0 0.44623463942273273 -0.025411833293127951 0 0.44411365718139051 -0.034113398963539807 0 0.44623463942273273 -0.025411833293127951 0 0.46162997678168122 -0.02695392627326948 0 0.44511051693566023 -0.0058386784090123786 0 0.45330184166673748 -0.01868633433602869 0 0.43416281859082551 -0.010960681616187171 0 0.43845248758782529 0.00074013978569972935 0 0.44511051693566023 -0.0058386784090123786 0 0.43416281859082551 -0.010960681616187171 0 0.43845248758782529 0.00074013978569972935 0 0.44689860254243641 0.0025673403894810598 0 0.44511051693566023 -0.0058386784090123786 0 0.44689860254243641 0.0025673403894810598 0 0.44511051693566023 -0.0058386784090123786 0 0.45464452233266361 -0.0045995981067174637 0 0.44511051693566023 -0.0058386784090123786 0 0.45464452233266361 -0.0045995981067174637 0 0.45330184166673748 -0.01868633433602869 0 0.46970105056893069 -0.0084248515555132783 0 0.45464452233266361 -0.0045995981067174637 0 0.45330184166673748 -0.01868633433602869 0 0.46970105056893069 -0.0084248515555132783 0 0.45330184166673748 -0.01868633433602869 0 0.45307192782944172 0.01159225666552832 0 0.46970105056893069 -0.0084248515555132783 0 0.45464452233266361 -0.0045995981067174637 0 0.46970105056893069 -0.0084248515555132783 0 0.46162997678168122 -0.02695392627326948 0 0.45330184166673748 -0.01868633433602869 0 0.44623463942273273 -0.025411833293127951 0 0.46162997678168122 -0.02695392627326948 0 0.45330184166673748 -0.01868633433602869 0 0.4766588008421922 -0.1177179725840823 0 0.48266045283513698 -0.10148069236259839 0 0.5 -0.12554610922023471 0 0.5 -0.098663023035149955 0 0.48266045283513698 -0.10148069236259839 0 0.5 -0.12554610922023471 0 0.4766588008421922 -0.1177179725840823 0 0.48266045283513698 -0.10148069236259839 0 0.4643993260573383 -0.097058510312109006 0 0.48266045283513698 -0.10148069236259839 0 0.4786118443123053 -0.079547189653259173 0 0.4643993260573383 -0.097058510312109006 0 0.5 -0.098663023035149955 0 0.48266045283513698 -0.10148069236259839 0 0.4786118443123053 -0.079547189653259173 0 0.5 -0.098663023035149955 0 0.4786118443123053 -0.079547189653259173 0 0.5 -0.071779936850065174 0 0.48864513896103601 -0.059641894386529663 0 0.4786118443123053 -0.079547189653259173 0 0.5 -0.071779936850065174 0 0.48864513896103601 -0.059641894386529663 0 0.47443262939601732 -0.055803028330391941 0 0.4786118443123053 -0.079547189653259173 0 0.47443262939601732 -0.055803028330391941 0 0.4786118443123053 -0.079547189653259173 0 0.45749105825728109 -0.068642100254024216 0 0.4786118443123053 -0.079547189653259173 0 0.45749105825728109 -0.068642100254024216 0 0.45966731638788932 -0.083561235631697317 0 0.45749105825728109 -0.068642100254024216 0 0.44975373232853499 -0.079637165270648125 0 0.45966731638788932 -0.083561235631697317 0 0.43925523665596378 -0.054045609819619728 0 0.45749105825728109 -0.068642100254024216 0 0.44210729916508429 -0.072266370496407495 0 0.43925523665596378 -0.054045609819619728 0 0.44210729916508429 -0.072266370496407495 0 0.43439681613054021 -0.073977820675700412 0 0.44210729916508429 -0.072266370496407495 0 0.44146670284534079 -0.082014820254233275 0 0.4355618555969204 -0.076686526470825578 0 0.44210729916508429 -0.072266370496407495 0 0.44975373232853499 -0.079637165270648125 0 0.44146670284534079 -0.082014820254233275 0 0.45749105825728109 -0.068642100254024216 0 0.44210729916508429 -0.072266370496407495 0 0.44975373232853499 -0.079637165270648125 0 0.44975373232853499 -0.079637165270648125 0 0.44146670284534079 -0.082014820254233275 0 0.44789069812168292 -0.089936132463626042 0 0.44975373232853499 -0.079637165270648125 0 0.44789069812168292 -0.089936132463626042 0 0.45966731638788932 -0.083561235631697317 0 0.44146670284534079 -0.082014820254233275 0 0.43974394426537777 -0.088471794631083817 0 0.43445968902902982 -0.086121104390798925 0 0.44146670284534079 -0.082014820254233275 0 0.43974394426537777 -0.088471794631083817 0 0.44789069812168292 -0.089936132463626042 0 0.43974394426537777 -0.088471794631083817 0 0.44789069812168292 -0.089936132463626042 0 0.44061833200581207 -0.094476429933904954 0 0.43974394426537777 -0.088471794631083817 0 0.44061833200581207 -0.094476429933904954 0 0.43571830219419311 -0.091870830508836487 0 0.4786118443123053 -0.079547189653259173 0 0.45966731638788932 -0.083561235631697317 0 0.4643993260573383 -0.097058510312109006 0 0.44789069812168292 -0.089936132463626042 0 0.45966731638788932 -0.083561235631697317 0 0.4643993260573383 -0.097058510312109006 0 0.4766588008421922 -0.1177179725840823 0 0.4643993260573383 -0.097058510312109006 0 0.45599389727952011 -0.1102935656420535 0 0.44789069812168292 -0.089936132463626042 0 0.4643993260573383 -0.097058510312109006 0 0.45028134147090643 -0.10021789592594239 0 0.4643993260573383 -0.097058510312109006 0 0.45028134147090643 -0.10021789592594239 0 0.45599389727952011 -0.1102935656420535 0 0.44789069812168292 -0.089936132463626042 0 0.45028134147090643 -0.10021789592594239 0 0.44061833200581207 -0.094476429933904954 0 0.44061833200581207 -0.094476429933904954 0 0.44121913722016071 -0.1048019576561821 0 0.43454496981679108 -0.099059061977371479 0 0.45028134147090643 -0.10021789592594239 0 0.44061833200581207 -0.094476429933904954 0 0.44121913722016071 -0.1048019576561821 0 0.45028134147090643 -0.10021789592594239 0 0.44121913722016071 -0.1048019576561821 0 0.45599389727952011 -0.1102935656420535 0 0.43997948700716449 -0.11667022291188429 0 0.45599389727952011 -0.1102935656420535 0 0.45203570390723752 -0.12648986569279999 0 0.44121913722016071 -0.1048019576561821 0 0.43997948700716449 -0.11667022291188429 0 0.45599389727952011 -0.1102935656420535 0 0.43997948700716449 -0.11667022291188429 0 0.45203570390723752 -0.12648986569279999 0 0.43815282199695837 -0.12684145835808061 0 0.45599389727952011 -0.1102935656420535 0 0.46589017262851601 -0.1284925439824266 0 0.45203570390723752 -0.12648986569279999 0 0.4766588008421922 -0.1177179725840823 0 0.45599389727952011 -0.1102935656420535 0 0.46589017262851601 -0.1284925439824266 0 0.41192168163134912 -0.1160164861491952 0 0.42548633844653933 -0.11053404694232701 0 0.40511229408522648 -0.1053415298793962 0 0.41192168163134912 -0.1160164861491952 0 0.41735442547733792 -0.1229734801039533 0 0.40965048580231223 -0.12512333462626021 0 0.41192168163134912 -0.1160164861491952 0 0.4028472676980227 -0.1197470456807424 0 0.40965048580231223 -0.12512333462626021 0 0.41192168163134912 -0.1160164861491952 0 0.40511229408522648 -0.1053415298793962 0 0.4028472676980227 -0.1197470456807424 0 0.41192168163134912 -0.1160164861491952 0 0.41735442547733792 -0.1229734801039533 0 0.42548633844653933 -0.11053404694232701 0 0.44121913722016071 -0.1048019576561821 0 0.43997948700716449 -0.11667022291188429 0 0.42548633844653933 -0.11053404694232701 0 0.41735442547733792 -0.1229734801039533 0 0.42912522472757553 -0.12172208172720771 0 0.42548633844653933 -0.11053404694232701 0 0.43997948700716449 -0.11667022291188429 0 0.42912522472757553 -0.12172208172720771 0 0.43815282199695837 -0.12684145835808061 0 0.43997948700716449 -0.11667022291188429 0 0.42912522472757553 -0.12172208172720771 0 0.42548633844653933 -0.11053404694232701 0 0.42548633844653933 -0.11053404694232701 0 0.42481958232288158 -0.093536125786139554 0 0.42994157728853899 -0.092255933809013507 0 0.44121913722016071 -0.1048019576561821 0 0.42548633844653933 -0.11053404694232701 0 0.43454496981679108 -0.099059061977371479 0 0.42548633844653933 -0.11053404694232701 0 0.42994157728853899 -0.092255933809013507 0 0.42548633844653933 -0.11053404694232701 0 0.43454496981679108 -0.099059061977371479 0 0.42994157728853899 -0.092255933809013507 0 0.44061833200581207 -0.094476429933904954 0 0.43454496981679108 -0.099059061977371479 0 0.43571830219419311 -0.091870830508836487 0 0.43454496981679108 -0.099059061977371479 0 0.42994157728853899 -0.092255933809013507 0 0.43571830219419311 -0.091870830508836487 0 0.42548633844653933 -0.11053404694232701 0 0.42481958232288158 -0.093536125786139554 0 0.40511229408522648 -0.1053415298793962 0 0.40943364319528891 -0.094980487482179465 0 0.42481958232288158 -0.093536125786139554 0 0.40511229408522648 -0.1053415298793962 0 0.42481958232288158 -0.093536125786139554 0 0.40511229408522648 -0.1053415298793962 0 0.40943364319528891 -0.094980487482179465 0 0.41356083507037728 -0.087790620982310358 0 0.40766617918559561 -0.085637579877886894 0 0.40766617918559561 -0.085637579877886894 0 0.41678058313762267 -0.080048856385296074 0 0.40903823762548119 -0.078033684065013903 0 0.41356083507037728 -0.087790620982310358 0 0.40766617918559561 -0.085637579877886894 0 0.41678058313762267 -0.080048856385296074 0 0.41356083507037728 -0.087790620982310358 0 0.41678058313762267 -0.080048856385296074 0 0.41992404469129491 -0.088459850230738546 0 0.41678058313762267 -0.080048856385296074 0 0.41992404469129491 -0.088459850230738546 0 0.42481955610055899 -0.080843617891804137 0 0.40943364319528891 -0.094980487482179465 0 0.41992404469129491 -0.088459850230738546 0 0.42481958232288158 -0.093536125786139554 0 0.40943364319528891 -0.094980487482179465 0 0.41356083507037728 -0.087790620982310358 0 0.41992404469129491 -0.088459850230738546 0 0.42994157728853899 -0.092255933809013507 0 0.43445968902902982 -0.086121104390798925 0 0.43439681613054021 -0.073977820675700412 0 0.42599418210506029 -0.087349110140203898 0 0.42994157728853899 -0.092255933809013507 0 0.43439681613054021 -0.073977820675700412 0 0.42994157728853899 -0.092255933809013507 0 0.43439681613054021 -0.073977820675700412 0 0.41992404469129491 -0.088459850230738546 0 0.42481958232288158 -0.093536125786139554 0 0.42599418210506029 -0.087349110140203898 0 0.42481958232288158 -0.093536125786139554 0 0.42599418210506029 -0.087349110140203898 0 0.42994157728853899 -0.092255933809013507 0 0.42994157728853899 -0.092255933809013507 0 0.43445968902902982 -0.086121104390798925 0 0.43571830219419311 -0.091870830508836487 0 0.43974394426537777 -0.088471794631083817 0 0.43445968902902982 -0.086121104390798925 0 0.43571830219419311 -0.091870830508836487 0 0.43445968902902982 -0.086121104390798925 0 0.43439681613054021 -0.073977820675700412 0 0.4355618555969204 -0.076686526470825578 0 0.44146670284534079 -0.082014820254233275 0 0.43445968902902982 -0.086121104390798925 0 0.4355618555969204 -0.076686526470825578 0 0.41678058313762267 -0.080048856385296074 0 0.42481955610055899 -0.080843617891804137 0 0.42570342700748448 -0.073553751740967482 0 0.42599418210506029 -0.087349110140203898 0 0.42481955610055899 -0.080843617891804137 0 0.43439681613054021 -0.073977820675700412 0 0.41992404469129491 -0.088459850230738546 0 0.42599418210506029 -0.087349110140203898 0 0.42481955610055899 -0.080843617891804137 0 0.43925523665596378 -0.054045609819619728 0 0.43439681613054021 -0.073977820675700412 0 0.42481955610055899 -0.080843617891804137 0 0.42570342700748448 -0.073553751740967482 0 0.43439681613054021 -0.073977820675700412 0 0.42570342700748448 -0.073553751740967482 0 0.43439681613054021 -0.073977820675700412 0 0.42361337808737032 -0.066251736562987162 0 0.44210729916508429 -0.072266370496407495 0 0.43439681613054021 -0.073977820675700412 0 0.4355618555969204 -0.076686526470825578 0 0.43439681613054021 -0.073977820675700412 0 0.4355618555969204 -0.076686526470825578 0 0.43439681613054021 -0.073977820675700412 0 0.4278319861873644 -0.058714652839524172 0 0.43439681613054021 -0.073977820675700412 0 0.42361337808737032 -0.066251736562987162 0 0.4278319861873644 -0.058714652839524172 0 0.42570342700748448 -0.073553751740967482 0 0.42361337808737032 -0.066251736562987162 0 0.41889992970758327 -0.070612636807997869 0 0.42361337808737032 -0.066251736562987162 0 0.41553672865288321 -0.066300987817901419 0 0.41889992970758327 -0.070612636807997869 0 0.42361337808737032 -0.066251736562987162 0 0.41553672865288321 -0.066300987817901419 0 0.41646999939498008 -0.057283588079377813 0 0.41553672865288321 -0.066300987817901419 0 0.41889992970758327 -0.070612636807997869 0 0.41163529897341128 -0.071714949389415583 0 0.41678058313762267 -0.080048856385296074 0 0.42570342700748448 -0.073553751740967482 0 0.41889992970758327 -0.070612636807997869 0 0.41678058313762267 -0.080048856385296074 0 0.41889992970758327 -0.070612636807997869 0 0.41163529897341128 -0.071714949389415583 0 0.41678058313762267 -0.080048856385296074 0 0.41163529897341128 -0.071714949389415583 0 0.40903823762548119 -0.078033684065013903 0 0.41163529897341128 -0.071714949389415583 0 0.40903823762548119 -0.078033684065013903 0 0.40347289084363208 -0.072833443866614805 0 0.41163529897341128 -0.071714949389415583 0 0.40706503710107078 -0.065642028249728646 0 0.40347289084363208 -0.072833443866614805 0 0.41553672865288321 -0.066300987817901419 0 0.40706503710107078 -0.065642028249728646 0 0.41646999939498008 -0.057283588079377813 0 0.41553672865288321 -0.066300987817901419 0 0.41163529897341128 -0.071714949389415583 0 0.40706503710107078 -0.065642028249728646 0 0.40706503710107078 -0.065642028249728646 0 0.40347289084363208 -0.072833443866614805 0 0.39314849195892981 -0.063116939983927561 0 0.40903823762548119 -0.078033684065013903 0 0.40347289084363208 -0.072833443866614805 0 0.40202184754039028 -0.081092315091323475 0 0.40347289084363208 -0.072833443866614805 0 0.39610913971221162 -0.075599937336430945 0 0.40202184754039028 -0.081092315091323475 0 0.40347289084363208 -0.072833443866614805 0 0.39610913971221162 -0.075599937336430945 0 0.39314849195892981 -0.063116939983927561 0 0.39610913971221162 -0.075599937336430945 0 0.39314849195892981 -0.063116939983927561 0 0.39026960148547069 -0.07241034429206096 0 0.39610913971221162 -0.075599937336430945 0 0.39026960148547069 -0.07241034429206096 0 0.38872229282110771 -0.078451197032745626 0 0.39314849195892981 -0.063116939983927561 0 0.38309848144963399 -0.072473302815139723 0 0.39026960148547069 -0.07241034429206096 0 0.39314849195892981 -0.063116939983927561 0 0.38309848144963399 -0.072473302815139723 0 0.36982698452287949 -0.068950291888477316 0 0.39314849195892981 -0.063116939983927561 0 0.37525597459568683 -0.062257707199369197 0 0.36982698452287949 -0.068950291888477316 0 0.39314849195892981 -0.063116939983927561 0 0.36982698452287949 -0.068950291888477316 0 0.38309848144963399 -0.072473302815139723 0 0.38040095710323812 -0.082008123102353392 0 0.37360586085839248 -0.077405937215291834 0 0.38309848144963399 -0.072473302815139723 0 0.36982698452287949 -0.068950291888477316 0 0.37360586085839248 -0.077405937215291834 0 0.38309848144963399 -0.072473302815139723 0 0.38872229282110771 -0.078451197032745626 0 0.38040095710323812 -0.082008123102353392 0 0.38309848144963399 -0.072473302815139723 0 0.39026960148547069 -0.07241034429206096 0 0.38872229282110771 -0.078451197032745626 0 0.38872229282110771 -0.078451197032745626 0 0.3871880404425036 -0.086058030519195028 0 0.39504238629003369 -0.084225604574566376 0 0.38872229282110771 -0.078451197032745626 0 0.38040095710323812 -0.082008123102353392 0 0.3871880404425036 -0.086058030519195028 0 0.38040095710323812 -0.082008123102353392 0 0.37360586085839248 -0.077405937215291834 0 0.37121770666521298 -0.085009089953919342 0 0.38040095710323812 -0.082008123102353392 0 0.38041786121873777 -0.092464909966904957 0 0.3871880404425036 -0.086058030519195028 0 0.38040095710323812 -0.082008123102353392 0 0.38041786121873777 -0.092464909966904957 0 0.37121770666521298 -0.085009089953919342 0 0.38041786121873777 -0.092464909966904957 0 0.3871880404425036 -0.086058030519195028 0 0.39246493607324129 -0.09330917301465419 0 0.3871880404425036 -0.086058030519195028 0 0.39246493607324129 -0.09330917301465419 0 0.39504238629003369 -0.084225604574566376 0 0.39246493607324129 -0.09330917301465419 0 0.39504238629003369 -0.084225604574566376 0 0.40062095345639842 -0.090147028968993917 0 0.39610913971221162 -0.075599937336430945 0 0.39504238629003369 -0.084225604574566376 0 0.40202184754039028 -0.081092315091323475 0 0.39610913971221162 -0.075599937336430945 0 0.38872229282110771 -0.078451197032745626 0 0.39504238629003369 -0.084225604574566376 0 0.39504238629003369 -0.084225604574566376 0 0.40202184754039028 -0.081092315091323475 0 0.40062095345639842 -0.090147028968993917 0 0.40766617918559561 -0.085637579877886894 0 0.40202184754039028 -0.081092315091323475 0 0.40062095345639842 -0.090147028968993917 0 0.40766617918559561 -0.085637579877886894 0 0.40903823762548119 -0.078033684065013903 0 0.40202184754039028 -0.081092315091323475 0 0.40943364319528891 -0.094980487482179465 0 0.40766617918559561 -0.085637579877886894 0 0.40062095345639842 -0.090147028968993917 0 0.40511229408522648 -0.1053415298793962 0 0.39468205433749681 -0.1010868081712685 0 0.38540500584757209 -0.11714693397265361 0 0.40943364319528891 -0.094980487482179465 0 0.40511229408522648 -0.1053415298793962 0 0.39468205433749681 -0.1010868081712685 0 0.40943364319528891 -0.094980487482179465 0 0.40062095345639842 -0.090147028968993917 0 0.39468205433749681 -0.1010868081712685 0 0.39246493607324129 -0.09330917301465419 0 0.40062095345639842 -0.090147028968993917 0 0.39468205433749681 -0.1010868081712685 0 0.39246493607324129 -0.09330917301465419 0 0.39468205433749681 -0.1010868081712685 0 0.38588339229753588 -0.099835899536929118 0 0.38041786121873777 -0.092464909966904957 0 0.39246493607324129 -0.09330917301465419 0 0.38588339229753588 -0.099835899536929118 0 0.39468205433749681 -0.1010868081712685 0 0.38385415540721518 -0.1068466043440737 0 0.38540500584757209 -0.11714693397265361 0 0.38041786121873777 -0.092464909966904957 0 0.37836528184812279 -0.1017637481413851 0 0.36837762211954389 -0.098706506563892349 0 0.38041786121873777 -0.092464909966904957 0 0.38588339229753588 -0.099835899536929118 0 0.37836528184812279 -0.1017637481413851 0 0.37836528184812279 -0.1017637481413851 0 0.38385415540721518 -0.1068466043440737 0 0.37458622619568449 -0.11011379435659439 0 0.38588339229753588 -0.099835899536929118 0 0.37836528184812279 -0.1017637481413851 0 0.38385415540721518 -0.1068466043440737 0 0.39468205433749681 -0.1010868081712685 0 0.38588339229753588 -0.099835899536929118 0 0.38385415540721518 -0.1068466043440737 0 0.38540500584757209 -0.11714693397265361 0 0.37458622619568449 -0.11011379435659439 0 0.38385415540721518 -0.1068466043440737 0 0.38540500584757209 -0.11714693397265361 0 0.37458622619568449 -0.11011379435659439 0 0.38540500584757209 -0.11714693397265361 0 0.37601545269162467 -0.12277162814286439 0 0.37458622619568449 -0.11011379435659439 0 0.38540500584757209 -0.11714693397265361 0 0.37601545269162467 -0.12277162814286439 0 0.38540500584757209 -0.11714693397265361 0 0.37788608158503262 -0.12375729048906151 0 0.37601545269162467 -0.12277162814286439 0 0.37788608158503262 -0.12375729048906151 0 0.37962880765709678 -0.12467555892542689 0 0.37788608158503262 -0.12375729048906151 0 0.37601545269162467 -0.12277162814286439 0 0.38540500584757209 -0.11714693397265361 0 0.37788608158503262 -0.12375729048906151 0 0.37962880765709678 -0.12467555892542689 0 0.38540500584757209 -0.11714693397265361 0 0.37962880765709678 -0.12467555892542689 0 0.39271352896229411 -0.12189810416994409 0 0.37962880765709678 -0.12467555892542689 0 0.39271352896229411 -0.12189810416994409 0 0.38540500584757209 -0.11714693397265361 0 0.39271352896229411 -0.12189810416994409 0 0.40511229408522648 -0.1053415298793962 0 0.38540500584757209 -0.11714693397265361 0 0.40511229408522648 -0.1053415298793962 0 0.39271352896229411 -0.12189810416994409 0 0.4028472676980227 -0.1197470456807424 0 0.39271352896229411 -0.12189810416994409 0 0.4028472676980227 -0.1197470456807424 0 0.40965048580231223 -0.12512333462626021 0 0.40511229408522648 -0.1053415298793962 0 0.38540500584757209 -0.11714693397265361 0 0.39271352896229411 -0.12189810416994409 0 0.39271352896229411 -0.12189810416994409 0 0.4028472676980227 -0.1197470456807424 0 0.40938941871639878 -0.015835857032806631 0 0.42126715624418692 -0.043451485003348743 0 0.40938941871639878 -0.015835857032806631 0 0.42332439188364102 -0.025785016851933091 0 0.42126715624418692 -0.043451485003348743 0 0.40938941871639878 -0.015835857032806631 0 0.41720715697657779 -0.0085840230894039613 0 0.42332439188364102 -0.025785016851933091 0 0.39751168118861041 0.011779770937735299 0 0.40938941871639878 -0.015835857032806631 0 0.41720715697657779 -0.0085840230894039613 0 0.42652348920148309 0.001950933873237103 0 0.41720715697657779 -0.0085840230894039613 0 0.43416281859082551 -0.010960681616187171 0 0.42652348920148309 0.001950933873237103 0 0.43845248758782529 0.00074013978569972935 0 0.43416281859082551 -0.010960681616187171 0 0.41720715697657779 -0.0085840230894039613 0 0.43690263276454422 -0.028947817116544022 0 0.41720715697657779 -0.0085840230894039613 0 0.43416281859082551 -0.010960681616187171 0 0.43690263276454422 -0.028947817116544022 0 0.41720715697657779 -0.0085840230894039613 0 0.42332439188364102 -0.025785016851933091 0 0.43690263276454422 -0.028947817116544022 0 0.42332439188364102 -0.025785016851933091 0 0.43690263276454422 -0.028947817116544022 0 0.43185559471649698 -0.032105902017561749 0 0.43690263276454422 -0.028947817116544022 0 0.43185559471649698 -0.032105902017561749 0 0.44411365718139051 -0.034113398963539807 0 0.43232857921636059 -0.047868068454773899 0 0.42126715624418692 -0.043451485003348743 0 0.44411365718139051 -0.034113398963539807 0 0.42126715624418692 -0.043451485003348743 0 0.44107068435664321 -0.033257301438206703 0 0.43690263276454422 -0.028947817116544022 0 0.43185559471649698 -0.032105902017561749 0 0.42332439188364102 -0.025785016851933091 0 0.43185559471649698 -0.032105902017561749 0 0.42126715624418692 -0.043451485003348743 0 0.44107068435664321 -0.033257301438206703 0 0.43185559471649698 -0.032105902017561749 0 0.42126715624418692 -0.043451485003348743 0 0.44411365718139051 -0.034113398963539807 0 0.44107068435664321 -0.033257301438206703 0 0.42126715624418692 -0.043451485003348743 0 0.43925523665596378 -0.054045609819619728 0 0.43439681613054021 -0.073977820675700412 0 0.4278319861873644 -0.058714652839524172 0 0.43925523665596378 -0.054045609819619728 0 0.43232857921636059 -0.047868068454773899 0 0.4278319861873644 -0.058714652839524172 0 0.4278319861873644 -0.058714652839524172 0 0.42126715624418692 -0.043451485003348743 0 0.43232857921636059 -0.047868068454773899 0 0.4278319861873644 -0.058714652839524172 0 0.42126715624418692 -0.043451485003348743 0 0.42361337808737032 -0.066251736562987162 0 0.4278319861873644 -0.058714652839524172 0 0.41646999939498008 -0.057283588079377813 0 0.42126715624418692 -0.043451485003348743 0 0.39826156541993629 -0.052854596101357662 0 0.41646999939498008 -0.057283588079377813 0 0.42126715624418692 -0.043451485003348743 0 0.39826156541993629 -0.052854596101357662 0 0.4278319861873644 -0.058714652839524172 0 0.41646999939498008 -0.057283588079377813 0 0.42126715624418692 -0.043451485003348743 0 0.42126715624418692 -0.043451485003348743 0 0.40600035513601102 -0.039881414414783573 0 0.39826156541993629 -0.052854596101357662 0 0.40938941871639878 -0.015835857032806631 0 0.42126715624418692 -0.043451485003348743 0 0.40600035513601102 -0.039881414414783573 0 0.40600035513601102 -0.039881414414783573 0 0.39231364932131541 -0.041096477234790298 0 0.39742096557755158 -0.03045722195627884 0 0.40600035513601102 -0.039881414414783573 0 0.39231364932131541 -0.041096477234790298 0 0.39826156541993629 -0.052854596101357662 0 0.39231364932131541 -0.041096477234790298 0 0.38675172408539271 -0.031652263559150379 0 0.39742096557755158 -0.03045722195627884 0 0.39314849195892981 -0.063116939983927561 0 0.41646999939498008 -0.057283588079377813 0 0.39826156541993629 -0.052854596101357662 0 0.39314849195892981 -0.063116939983927561 0 0.41646999939498008 -0.057283588079377813 0 0.40706503710107078 -0.065642028249728646 0 0.39314849195892981 -0.063116939983927561 0 0.41646999939498008 -0.057283588079377813 0 0.39231364932131541 -0.041096477234790298 0 0.39826156541993629 -0.052854596101357662 0 0.38525137845949531 -0.05023387332444218 0 0.39826156541993629 -0.052854596101357662 0 0.38525137845949531 -0.05023387332444218 0 0.37525597459568683 -0.062257707199369197 0 0.39826156541993629 -0.052854596101357662 0 0.37525597459568683 -0.062257707199369197 0 0.39314849195892981 -0.063116939983927561 0 0.39826156541993629 -0.052854596101357662 0 0.37525597459568683 -0.062257707199369197 0 0.38525137845949531 -0.05023387332444218 0 0.37645896778954818 -0.05179105786422105 0 0.38019590724950592 -0.041499494052729229 0 0.38525137845949531 -0.05023387332444218 0 0.37645896778954818 -0.05179105786422105 0 0.37525597459568683 -0.062257707199369197 0 0.39231364932131541 -0.041096477234790298 0 0.38675172408539271 -0.031652263559150379 0 0.38019590724950592 -0.041499494052729229 0 0.39231364932131541 -0.041096477234790298 0 0.38525137845949531 -0.05023387332444218 0 0.38019590724950592 -0.041499494052729229 0 0.38675172408539271 -0.031652263559150379 0 0.38019590724950592 -0.041499494052729229 0 0.37565957157396401 -0.026723125410510761 0 0.37565957157396401 -0.026723125410510761 0 0.3875198054771164 -0.019407222114416312 0 0.37332744724417283 -0.01370064655999504 0 0.38675172408539271 -0.031652263559150379 0 0.37565957157396401 -0.026723125410510761 0 0.3875198054771164 -0.019407222114416312 0 0.38675172408539271 -0.031652263559150379 0 0.3875198054771164 -0.019407222114416312 0 0.39742096557755158 -0.03045722195627884 0 0.40938941871639878 -0.015835857032806631 0 0.3875198054771164 -0.019407222114416312 0 0.39742096557755158 -0.03045722195627884 0 0.40938941871639878 -0.015835857032806631 0 0.40600035513601102 -0.039881414414783573 0 0.39742096557755158 -0.03045722195627884 0 0.39751168118861041 0.011779770937735299 0 0.38222171901499219 0.0014491754458128259 0 0.40938941871639878 -0.015835857032806631 0 0.39751168118861041 0.011779770937735299 0 0.40938941871639878 -0.015835857032806631 0 0.38222171901499219 0.0014491754458128259 0 0.40938941871639878 -0.015835857032806631 0 0.3875198054771164 -0.019407222114416312 0 0.38222171901499219 0.0014491754458128259 0 0.3875198054771164 -0.019407222114416312 0 0.37332744724417283 -0.01370064655999504 0 0.38222171901499219 0.0014491754458128259 0 0.37332744724417283 -0.01370064655999504 0 0.36566695631497897 -0.00042693242977795128 0 0.37332744724417283 -0.01370064655999504 0 0.36095829454402018 -0.01549919928559202 0 0.36566695631497897 -0.00042693242977795128 0 0.37565957157396401 -0.026723125410510761 0 0.36816633933692627 -0.021294769315705741 0 0.36272004398554802 -0.02925610600672517 0 0.37332744724417283 -0.01370064655999504 0 0.36095829454402018 -0.01549919928559202 0 0.36816633933692627 -0.021294769315705741 0 0.37565957157396401 -0.026723125410510761 0 0.37332744724417283 -0.01370064655999504 0 0.36816633933692627 -0.021294769315705741 0 0.36095829454402018 -0.01549919928559202 0 0.36816633933692627 -0.021294769315705741 0 0.36272004398554802 -0.02925610600672517 0 0.36272004398554802 -0.02925610600672517 0 0.35332050314420099 -0.027075916702958079 0 0.34244921357994551 -0.035775910783255607 0 0.36095829454402018 -0.01549919928559202 0 0.36272004398554802 -0.02925610600672517 0 0.35332050314420099 -0.027075916702958079 0 0.36095829454402018 -0.01549919928559202 0 0.35332050314420099 -0.027075916702958079 0 0.34773605435554672 -0.01508365916224933 0 0.35332050314420099 -0.027075916702958079 0 0.34773605435554672 -0.01508365916224933 0 0.34369777667125412 -0.022295566667383311 0 0.35332050314420099 -0.027075916702958079 0 0.34369777667125412 -0.022295566667383311 0 0.33770954974202883 -0.026766974357566631 0 0.36095829454402018 -0.01549919928559202 0 0.36566695631497897 -0.00042693242977795128 0 0.35094613059855462 -0.00077100707376717595 0 0.36095829454402018 -0.01549919928559202 0 0.34773605435554672 -0.01508365916224933 0 0.35094613059855462 -0.00077100707376717595 0 0.34773605435554672 -0.01508365916224933 0 0.35094613059855462 -0.00077100707376717595 0 0.33541930002977283 -0.0056050156887093791 0 0.32339846795248017 0.0072697835914626481 0 0.33541930002977283 -0.0056050156887093791 0 0.32681618517459848 -0.01293614683340857 0 0.33541930002977283 -0.0056050156887093791 0 0.33602499944323971 -0.020255716446759189 0 0.32681618517459848 -0.01293614683340857 0 0.34773605435554672 -0.01508365916224933 0 0.33541930002977283 -0.0056050156887093791 0 0.33602499944323971 -0.020255716446759189 0 0.35332050314420099 -0.027075916702958079 0 0.33770954974202883 -0.026766974357566631 0 0.32792163921857381 -0.037142938787869867 0 0.34773605435554672 -0.01508365916224933 0 0.34369777667125412 -0.022295566667383311 0 0.33602499944323971 -0.020255716446759189 0 0.34369777667125412 -0.022295566667383311 0 0.33602499944323971 -0.020255716446759189 0 0.33770954974202883 -0.026766974357566631 0 0.33602499944323971 -0.020255716446759189 0 0.33770954974202883 -0.026766974357566631 0 0.3258116387750094 -0.02592453674186055 0 0.33770954974202883 -0.026766974357566631 0 0.3258116387750094 -0.02592453674186055 0 0.32792163921857381 -0.037142938787869867 0 0.33602499944323971 -0.020255716446759189 0 0.3258116387750094 -0.02592453674186055 0 0.32681618517459848 -0.01293614683340857 0 0.3258116387750094 -0.02592453674186055 0 0.31296062162271232 -0.019970088640658711 0 0.32681618517459848 -0.01293614683340857 0 0.3258116387750094 -0.02592453674186055 0 0.31296062162271232 -0.019970088640658711 0 0.31659078553754427 -0.032819827410656983 0 0.32339846795248017 0.0072697835914626481 0 0.31004690263439783 0.001501081606903704 0 0.31296062162271232 -0.019970088640658711 0 0.32339846795248017 0.0072697835914626481 0 0.31296062162271232 -0.019970088640658711 0 0.32339846795248017 0.0072697835914626481 0 0.31296062162271232 -0.019970088640658711 0 0.32681618517459848 -0.01293614683340857 0 0.31428358120832223 -0.052933565695082722 0 0.32217838317434311 -0.042295715559786062 0 0.30190755276874037 -0.048815520336315553 0 0.32486158974362139 -0.053549281471904367 0 0.32217838317434311 -0.042295715559786062 0 0.33513722585270861 -0.046703379792506217 0 0.32486158974362139 -0.053549281471904367 0 0.31428358120832223 -0.052933565695082722 0 0.32217838317434311 -0.042295715559786062 0 0.32486158974362139 -0.053549281471904367 0 0.31680287667432011 -0.061923528628798942 0 0.32804944136516617 -0.066654734209304831 0 0.32486158974362139 -0.053549281471904367 0 0.31680287667432011 -0.061923528628798942 0 0.31428358120832223 -0.052933565695082722 0 0.32792163921857381 -0.037142938787869867 0 0.32217838317434311 -0.042295715559786062 0 0.30252277529294602 -0.047209960872780628 0 0.32792163921857381 -0.037142938787869867 0 0.30252277529294602 -0.047209960872780628 0 0.31659078553754427 -0.032819827410656983 0 0.32792163921857381 -0.037142938787869867 0 0.30252277529294602 -0.047209960872780628 0 0.3258116387750094 -0.02592453674186055 0 0.31659078553754427 -0.032819827410656983 0 0.32792163921857381 -0.037142938787869867 0 0.35332050314420099 -0.027075916702958079 0 0.32792163921857381 -0.037142938787869867 0 0.33513722585270861 -0.046703379792506217 0 0.34244921357994551 -0.035775910783255607 0 0.35166089905299741 -0.049764977780800662 0 0.32217838317434311 -0.042295715559786062 0 0.34244921357994551 -0.035775910783255607 0 0.35332050314420099 -0.027075916702958079 0 0.32792163921857381 -0.037142938787869867 0 0.34244921357994551 -0.035775910783255607 0 0.32217838317434311 -0.042295715559786062 0 0.33513722585270861 -0.046703379792506217 0 0.34244921357994551 -0.035775910783255607 0 0.32792163921857381 -0.037142938787869867 0 0.32217838317434311 -0.042295715559786062 0 0.34244921357994551 -0.035775910783255607 0 0.33513722585270861 -0.046703379792506217 0 0.33702279095422533 -0.05764100465449238 0 0.35166089905299741 -0.049764977780800662 0 0.32486158974362139 -0.053549281471904367 0 0.33513722585270861 -0.046703379792506217 0 0.33702279095422533 -0.05764100465449238 0 0.32486158974362139 -0.053549281471904367 0 0.33702279095422533 -0.05764100465449238 0 0.32804944136516617 -0.066654734209304831 0 0.33702279095422533 -0.05764100465449238 0 0.35166089905299741 -0.049764977780800662 0 0.34650547708682899 -0.0747836437930266 0 0.35166089905299741 -0.049764977780800662 0 0.36006458300191729 -0.060693321455920768 0 0.34650547708682899 -0.0747836437930266 0 0.35166089905299741 -0.049764977780800662 0 0.34650547708682899 -0.0747836437930266 0 0.36272004398554802 -0.02925610600672517 0 0.34244921357994551 -0.035775910783255607 0 0.3585569207804129 -0.040515544001440078 0 0.34244921357994551 -0.035775910783255607 0 0.35166089905299741 -0.049764977780800662 0 0.3585569207804129 -0.040515544001440078 0 0.36272004398554802 -0.02925610600672517 0 0.34244921357994551 -0.035775910783255607 0 0.35166089905299741 -0.049764977780800662 0 0.3585569207804129 -0.040515544001440078 0 0.36693209196008758 -0.04990416942932227 0 0.36272004398554802 -0.02925610600672517 0 0.3585569207804129 -0.040515544001440078 0 0.36902235532348621 -0.037876556007096759 0 0.3585569207804129 -0.040515544001440078 0 0.36902235532348621 -0.037876556007096759 0 0.36693209196008758 -0.04990416942932227 0 0.38019590724950592 -0.041499494052729229 0 0.36902235532348621 -0.037876556007096759 0 0.36693209196008758 -0.04990416942932227 0 0.38019590724950592 -0.041499494052729229 0 0.37565957157396401 -0.026723125410510761 0 0.36902235532348621 -0.037876556007096759 0 0.37565957157396401 -0.026723125410510761 0 0.36272004398554802 -0.02925610600672517 0 0.36902235532348621 -0.037876556007096759 0 0.36006458300191729 -0.060693321455920768 0 0.36693209196008758 -0.04990416942932227 0 0.36778912621289173 -0.0609726203880048 0 0.35166089905299741 -0.049764977780800662 0 0.36006458300191729 -0.060693321455920768 0 0.36693209196008758 -0.04990416942932227 0 0.37645896778954818 -0.05179105786422105 0 0.38019590724950592 -0.041499494052729229 0 0.36693209196008758 -0.04990416942932227 0 0.37645896778954818 -0.05179105786422105 0 0.36693209196008758 -0.04990416942932227 0 0.37192818276488249 -0.056134435645726552 0 0.36693209196008758 -0.04990416942932227 0 0.37192818276488249 -0.056134435645726552 0 0.36778912621289173 -0.0609726203880048 0 0.37645896778954818 -0.05179105786422105 0 0.37525597459568683 -0.062257707199369197 0 0.37192818276488249 -0.056134435645726552 0 0.37525597459568683 -0.062257707199369197 0 0.37192818276488249 -0.056134435645726552 0 0.36778912621289173 -0.0609726203880048 0 0.37525597459568683 -0.062257707199369197 0 0.36778912621289173 -0.0609726203880048 0 0.36982698452287949 -0.068950291888477316 0 0.36982698452287949 -0.068950291888477316 0 0.36381165857018011 -0.07845059234982879 0 0.34650547708682899 -0.0747836437930266 0 0.36006458300191729 -0.060693321455920768 0 0.36778912621289173 -0.0609726203880048 0 0.36982698452287949 -0.068950291888477316 0 0.36982698452287949 -0.068950291888477316 0 0.37360586085839248 -0.077405937215291834 0 0.36381165857018011 -0.07845059234982879 0 0.37360586085839248 -0.077405937215291834 0 0.37121770666521298 -0.085009089953919342 0 0.36381165857018011 -0.07845059234982879 0 0.38041786121873777 -0.092464909966904957 0 0.37121770666521298 -0.085009089953919342 0 0.36837762211954389 -0.098706506563892349 0 0.37121770666521298 -0.085009089953919342 0 0.35639925227325348 -0.087698024605367977 0 0.36837762211954389 -0.098706506563892349 0 0.37121770666521298 -0.085009089953919342 0 0.36381165857018011 -0.07845059234982879 0 0.35639925227325348 -0.087698024605367977 0 0.35639925227325348 -0.087698024605367977 0 0.34650547708682899 -0.0747836437930266 0 0.34047574705961298 -0.1040452256159588 0 0.36381165857018011 -0.07845059234982879 0 0.35639925227325348 -0.087698024605367977 0 0.34650547708682899 -0.0747836437930266 0 0.36006458300191729 -0.060693321455920768 0 0.36982698452287949 -0.068950291888477316 0 0.34650547708682899 -0.0747836437930266 0 0.36982698452287949 -0.068950291888477316 0 0.34650547708682899 -0.0747836437930266 0 0.37601545269162467 -0.12277162814286439 0 0.36837762211954389 -0.098706506563892349 0 0.37601545269162467 -0.12277162814286439 0 0.35824559987561932 -0.1134084268794108 0 0.37601545269162467 -0.12277162814286439 0 0.36837762211954389 -0.098706506563892349 0 0.35824559987561932 -0.1134084268794108 0 0.37601545269162467 -0.12277162814286439 0 0.37458622619568449 -0.11011379435659439 0 0.36837762211954389 -0.098706506563892349 0 0.35824559987561932 -0.1134084268794108 0 0.3516744889909787 -0.13060933875188899 0 0.36910973681821402 -0.12690841071060091 0 0.37601545269162467 -0.12277162814286439 0 0.35824559987561932 -0.1134084268794108 0 0.36910973681821402 -0.12690841071060091 0 0.37788608158503262 -0.12375729048906151 0 0.37601545269162467 -0.12277162814286439 0 0.36910973681821402 -0.12690841071060091 0 0.37601545269162467 -0.12277162814286439 0 0.36910973681821402 -0.12690841071060091 0 0.36837762211954389 -0.098706506563892349 0 0.35587455533200762 -0.1009645459161575 0 0.35824559987561932 -0.1134084268794108 0 0.37836528184812279 -0.1017637481413851 0 0.37458622619568449 -0.11011379435659439 0 0.36837762211954389 -0.098706506563892349 0 0.35639925227325348 -0.087698024605367977 0 0.36837762211954389 -0.098706506563892349 0 0.35587455533200762 -0.1009645459161575 0 0.35639925227325348 -0.087698024605367977 0 0.35587455533200762 -0.1009645459161575 0 0.34047574705961298 -0.1040452256159588 0 0.35587455533200762 -0.1009645459161575 0 0.35824559987561932 -0.1134084268794108 0 0.34047574705961298 -0.1040452256159588 0 0.35824559987561932 -0.1134084268794108 0 0.34047574705961298 -0.1040452256159588 0 0.35824559987561932 -0.1134084268794108 0 0.33735749411167892 -0.1191777462045686 0 0.34047574705961298 -0.1040452256159588 0 0.35824559987561932 -0.1134084268794108 0 0.33735749411167892 -0.1191777462045686 0 0.3516744889909787 -0.13060933875188899 0 0.33735749411167892 -0.1191777462045686 0 0.34047574705961298 -0.1040452256159588 0 0.32208520078501007 -0.1098581052987207 0 0.33735749411167892 -0.1191777462045686 0 0.32208520078501007 -0.1098581052987207 0 0.32817055652757582 -0.12539038386343851 0 0.33735749411167892 -0.1191777462045686 0 0.34047574705961298 -0.1040452256159588 0 0.34047574705961298 -0.1040452256159588 0 0.31562716276897501 -0.09095213484958968 0 0.32208520078501007 -0.1098581052987207 0 0.31562716276897501 -0.09095213484958968 0 0.30885179150712572 -0.10081310040023241 0 0.34047574705961298 -0.1040452256159588 0 0.32208520078501007 -0.1098581052987207 0 0.31562716276897501 -0.09095213484958968 0 0.32208520078501007 -0.1098581052987207 0 0.30448057350555902 -0.1119502791502406 0 0.31808811599580672 -0.12753773816783759 0 0.32208520078501007 -0.1098581052987207 0 0.31808811599580672 -0.12753773816783759 0 0.32817055652757582 -0.12539038386343851 0 0.33702279095422533 -0.05764100465449238 0 0.34650547708682899 -0.0747836437930266 0 0.32804944136516617 -0.066654734209304831 0 0.34650547708682899 -0.0747836437930266 0 0.32817576521289971 -0.079368410020631761 0 0.32804944136516617 -0.066654734209304831 0 0.34650547708682899 -0.0747836437930266 0 0.32817576521289971 -0.079368410020631761 0 0.34650547708682899 -0.0747836437930266 0 0.34047574705961298 -0.1040452256159588 0 0.34650547708682899 -0.0747836437930266 0 0.34047574705961298 -0.1040452256159588 0 0.32817576521289971 -0.079368410020631761 0 0.34047574705961298 -0.1040452256159588 0 0.32817576521289971 -0.079368410020631761 0 0.31562716276897501 -0.09095213484958968 0 0.32817576521289971 -0.079368410020631761 0 0.3098460533389702 -0.083953176248236422 0 0.32817576521289971 -0.079368410020631761 0 0.31492814851910228 -0.072662536686974977 0 0.3098460533389702 -0.083953176248236422 0 0.32817576521289971 -0.079368410020631761 0 0.31562716276897501 -0.09095213484958968 0 0.3098460533389702 -0.083953176248236422 0 0.32817576521289971 -0.079368410020631761 0 0.31492814851910228 -0.072662536686974977 0 0.32804944136516617 -0.066654734209304831 0 0.31680287667432011 -0.061923528628798942 0 0.31492814851910228 -0.072662536686974977 0 0.30765958363677992 -0.066664805255783791 0 0.31680287667432011 -0.061923528628798942 0 0.31492814851910228 -0.072662536686974977 0 0.32804944136516617 -0.066654734209304831 0 0.30765958363677992 -0.066664805255783791 0 0.30315071047661551 -0.073566005581180663 0 0.29634306562353752 -0.063337282209766532 0 0.30765958363677992 -0.066664805255783791 0 0.29634306562353752 -0.063337282209766532 0 0.30634063024301661 -0.058841187086479813 0 0.31492814851910228 -0.072662536686974977 0 0.30765958363677992 -0.066664805255783791 0 0.30315071047661551 -0.073566005581180663 0 0.31492814851910228 -0.072662536686974977 0 0.30315071047661551 -0.073566005581180663 0 0.3098460533389702 -0.083953176248236422 0 0.31562716276897501 -0.09095213484958968 0 0.29958559466605689 -0.088419929173758155 0 0.29077857847833782 -0.077859044083218809 0 0.31562716276897501 -0.09095213484958968 0 0.29958559466605689 -0.088419929173758155 0 0.30582175873530187 -0.093819267443942922 0 0.31562716276897501 -0.09095213484958968 0 0.29077857847833782 -0.077859044083218809 0 0.31562716276897501 -0.09095213484958968 0 0.3098460533389702 -0.083953176248236422 0 0.29077857847833782 -0.077859044083218809 0 0.30315071047661551 -0.073566005581180663 0 0.3098460533389702 -0.083953176248236422 0 0.29077857847833782 -0.077859044083218809 0 0.29958559466605689 -0.088419929173758155 0 0.30582175873530187 -0.093819267443942922 0 0.29828412836703289 -0.095203395141987168 0 0.29958559466605689 -0.088419929173758155 0 0.2922776761484448 -0.083938298526097743 0 0.29077857847833782 -0.077859044083218809 0 0.2922776761484448 -0.083938298526097743 0 0.2873721495581012 -0.085248316863797011 0 0.29077857847833782 -0.077859044083218809 0 0.29247220518140832 -0.089015010493222718 0 0.28529621356760893 -0.092674529986814247 0 0.29828412836703289 -0.095203395141987168 0 0.29958559466605689 -0.088419929173758155 0 0.29247220518140832 -0.089015010493222718 0 0.29828412836703289 -0.095203395141987168 0 0.29958559466605689 -0.088419929173758155 0 0.2922776761484448 -0.083938298526097743 0 0.29247220518140832 -0.089015010493222718 0 0.2922776761484448 -0.083938298526097743 0 0.29247220518140832 -0.089015010493222718 0 0.2873721495581012 -0.085248316863797011 0 0.28529621356760893 -0.092674529986814247 0 0.2873721495581012 -0.085248316863797011 0 0.28085105086443612 -0.081914901628181436 0 0.29247220518140832 -0.089015010493222718 0 0.28529621356760893 -0.092674529986814247 0 0.2873721495581012 -0.085248316863797011 0 0.2873721495581012 -0.085248316863797011 0 0.29077857847833782 -0.077859044083218809 0 0.28085105086443612 -0.081914901628181436 0 0.29077857847833782 -0.077859044083218809 0 0.27670137123776473 -0.070441553010808122 0 0.28889035492930798 -0.069953716699519719 0 0.29077857847833782 -0.077859044083218809 0 0.27670137123776473 -0.070441553010808122 0 0.29077857847833782 -0.077859044083218809 0 0.27670137123776473 -0.070441553010808122 0 0.28085105086443612 -0.081914901628181436 0 0.28889035492930798 -0.069953716699519719 0 0.29634306562353752 -0.063337282209766532 0 0.288055963407369 -0.061508302522169968 0 0.28889035492930798 -0.069953716699519719 0 0.29634306562353752 -0.063337282209766532 0 0.29077857847833782 -0.077859044083218809 0 0.29634306562353752 -0.063337282209766532 0 0.29077857847833782 -0.077859044083218809 0 0.30315071047661551 -0.073566005581180663 0 0.29634306562353752 -0.063337282209766532 0 0.29077857847833782 -0.077859044083218809 0 0.30448057350555902 -0.1119502791502406 0 0.3073630631057222 -0.13766276215077861 0 0.30448057350555902 -0.1119502791502406 0 0.29210028794962628 -0.1209529375964835 0 0.3073630631057222 -0.13766276215077861 0 0.30448057350555902 -0.1119502791502406 0 0.30885179150712572 -0.10081310040023241 0 0.29828412836703289 -0.095203395141987168 0 0.30448057350555902 -0.1119502791502406 0 0.29828412836703289 -0.095203395141987168 0 0.29180707748755391 -0.10467332638768261 0 0.32208520078501007 -0.1098581052987207 0 0.30448057350555902 -0.1119502791502406 0 0.30885179150712572 -0.10081310040023241 0 0.31562716276897501 -0.09095213484958968 0 0.30885179150712572 -0.10081310040023241 0 0.30582175873530187 -0.093819267443942922 0 0.30885179150712572 -0.10081310040023241 0 0.30582175873530187 -0.093819267443942922 0 0.29828412836703289 -0.095203395141987168 0 0.28529621356760893 -0.092674529986814247 0 0.29828412836703289 -0.095203395141987168 0 0.29180707748755391 -0.10467332638768261 0 0.28529621356760893 -0.092674529986814247 0 0.29180707748755391 -0.10467332638768261 0 0.27945817009504309 -0.1074095059569067 0 0.29210028794962628 -0.1209529375964835 0 0.27945817009504309 -0.1074095059569067 0 0.27885515625674301 -0.1273381348764058 0 0.29180707748755391 -0.10467332638768261 0 0.29210028794962628 -0.1209529375964835 0 0.27945817009504309 -0.1074095059569067 0 0.30448057350555902 -0.1119502791502406 0 0.29180707748755391 -0.10467332638768261 0 0.29210028794962628 -0.1209529375964835 0 0.27945817009504309 -0.1074095059569067 0 0.26098579452461529 -0.11288985447006671 0 0.27885515625674301 -0.1273381348764058 0 0.27945817009504309 -0.1074095059569067 0 0.26098579452461529 -0.11288985447006671 0 0.27074518855236968 -0.092744427924797507 0 0.28529621356760893 -0.092674529986814247 0 0.27945817009504309 -0.1074095059569067 0 0.27074518855236968 -0.092744427924797507 0 0.25719093844559487 -0.096764792864917598 0 0.26098579452461529 -0.11288985447006671 0 0.27074518855236968 -0.092744427924797507 0 0.25719093844559487 -0.096764792864917598 0 0.26098579452461529 -0.11288985447006671 0 0.236554828794693 -0.099794201696253138 0 0.28889035492930798 -0.069953716699519719 0 0.27670137123776473 -0.070441553010808122 0 0.26529028066043708 -0.061967327455766393 0 0.28889035492930798 -0.069953716699519719 0 0.26529028066043708 -0.061967327455766393 0 0.288055963407369 -0.061508302522169968 0 0.28889035492930798 -0.069953716699519719 0 0.26529028066043708 -0.061967327455766393 0 0.27670137123776473 -0.070441553010808122 0 0.2626241639971918 -0.063024061938397297 0 0.26529028066043708 -0.061967327455766393 0 0.27670137123776473 -0.070441553010808122 0 0.2626241639971918 -0.063024061938397297 0 0.26719185402812168 -0.076624031213728433 0 0.27670137123776473 -0.070441553010808122 0 0.2626241639971918 -0.063024061938397297 0 0.26719185402812168 -0.076624031213728433 0 0.27670137123776473 -0.070441553010808122 0 0.28085105086443612 -0.081914901628181436 0 0.26719185402812168 -0.076624031213728433 0 0.28085105086443612 -0.081914901628181436 0 0.27074518855236968 -0.092744427924797507 0 0.28529621356760893 -0.092674529986814247 0 0.28085105086443612 -0.081914901628181436 0 0.27074518855236968 -0.092744427924797507 0 0.26719185402812168 -0.076624031213728433 0 0.27074518855236968 -0.092744427924797507 0 0.25461741204489308 -0.081782834783805977 0 0.25719093844559487 -0.096764792864917598 0 0.27074518855236968 -0.092744427924797507 0 0.25461741204489308 -0.081782834783805977 0 0.2626241639971918 -0.063024061938397297 0 0.25223232535793949 -0.05754844671051218 0 0.23593340362106291 -0.073603136457492169 0 0.25461741204489308 -0.081782834783805977 0 0.2626241639971918 -0.063024061938397297 0 0.23593340362106291 -0.073603136457492169 0 0.26719185402812168 -0.076624031213728433 0 0.25461741204489308 -0.081782834783805977 0 0.2626241639971918 -0.063024061938397297 0 0.2626241639971918 -0.063024061938397297 0 0.25223232535793949 -0.05754844671051218 0 0.25814849045956662 -0.047562705682759721 0 0.26529028066043708 -0.061967327455766393 0 0.2714093256979932 -0.044723961031657537 0 0.25223232535793949 -0.05754844671051218 0 0.25814849045956662 -0.047562705682759721 0 0.24761980631944289 -0.047502434203812949 0 0.25223232535793949 -0.05754844671051218 0 0.25814849045956662 -0.047562705682759721 0 0.26529028066043708 -0.061967327455766393 0 0.2626241639971918 -0.063024061938397297 0 0.25223232535793949 -0.05754844671051218 0 0.26529028066043708 -0.061967327455766393 0 0.25223232535793949 -0.05754844671051218 0 0.26529028066043708 -0.061967327455766393 0 0.2626241639971918 -0.063024061938397297 0 0.26529028066043708 -0.061967327455766393 0 0.26529028066043708 -0.061967327455766393 0 0.28256651506287672 -0.055036271410376883 0 0.288055963407369 -0.061508302522169968 0 0.26529028066043708 -0.061967327455766393 0 0.28256651506287672 -0.055036271410376883 0 0.2714093256979932 -0.044723961031657537 0 0.28256651506287672 -0.055036271410376883 0 0.28919232337586842 -0.042665285755707827 0 0.26529028066043708 -0.061967327455766393 0 0.2714093256979932 -0.044723961031657537 0 0.28256651506287672 -0.055036271410376883 0 0.2714093256979932 -0.044723961031657537 0 0.26306237317201642 -0.032469769974069758 0 0.28111009958932298 -0.030857044454071812 0 0.2714093256979932 -0.044723961031657537 0 0.28111009958932298 -0.030857044454071812 0 0.28919232337586842 -0.042665285755707827 0 0.25814849045956662 -0.047562705682759721 0 0.2714093256979932 -0.044723961031657537 0 0.26306237317201642 -0.032469769974069758 0 0.25814849045956662 -0.047562705682759721 0 0.26306237317201642 -0.032469769974069758 0 0.25009504246611047 -0.038360360843509973 0 0.25814849045956662 -0.047562705682759721 0 0.25009504246611047 -0.038360360843509973 0 0.24761980631944289 -0.047502434203812949 0 0.26306237317201642 -0.032469769974069758 0 0.25009504246611047 -0.038360360843509973 0 0.24787362215428729 -0.026530281006512179 0 0.26306237317201642 -0.032469769974069758 0 0.25918787374255181 -0.020548354352907899 0 0.24787362215428729 -0.026530281006512179 0 0.25918787374255181 -0.020548354352907899 0 0.24787362215428729 -0.026530281006512179 0 0.24947908137975239 -0.01432068232552239 0 0.26306237317201642 -0.032469769974069758 0 0.25918787374255181 -0.020548354352907899 0 0.2736121580942828 -0.018705682447069251 0 0.25918787374255181 -0.020548354352907899 0 0.26358922855426881 -0.0044770699147358766 0 0.24947908137975239 -0.01432068232552239 0 0.26358922855426881 -0.0044770699147358766 0 0.24947908137975239 -0.01432068232552239 0 0.2436413306404871 -0.00076180485788342601 0 0.25918787374255181 -0.020548354352907899 0 0.26358922855426881 -0.0044770699147358766 0 0.2736121580942828 -0.018705682447069251 0 0.26358922855426881 -0.0044770699147358766 0 0.2736121580942828 -0.018705682447069251 0 0.28342910268136351 -0.0043799036818564768 0 0.26306237317201642 -0.032469769974069758 0 0.2736121580942828 -0.018705682447069251 0 0.28111009958932298 -0.030857044454071812 0 0.2736121580942828 -0.018705682447069251 0 0.28111009958932298 -0.030857044454071812 0 0.29310947720710873 -0.01864661208392256 0 0.28111009958932298 -0.030857044454071812 0 0.29310947720710873 -0.01864661208392256 0 0.29577905941759169 -0.031869798361428517 0 0.29051384870842328 0.0071426417814425434 0 0.28342910268136351 -0.0043799036818564768 0 0.3011288723279183 -0.0065638295255527968 0 0.2736121580942828 -0.018705682447069251 0 0.29310947720710873 -0.01864661208392256 0 0.28342910268136351 -0.0043799036818564768 0 0.29310947720710873 -0.01864661208392256 0 0.28342910268136351 -0.0043799036818564768 0 0.3011288723279183 -0.0065638295255527968 0 0.31296062162271232 -0.019970088640658711 0 0.29310947720710873 -0.01864661208392256 0 0.3011288723279183 -0.0065638295255527968 0 0.31004690263439783 0.001501081606903704 0 0.31296062162271232 -0.019970088640658711 0 0.3011288723279183 -0.0065638295255527968 0 0.31296062162271232 -0.019970088640658711 0 0.29310947720710873 -0.01864661208392256 0 0.29577905941759169 -0.031869798361428517 0 0.32217838317434311 -0.042295715559786062 0 0.30252277529294602 -0.047209960872780628 0 0.30190755276874037 -0.048815520336315553 0 0.31296062162271232 -0.019970088640658711 0 0.30252277529294602 -0.047209960872780628 0 0.29577905941759169 -0.031869798361428517 0 0.31296062162271232 -0.019970088640658711 0 0.31659078553754427 -0.032819827410656983 0 0.30252277529294602 -0.047209960872780628 0 0.31296062162271232 -0.019970088640658711 0 0.30252277529294602 -0.047209960872780628 0 0.32217838317434311 -0.042295715559786062 0 0.30190755276874037 -0.048815520336315553 0 0.31428358120832223 -0.052933565695082722 0 0.30634063024301661 -0.058841187086479813 0 0.30190755276874037 -0.048815520336315553 0 0.31680287667432011 -0.061923528628798942 0 0.31428358120832223 -0.052933565695082722 0 0.30634063024301661 -0.058841187086479813 0 0.31680287667432011 -0.061923528628798942 0 0.30765958363677992 -0.066664805255783791 0 0.30634063024301661 -0.058841187086479813 0 0.29634306562353752 -0.063337282209766532 0 0.30634063024301661 -0.058841187086479813 0 0.30190755276874037 -0.048815520336315553 0 0.29634306562353752 -0.063337282209766532 0 0.30190755276874037 -0.048815520336315553 0 0.30252277529294602 -0.047209960872780628 0 0.30190755276874037 -0.048815520336315553 0 0.30190755276874037 -0.048815520336315553 0 0.28256651506287672 -0.055036271410376883 0 0.288055963407369 -0.061508302522169968 0 0.30190755276874037 -0.048815520336315553 0 0.28256651506287672 -0.055036271410376883 0 0.30252277529294602 -0.047209960872780628 0 0.30190755276874037 -0.048815520336315553 0 0.28256651506287672 -0.055036271410376883 0 0.30252277529294602 -0.047209960872780628 0 0.28256651506287672 -0.055036271410376883 0 0.30252277529294602 -0.047209960872780628 0 0.28256651506287672 -0.055036271410376883 0 0.28919232337586842 -0.042665285755707827 0 0.29634306562353752 -0.063337282209766532 0 0.30190755276874037 -0.048815520336315553 0 0.288055963407369 -0.061508302522169968 0 0.28111009958932298 -0.030857044454071812 0 0.29577905941759169 -0.031869798361428517 0 0.28919232337586842 -0.042665285755707827 0 0.30252277529294602 -0.047209960872780628 0 0.29577905941759169 -0.031869798361428517 0 0.28919232337586842 -0.042665285755707827 0 0.28211864018035321 -0.20980491808255389 0 0.29578714245011872 -0.19353913301757139 0 0.30421792253306351 -0.20932986952297081 0 0.28211864018035321 -0.20980491808255389 0 0.30421792253306351 -0.20932986952297081 0 0.2857760047405255 -0.22950843470756491 0 0.29578714245011872 -0.19353913301757139 0 0.27608144139807012 -0.19180613725449391 0 0.28793364280386141 -0.18057140546224101 0 0.28211864018035321 -0.20980491808255389 0 0.29578714245011872 -0.19353913301757139 0 0.27608144139807012 -0.19180613725449391 0 0.29578714245011872 -0.19353913301757139 0 0.30421792253306351 -0.20932986952297081 0 0.31312804230604868 -0.18908772815185421 0 0.30421792253306351 -0.20932986952297081 0 0.30581430228157941 -0.23393169700468791 0 0.2857760047405255 -0.22950843470756491 0 0.30421792253306351 -0.20932986952297081 0 0.30581430228157941 -0.23393169700468791 0 0.32117418294235478 -0.22352915663850939 0 0.30581430228157941 -0.23393169700468791 0 0.29283856278866721 -0.24718948583221509 0 0.31834486205781021 -0.24761101905212671 0 0.29283856278866721 -0.24718948583221509 0 0.31834486205781021 -0.24761101905212671 0 0.29283856278866721 -0.24718948583221509 0 0.2857760047405255 -0.22950843470756491 0 0.2673322635195241 -0.24676795261230139 0 0.30581430228157941 -0.23393169700468791 0 0.29283856278866721 -0.24718948583221509 0 0.2857760047405255 -0.22950843470756491 0 0.2857760047405255 -0.22950843470756491 0 0.26712249354598289 -0.22569453707247611 0 0.2673322635195241 -0.24676795261230139 0 0.28211864018035321 -0.20980491808255389 0 0.2857760047405255 -0.22950843470756491 0 0.26712249354598289 -0.22569453707247611 0 0.29283856278866721 -0.24718948583221509 0 0.2673322635195241 -0.24676795261230139 0 0.26712249354598289 -0.22569453707247611 0 0.2673322635195241 -0.24676795261230139 0 0.25084946915888318 -0.2315805032454408 0 0.2673322635195241 -0.24676795261230139 0 0.25084946915888318 -0.2315805032454408 0 0.241825964250381 -0.24634641939238769 0 0.2673322635195241 -0.24676795261230139 0 0.241825964250381 -0.24634641939238769 0 0.26712249354598289 -0.22569453707247611 0 0.25084946915888318 -0.2315805032454408 0 0.24706181512966341 -0.21567978006854929 0 0.26311438168129958 -0.20487149717193881 0 0.2429329588959783 -0.19589121002838389 0 0.24706181512966341 -0.21567978006854929 0 0.26712249354598289 -0.22569453707247611 0 0.26311438168129958 -0.20487149717193881 0 0.24706181512966341 -0.21567978006854929 0 0.28211864018035321 -0.20980491808255389 0 0.26712249354598289 -0.22569453707247611 0 0.26311438168129958 -0.20487149717193881 0 0.28211864018035321 -0.20980491808255389 0 0.26311438168129958 -0.20487149717193881 0 0.27608144139807012 -0.19180613725449391 0 0.26311438168129958 -0.20487149717193881 0 0.27608144139807012 -0.19180613725449391 0 0.25839779079523978 -0.18373801066477721 0 0.26311438168129958 -0.20487149717193881 0 0.25839779079523978 -0.18373801066477721 0 0.2429329588959783 -0.19589121002838389 0 0.25839779079523978 -0.18373801066477721 0 0.25804042287958878 -0.16192638771227119 0 0.27452223918134683 -0.17259172980221371 0 0.25839779079523978 -0.18373801066477721 0 0.25804042287958878 -0.16192638771227119 0 0.24093798302640301 -0.1751294970398497 0 0.25804042287958878 -0.16192638771227119 0 0.27452223918134683 -0.17259172980221371 0 0.27931151720761671 -0.1507318392907849 0 0.27608144139807012 -0.19180613725449391 0 0.25839779079523978 -0.18373801066477721 0 0.27452223918134683 -0.17259172980221371 0 0.27608144139807012 -0.19180613725449391 0 0.27452223918134683 -0.17259172980221371 0 0.28793364280386141 -0.18057140546224101 0 0.26098579452461529 -0.11288985447006671 0 0.25945131562544088 -0.13852292678989489 0 0.23971402826136601 -0.126718664709667 0 0.25804042287958878 -0.16192638771227119 0 0.25945131562544088 -0.13852292678989489 0 0.23980097462271571 -0.1515326796801737 0 0.25804042287958878 -0.16192638771227119 0 0.25945131562544088 -0.13852292678989489 0 0.27931151720761671 -0.1507318392907849 0 0.25945131562544088 -0.13852292678989489 0 0.27931151720761671 -0.1507318392907849 0 0.27885515625674301 -0.1273381348764058 0 0.26098579452461529 -0.11288985447006671 0 0.25945131562544088 -0.13852292678989489 0 0.27885515625674301 -0.1273381348764058 0 0.29210028794962628 -0.1209529375964835 0 0.27885515625674301 -0.1273381348764058 0 0.29063768724713679 -0.1366836170568867 0 0.29210028794962628 -0.1209529375964835 0 0.29063768724713679 -0.1366836170568867 0 0.3073630631057222 -0.13766276215077861 0 0.27931151720761671 -0.1507318392907849 0 0.27885515625674301 -0.1273381348764058 0 0.29063768724713679 -0.1366836170568867 0 0.27931151720761671 -0.1507318392907849 0 0.29063768724713679 -0.1366836170568867 0 0.29614239776307688 -0.1515564272639997 0 0.27931151720761671 -0.1507318392907849 0 0.29614239776307688 -0.1515564272639997 0 0.29140622239398217 -0.16622941908295641 0 0.3073630631057222 -0.13766276215077861 0 0.31024555270588539 -0.16337524515131641 0 0.29063768724713679 -0.1366836170568867 0 0.29614239776307688 -0.1515564272639997 0 0.3073630631057222 -0.13766276215077861 0 0.3073630631057222 -0.13766276215077861 0 0.31024555270588539 -0.16337524515131641 0 0.31934030348067621 -0.14453687108685309 0 0.29614239776307688 -0.1515564272639997 0 0.3073630631057222 -0.13766276215077861 0 0.31024555270588539 -0.16337524515131641 0 0.30448057350555902 -0.1119502791502406 0 0.3073630631057222 -0.13766276215077861 0 0.31808811599580672 -0.12753773816783759 0 0.27452223918134683 -0.17259172980221371 0 0.28793364280386141 -0.18057140546224101 0 0.29140622239398217 -0.16622941908295641 0 0.28793364280386141 -0.18057140546224101 0 0.29140622239398217 -0.16622941908295641 0 0.30028198470210599 -0.1785498675271828 0 0.29578714245011872 -0.19353913301757139 0 0.28793364280386141 -0.18057140546224101 0 0.30028198470210599 -0.1785498675271828 0 0.27452223918134683 -0.17259172980221371 0 0.27931151720761671 -0.1507318392907849 0 0.29140622239398217 -0.16622941908295641 0 0.29140622239398217 -0.16622941908295641 0 0.31024555270588539 -0.16337524515131641 0 0.30028198470210599 -0.1785498675271828 0 0.29614239776307688 -0.1515564272639997 0 0.29140622239398217 -0.16622941908295641 0 0.31024555270588539 -0.16337524515131641 0 0.31024555270588539 -0.16337524515131641 0 0.30028198470210599 -0.1785498675271828 0 0.31312804230604868 -0.18908772815185421 0 0.31024555270588539 -0.16337524515131641 0 0.31312804230604868 -0.18908772815185421 0 0.29578714245011872 -0.19353913301757139 0 0.30028198470210599 -0.1785498675271828 0 0.31312804230604868 -0.18908772815185421 0 0.31024555270588539 -0.16337524515131641 0 0.3210442671419656 -0.16942695201565361 0 0.31312804230604868 -0.18908772815185421 0 0.3210442671419656 -0.16942695201565361 0 0.32827331506821289 -0.1756734361305127 0 0.31312804230604868 -0.18908772815185421 0 0.32827331506821289 -0.1756734361305127 0 0.31312804230604868 -0.18908772815185421 0 0.32609061112599741 -0.1877550996370542 0 0.31024555270588539 -0.16337524515131641 0 0.3210442671419656 -0.16942695201565361 0 0.32322300845942908 -0.15439628038908301 0 0.3210442671419656 -0.16942695201565361 0 0.3303514171702519 -0.16460207025550139 0 0.32322300845942908 -0.15439628038908301 0 0.3210442671419656 -0.16942695201565361 0 0.3303514171702519 -0.16460207025550139 0 0.32827331506821289 -0.1756734361305127 0 0.3303514171702519 -0.16460207025550139 0 0.34128592162817628 -0.15795764729682951 0 0.32322300845942908 -0.15439628038908301 0 0.3303514171702519 -0.16460207025550139 0 0.3385312765523163 -0.1707361318970016 0 0.32827331506821289 -0.1756734361305127 0 0.3303514171702519 -0.16460207025550139 0 0.34128592162817628 -0.15795764729682951 0 0.3385312765523163 -0.1707361318970016 0 0.34128592162817628 -0.15795764729682951 0 0.3385312765523163 -0.1707361318970016 0 0.35072053906667178 -0.17233133748052931 0 0.3385312765523163 -0.1707361318970016 0 0.35072053906667178 -0.17233133748052931 0 0.33986545252707012 -0.18807830868066039 0 0.3385312765523163 -0.1707361318970016 0 0.32827331506821289 -0.1756734361305127 0 0.33986545252707012 -0.18807830868066039 0 0.32827331506821289 -0.1756734361305127 0 0.33986545252707012 -0.18807830868066039 0 0.32609061112599741 -0.1877550996370542 0 0.31808811599580672 -0.12753773816783759 0 0.32708899857029711 -0.13582802745699449 0 0.31934030348067621 -0.14453687108685309 0 0.3073630631057222 -0.13766276215077861 0 0.31808811599580672 -0.12753773816783759 0 0.31934030348067621 -0.14453687108685309 0 0.31808811599580672 -0.12753773816783759 0 0.32708899857029711 -0.13582802745699449 0 0.32817055652757582 -0.12539038386343851 0 0.31024555270588539 -0.16337524515131641 0 0.31934030348067621 -0.14453687108685309 0 0.32322300845942908 -0.15439628038908301 0 0.32708899857029711 -0.13582802745699449 0 0.31934030348067621 -0.14453687108685309 0 0.33162094008703702 -0.14701657882495031 0 0.31934030348067621 -0.14453687108685309 0 0.32322300845942908 -0.15439628038908301 0 0.33162094008703702 -0.14701657882495031 0 0.32322300845942908 -0.15439628038908301 0 0.33162094008703702 -0.14701657882495031 0 0.34616637263882138 -0.1406523455498418 0 0.32322300845942908 -0.15439628038908301 0 0.34616637263882138 -0.1406523455498418 0 0.34128592162817628 -0.15795764729682951 0 0.32322300845942908 -0.15439628038908301 0 0.34616637263882138 -0.1406523455498418 0 0.33162094008703702 -0.14701657882495031 0 0.33423924116374359 -0.1343102667931782 0 0.34616637263882138 -0.1406523455498418 0 0.33162094008703702 -0.14701657882495031 0 0.33423924116374359 -0.1343102667931782 0 0.33423924116374359 -0.1343102667931782 0 0.3516744889909787 -0.13060933875188899 0 0.33735749411167892 -0.1191777462045686 0 0.33423924116374359 -0.1343102667931782 0 0.3516744889909787 -0.13060933875188899 0 0.32708899857029711 -0.13582802745699449 0 0.33162094008703702 -0.14701657882495031 0 0.33423924116374359 -0.1343102667931782 0 0.32708899857029711 -0.13582802745699449 0 0.33423924116374359 -0.1343102667931782 0 0.33735749411167892 -0.1191777462045686 0 0.33423924116374359 -0.1343102667931782 0 0.32817055652757582 -0.12539038386343851 0 0.33735749411167892 -0.1191777462045686 0 0.33423924116374359 -0.1343102667931782 0 0.32708899857029711 -0.13582802745699449 0 0.33423924116374359 -0.1343102667931782 0 0.32817055652757582 -0.12539038386343851 0 0.33423924116374359 -0.1343102667931782 0 0.3516744889909787 -0.13060933875188899 0 0.34616637263882138 -0.1406523455498418 0 0.3516744889909787 -0.13060933875188899 0 0.34616637263882138 -0.1406523455498418 0 0.36910973681821402 -0.12690841071060091 0 0.34616637263882138 -0.1406523455498418 0 0.36910973681821402 -0.12690841071060091 0 0.34128592162817628 -0.15795764729682951 0 0.34616637263882138 -0.1406523455498418 0 0.35322831386268172 -0.151579061339361 0 0.35730566199816921 -0.14536342021453591 0 0.34616637263882138 -0.1406523455498418 0 0.36506219395756362 -0.1376429380615288 0 0.35730566199816921 -0.14536342021453591 0 0.34616637263882138 -0.1406523455498418 0 0.35322831386268172 -0.151579061339361 0 0.35322831386268172 -0.151579061339361 0 0.36476576753361001 -0.15157933590741191 0 0.35646674917857801 -0.16195254729719141 0 0.35730566199816921 -0.14536342021453591 0 0.35322831386268172 -0.151579061339361 0 0.36476576753361001 -0.15157933590741191 0 0.36476576753361001 -0.15157933590741191 0 0.37646947279294851 -0.13886222893264979 0 0.37645261418860132 -0.15744377782321189 0 0.36476576753361001 -0.15157933590741191 0 0.36506219395756362 -0.1376429380615288 0 0.37646947279294851 -0.13886222893264979 0 0.35730566199816921 -0.14536342021453591 0 0.36476576753361001 -0.15157933590741191 0 0.36506219395756362 -0.1376429380615288 0 0.34616637263882138 -0.1406523455498418 0 0.36506219395756362 -0.1376429380615288 0 0.36910973681821402 -0.12690841071060091 0 0.3516744889909787 -0.13060933875188899 0 0.36910973681821402 -0.12690841071060091 0 0.36506219395756362 -0.1376429380615288 0 0.3722449957663127 -0.13209075237817189 0 0.37646947279294851 -0.13886222893264979 0 0.36506219395756362 -0.1376429380615288 0 0.3722449957663127 -0.13209075237817189 0 0.36910973681821402 -0.12690841071060091 0 0.37962880765709678 -0.12467555892542689 0 0.3722449957663127 -0.13209075237817189 0 0.36910973681821402 -0.12690841071060091 0 0.37962880765709678 -0.12467555892542689 0 0.36910973681821402 -0.12690841071060091 0 0.35072053906667178 -0.17233133748052931 0 0.36003239758283112 -0.1865010582611982 0 0.33986545252707012 -0.18807830868066039 0 0.34128592162817628 -0.15795764729682951 0 0.35072053906667178 -0.17233133748052931 0 0.35646674917857801 -0.16195254729719141 0 0.35072053906667178 -0.17233133748052931 0 0.35646674917857801 -0.16195254729719141 0 0.36762647700961038 -0.16920170403587559 0 0.34128592162817628 -0.15795764729682951 0 0.35322831386268172 -0.151579061339361 0 0.35646674917857801 -0.16195254729719141 0 0.36476576753361001 -0.15157933590741191 0 0.36762647700961038 -0.16920170403587559 0 0.37645261418860132 -0.15744377782321189 0 0.36476576753361001 -0.15157933590741191 0 0.35646674917857801 -0.16195254729719141 0 0.36762647700961038 -0.16920170403587559 0 0.36762647700961038 -0.16920170403587559 0 0.36003239758283112 -0.1865010582611982 0 0.37790420911867351 -0.18481944168622719 0 0.35072053906667178 -0.17233133748052931 0 0.36762647700961038 -0.16920170403587559 0 0.36003239758283112 -0.1865010582611982 0 0.36003239758283112 -0.1865010582611982 0 0.36814609020758648 -0.20437363827560101 0 0.35336305618987018 -0.20101078612724979 0 0.36003239758283112 -0.1865010582611982 0 0.36814609020758648 -0.20437363827560101 0 0.37790420911867351 -0.18481944168622719 0 0.36814609020758648 -0.20437363827560101 0 0.35559950495287268 -0.21957357793578261 0 0.37390590892354431 -0.22337548751638159 0 0.35336305618987018 -0.20101078612724979 0 0.33798734939648573 -0.21329735937250019 0 0.35559950495287268 -0.21957357793578261 0 0.36814609020758648 -0.20437363827560101 0 0.35336305618987018 -0.20101078612724979 0 0.35559950495287268 -0.21957357793578261 0 0.36003239758283112 -0.1865010582611982 0 0.35336305618987018 -0.20101078612724979 0 0.33986545252707012 -0.18807830868066039 0 0.33986545252707012 -0.18807830868066039 0 0.32609061112599741 -0.1877550996370542 0 0.32400350382689957 -0.19944729422489221 0 0.35336305618987018 -0.20101078612724979 0 0.33986545252707012 -0.18807830868066039 0 0.33798734939648573 -0.21329735937250019 0 0.33986545252707012 -0.18807830868066039 0 0.33798734939648573 -0.21329735937250019 0 0.32400350382689957 -0.19944729422489221 0 0.32400350382689957 -0.19944729422489221 0 0.32117418294235478 -0.22352915663850939 0 0.30421792253306351 -0.20932986952297081 0 0.32400350382689957 -0.19944729422489221 0 0.32117418294235478 -0.22352915663850939 0 0.33798734939648573 -0.21329735937250019 0 0.32400350382689957 -0.19944729422489221 0 0.32117418294235478 -0.22352915663850939 0 0.30421792253306351 -0.20932986952297081 0 0.31312804230604868 -0.18908772815185421 0 0.32400350382689957 -0.19944729422489221 0 0.31312804230604868 -0.18908772815185421 0 0.32609061112599741 -0.1877550996370542 0 0.32400350382689957 -0.19944729422489221 0 0.32057246081455781 -0.24764783375686891 0 0.31834486205781021 -0.24761101905212671 0 0.32117418294235478 -0.22352915663850939 0 0.30581430228157941 -0.23393169700468791 0 0.31834486205781021 -0.24761101905212671 0 0.32117418294235478 -0.22352915663850939 0 0.31834486205781021 -0.24761101905212671 0 0.32117418294235478 -0.22352915663850939 0 0.32057246081455781 -0.24764783375686891 0 0.32117418294235478 -0.22352915663850939 0 0.33639131599819327 -0.23597564414433519 0 0.32057246081455781 -0.24764783375686891 0 0.32882095726792548 -0.24842584181469721 0 0.32255725278732761 -0.25051520466756871 0 0.32057246081455781 -0.24764783375686891 0 0.32030180261360131 -0.2494852265459695 0 0.32255725278732761 -0.25051520466756871 0 0.32030180261360131 -0.2494852265459695 0 0.31834486205781021 -0.24761101905212671 0 0.31973263479470959 -0.25216684870731382 0 0.32057246081455781 -0.24764783375686891 0 0.32030180261360131 -0.2494852265459695 0 0.31834486205781021 -0.24761101905212671 0 0.32057246081455781 -0.24764783375686891 0 0.31834486205781021 -0.24761101905212671 0 0.33798734939648573 -0.21329735937250019 0 0.33639131599819327 -0.23597564414433519 0 0.35559950495287268 -0.21957357793578261 0 0.33798734939648573 -0.21329735937250019 0 0.32117418294235478 -0.22352915663850939 0 0.33639131599819327 -0.23597564414433519 0 0.32057246081455781 -0.24764783375686891 0 0.33639131599819327 -0.23597564414433519 0 0.32882095726792548 -0.24842584181469721 0 0.33639131599819327 -0.23597564414433519 0 0.32882095726792548 -0.24842584181469721 0 0.33842334414631831 -0.2491872836301689 0 0.33639131599819327 -0.23597564414433519 0 0.33842334414631831 -0.2491872836301689 0 0.34991694524745659 -0.24922908583122139 0 0.35841183400322962 -0.2390317015953913 0 0.34991694524745659 -0.24922908583122139 0 0.36708067838860431 -0.25298902242619109 0 0.33639131599819327 -0.23597564414433519 0 0.35841183400322962 -0.2390317015953913 0 0.34991694524745659 -0.24922908583122139 0 0.33639131599819327 -0.23597564414433519 0 0.35841183400322962 -0.2390317015953913 0 0.35559950495287268 -0.21957357793578261 0 0.35841183400322962 -0.2390317015953913 0 0.35559950495287268 -0.21957357793578261 0 0.37390590892354431 -0.22337548751638159 0 0.35841183400322962 -0.2390317015953913 0 0.37390590892354431 -0.22337548751638159 0 0.38192042846566732 -0.24543999264620039 0 0.35841183400322962 -0.2390317015953913 0 0.38192042846566732 -0.24543999264620039 0 0.36708067838860431 -0.25298902242619109 0 0.35841183400322962 -0.2390317015953913 0 0.38192042846566732 -0.24543999264620039 0 0.38192042846566732 -0.24543999264620039 0 0.39491797107132642 -0.23789665442096949 0 0.38736089857294043 -0.23020885045454151 0 0.38192042846566732 -0.24543999264620039 0 0.40542902292810501 -0.25184828369700951 0 0.38192042846566732 -0.24543999264620039 0 0.39491797107132642 -0.23789665442096949 0 0.40542902292810501 -0.25184828369700951 0 0.39491797107132642 -0.23789665442096949 0 0.40628363760014818 -0.23629927131962131 0 0.40542902292810501 -0.25184828369700951 0 0.39664431434981928 -0.22652858431114889 0 0.40021706988021588 -0.21536933573969691 0 0.40645695316001151 -0.22316323686584491 0 0.39664431434981928 -0.22652858431114889 0 0.40628363760014818 -0.23629927131962131 0 0.40645695316001151 -0.22316323686584491 0 0.39491797107132642 -0.23789665442096949 0 0.39664431434981928 -0.22652858431114889 0 0.40628363760014818 -0.23629927131962131 0 0.39491797107132642 -0.23789665442096949 0 0.39664431434981928 -0.22652858431114889 0 0.38736089857294043 -0.23020885045454151 0 0.39664431434981928 -0.22652858431114889 0 0.38736089857294043 -0.23020885045454151 0 0.38941587005434453 -0.21780353337800701 0 0.39664431434981928 -0.22652858431114889 0 0.38941587005434453 -0.21780353337800701 0 0.40021706988021588 -0.21536933573969691 0 0.37390590892354431 -0.22337548751638159 0 0.38736089857294043 -0.23020885045454151 0 0.38941587005434453 -0.21780353337800701 0 0.37390590892354431 -0.22337548751638159 0 0.38192042846566732 -0.24543999264620039 0 0.38736089857294043 -0.23020885045454151 0 0.37390590892354431 -0.22337548751638159 0 0.38472349768489472 -0.20521573132581211 0 0.38941587005434453 -0.21780353337800701 0 0.36814609020758648 -0.20437363827560101 0 0.37390590892354431 -0.22337548751638159 0 0.38472349768489472 -0.20521573132581211 0 0.38472349768489472 -0.20521573132581211 0 0.38941587005434453 -0.21780353337800701 0 0.39669197747470097 -0.20696492124413499 0 0.36814609020758648 -0.20437363827560101 0 0.38472349768489472 -0.20521573132581211 0 0.37790420911867351 -0.18481944168622719 0 0.38472349768489472 -0.20521573132581211 0 0.3950942547021738 -0.19581134595887331 0 0.37790420911867351 -0.18481944168622719 0 0.40903656156295037 -0.2058256787410436 0 0.40931576437153527 -0.189883302963363 0 0.39908603364915451 -0.17961023073765589 0 0.40903656156295037 -0.2058256787410436 0 0.39908603364915451 -0.17961023073765589 0 0.3950942547021738 -0.19581134595887331 0 0.40903656156295037 -0.2058256787410436 0 0.39908603364915451 -0.17961023073765589 0 0.38472349768489472 -0.20521573132581211 0 0.3950942547021738 -0.19581134595887331 0 0.39669197747470097 -0.20696492124413499 0 0.3950942547021738 -0.19581134595887331 0 0.39669197747470097 -0.20696492124413499 0 0.40903656156295037 -0.2058256787410436 0 0.40021706988021588 -0.21536933573969691 0 0.40903656156295037 -0.2058256787410436 0 0.40645695316001151 -0.22316323686584491 0 0.38941587005434453 -0.21780353337800701 0 0.39669197747470097 -0.20696492124413499 0 0.40021706988021588 -0.21536933573969691 0 0.39669197747470097 -0.20696492124413499 0 0.40021706988021588 -0.21536933573969691 0 0.40903656156295037 -0.2058256787410436 0 0.40903656156295037 -0.2058256787410436 0 0.41689147944108651 -0.1977242138816207 0 0.42153397604922088 -0.21907533927011011 0 0.41689147944108651 -0.1977242138816207 0 0.42153397604922088 -0.21907533927011011 0 0.41689147944108651 -0.1977242138816207 0 0.40931576437153527 -0.189883302963363 0 0.41224898283294981 -0.17637308849313191 0 0.40903656156295037 -0.2058256787410436 0 0.41689147944108651 -0.1977242138816207 0 0.40931576437153527 -0.189883302963363 0 0.43235705921459983 -0.19788454004658859 0 0.42565050271411059 -0.1822398097282634 0 0.4405933345087813 -0.183813858791438 0 0.43235705921459983 -0.19788454004658859 0 0.4341129611291149 -0.20791899675934311 0 0.42565050271411059 -0.1822398097282634 0 0.41689147944108651 -0.1977242138816207 0 0.4341129611291149 -0.20791899675934311 0 0.42565050271411059 -0.1822398097282634 0 0.4341129611291149 -0.20791899675934311 0 0.42565050271411059 -0.1822398097282634 0 0.4341129611291149 -0.20791899675934311 0 0.43109970734495268 -0.2252547461196189 0 0.42153397604922088 -0.21907533927011011 0 0.41689147944108651 -0.1977242138816207 0 0.4341129611291149 -0.20791899675934311 0 0.42153397604922088 -0.21907533927011011 0 0.43109970734495268 -0.2252547461196189 0 0.42617647265735542 -0.24042646465859949 0 0.42153397604922088 -0.21907533927011011 0 0.42617647265735542 -0.24042646465859949 0 0.42153397604922088 -0.21907533927011011 0 0.43109970734495268 -0.2252547461196189 0 0.42617647265735542 -0.24042646465859949 0 0.44257541954411928 -0.23359818379042299 0 0.4341129611291149 -0.20791899675934311 0 0.43109970734495268 -0.2252547461196189 0 0.44257541954411928 -0.23359818379042299 0 0.42617647265735542 -0.24042646465859949 0 0.42153397604922088 -0.21907533927011011 0 0.41898708947674668 -0.23204112674443089 0 0.42617647265735542 -0.24042646465859949 0 0.44257541954411928 -0.23359818379042299 0 0.43880837369229408 -0.25085587920260088 0 0.42617647265735542 -0.24042646465859949 0 0.43880837369229408 -0.25085587920260088 0 0.4289376173905427 -0.25825657474781838 0 0.41898708947674668 -0.23204112674443089 0 0.4289376173905427 -0.25825657474781838 0 0.42617647265735542 -0.24042646465859949 0 0.41898708947674668 -0.23204112674443089 0 0.4289376173905427 -0.25825657474781838 0 0.41490934184888573 -0.24461131412722001 0 0.41898708947674668 -0.23204112674443089 0 0.4289376173905427 -0.25825657474781838 0 0.41490934184888573 -0.24461131412722001 0 0.40628363760014818 -0.23629927131962131 0 0.40542902292810501 -0.25184828369700951 0 0.41490934184888573 -0.24461131412722001 0 0.40628363760014818 -0.23629927131962131 0 0.41898708947674668 -0.23204112674443089 0 0.40628363760014818 -0.23629927131962131 0 0.40645695316001151 -0.22316323686584491 0 0.41898708947674668 -0.23204112674443089 0 0.40903656156295037 -0.2058256787410436 0 0.41898708947674668 -0.23204112674443089 0 0.40903656156295037 -0.2058256787410436 0 0.40645695316001151 -0.22316323686584491 0 0.41898708947674668 -0.23204112674443089 0 0.40903656156295037 -0.2058256787410436 0 0.42153397604922088 -0.21907533927011011 0 0.41898708947674668 -0.23204112674443089 0 0.39271352896229411 -0.12189810416994409 0 0.39518880607545748 -0.13287435485010421 0 0.41722789102631058 -0.13783455324669591 0 0.39271352896229411 -0.12189810416994409 0 0.41722789102631058 -0.13783455324669591 0 0.39518880607545748 -0.13287435485010421 0 0.40005637231377078 -0.14482710891452591 0 0.41074880449381651 -0.14107315077478499 0 0.39518880607545748 -0.13287435485010421 0 0.41074880449381651 -0.14107315077478499 0 0.37962880765709678 -0.12467555892542689 0 0.38871230657284012 -0.15227983127278141 0 0.37962880765709678 -0.12467555892542689 0 0.39271352896229411 -0.12189810416994409 0 0.39518880607545748 -0.13287435485010421 0 0.37962880765709678 -0.12467555892542689 0 0.39518880607545748 -0.13287435485010421 0 0.37962880765709678 -0.12467555892542689 0 0.37646947279294851 -0.13886222893264979 0 0.38871230657284012 -0.15227983127278141 0 0.37962880765709678 -0.12467555892542689 0 0.39518880607545748 -0.13287435485010421 0 0.38871230657284012 -0.15227983127278141 0 0.37962880765709678 -0.12467555892542689 0 0.3722449957663127 -0.13209075237817189 0 0.37646947279294851 -0.13886222893264979 0 0.37788608158503262 -0.12375729048906151 0 0.37962880765709678 -0.12467555892542689 0 0.36910973681821402 -0.12690841071060091 0 0.37646947279294851 -0.13886222893264979 0 0.38871230657284012 -0.15227983127278141 0 0.37645261418860132 -0.15744377782321189 0 0.39518880607545748 -0.13287435485010421 0 0.38871230657284012 -0.15227983127278141 0 0.40005637231377078 -0.14482710891452591 0 0.38871230657284012 -0.15227983127278141 0 0.40005637231377078 -0.14482710891452591 0 0.40728732297888148 -0.15355411184731721 0 0.40005637231377078 -0.14482710891452591 0 0.40728732297888148 -0.15355411184731721 0 0.41074880449381651 -0.14107315077478499 0 0.38871230657284012 -0.15227983127278141 0 0.40183366150845651 -0.16545431558772161 0 0.39908603364915451 -0.17961023073765589 0 0.38871230657284012 -0.15227983127278141 0 0.39908603364915451 -0.17961023073765589 0 0.38871230657284012 -0.15227983127278141 0 0.40183366150845651 -0.16545431558772161 0 0.40728732297888148 -0.15355411184731721 0 0.38871230657284012 -0.15227983127278141 0 0.38199426146322052 -0.1687629570203146 0 0.39908603364915451 -0.17961023073765589 0 0.38871230657284012 -0.15227983127278141 0 0.37645261418860132 -0.15744377782321189 0 0.38199426146322052 -0.1687629570203146 0 0.36762647700961038 -0.16920170403587559 0 0.37645261418860132 -0.15744377782321189 0 0.38199426146322052 -0.1687629570203146 0 0.36762647700961038 -0.16920170403587559 0 0.38199426146322052 -0.1687629570203146 0 0.37790420911867351 -0.18481944168622719 0 0.38199426146322052 -0.1687629570203146 0 0.37790420911867351 -0.18481944168622719 0 0.39908603364915451 -0.17961023073765589 0 0.37790420911867351 -0.18481944168622719 0 0.39908603364915451 -0.17961023073765589 0 0.3950942547021738 -0.19581134595887331 0 0.37790420911867351 -0.18481944168622719 0 0.39908603364915451 -0.17961023073765589 0 0.40183366150845651 -0.16545431558772161 0 0.39908603364915451 -0.17961023073765589 0 0.41224898283294981 -0.17637308849313191 0 0.39908603364915451 -0.17961023073765589 0 0.41224898283294981 -0.17637308849313191 0 0.41689147944108651 -0.1977242138816207 0 0.41224898283294981 -0.17637308849313191 0 0.42565050271411059 -0.1822398097282634 0 0.41689147944108651 -0.1977242138816207 0 0.41224898283294981 -0.17637308849313191 0 0.40931576437153527 -0.189883302963363 0 0.39908603364915451 -0.17961023073765589 0 0.41224898283294981 -0.17637308849313191 0 0.41224898283294981 -0.17637308849313191 0 0.43312432679479768 -0.17123924980209901 0 0.41224898283294981 -0.17637308849313191 0 0.42565050271411059 -0.1822398097282634 0 0.43312432679479768 -0.17123924980209901 0 0.42565050271411059 -0.1822398097282634 0 0.43312432679479768 -0.17123924980209901 0 0.4405933345087813 -0.183813858791438 0 0.43312432679479768 -0.17123924980209901 0 0.42610542853308492 -0.1632726987430389 0 0.4417422530903265 -0.1537710023234487 0 0.41224898283294981 -0.17637308849313191 0 0.43312432679479768 -0.17123924980209901 0 0.42610542853308492 -0.1632726987430389 0 0.42610542853308492 -0.1632726987430389 0 0.42451614960437262 -0.15344625993830421 0 0.4417422530903265 -0.1537710023234487 0 0.42610542853308492 -0.1632726987430389 0 0.417620429521606 -0.1588068736144099 0 0.42451614960437262 -0.15344625993830421 0 0.41224898283294981 -0.17637308849313191 0 0.417620429521606 -0.1588068736144099 0 0.40728732297888148 -0.15355411184731721 0 0.41224898283294981 -0.17637308849313191 0 0.42610542853308492 -0.1632726987430389 0 0.417620429521606 -0.1588068736144099 0 0.40183366150845651 -0.16545431558772161 0 0.41224898283294981 -0.17637308849313191 0 0.40728732297888148 -0.15355411184731721 0 0.41224898283294981 -0.17637308849313191 0 0.40728732297888148 -0.15355411184731721 0 0.417620429521606 -0.1588068736144099 0 0.40728732297888148 -0.15355411184731721 0 0.41548011952499753 -0.14894298988430241 0 0.40728732297888148 -0.15355411184731721 0 0.41074880449381651 -0.14107315077478499 0 0.41548011952499753 -0.14894298988430241 0 0.41548011952499753 -0.14894298988430241 0 0.42451614960437262 -0.15344625993830421 0 0.41722789102631058 -0.13783455324669591 0 0.41074880449381651 -0.14107315077478499 0 0.41548011952499753 -0.14894298988430241 0 0.41722789102631058 -0.13783455324669591 0 0.417620429521606 -0.1588068736144099 0 0.41548011952499753 -0.14894298988430241 0 0.42451614960437262 -0.15344625993830421 0 0.42451614960437262 -0.15344625993830421 0 0.41722789102631058 -0.13783455324669591 0 0.4417422530903265 -0.1537710023234487 0 0.41722789102631058 -0.13783455324669591 0 0.4417422530903265 -0.1537710023234487 0 0.42892545377988689 -0.13291447741448381 0 0.41722789102631058 -0.13783455324669591 0 0.4417422530903265 -0.1537710023234487 0 0.42892545377988689 -0.13291447741448381 0 0.43815282199695837 -0.12684145835808061 0 0.4443216427955905 -0.13752150555743159 0 0.42912522472757553 -0.12172208172720771 0 0.42892545377988689 -0.13291447741448381 0 0.43815282199695837 -0.12684145835808061 0 0.41735442547733792 -0.1229734801039533 0 0.42912522472757553 -0.12172208172720771 0 0.42892545377988689 -0.13291447741448381 0 0.41722052859160191 -0.1302259822170887 0 0.41722789102631058 -0.13783455324669591 0 0.40965048580231223 -0.12512333462626021 0 0.39518880607545748 -0.13287435485010421 0 0.41074880449381651 -0.14107315077478499 0 0.41722789102631058 -0.13783455324669591 0 0.39271352896229411 -0.12189810416994409 0 0.41722789102631058 -0.13783455324669591 0 0.40965048580231223 -0.12512333462626021 0 0.41735442547733792 -0.1229734801039533 0 0.42892545377988689 -0.13291447741448381 0 0.41722052859160191 -0.1302259822170887 0 0.41735442547733792 -0.1229734801039533 0 0.41722052859160191 -0.1302259822170887 0 0.40965048580231223 -0.12512333462626021 0 0.42892545377988689 -0.13291447741448381 0 0.41722052859160191 -0.1302259822170887 0 0.41722789102631058 -0.13783455324669591 0 0.46589017262851601 -0.1284925439824266 0 0.45203570390723752 -0.12648986569279999 0 0.45975235871484998 -0.145060100362355 0 0.45203570390723752 -0.12648986569279999 0 0.4443216427955905 -0.13752150555743159 0 0.45975235871484998 -0.145060100362355 0 0.45203570390723752 -0.12648986569279999 0 0.43815282199695837 -0.12684145835808061 0 0.4443216427955905 -0.13752150555743159 0 0.4417422530903265 -0.1537710023234487 0 0.45975235871484998 -0.145060100362355 0 0.45399967075664571 -0.16610541111106619 0 0.42892545377988689 -0.13291447741448381 0 0.4443216427955905 -0.13752150555743159 0 0.4417422530903265 -0.1537710023234487 0 0.4443216427955905 -0.13752150555743159 0 0.4417422530903265 -0.1537710023234487 0 0.45975235871484998 -0.145060100362355 0 0.45399967075664571 -0.16610541111106619 0 0.47487501471849369 -0.1609715724200334 0 0.45975235871484998 -0.145060100362355 0 0.45399967075664571 -0.16610541111106619 0 0.47487501471849369 -0.1609715724200334 0 0.45399967075664571 -0.16610541111106619 0 0.46767576623044249 -0.17448113062585549 0 0.47487501471849369 -0.1609715724200334 0 0.43312432679479768 -0.17123924980209901 0 0.45399967075664571 -0.16610541111106619 0 0.43312432679479768 -0.17123924980209901 0 0.4417422530903265 -0.1537710023234487 0 0.45399967075664571 -0.16610541111106619 0 0.45399967075664571 -0.16610541111106619 0 0.4405933345087813 -0.183813858791438 0 0.45490470614306511 -0.1916937872278601 0 0.43312432679479768 -0.17123924980209901 0 0.45399967075664571 -0.16610541111106619 0 0.4405933345087813 -0.183813858791438 0 0.46767576623044249 -0.17448113062585549 0 0.47745235307153028 -0.18550303440913171 0 0.45490470614306511 -0.1916937872278601 0 0.45399967075664571 -0.16610541111106619 0 0.46767576623044249 -0.17448113062585549 0 0.45490470614306511 -0.1916937872278601 0 0.46767576623044249 -0.17448113062585549 0 0.47745235307153028 -0.18550303440913171 0 0.48592670795043658 -0.172211575051925 0 0.47745235307153028 -0.18550303440913171 0 0.49999999999999578 -0.1793122815904043 0 0.47745235307153028 -0.18550303440913171 0 0.49999999999999578 -0.1793122815904043 0 0.48592670795043658 -0.172211575051925 0 0.48592670795043658 -0.172211575051925 0 0.47487501471849369 -0.1609715724200334 0 0.5 -0.15242919540531949 0 0.49999999999999578 -0.1793122815904043 0 0.48592670795043658 -0.172211575051925 0 0.5 -0.15242919540531949 0 0.46767576623044249 -0.17448113062585549 0 0.48592670795043658 -0.172211575051925 0 0.47487501471849369 -0.1609715724200334 0 0.45975235871484998 -0.145060100362355 0 0.47487501471849369 -0.1609715724200334 0 0.48148268790605703 -0.13891531987809719 0 0.47487501471849369 -0.1609715724200334 0 0.5 -0.15242919540531949 0 0.48148268790605703 -0.13891531987809719 0 0.5 -0.15242919540531949 0 0.5 -0.12554610922023471 0 0.48148268790605703 -0.13891531987809719 0 0.4766588008421922 -0.1177179725840823 0 0.5 -0.12554610922023471 0 0.48148268790605703 -0.13891531987809719 0 0.46589017262851601 -0.1284925439824266 0 0.45975235871484998 -0.145060100362355 0 0.48148268790605703 -0.13891531987809719 0 0.4766588008421922 -0.1177179725840823 0 0.46589017262851601 -0.1284925439824266 0 0.48148268790605703 -0.13891531987809719 0 0.4673585853060821 -0.23932882500344571 0 0.44257541954411928 -0.23359818379042299 0 0.45859560433864083 -0.21800880986293389 0 0.4673585853060821 -0.23932882500344571 0 0.44257541954411928 -0.23359818379042299 0 0.4510378779591242 -0.25927737082150271 0 0.4673585853060821 -0.23932882500344571 0 0.4510378779591242 -0.25927737082150271 0 0.44257541954411928 -0.23359818379042299 0 0.4510378779591242 -0.25927737082150271 0 0.44257541954411928 -0.23359818379042299 0 0.43880837369229408 -0.25085587920260088 0 0.4510378779591242 -0.25927737082150271 0 0.4341129611291149 -0.20791899675934311 0 0.44257541954411928 -0.23359818379042299 0 0.4341129611291149 -0.20791899675934311 0 0.44257541954411928 -0.23359818379042299 0 0.44581055131190089 -0.21594255105667159 0 0.44257541954411928 -0.23359818379042299 0 0.44581055131190089 -0.21594255105667159 0 0.45859560433864083 -0.21800880986293389 0 0.43235705921459983 -0.19788454004658859 0 0.4341129611291149 -0.20791899675934311 0 0.44795822023572818 -0.20424421381398641 0 0.4341129611291149 -0.20791899675934311 0 0.44795822023572818 -0.20424421381398641 0 0.44581055131190089 -0.21594255105667159 0 0.44795822023572818 -0.20424421381398641 0 0.44581055131190089 -0.21594255105667159 0 0.45859560433864083 -0.21800880986293389 0 0.43235705921459983 -0.19788454004658859 0 0.4405933345087813 -0.183813858791438 0 0.45490470614306511 -0.1916937872278601 0 0.43235705921459983 -0.19788454004658859 0 0.45490470614306511 -0.1916937872278601 0 0.43235705921459983 -0.19788454004658859 0 0.44795822023572818 -0.20424421381398641 0 0.45490470614306511 -0.1916937872278601 0 0.44795822023572818 -0.20424421381398641 0 0.45490470614306511 -0.1916937872278601 0 0.47036854773625808 -0.20295978574492879 0 0.47745235307153028 -0.18550303440913171 0 0.45490470614306511 -0.1916937872278601 0 0.47036854773625808 -0.20295978574492879 0 0.47745235307153028 -0.18550303440913171 0 0.45490470614306511 -0.1916937872278601 0 0.44795822023572818 -0.20424421381398641 0 0.45859560433864083 -0.21800880986293389 0 0.47036854773625808 -0.20295978574492879 0 0.45859560433864083 -0.21800880986293389 0 0.47036854773625808 -0.20295978574492879 0 0.48367929265303933 -0.21938027918538799 0 0.47745235307153028 -0.18550303440913171 0 0.47036854773625808 -0.20295978574492879 0 0.49999999999999778 -0.19943173336733139 0 0.47745235307153028 -0.18550303440913171 0 0.49999999999999578 -0.1793122815904043 0 0.49999999999999778 -0.19943173336733139 0 0.47036854773625808 -0.20295978574492879 0 0.49999999999999778 -0.19943173336733139 0 0.48367929265303933 -0.21938027918538799 0 0.49999999999999778 -0.19943173336733139 0 0.48367929265303933 -0.21938027918538799 0 0.49999999999999778 -0.19943173336733139 0 0.5 -0.22676998610110699 0 0.48367929265303933 -0.21938027918538799 0 0.5 -0.22676998610110699 0 0.48367929265303933 -0.21938027918538799 0 0.48607866429275359 -0.23914068496307711 0 0.4673585853060821 -0.23932882500344571 0 0.45859560433864083 -0.21800880986293389 0 0.48367929265303933 -0.21938027918538799 0 0.4673585853060821 -0.23932882500344571 0 0.48367929265303933 -0.21938027918538799 0 0.4673585853060821 -0.23932882500344571 0 0.48367929265303933 -0.21938027918538799 0 0.48607866429275359 -0.23914068496307711 0 0.4673585853060821 -0.23932882500344571 0 0.48607866429275359 -0.23914068496307711 0 0.47935544350464698 -0.25611609569056198 0 0.5 -0.22676998610110699 0 0.48607866429275359 -0.23914068496307711 0 0.5 -0.25410823883488282 0 0.48607866429275359 -0.23914068496307711 0 0.5 -0.25410823883488282 0 0.47935544350464698 -0.25611609569056198 0 0.5 -0.25410823883488282 0 0.48721061697297141 -0.26869479636340071 0 0.47935544350464698 -0.25611609569056198 0 0.48721061697297141 -0.26869479636340071 0 0.48383931662592849 -0.27939098099761522 0 0.5 -0.28144649156865847 0 0.5 -0.25410823883488282 0 0.48721061697297141 -0.26869479636340071 0 0.5 -0.28144649156865847 0 0.48383931662592849 -0.27939098099761522 0 0.47507852868093209 -0.27081071129091561 0 0.47373651534816968 -0.28175091304455141 0 0.48721061697297141 -0.26869479636340071 0 0.48383931662592849 -0.27939098099761522 0 0.47507852868093209 -0.27081071129091561 0 0.47507852868093209 -0.27081071129091561 0 0.46253692688072962 -0.27474733707858012 0 0.47373651534816968 -0.28175091304455141 0 0.47507852868093209 -0.27081071129091561 0 0.47935544350464698 -0.25611609569056198 0 0.46369528870221588 -0.26260588133692248 0 0.4673585853060821 -0.23932882500344571 0 0.47935544350464698 -0.25611609569056198 0 0.46369528870221588 -0.26260588133692248 0 0.48721061697297141 -0.26869479636340071 0 0.47507852868093209 -0.27081071129091561 0 0.47935544350464698 -0.25611609569056198 0 0.4673585853060821 -0.23932882500344571 0 0.46369528870221588 -0.26260588133692248 0 0.4510378779591242 -0.25927737082150271 0 0.46369528870221588 -0.26260588133692248 0 0.4510378779591242 -0.25927737082150271 0 0.45309258261553931 -0.26551233737355973 0 0.46369528870221588 -0.26260588133692248 0 0.46253692688072962 -0.27474733707858012 0 0.45799901162292223 -0.2695638738965066 0 0.47507852868093209 -0.27081071129091561 0 0.46369528870221588 -0.26260588133692248 0 0.46253692688072962 -0.27474733707858012 0 0.46253692688072962 -0.27474733707858012 0 0.4654854020635687 -0.28364195006972348 0 0.47373651534816968 -0.28175091304455141 0 0.46253692688072962 -0.27474733707858012 0 0.45267124829320399 -0.27538993979696419 0 0.45558296257725339 -0.28709148543437679 0 0.46253692688072962 -0.27474733707858012 0 0.45799901162292223 -0.2695638738965066 0 0.45267124829320399 -0.27538993979696419 0 0.46369528870221588 -0.26260588133692248 0 0.45799901162292223 -0.2695638738965066 0 0.45309258261553931 -0.26551233737355973 0 0.45799901162292223 -0.2695638738965066 0 0.45267124829320399 -0.27538993979696419 0 0.45309258261553931 -0.26551233737355973 0 0.4510378779591242 -0.25927737082150271 0 0.44531448091032783 -0.26272080199466008 0 0.43620611502027379 -0.27740600313249181 0 0.4510378779591242 -0.25927737082150271 0 0.45309258261553931 -0.26551233737355973 0 0.43620611502027379 -0.27740600313249181 0 0.45267124829320399 -0.27538993979696419 0 0.45558296257725339 -0.28709148543437679 0 0.43620611502027379 -0.27740600313249181 0 0.4510378779591242 -0.25927737082150271 0 0.43620611502027379 -0.27740600313249181 0 0.45267124829320399 -0.27538993979696419 0 0.45309258261553931 -0.26551233737355973 0 0.43620611502027379 -0.27740600313249181 0 0.43880837369229408 -0.25085587920260088 0 0.44531448091032783 -0.26272080199466008 0 0.4289376173905427 -0.25825657474781838 0 0.43880837369229408 -0.25085587920260088 0 0.4510378779591242 -0.25927737082150271 0 0.44531448091032783 -0.26272080199466008 0 0.4510378779591242 -0.25927737082150271 0 0.45309258261553931 -0.26551233737355973 0 0.44586491649992599 -0.30285287491241031 0 0.45558296257725339 -0.28709148543437679 0 0.43620611502027379 -0.27740600313249181 0 0.44586491649992599 -0.30285287491241031 0 0.43620611502027379 -0.27740600313249181 0 0.45558296257725339 -0.28709148543437679 0 0.46593127632250358 -0.29316959344365617 0 0.46115480961142552 -0.30470614552786951 0 0.45558296257725339 -0.28709148543437679 0 0.4654854020635687 -0.28364195006972348 0 0.46593127632250358 -0.29316959344365617 0 0.46253692688072962 -0.27474733707858012 0 0.45558296257725339 -0.28709148543437679 0 0.4654854020635687 -0.28364195006972348 0 0.4654854020635687 -0.28364195006972348 0 0.46593127632250358 -0.29316959344365617 0 0.47420608652604562 -0.29052994856257619 0 0.46593127632250358 -0.29316959344365617 0 0.46115480961142552 -0.30470614552786951 0 0.47355327705442363 -0.30064263254509549 0 0.44586491649992599 -0.30285287491241031 0 0.45558296257725339 -0.28709148543437679 0 0.46115480961142552 -0.30470614552786951 0 0.44586491649992599 -0.30285287491241031 0 0.46115480961142552 -0.30470614552786951 0 0.45552371797957858 -0.32829974669232859 0 0.46115480961142552 -0.30470614552786951 0 0.47355327705442363 -0.30064263254509549 0 0.47047270723486828 -0.31618054013934971 0 0.48368316613671419 -0.30147998850575058 0 0.47805253375705409 -0.30894296191987131 0 0.48450098460221053 -0.3174686864892895 0 0.47355327705442363 -0.30064263254509549 0 0.47805253375705409 -0.30894296191987131 0 0.47047270723486828 -0.31618054013934971 0 0.47355327705442363 -0.30064263254509549 0 0.48368316613671419 -0.30147998850575058 0 0.48297679402570831 -0.2911354662528256 0 0.47355327705442363 -0.30064263254509549 0 0.48368316613671419 -0.30147998850575058 0 0.47805253375705409 -0.30894296191987131 0 0.4654854020635687 -0.28364195006972348 0 0.47373651534816968 -0.28175091304455141 0 0.47420608652604562 -0.29052994856257619 0 0.46593127632250358 -0.29316959344365617 0 0.47355327705442363 -0.30064263254509549 0 0.47420608652604562 -0.29052994856257619 0 0.47355327705442363 -0.30064263254509549 0 0.47420608652604562 -0.29052994856257619 0 0.48297679402570831 -0.2911354662528256 0 0.47373651534816968 -0.28175091304455141 0 0.47420608652604562 -0.29052994856257619 0 0.48297679402570831 -0.2911354662528256 0 0.48383931662592849 -0.27939098099761522 0 0.47373651534816968 -0.28175091304455141 0 0.48297679402570831 -0.2911354662528256 0 0.48297679402570831 -0.2911354662528256 0 0.5 -0.28144649156865847 0 0.49352356818213938 -0.29902331411208088 0 0.48383931662592849 -0.27939098099761522 0 0.48297679402570831 -0.2911354662528256 0 0.5 -0.28144649156865847 0 0.5 -0.28144649156865847 0 0.5 -0.30878474430243419 0 0.49352356818213938 -0.29902331411208088 0 0.48368316613671419 -0.30147998850575058 0 0.49352356818213938 -0.29902331411208088 0 0.48450098460221053 -0.3174686864892895 0 0.5 -0.30878474430243419 0 0.49352356818213938 -0.29902331411208088 0 0.48450098460221053 -0.3174686864892895 0 0.49352356818213938 -0.29902331411208088 0 0.48450098460221053 -0.3174686864892895 0 0.48368316613671419 -0.30147998850575058 0 0.48297679402570831 -0.2911354662528256 0 0.49352356818213938 -0.29902331411208088 0 0.5 -0.30878474430243419 0 0.48450098460221053 -0.3174686864892895 0 0.48713292052540852 -0.33044353465333992 0 0.5 -0.30878474430243419 0 0.48713292052540852 -0.33044353465333992 0 0.5 -0.33612299703621001 0 0.48713292052540852 -0.33044353465333992 0 0.48849185160489839 -0.35430703064742403 0 0.48713292052540852 -0.33044353465333992 0 0.48849185160489839 -0.35430703064742403 0 0.47919483547143737 -0.34636019850396321 0 0.48713292052540852 -0.33044353465333992 0 0.5 -0.33612299703621001 0 0.48849185160489839 -0.35430703064742403 0 0.48713292052540852 -0.33044353465333992 0 0.47547840102228162 -0.33591405886649811 0 0.47919483547143737 -0.34636019850396321 0 0.48450098460221053 -0.3174686864892895 0 0.47547840102228162 -0.33591405886649811 0 0.47047270723486828 -0.31618054013934971 0 0.48450098460221053 -0.3174686864892895 0 0.48713292052540852 -0.33044353465333992 0 0.47547840102228162 -0.33591405886649811 0 0.48450098460221053 -0.3174686864892895 0 0.47547840102228162 -0.33591405886649811 0 0.47805253375705409 -0.30894296191987131 0 0.48450098460221053 -0.3174686864892895 0 0.47047270723486828 -0.31618054013934971 0 0.48849185160489839 -0.35430703064742403 0 0.48985078268438842 -0.37817052664150802 0 0.5 -0.36346124976998567 0 0.48849185160489839 -0.35430703064742403 0 0.48985078268438842 -0.37817052664150802 0 0.48849185160489839 -0.35430703064742403 0 0.4776587767682966 -0.36313842020260889 0 0.48985078268438842 -0.37817052664150802 0 0.5 -0.33612299703621001 0 0.5 -0.36346124976998567 0 0.48849185160489839 -0.35430703064742403 0 0.47547840102228162 -0.33591405886649811 0 0.47227506019073612 -0.3511546191108309 0 0.46586983128946219 -0.35555739551881949 0 0.47547840102228162 -0.33591405886649811 0 0.46586983128946219 -0.35555739551881949 0 0.47547840102228162 -0.33591405886649811 0 0.46586983128946219 -0.35555739551881949 0 0.46518251945923478 -0.35374661847224542 0 0.47547840102228162 -0.33591405886649811 0 0.47919483547143737 -0.34636019850396321 0 0.47227506019073612 -0.3511546191108309 0 0.47919483547143737 -0.34636019850396321 0 0.47227506019073612 -0.3511546191108309 0 0.47780570020134489 -0.35406363462096568 0 0.471407976971356 -0.355357904640002 0 0.47780570020134489 -0.35406363462096568 0 0.4776587767682966 -0.36313842020260889 0 0.471407976971356 -0.355357904640002 0 0.4776587767682966 -0.36313842020260889 0 0.46586983128946219 -0.35555739551881949 0 0.47227506019073612 -0.3511546191108309 0 0.471407976971356 -0.355357904640002 0 0.47780570020134489 -0.35406363462096568 0 0.47227506019073612 -0.3511546191108309 0 0.471407976971356 -0.355357904640002 0 0.46586983128946219 -0.35555739551881949 0 0.48849185160489839 -0.35430703064742403 0 0.47780570020134489 -0.35406363462096568 0 0.4776587767682966 -0.36313842020260889 0 0.48849185160489839 -0.35430703064742403 0 0.47919483547143737 -0.34636019850396321 0 0.47780570020134489 -0.35406363462096568 0 0.4776587767682966 -0.36313842020260889 0 0.46586983128946219 -0.35555739551881949 0 0.47476943580743119 -0.37900410322243822 0 0.46586983128946219 -0.35555739551881949 0 0.47476943580743119 -0.37900410322243822 0 0.4776587767682966 -0.36313842020260889 0 0.48985078268438842 -0.37817052664150802 0 0.47476943580743119 -0.37900410322243822 0 0.46586983128946219 -0.35555739551881949 0 0.45550852282695609 -0.3767395980678957 0 0.46586983128946219 -0.35555739551881949 0 0.47476943580743119 -0.37900410322243822 0 0.45550852282695609 -0.3767395980678957 0 0.46586983128946219 -0.35555739551881949 0 0.45036665660694908 -0.36102936301612748 0 0.45550852282695609 -0.3767395980678957 0 0.46586983128946219 -0.35555739551881949 0 0.46518251945923478 -0.35374661847224542 0 0.45036665660694908 -0.36102936301612748 0 0.46586983128946219 -0.35555739551881949 0 0.46518251945923478 -0.35374661847224542 0 0.46518251945923478 -0.35374661847224542 0 0.43900563640547868 -0.34114820987875838 0 0.46518251945923478 -0.35374661847224542 0 0.45036665660694908 -0.36102936301612748 0 0.43900563640547868 -0.34114820987875838 0 0.45036665660694908 -0.36102936301612748 0 0.43900563640547868 -0.34114820987875838 0 0.43558616217091489 -0.36343580511543822 0 0.45036665660694908 -0.36102936301612748 0 0.43558616217091489 -0.36343580511543822 0 0.44159723209460638 -0.38306009444890138 0 0.45036665660694908 -0.36102936301612748 0 0.45550852282695609 -0.3767395980678957 0 0.44159723209460638 -0.38306009444890138 0 0.47547840102228162 -0.33591405886649811 0 0.47047270723486828 -0.31618054013934971 0 0.45552371797957858 -0.32829974669232859 0 0.46115480961142552 -0.30470614552786951 0 0.47047270723486828 -0.31618054013934971 0 0.45552371797957858 -0.32829974669232859 0 0.46518251945923478 -0.35374661847224542 0 0.45552371797957858 -0.32829974669232859 0 0.47547840102228162 -0.33591405886649811 0 0.46518251945923478 -0.35374661847224542 0 0.45552371797957858 -0.32829974669232859 0 0.46518251945923478 -0.35374661847224542 0 0.45552371797957858 -0.32829974669232859 0 0.43900563640547868 -0.34114820987875838 0 0.45552371797957858 -0.32829974669232859 0 0.43900563640547868 -0.34114820987875838 0 0.42989240583796928 -0.31640272819511389 0 0.44586491649992599 -0.30285287491241031 0 0.45552371797957858 -0.32829974669232859 0 0.42989240583796928 -0.31640272819511389 0 0.44586491649992599 -0.30285287491241031 0 0.45552371797957858 -0.32829974669232859 0 0.43900563640547868 -0.34114820987875838 0 0.42989240583796928 -0.31640272819511389 0 0.41282875335172098 -0.32854980128527428 0 0.43900563640547868 -0.34114820987875838 0 0.41282875335172098 -0.32854980128527428 0 0.41993001303308758 -0.35349705317289248 0 0.43900563640547868 -0.34114820987875838 0 0.41282875335172098 -0.32854980128527428 0 0.41282875335172098 -0.32854980128527428 0 0.41993001303308758 -0.35349705317289248 0 0.40195179925030411 -0.34805115737302172 0 0.41282875335172098 -0.32854980128527428 0 0.41993001303308758 -0.35349705317289248 0 0.42989240583796928 -0.31640272819511389 0 0.41282875335172098 -0.32854980128527428 0 0.41751254501875829 -0.31174469676826883 0 0.41282875335172098 -0.32854980128527428 0 0.406128167659219 -0.30501014683437322 0 0.41282875335172098 -0.32854980128527428 0 0.406128167659219 -0.30501014683437322 0 0.41751254501875829 -0.31174469676826883 0 0.43558616217091489 -0.36343580511543822 0 0.41993001303308758 -0.35349705317289248 0 0.4270312727144529 -0.37844430506051108 0 0.41993001303308758 -0.35349705317289248 0 0.4270312727144529 -0.37844430506051108 0 0.43558616217091489 -0.36343580511543822 0 0.44159723209460638 -0.38306009444890138 0 0.4270312727144529 -0.37844430506051108 0 0.43900563640547868 -0.34114820987875838 0 0.43558616217091489 -0.36343580511543822 0 0.41993001303308758 -0.35349705317289248 0 0.41993001303308758 -0.35349705317289248 0 0.40262274741945431 -0.36683850632190862 0 0.40195179925030411 -0.34805115737302172 0 0.41993001303308758 -0.35349705317289248 0 0.40262274741945431 -0.36683850632190862 0 0.4270312727144529 -0.37844430506051108 0 0.40262274741945431 -0.36683850632190862 0 0.40195179925030411 -0.34805115737302172 0 0.38559039182524779 -0.35545426903800958 0 0.40195179925030411 -0.34805115737302172 0 0.38559039182524779 -0.35545426903800958 0 0.38878709062200928 -0.3359161570470236 0 0.38559039182524779 -0.35545426903800958 0 0.37061343502540628 -0.34247307326733301 0 0.36981155149106032 -0.36222490269097402 0 0.38559039182524779 -0.35545426903800958 0 0.38878709062200928 -0.3359161570470236 0 0.37061343502540628 -0.34247307326733301 0 0.38559039182524779 -0.35545426903800958 0 0.38305933897976258 -0.37417935034349592 0 0.36981155149106032 -0.36222490269097402 0 0.40262274741945431 -0.36683850632190862 0 0.38559039182524779 -0.35545426903800958 0 0.38305933897976258 -0.37417935034349592 0 0.41282875335172098 -0.32854980128527428 0 0.38878709062200928 -0.3359161570470236 0 0.39030740729342273 -0.31771072930199429 0 0.41282875335172098 -0.32854980128527428 0 0.39030740729342273 -0.31771072930199429 0 0.41282875335172098 -0.32854980128527428 0 0.39030740729342273 -0.31771072930199429 0 0.406128167659219 -0.30501014683437322 0 0.41282875335172098 -0.32854980128527428 0 0.40195179925030411 -0.34805115737302172 0 0.38878709062200928 -0.3359161570470236 0 0.38878709062200928 -0.3359161570470236 0 0.37192475823844579 -0.32597088461031859 0 0.37061343502540628 -0.34247307326733301 0 0.39030740729342273 -0.31771072930199429 0 0.37508656658834238 -0.31092115305901991 0 0.37192475823844579 -0.32597088461031859 0 0.38878709062200928 -0.3359161570470236 0 0.39030740729342273 -0.31771072930199429 0 0.37192475823844579 -0.32597088461031859 0 0.39030740729342273 -0.31771072930199429 0 0.38611746881543429 -0.29995767293208031 0 0.37508656658834238 -0.31092115305901991 0 0.38611746881543429 -0.29995767293208031 0 0.37508656658834238 -0.31092115305901991 0 0.36903101031159269 -0.29882509064185508 0 0.39030740729342273 -0.31771072930199429 0 0.38611746881543429 -0.29995767293208031 0 0.406128167659219 -0.30501014683437322 0 0.406128167659219 -0.30501014683437322 0 0.39942758196671568 -0.28147049238347249 0 0.38611746881543429 -0.29995767293208031 0 0.406128167659219 -0.30501014683437322 0 0.39942758196671568 -0.28147049238347249 0 0.38611746881543429 -0.29995767293208031 0 0.37602396029607582 -0.28337416429547257 0 0.36903101031159269 -0.29882509064185508 0 0.38611746881543429 -0.29995767293208031 0 0.39942758196671568 -0.28147049238347249 0 0.37602396029607582 -0.28337416429547257 0 0.37602396029607582 -0.28337416429547257 0 0.38572878352625251 -0.27154091899654359 0 0.37186511636961822 -0.26505955947838222 0 0.39942758196671568 -0.28147049238347249 0 0.37602396029607582 -0.28337416429547257 0 0.38572878352625251 -0.27154091899654359 0 0.38192042846566732 -0.24543999264620039 0 0.3805978933470997 -0.25762227971992391 0 0.36708067838860431 -0.25298902242619109 0 0.38572878352625251 -0.27154091899654359 0 0.3805978933470997 -0.25762227971992391 0 0.37186511636961822 -0.26505955947838222 0 0.38572878352625251 -0.27154091899654359 0 0.3805978933470997 -0.25762227971992391 0 0.39272699627421248 -0.25793083793257182 0 0.38192042846566732 -0.24543999264620039 0 0.3805978933470997 -0.25762227971992391 0 0.39272699627421248 -0.25793083793257182 0 0.38192042846566732 -0.24543999264620039 0 0.39272699627421248 -0.25793083793257182 0 0.40542902292810501 -0.25184828369700951 0 0.39272699627421248 -0.25793083793257182 0 0.40311567115978769 -0.26332129569966062 0 0.40542902292810501 -0.25184828369700951 0 0.39942758196671568 -0.28147049238347249 0 0.39272699627421248 -0.25793083793257182 0 0.39942758196671568 -0.28147049238347249 0 0.39272699627421248 -0.25793083793257182 0 0.40311567115978769 -0.26332129569966062 0 0.39942758196671568 -0.28147049238347249 0 0.38572878352625251 -0.27154091899654359 0 0.39272699627421248 -0.25793083793257182 0 0.39942758196671568 -0.28147049238347249 0 0.40311567115978769 -0.26332129569966062 0 0.41341269973449202 -0.26888482006364711 0 0.39942758196671568 -0.28147049238347249 0 0.41341269973449202 -0.26888482006364711 0 0.41904604955328828 -0.28218470499329151 0 0.40311567115978769 -0.26332129569966062 0 0.40542902292810501 -0.25184828369700951 0 0.41341269973449202 -0.26888482006364711 0 0.40542902292810501 -0.25184828369700951 0 0.41341269973449202 -0.26888482006364711 0 0.4289376173905427 -0.25825657474781838 0 0.40542902292810501 -0.25184828369700951 0 0.4289376173905427 -0.25825657474781838 0 0.41490934184888573 -0.24461131412722001 0 0.40542902292810501 -0.25184828369700951 0 0.4289376173905427 -0.25825657474781838 0 0.44531448091032783 -0.26272080199466008 0 0.4289376173905427 -0.25825657474781838 0 0.44531448091032783 -0.26272080199466008 0 0.4289376173905427 -0.25825657474781838 0 0.43620611502027379 -0.27740600313249181 0 0.4289376173905427 -0.25825657474781838 0 0.43620611502027379 -0.27740600313249181 0 0.41341269973449202 -0.26888482006364711 0 0.4289376173905427 -0.25825657474781838 0 0.43620611502027379 -0.27740600313249181 0 0.41341269973449202 -0.26888482006364711 0 0.43620611502027379 -0.27740600313249181 0 0.41904604955328828 -0.28218470499329151 0 0.43620611502027379 -0.27740600313249181 0 0.41887626576520232 -0.29858800735176899 0 0.44586491649992599 -0.30285287491241031 0 0.43620611502027379 -0.27740600313249181 0 0.41887626576520232 -0.29858800735176899 0 0.43620611502027379 -0.27740600313249181 0 0.41887626576520232 -0.29858800735176899 0 0.41904604955328828 -0.28218470499329151 0 0.42989240583796928 -0.31640272819511389 0 0.41887626576520232 -0.29858800735176899 0 0.41751254501875829 -0.31174469676826883 0 0.44586491649992599 -0.30285287491241031 0 0.42989240583796928 -0.31640272819511389 0 0.41887626576520232 -0.29858800735176899 0 0.406128167659219 -0.30501014683437322 0 0.41887626576520232 -0.29858800735176899 0 0.41751254501875829 -0.31174469676826883 0 0.39942758196671568 -0.28147049238347249 0 0.41887626576520232 -0.29858800735176899 0 0.41904604955328828 -0.28218470499329151 0 0.406128167659219 -0.30501014683437322 0 0.39942758196671568 -0.28147049238347249 0 0.41887626576520232 -0.29858800735176899 0 0.5 -0.5 0 0.46225024238860818 -0.46520453013907581 0 0.43683544199416607 -0.5 0 0.46225024238860818 -0.46520453013907581 0 0.43677274109815062 -0.4640659199873361 0 0.43683544199416607 -0.5 0 0.5 -0.5 0 0.47850943149142261 -0.45867572957816821 0 0.46225024238860818 -0.46520453013907581 0 0.5 -0.5 0 0.47850943149142261 -0.45867572957816821 0 0.49422770850838571 -0.45503148997053983 0 0.5 -0.5 0 0.49422770850838571 -0.45503148997053983 0 0.5000000000000091 -0.44547600797131293 0 0.49422770850838571 -0.45503148997053983 0 0.48337392902816378 -0.44329127708824062 0 0.4928247470096257 -0.43039479822739413 0 0.49422770850838571 -0.45503148997053983 0 0.5000000000000091 -0.44547600797131293 0 0.4928247470096257 -0.43039479822739413 0 0.49422770850838571 -0.45503148997053983 0 0.4928247470096257 -0.43039479822739413 0 0.47850943149142261 -0.45867572957816821 0 0.49422770850838571 -0.45503148997053983 0 0.48337392902816378 -0.44329127708824062 0 0.5000000000000091 -0.44547600797131293 0 0.4928247470096257 -0.43039479822739413 0 0.47850943149142261 -0.45867572957816821 0 0.46225024238860818 -0.46520453013907581 0 0.47032078870284022 -0.43405804064729431 0 0.47850943149142261 -0.45867572957816821 0 0.48337392902816378 -0.44329127708824062 0 0.47032078870284022 -0.43405804064729431 0 0.46225024238860818 -0.46520453013907581 0 0.44781683039605452 -0.43772128306719399 0 0.47032078870284022 -0.43405804064729431 0 0.46225024238860818 -0.46520453013907581 0 0.44781683039605452 -0.43772128306719399 0 0.43677274109815062 -0.4640659199873361 0 0.44781683039605452 -0.43772128306719399 0 0.44771029207530139 -0.41958657448316811 0 0.46153486337308069 -0.42194001932857761 0 0.44781683039605452 -0.43772128306719399 0 0.44771029207530139 -0.41958657448316811 0 0.43495468523745429 -0.4281347513455841 0 0.44438889903161671 -0.40909509517368142 0 0.44771029207530139 -0.41958657448316811 0 0.4352063437859976 -0.41632464487164272 0 0.44771029207530139 -0.41958657448316811 0 0.4352063437859976 -0.41632464487164272 0 0.43495468523745429 -0.4281347513455841 0 0.44438889903161671 -0.40909509517368142 0 0.43413253239581823 -0.40339155694812961 0 0.4352063437859976 -0.41632464487164272 0 0.44438889903161671 -0.40909509517368142 0 0.44771029207530139 -0.41958657448316811 0 0.45974811253651487 -0.40825089894849459 0 0.44771029207530139 -0.41958657448316811 0 0.45974811253651487 -0.40825089894849459 0 0.46153486337308069 -0.42194001932857761 0 0.45974811253651487 -0.40825089894849459 0 0.46153486337308069 -0.42194001932857761 0 0.47695557173659958 -0.42014917166754051 0 0.44781683039605452 -0.43772128306719399 0 0.47032078870284022 -0.43405804064729431 0 0.44781683039605452 -0.43772128306719399 0 0.46153486337308069 -0.42194001932857761 0 0.47032078870284022 -0.43405804064729431 0 0.47032078870284022 -0.43405804064729431 0 0.4928247470096257 -0.43039479822739413 0 0.47032078870284022 -0.43405804064729431 0 0.4928247470096257 -0.43039479822739413 0 0.47695557173659958 -0.42014917166754051 0 0.48337392902816378 -0.44329127708824062 0 0.47032078870284022 -0.43405804064729431 0 0.4928247470096257 -0.43039479822739413 0 0.46153486337308069 -0.42194001932857761 0 0.47032078870284022 -0.43405804064729431 0 0.47695557173659958 -0.42014917166754051 0 0.5000000000000091 -0.44547600797131293 0 0.49455979088020668 -0.43011236407867909 0 0.5 -0.41813775523753721 0 0.49256864484336721 -0.42589751862967601 0 0.4928247470096257 -0.43039479822739413 0 0.47695557173659958 -0.42014917166754051 0 0.49256864484336721 -0.42589751862967601 0 0.49455979088020668 -0.43011236407867909 0 0.5 -0.41813775523753721 0 0.49256864484336721 -0.42589751862967601 0 0.4928247470096257 -0.43039479822739413 0 0.49256864484336721 -0.42589751862967601 0 0.4928247470096257 -0.43039479822739413 0 0.49455979088020668 -0.43011236407867909 0 0.5000000000000091 -0.44547600797131293 0 0.4928247470096257 -0.43039479822739413 0 0.49455979088020668 -0.43011236407867909 0 0.4928247470096257 -0.43039479822739413 0 0.49455979088020668 -0.43011236407867909 0 0.49256864484336721 -0.42589751862967601 0 0.48366904032539859 -0.40245081092605728 0 0.49120971376387851 -0.4020340226355919 0 0.49256864484336721 -0.42589751862967601 0 0.47695557173659958 -0.42014917166754051 0 0.48366904032539859 -0.40245081092605728 0 0.49256864484336721 -0.42589751862967601 0 0.48366904032539859 -0.40245081092605728 0 0.49256864484336721 -0.42589751862967601 0 0.5 -0.41813775523753721 0 0.49120971376387851 -0.4020340226355919 0 0.49256864484336721 -0.42589751862967601 0 0.49120971376387851 -0.4020340226355919 0 0.45974811253651487 -0.40825089894849459 0 0.47695557173659958 -0.42014917166754051 0 0.48366904032539859 -0.40245081092605728 0 0.45974811253651487 -0.40825089894849459 0 0.48366904032539859 -0.40245081092605728 0 0.46376846517215042 -0.39287344235637162 0 0.48366904032539859 -0.40245081092605728 0 0.47476943580743119 -0.37900410322243822 0 0.48366904032539859 -0.40245081092605728 0 0.47476943580743119 -0.37900410322243822 0 0.46376846517215042 -0.39287344235637162 0 0.5 -0.41813775523753721 0 0.49120971376387851 -0.4020340226355919 0 0.5 -0.39079950250376139 0 0.48366904032539859 -0.40245081092605728 0 0.49120971376387851 -0.4020340226355919 0 0.48985078268438842 -0.37817052664150802 0 0.49120971376387851 -0.4020340226355919 0 0.5 -0.39079950250376139 0 0.48985078268438842 -0.37817052664150802 0 0.49120971376387851 -0.4020340226355919 0 0.48985078268438842 -0.37817052664150802 0 0.5 -0.36346124976998567 0 0.5 -0.39079950250376139 0 0.48985078268438842 -0.37817052664150802 0 0.48366904032539859 -0.40245081092605728 0 0.48985078268438842 -0.37817052664150802 0 0.47476943580743119 -0.37900410322243822 0 0.47476943580743119 -0.37900410322243822 0 0.45550852282695609 -0.3767395980678957 0 0.46376846517215042 -0.39287344235637162 0 0.45550852282695609 -0.3767395980678957 0 0.46376846517215042 -0.39287344235637162 0 0.44514721436445109 -0.39792180061697219 0 0.45974811253651487 -0.40825089894849459 0 0.46376846517215042 -0.39287344235637162 0 0.44514721436445109 -0.39792180061697219 0 0.44514721436445109 -0.39792180061697219 0 0.44159723209460638 -0.38306009444890138 0 0.43413253239581823 -0.40339155694812961 0 0.44438889903161671 -0.40909509517368142 0 0.45974811253651487 -0.40825089894849459 0 0.44514721436445109 -0.39792180061697219 0 0.44438889903161671 -0.40909509517368142 0 0.44514721436445109 -0.39792180061697219 0 0.43413253239581823 -0.40339155694812961 0 0.45550852282695609 -0.3767395980678957 0 0.44514721436445109 -0.39792180061697219 0 0.44159723209460638 -0.38306009444890138 0 0.45550852282695609 -0.3767395980678957 0 0.44514721436445109 -0.39792180061697219 0 0.44159723209460638 -0.38306009444890138 0 0.4270312727144529 -0.37844430506051108 0 0.43413253239581823 -0.40339155694812961 0 0.4270312727144529 -0.37844430506051108 0 0.43413253239581823 -0.40339155694812961 0 0.4270312727144529 -0.37844430506051108 0 0.43413253239581823 -0.40339155694812961 0 0.41804256064799178 -0.40540904746478879 0 0.41804256064799178 -0.40540904746478879 0 0.4010270706807153 -0.3908934740775355 0 0.40382412755545749 -0.4132060737712574 0 0.4270312727144529 -0.37844430506051108 0 0.41804256064799178 -0.40540904746478879 0 0.4010270706807153 -0.3908934740775355 0 0.40262274741945431 -0.36683850632190862 0 0.4270312727144529 -0.37844430506051108 0 0.4010270706807153 -0.3908934740775355 0 0.40262274741945431 -0.36683850632190862 0 0.38305933897976258 -0.37417935034349592 0 0.4010270706807153 -0.3908934740775355 0 0.38305933897976258 -0.37417935034349592 0 0.37995747664852791 -0.39234167225400152 0 0.4010270706807153 -0.3908934740775355 0 0.37995747664852791 -0.39234167225400152 0 0.38099006503018851 -0.4149747993488343 0 0.36455228135697493 -0.40141086651424018 0 0.37995747664852791 -0.39234167225400152 0 0.39155104550725761 -0.40303891030281891 0 0.38099006503018851 -0.4149747993488343 0 0.37995747664852791 -0.39234167225400152 0 0.4010270706807153 -0.3908934740775355 0 0.39155104550725761 -0.40303891030281891 0 0.4010270706807153 -0.3908934740775355 0 0.39155104550725761 -0.40303891030281891 0 0.40382412755545749 -0.4132060737712574 0 0.39155104550725761 -0.40303891030281891 0 0.40382412755545749 -0.4132060737712574 0 0.38099006503018851 -0.4149747993488343 0 0.40382412755545749 -0.4132060737712574 0 0.38099006503018851 -0.4149747993488343 0 0.39173675017335402 -0.43061038075138419 0 0.39173675017335402 -0.43061038075138419 0 0.38517860955844091 -0.44695811604670499 0 0.37222945901978832 -0.43447275427706489 0 0.38099006503018851 -0.4149747993488343 0 0.39173675017335402 -0.43061038075138419 0 0.37222945901978832 -0.43447275427706489 0 0.39173675017335402 -0.43061038075138419 0 0.40870072066453922 -0.42958160957424152 0 0.40280891378248301 -0.44504776790699391 0 0.40382412755545749 -0.4132060737712574 0 0.39173675017335402 -0.43061038075138419 0 0.40870072066453922 -0.42958160957424152 0 0.40870072066453922 -0.42958160957424152 0 0.42185659562765199 -0.42174540005300071 0 0.42531287208926871 -0.44138452548709389 0 0.41804256064799178 -0.40540904746478879 0 0.40382412755545749 -0.4132060737712574 0 0.42185659562765199 -0.42174540005300071 0 0.40382412755545749 -0.4132060737712574 0 0.40870072066453922 -0.42958160957424152 0 0.42185659562765199 -0.42174540005300071 0 0.43413253239581823 -0.40339155694812961 0 0.41804256064799178 -0.40540904746478879 0 0.4352063437859976 -0.41632464487164272 0 0.41804256064799178 -0.40540904746478879 0 0.42185659562765199 -0.42174540005300071 0 0.4352063437859976 -0.41632464487164272 0 0.42185659562765199 -0.42174540005300071 0 0.43495468523745429 -0.4281347513455841 0 0.42531287208926871 -0.44138452548709389 0 0.42185659562765199 -0.42174540005300071 0 0.4352063437859976 -0.41632464487164272 0 0.43495468523745429 -0.4281347513455841 0 0.44781683039605452 -0.43772128306719399 0 0.43495468523745429 -0.4281347513455841 0 0.42531287208926871 -0.44138452548709389 0 0.43683544199416607 -0.5 0 0.40919089301406508 -0.47318428070428048 0 0.35777592704015332 -0.500000000000002 0 0.42531287208926871 -0.44138452548709389 0 0.40280891378248301 -0.44504776790699391 0 0.40919089301406508 -0.47318428070428048 0 0.42531287208926871 -0.44138452548709389 0 0.43677274109815062 -0.4640659199873361 0 0.40919089301406508 -0.47318428070428048 0 0.44781683039605452 -0.43772128306719399 0 0.42531287208926871 -0.44138452548709389 0 0.44781683039605452 -0.43772128306719399 0 0.42531287208926871 -0.44138452548709389 0 0.43677274109815062 -0.4640659199873361 0 0.40870072066453922 -0.42958160957424152 0 0.42531287208926871 -0.44138452548709389 0 0.40280891378248301 -0.44504776790699391 0 0.42531287208926871 -0.44138452548709389 0 0.40280891378248301 -0.44504776790699391 0 0.39173675017335402 -0.43061038075138419 0 0.40280891378248301 -0.44504776790699391 0 0.38517860955844091 -0.44695811604670499 0 0.40280891378248301 -0.44504776790699391 0 0.38517860955844091 -0.44695811604670499 0 0.39438278556109041 -0.45895732735376471 0 0.38517860955844091 -0.44695811604670499 0 0.37035330638319458 -0.45205965440640927 0 0.37222945901978832 -0.43447275427706489 0 0.38517860955844091 -0.44695811604670499 0 0.38045644255049288 -0.46799209832549771 0 0.39438278556109041 -0.45895732735376471 0 0.38517860955844091 -0.44695811604670499 0 0.38045644255049288 -0.46799209832549771 0 0.37035330638319458 -0.45205965440640927 0 0.40280891378248301 -0.44504776790699391 0 0.39438278556109041 -0.45895732735376471 0 0.40919089301406508 -0.47318428070428048 0 0.38045644255049288 -0.46799209832549771 0 0.39438278556109041 -0.45895732735376471 0 0.40919089301406508 -0.47318428070428048 0 0.38045644255049288 -0.46799209832549771 0 0.40919089301406508 -0.47318428070428048 0 0.35777592704015332 -0.500000000000002 0 0.43677274109815062 -0.4640659199873361 0 0.43683544199416607 -0.5 0 0.40919089301406508 -0.47318428070428048 0 0.32137485765403923 -0.48858941347789542 0 0.3287132038726478 -0.5 0 0.29965048070514272 -0.5 0 0.32137485765403923 -0.48858941347789542 0 0.32936942652749079 -0.47762858875845748 0 0.33124907842918477 -0.48862485016785789 0 0.32137485765403923 -0.48858941347789542 0 0.33124907842918477 -0.48862485016785789 0 0.3287132038726478 -0.5 0 0.32137485765403923 -0.48858941347789542 0 0.32936942652749079 -0.47762858875845748 0 0.30993666574033168 -0.48129417011336001 0 0.32544117304952669 -0.47453491046544061 0 0.32936942652749079 -0.47762858875845748 0 0.30993666574033168 -0.48129417011336001 0 0.32936942652749079 -0.47762858875845748 0 0.30993666574033168 -0.48129417011336001 0 0.32544117304952669 -0.47453491046544061 0 0.3132807453039213 -0.46780299391090452 0 0.30993666574033168 -0.48129417011336001 0 0.32544117304952669 -0.47453491046544061 0 0.3271737384416985 -0.47432192917279598 0 0.3132807453039213 -0.46780299391090452 0 0.32544117304952669 -0.47453491046544061 0 0.32936942652749079 -0.47762858875845748 0 0.32544117304952669 -0.47453491046544061 0 0.3271737384416985 -0.47432192917279598 0 0.32936942652749079 -0.47762858875845748 0 0.32936942652749079 -0.47762858875845748 0 0.34357267678382181 -0.48881429437923007 0 0.35491293453899192 -0.47281034354197798 0 0.33519564170093119 -0.47154640747749682 0 0.35491293453899192 -0.47281034354197798 0 0.33941085133387 -0.46491618195243578 0 0.32936942652749079 -0.47762858875845748 0 0.33519564170093119 -0.47154640747749682 0 0.35491293453899192 -0.47281034354197798 0 0.32936942652749079 -0.47762858875845748 0 0.35491293453899192 -0.47281034354197798 0 0.3271737384416985 -0.47432192917279598 0 0.33052435606148789 -0.47180917184587468 0 0.3298629733050088 -0.46768264471575183 0 0.33052435606148789 -0.47180917184587468 0 0.33519564170093119 -0.47154640747749682 0 0.3298629733050088 -0.46768264471575183 0 0.32936942652749079 -0.47762858875845748 0 0.33056579068290209 -0.47382652431365618 0 0.33519564170093119 -0.47154640747749682 0 0.3271737384416985 -0.47432192917279598 0 0.33052435606148789 -0.47180917184587468 0 0.33056579068290209 -0.47382652431365618 0 0.3271737384416985 -0.47432192917279598 0 0.32936942652749079 -0.47762858875845748 0 0.33056579068290209 -0.47382652431365618 0 0.33052435606148789 -0.47180917184587468 0 0.33056579068290209 -0.47382652431365618 0 0.33519564170093119 -0.47154640747749682 0 0.32936942652749079 -0.47762858875845748 0 0.34357267678382181 -0.48881429437923007 0 0.34357267678382181 -0.48881429437923007 0 0.3287132038726478 -0.5 0 0.35777592704015332 -0.500000000000002 0 0.32936942652749079 -0.47762858875845748 0 0.34357267678382181 -0.48881429437923007 0 0.33124907842918477 -0.48862485016785789 0 0.34357267678382181 -0.48881429437923007 0 0.33124907842918477 -0.48862485016785789 0 0.3287132038726478 -0.5 0 0.34357267678382181 -0.48881429437923007 0 0.35777592704015332 -0.500000000000002 0 0.35491293453899192 -0.47281034354197798 0 0.34357267678382181 -0.48881429437923007 0 0.35777592704015332 -0.500000000000002 0 0.38045644255049288 -0.46799209832549771 0 0.35777592704015332 -0.500000000000002 0 0.35491293453899192 -0.47281034354197798 0 0.38045644255049288 -0.46799209832549771 0 0.35491293453899192 -0.47281034354197798 0 0.35491293453899192 -0.47281034354197798 0 0.3494694015032408 -0.4656687677344345 0 0.33941085133387 -0.46491618195243578 0 0.35835432026999081 -0.46436785442661488 0 0.33921926687508941 -0.44485931275233381 0 0.3494694015032408 -0.4656687677344345 0 0.35835432026999081 -0.46436785442661488 0 0.33921926687508941 -0.44485931275233381 0 0.35491293453899192 -0.47281034354197798 0 0.3494694015032408 -0.4656687677344345 0 0.35835432026999081 -0.46436785442661488 0 0.38045644255049288 -0.46799209832549771 0 0.35491293453899192 -0.47281034354197798 0 0.35835432026999081 -0.46436785442661488 0 0.38045644255049288 -0.46799209832549771 0 0.35835432026999081 -0.46436785442661488 0 0.37035330638319458 -0.45205965440640927 0 0.35835432026999081 -0.46436785442661488 0 0.37035330638319458 -0.45205965440640927 0 0.35819645157252272 -0.44590439007892568 0 0.37035330638319458 -0.45205965440640927 0 0.35819645157252272 -0.44590439007892568 0 0.37222945901978832 -0.43447275427706489 0 0.35835432026999081 -0.46436785442661488 0 0.35819645157252272 -0.44590439007892568 0 0.33921926687508941 -0.44485931275233381 0 0.35819645157252272 -0.44590439007892568 0 0.33921926687508941 -0.44485931275233381 0 0.35581546462204039 -0.42990897546189238 0 0.3494694015032408 -0.4656687677344345 0 0.33921926687508941 -0.44485931275233381 0 0.33941085133387 -0.46491618195243578 0 0.33921926687508941 -0.44485931275233381 0 0.33941085133387 -0.46491618195243578 0 0.32650911963217538 -0.46032040378612549 0 0.33941085133387 -0.46491618195243578 0 0.3298629733050088 -0.46768264471575183 0 0.32650911963217538 -0.46032040378612549 0 0.33519564170093119 -0.47154640747749682 0 0.33941085133387 -0.46491618195243578 0 0.3298629733050088 -0.46768264471575183 0 0.3271737384416985 -0.47432192917279598 0 0.31403628311049753 -0.45392409387970051 0 0.3271737384416985 -0.47432192917279598 0 0.32650911963217538 -0.46032040378612549 0 0.31403628311049753 -0.45392409387970051 0 0.3271737384416985 -0.47432192917279598 0 0.31403628311049753 -0.45392409387970051 0 0.3132807453039213 -0.46780299391090452 0 0.3271737384416985 -0.47432192917279598 0 0.3298629733050088 -0.46768264471575183 0 0.32650911963217538 -0.46032040378612549 0 0.32650911963217538 -0.46032040378612549 0 0.31403628311049753 -0.45392409387970051 0 0.31795205013821809 -0.43982619440505211 0 0.33921926687508941 -0.44485931275233381 0 0.32650911963217538 -0.46032040378612549 0 0.31795205013821809 -0.43982619440505211 0 0.33921926687508941 -0.44485931275233381 0 0.31795205013821809 -0.43982619440505211 0 0.3200842134801879 -0.42535077107805258 0 0.31795205013821809 -0.43982619440505211 0 0.3200842134801879 -0.42535077107805258 0 0.30858404747570689 -0.42858677595355488 0 0.3200842134801879 -0.42535077107805258 0 0.30914367370564089 -0.42404694316141051 0 0.30858404747570689 -0.42858677595355488 0 0.3200842134801879 -0.42535077107805258 0 0.31706334341165288 -0.40917517842998768 0 0.32813229365035479 -0.4146924429219695 0 0.3200842134801879 -0.42535077107805258 0 0.31706334341165288 -0.40917517842998768 0 0.30094916008528649 -0.4058422294037714 0 0.31706334341165288 -0.40917517842998768 0 0.32813229365035479 -0.4146924429219695 0 0.32796325111332991 -0.40313447785279038 0 0.32813229365035479 -0.4146924429219695 0 0.33740159628078059 -0.4123023212436695 0 0.33814906396582239 -0.42349946600534732 0 0.3200842134801879 -0.42535077107805258 0 0.32813229365035479 -0.4146924429219695 0 0.33814906396582239 -0.42349946600534732 0 0.32813229365035479 -0.4146924429219695 0 0.33740159628078059 -0.4123023212436695 0 0.32796325111332991 -0.40313447785279038 0 0.33740159628078059 -0.4123023212436695 0 0.35205818399222988 -0.41238476458858059 0 0.34050000314258599 -0.40237501593151981 0 0.33740159628078059 -0.4123023212436695 0 0.33814906396582239 -0.42349946600534732 0 0.35205818399222988 -0.41238476458858059 0 0.33921926687508941 -0.44485931275233381 0 0.3200842134801879 -0.42535077107805258 0 0.33814906396582239 -0.42349946600534732 0 0.33921926687508941 -0.44485931275233381 0 0.3200842134801879 -0.42535077107805258 0 0.33814906396582239 -0.42349946600534732 0 0.35581546462204039 -0.42990897546189238 0 0.35205818399222988 -0.41238476458858059 0 0.33921926687508941 -0.44485931275233381 0 0.33814906396582239 -0.42349946600534732 0 0.35581546462204039 -0.42990897546189238 0 0.38099006503018851 -0.4149747993488343 0 0.37222945901978832 -0.43447275427706489 0 0.36512909080424438 -0.41863043203812239 0 0.35581546462204039 -0.42990897546189238 0 0.37222945901978832 -0.43447275427706489 0 0.36512909080424438 -0.41863043203812239 0 0.35819645157252272 -0.44590439007892568 0 0.35581546462204039 -0.42990897546189238 0 0.37222945901978832 -0.43447275427706489 0 0.38099006503018851 -0.4149747993488343 0 0.36512909080424438 -0.41863043203812239 0 0.36455228135697493 -0.40141086651424018 0 0.36512909080424438 -0.41863043203812239 0 0.35205818399222988 -0.41238476458858059 0 0.36455228135697493 -0.40141086651424018 0 0.35581546462204039 -0.42990897546189238 0 0.36512909080424438 -0.41863043203812239 0 0.35205818399222988 -0.41238476458858059 0 0.35205818399222988 -0.41238476458858059 0 0.34887226323670611 -0.39289928323642759 0 0.36455228135697493 -0.40141086651424018 0 0.35205818399222988 -0.41238476458858059 0 0.34887226323670611 -0.39289928323642759 0 0.34050000314258599 -0.40237501593151981 0 0.37995747664852791 -0.39234167225400152 0 0.36455228135697493 -0.40141086651424018 0 0.35934679581357032 -0.3773232776785469 0 0.38305933897976258 -0.37417935034349592 0 0.37995747664852791 -0.39234167225400152 0 0.35934679581357032 -0.3773232776785469 0 0.34887226323670611 -0.39289928323642759 0 0.36455228135697493 -0.40141086651424018 0 0.35934679581357032 -0.3773232776785469 0 0.34887226323670611 -0.39289928323642759 0 0.35934679581357032 -0.3773232776785469 0 0.34362200193609821 -0.37841347551165178 0 0.34362200193609821 -0.37841347551165178 0 0.3315270697590138 -0.38465525931112238 0 0.32803069787284039 -0.36626837443597088 0 0.34887226323670611 -0.39289928323642759 0 0.34362200193609821 -0.37841347551165178 0 0.3315270697590138 -0.38465525931112238 0 0.34887226323670611 -0.39289928323642759 0 0.3315270697590138 -0.38465525931112238 0 0.34050000314258599 -0.40237501593151981 0 0.3315270697590138 -0.38465525931112238 0 0.34050000314258599 -0.40237501593151981 0 0.32796325111332991 -0.40313447785279038 0 0.33740159628078059 -0.4123023212436695 0 0.34050000314258599 -0.40237501593151981 0 0.32796325111332991 -0.40313447785279038 0 0.3315270697590138 -0.38465525931112238 0 0.32796325111332991 -0.40313447785279038 0 0.31599732484740878 -0.39275448849601152 0 0.31706334341165288 -0.40917517842998768 0 0.32796325111332991 -0.40313447785279038 0 0.31599732484740878 -0.39275448849601152 0 0.31706334341165288 -0.40917517842998768 0 0.31599732484740878 -0.39275448849601152 0 0.31005342406454611 -0.40244582220376912 0 0.3315270697590138 -0.38465525931112238 0 0.31825973606703251 -0.37578048989938168 0 0.32803069787284039 -0.36626837443597088 0 0.3315270697590138 -0.38465525931112238 0 0.31599732484740878 -0.39275448849601152 0 0.31825973606703251 -0.37578048989938168 0 0.31599732484740878 -0.39275448849601152 0 0.31825973606703251 -0.37578048989938168 0 0.30540372259723397 -0.37869268164490127 0 0.3315270697590138 -0.38465525931112238 0 0.31599732484740878 -0.39275448849601152 0 0.30540372259723397 -0.37869268164490127 0 0.30046757993580359 -0.40085371768090011 0 0.29162590504863972 -0.38782528638636499 0 0.30540372259723397 -0.37869268164490127 0 0.30046757993580359 -0.40085371768090011 0 0.31599732484740878 -0.39275448849601152 0 0.30540372259723397 -0.37869268164490127 0 0.30046757993580359 -0.40085371768090011 0 0.31599732484740878 -0.39275448849601152 0 0.30046757993580359 -0.40085371768090011 0 0.31706334341165288 -0.40917517842998768 0 0.31005342406454611 -0.40244582220376912 0 0.30094916008528649 -0.4058422294037714 0 0.31599732484740878 -0.39275448849601152 0 0.31005342406454611 -0.40244582220376912 0 0.30046757993580359 -0.40085371768090011 0 0.31005342406454611 -0.40244582220376912 0 0.30094916008528649 -0.4058422294037714 0 0.30046757993580359 -0.40085371768090011 0 0.30046757993580359 -0.40085371768090011 0 0.28931331009162231 -0.39828180967887572 0 0.29162590504863972 -0.38782528638636499 0 0.28931331009162231 -0.39828180967887572 0 0.28329547396522609 -0.39261629595105779 0 0.28503834787604482 -0.40890052638962132 0 0.30046757993580359 -0.40085371768090011 0 0.28503834787604482 -0.40890052638962132 0 0.30046757993580359 -0.40085371768090011 0 0.28931331009162231 -0.39828180967887572 0 0.28503834787604482 -0.40890052638962132 0 0.28931331009162231 -0.39828180967887572 0 0.28329547396522609 -0.39261629595105779 0 0.29162590504863972 -0.38782528638636499 0 0.28329547396522609 -0.39261629595105779 0 0.29162590504863972 -0.38782528638636499 0 0.28169355432625692 -0.38092346919454811 0 0.30540372259723397 -0.37869268164490127 0 0.29162590504863972 -0.38782528638636499 0 0.29275331210553301 -0.37534973710015562 0 0.29162590504863972 -0.38782528638636499 0 0.29275331210553301 -0.37534973710015562 0 0.28169355432625692 -0.38092346919454811 0 0.28169355432625692 -0.38092346919454811 0 0.27232583585465059 -0.38916247820322442 0 0.27243016697318528 -0.37365044705546191 0 0.27232583585465059 -0.38916247820322442 0 0.25961332383325691 -0.36942443001682712 0 0.27232583585465059 -0.38916247820322442 0 0.27243016697318528 -0.37365044705546191 0 0.25961332383325691 -0.36942443001682712 0 0.28329547396522609 -0.39261629595105779 0 0.28169355432625692 -0.38092346919454811 0 0.27232583585465059 -0.38916247820322442 0 0.27232583585465059 -0.38916247820322442 0 0.25761262313876049 -0.38567315420765758 0 0.25961332383325691 -0.36942443001682712 0 0.25761262313876049 -0.38567315420765758 0 0.25961332383325691 -0.36942443001682712 0 0.2482611573537368 -0.3784260541210292 0 0.25761262313876049 -0.38567315420765758 0 0.26723658638080883 -0.39882092754878312 0 0.24086839371777799 -0.3898280133623393 0 0.26723658638080883 -0.39882092754878312 0 0.24086839371777799 -0.3898280133623393 0 0.25120355743271172 -0.4026778476323678 0 0.26723658638080883 -0.39882092754878312 0 0.24086839371777799 -0.3898280133623393 0 0.25120355743271172 -0.4026778476323678 0 0.26723658638080883 -0.39882092754878312 0 0.26112703507310597 -0.40867654060033271 0 0.28329547396522609 -0.39261629595105779 0 0.27232583585465059 -0.38916247820322442 0 0.28503834787604482 -0.40890052638962132 0 0.27232583585465059 -0.38916247820322442 0 0.26723658638080883 -0.39882092754878312 0 0.28503834787604482 -0.40890052638962132 0 0.26723658638080883 -0.39882092754878312 0 0.26112703507310597 -0.40867654060033271 0 0.28503834787604482 -0.40890052638962132 0 0.27232583585465059 -0.38916247820322442 0 0.28503834787604482 -0.40890052638962132 0 0.27232583585465059 -0.38916247820322442 0 0.25761262313876049 -0.38567315420765758 0 0.26723658638080883 -0.39882092754878312 0 0.26112703507310597 -0.40867654060033271 0 0.2638604282933803 -0.41994544859120148 0 0.28503834787604482 -0.40890052638962132 0 0.2638604282933803 -0.41994544859120148 0 0.27616650505884938 -0.42811011303125229 0 0.28503834787604482 -0.40890052638962132 0 0.2638604282933803 -0.41994544859120148 0 0.28503834787604482 -0.40890052638962132 0 0.26112703507310597 -0.40867654060033271 0 0.2638604282933803 -0.41994544859120148 0 0.2416344071284621 -0.41628710500676902 0 0.25120355743271172 -0.4026778476323678 0 0.26112703507310597 -0.40867654060033271 0 0.2416344071284621 -0.41628710500676902 0 0.2638604282933803 -0.41994544859120148 0 0.24639694347105889 -0.43653412957101873 0 0.2416344071284621 -0.41628710500676902 0 0.2638604282933803 -0.41994544859120148 0 0.26402263480077282 -0.43908343025305913 0 0.24639694347105889 -0.43653412957101873 0 0.27616650505884938 -0.42811011303125229 0 0.28557519257173342 -0.42855522531238871 0 0.27819604165329032 -0.44811790621947573 0 0.2638604282933803 -0.41994544859120148 0 0.27616650505884938 -0.42811011303125229 0 0.26402263480077282 -0.43908343025305913 0 0.29330406971720302 -0.43301462124210532 0 0.28557519257173342 -0.42855522531238871 0 0.27819604165329032 -0.44811790621947573 0 0.29330406971720302 -0.43301462124210532 0 0.29517099855327938 -0.42463295967948911 0 0.30089882777929639 -0.43352625858660487 0 0.29330406971720302 -0.43301462124210532 0 0.29517099855327938 -0.42463295967948911 0 0.29330406971720302 -0.43301462124210532 0 0.29517099855327938 -0.42463295967948911 0 0.28557519257173342 -0.42855522531238871 0 0.27616650505884938 -0.42811011303125229 0 0.28557519257173342 -0.42855522531238871 0 0.28503834787604482 -0.40890052638962132 0 0.29517099855327938 -0.42463295967948911 0 0.28503834787604482 -0.40890052638962132 0 0.30046757993580359 -0.40085371768090011 0 0.29517099855327938 -0.42463295967948911 0 0.28503834787604482 -0.40890052638962132 0 0.29517099855327938 -0.42463295967948911 0 0.28557519257173342 -0.42855522531238871 0 0.28503834787604482 -0.40890052638962132 0 0.30094916008528649 -0.4058422294037714 0 0.29517099855327938 -0.42463295967948911 0 0.30463390012857949 -0.41725904862889662 0 0.30094916008528649 -0.4058422294037714 0 0.30046757993580359 -0.40085371768090011 0 0.29517099855327938 -0.42463295967948911 0 0.3200842134801879 -0.42535077107805258 0 0.30094916008528649 -0.4058422294037714 0 0.30463390012857949 -0.41725904862889662 0 0.30046757993580359 -0.40085371768090011 0 0.29517099855327938 -0.42463295967948911 0 0.3200842134801879 -0.42535077107805258 0 0.30094916008528649 -0.4058422294037714 0 0.31795205013821809 -0.43982619440505211 0 0.30858404747570689 -0.42858677595355488 0 0.30089882777929639 -0.43352625858660487 0 0.3200842134801879 -0.42535077107805258 0 0.30463390012857949 -0.41725904862889662 0 0.30914367370564089 -0.42404694316141051 0 0.30463390012857949 -0.41725904862889662 0 0.30914367370564089 -0.42404694316141051 0 0.30327253373808932 -0.42499117698513739 0 0.30914367370564089 -0.42404694316141051 0 0.30858404747570689 -0.42858677595355488 0 0.30327253373808932 -0.42499117698513739 0 0.30858404747570689 -0.42858677595355488 0 0.30089882777929639 -0.43352625858660487 0 0.29517099855327938 -0.42463295967948911 0 0.30089882777929639 -0.43352625858660487 0 0.30858404747570689 -0.42858677595355488 0 0.30089882777929639 -0.43352625858660487 0 0.30327253373808932 -0.42499117698513739 0 0.29517099855327938 -0.42463295967948911 0 0.30089882777929639 -0.43352625858660487 0 0.30327253373808932 -0.42499117698513739 0 0.29517099855327938 -0.42463295967948911 0 0.30463390012857949 -0.41725904862889662 0 0.30327253373808932 -0.42499117698513739 0 0.31403628311049753 -0.45392409387970051 0 0.30089882777929639 -0.43352625858660487 0 0.29615608849467301 -0.44944585489463001 0 0.31403628311049753 -0.45392409387970051 0 0.30089882777929639 -0.43352625858660487 0 0.31403628311049753 -0.45392409387970051 0 0.31795205013821809 -0.43982619440505211 0 0.30089882777929639 -0.43352625858660487 0 0.31403628311049753 -0.45392409387970051 0 0.29690631839069098 -0.46426877337596922 0 0.29615608849467301 -0.44944585489463001 0 0.31403628311049753 -0.45392409387970051 0 0.3132807453039213 -0.46780299391090452 0 0.29690631839069098 -0.46426877337596922 0 0.29690631839069098 -0.46426877337596922 0 0.27819604165329032 -0.44811790621947573 0 0.28201925510928882 -0.4716566477463715 0 0.29690631839069098 -0.46426877337596922 0 0.29615608849467301 -0.44944585489463001 0 0.27819604165329032 -0.44811790621947573 0 0.30089882777929639 -0.43352625858660487 0 0.27819604165329032 -0.44811790621947573 0 0.30089882777929639 -0.43352625858660487 0 0.29615608849467301 -0.44944585489463001 0 0.27819604165329032 -0.44811790621947573 0 0.29330406971720302 -0.43301462124210532 0 0.30089882777929639 -0.43352625858660487 0 0.27819604165329032 -0.44811790621947573 0 0.27819604165329032 -0.44811790621947573 0 0.26402263480077282 -0.43908343025305913 0 0.25549325552728491 -0.46270955385234708 0 0.27616650505884938 -0.42811011303125229 0 0.27819604165329032 -0.44811790621947573 0 0.26402263480077282 -0.43908343025305913 0 0.26402263480077282 -0.43908343025305913 0 0.25549325552728491 -0.46270955385234708 0 0.24639694347105889 -0.43653412957101873 0 0.27819604165329032 -0.44811790621947573 0 0.25549325552728491 -0.46270955385234708 0 0.28201925510928882 -0.4716566477463715 0 0.27819604165329032 -0.44811790621947573 0 0.25549325552728491 -0.46270955385234708 0 0.26451958633262679 -0.47871138812644132 0 0.27511175345082578 -0.48525543005453059 0 0.28201925510928882 -0.4716566477463715 0 0.25549325552728491 -0.46270955385234708 0 0.26451958633262679 -0.47871138812644132 0 0.28201925510928882 -0.4716566477463715 0 0.26451958633262679 -0.47871138812644132 0 0.25502000783005868 -0.49444731339393849 0 0.2495977460456692 -0.47849405291595459 0 0.25549325552728491 -0.46270955385234708 0 0.26451958633262679 -0.47871138812644132 0 0.2495977460456692 -0.47849405291595459 0 0.25502000783005868 -0.49444731339393849 0 0.27058775753763742 -0.5 0 0.24152503437013231 -0.5 0 0.26451958633262679 -0.47871138812644132 0 0.25502000783005868 -0.49444731339393849 0 0.27511175345082578 -0.48525543005453059 0 0.25502000783005868 -0.49444731339393849 0 0.27058775753763742 -0.5 0 0.28349601302898231 -0.49650204953763971 0 0.25502000783005868 -0.49444731339393849 0 0.27511175345082578 -0.48525543005453059 0 0.28349601302898231 -0.49650204953763971 0 0.25502000783005868 -0.49444731339393849 0 0.28349601302898231 -0.49650204953763971 0 0.27058775753763742 -0.5 0 0.28349601302898231 -0.49650204953763971 0 0.29965048070514272 -0.5 0 0.28349601302898231 -0.49650204953763971 0 0.2905039049531723 -0.48495975146826159 0 0.29965048070514272 -0.5 0 0.27511175345082578 -0.48525543005453059 0 0.28349601302898231 -0.49650204953763971 0 0.2905039049531723 -0.48495975146826159 0 0.29690631839069098 -0.46426877337596922 0 0.28201925510928882 -0.4716566477463715 0 0.29878135905470499 -0.4754137739604537 0 0.27511175345082578 -0.48525543005453059 0 0.2905039049531723 -0.48495975146826159 0 0.28201925510928882 -0.4716566477463715 0 0.2905039049531723 -0.48495975146826159 0 0.28201925510928882 -0.4716566477463715 0 0.29878135905470499 -0.4754137739604537 0 0.2905039049531723 -0.48495975146826159 0 0.30993666574033168 -0.48129417011336001 0 0.3132807453039213 -0.46780299391090452 0 0.29690631839069098 -0.46426877337596922 0 0.29878135905470499 -0.4754137739604537 0 0.2905039049531723 -0.48495975146826159 0 0.29878135905470499 -0.4754137739604537 0 0.30993666574033168 -0.48129417011336001 0 0.3132807453039213 -0.46780299391090452 0 0.29878135905470499 -0.4754137739604537 0 0.30993666574033168 -0.48129417011336001 0 0.2905039049531723 -0.48495975146826159 0 0.30993666574033168 -0.48129417011336001 0 0.29965048070514272 -0.5 0 0.32137485765403923 -0.48858941347789542 0 0.30993666574033168 -0.48129417011336001 0 0.29965048070514272 -0.5 0 0.33383412608754109 -0.29374075107576431 0 0.34044222845996258 -0.28076006146415078 0 0.35300639167440778 -0.29307041236073361 0 0.33383412608754109 -0.29374075107576431 0 0.32809237153295201 -0.28268923423052977 0 0.34044222845996258 -0.28076006146415078 0 0.34348110183965058 -0.30433551394064878 0 0.32751219973692031 -0.30931948010547489 0 0.33983329139560409 -0.31867896351457731 0 0.33383412608754109 -0.29374075107576431 0 0.34348110183965058 -0.30433551394064878 0 0.32751219973692031 -0.30931948010547489 0 0.33383412608754109 -0.29374075107576431 0 0.34348110183965058 -0.30433551394064878 0 0.35300639167440778 -0.29307041236073361 0 0.32751219973692031 -0.30931948010547489 0 0.31295421987126282 -0.2934936561777326 0 0.31025889877798918 -0.31643497474053561 0 0.33383412608754109 -0.29374075107576431 0 0.32751219973692031 -0.30931948010547489 0 0.31295421987126282 -0.2934936561777326 0 0.31295421987126282 -0.2934936561777326 0 0.31564954096453629 -0.27055233761492958 0 0.31295421987126282 -0.2934936561777326 0 0.32809237153295201 -0.28268923423052977 0 0.32209218904649339 -0.27694436176842468 0 0.33383412608754109 -0.29374075107576431 0 0.31295421987126282 -0.2934936561777326 0 0.32809237153295201 -0.28268923423052977 0 0.31295421987126282 -0.2934936561777326 0 0.31564954096453629 -0.27055233761492958 0 0.32209218904649339 -0.27694436176842468 0 0.31564954096453629 -0.27055233761492958 0 0.32288509085094569 -0.26721285337494832 0 0.32209218904649339 -0.27694436176842468 0 0.31564954096453629 -0.27055233761492958 0 0.32288509085094569 -0.26721285337494832 0 0.31926499097417188 -0.25934811553756232 0 0.32288509085094569 -0.26721285337494832 0 0.32617157413863679 -0.26030265856520612 0 0.33087972201277011 -0.27077372744398343 0 0.32288509085094569 -0.26721285337494832 0 0.32209218904649339 -0.27694436176842468 0 0.33087972201277011 -0.27077372744398343 0 0.32809237153295201 -0.28268923423052977 0 0.32209218904649339 -0.27694436176842468 0 0.33087972201277011 -0.27077372744398343 0 0.31834486205781021 -0.24761101905212671 0 0.31564954096453629 -0.27055233761492958 0 0.31926499097417188 -0.25934811553756232 0 0.31834486205781021 -0.24761101905212671 0 0.31564954096453629 -0.27055233761492958 0 0.31834486205781021 -0.24761101905212671 0 0.31564954096453629 -0.27055233761492958 0 0.31225232967190097 -0.26345738761261839 0 0.31834486205781021 -0.24761101905212671 0 0.31973263479470959 -0.25216684870731382 0 0.31926499097417188 -0.25934811553756232 0 0.31973263479470959 -0.25216684870731382 0 0.31926499097417188 -0.25934811553756232 0 0.32177333761513738 -0.25615757435045028 0 0.32288509085094569 -0.26721285337494832 0 0.31926499097417188 -0.25934811553756232 0 0.32617157413863679 -0.26030265856520612 0 0.31926499097417188 -0.25934811553756232 0 0.32617157413863679 -0.26030265856520612 0 0.32177333761513738 -0.25615757435045028 0 0.31973263479470959 -0.25216684870731382 0 0.32177333761513738 -0.25615757435045028 0 0.32458989178452918 -0.25359128450055157 0 0.32617157413863679 -0.26030265856520612 0 0.32177333761513738 -0.25615757435045028 0 0.32458989178452918 -0.25359128450055157 0 0.32617157413863679 -0.26030265856520612 0 0.32458989178452918 -0.25359128450055157 0 0.3317969295313008 -0.25484957674367681 0 0.32882095726792548 -0.24842584181469721 0 0.32458989178452918 -0.25359128450055157 0 0.32255725278732761 -0.25051520466756871 0 0.31973263479470959 -0.25216684870731382 0 0.32458989178452918 -0.25359128450055157 0 0.32255725278732761 -0.25051520466756871 0 0.32030180261360131 -0.2494852265459695 0 0.31973263479470959 -0.25216684870731382 0 0.32255725278732761 -0.25051520466756871 0 0.32882095726792548 -0.24842584181469721 0 0.33842334414631831 -0.2491872836301689 0 0.3317969295313008 -0.25484957674367681 0 0.32882095726792548 -0.24842584181469721 0 0.32458989178452918 -0.25359128450055157 0 0.3317969295313008 -0.25484957674367681 0 0.32617157413863679 -0.26030265856520612 0 0.33503214929245639 -0.26213632726739361 0 0.33087972201277011 -0.27077372744398343 0 0.32617157413863679 -0.26030265856520612 0 0.3317969295313008 -0.25484957674367681 0 0.33503214929245639 -0.26213632726739361 0 0.3317969295313008 -0.25484957674367681 0 0.33503214929245639 -0.26213632726739361 0 0.34243567270270692 -0.25687716782355469 0 0.33503214929245639 -0.26213632726739361 0 0.34243567270270692 -0.25687716782355469 0 0.34387684807686753 -0.26787850576054711 0 0.33842334414631831 -0.2491872836301689 0 0.3317969295313008 -0.25484957674367681 0 0.34243567270270692 -0.25687716782355469 0 0.33842334414631831 -0.2491872836301689 0 0.34991694524745659 -0.24922908583122139 0 0.34243567270270692 -0.25687716782355469 0 0.32809237153295201 -0.28268923423052977 0 0.33087972201277011 -0.27077372744398343 0 0.34044222845996258 -0.28076006146415078 0 0.33503214929245639 -0.26213632726739361 0 0.33087972201277011 -0.27077372744398343 0 0.34387684807686753 -0.26787850576054711 0 0.33087972201277011 -0.27077372744398343 0 0.34044222845996258 -0.28076006146415078 0 0.34387684807686753 -0.26787850576054711 0 0.34044222845996258 -0.28076006146415078 0 0.34387684807686753 -0.26787850576054711 0 0.35296391137523742 -0.27640773791334677 0 0.34387684807686753 -0.26787850576054711 0 0.35296391137523742 -0.27640773791334677 0 0.3567588262456875 -0.26131369536768739 0 0.35296391137523742 -0.27640773791334677 0 0.3567588262456875 -0.26131369536768739 0 0.36563826314118858 -0.27610303428744132 0 0.34991694524745659 -0.24922908583122139 0 0.3567588262456875 -0.26131369536768739 0 0.36708067838860431 -0.25298902242619109 0 0.34991694524745659 -0.24922908583122139 0 0.34243567270270692 -0.25687716782355469 0 0.3567588262456875 -0.26131369536768739 0 0.34243567270270692 -0.25687716782355469 0 0.34387684807686753 -0.26787850576054711 0 0.3567588262456875 -0.26131369536768739 0 0.3567588262456875 -0.26131369536768739 0 0.36708067838860431 -0.25298902242619109 0 0.37186511636961822 -0.26505955947838222 0 0.3805978933470997 -0.25762227971992391 0 0.36708067838860431 -0.25298902242619109 0 0.37186511636961822 -0.26505955947838222 0 0.37602396029607582 -0.28337416429547257 0 0.37186511636961822 -0.26505955947838222 0 0.36563826314118858 -0.27610303428744132 0 0.35296391137523742 -0.27640773791334677 0 0.36563826314118858 -0.27610303428744132 0 0.3642317748145909 -0.28738163953679879 0 0.3567588262456875 -0.26131369536768739 0 0.37186511636961822 -0.26505955947838222 0 0.36563826314118858 -0.27610303428744132 0 0.37602396029607582 -0.28337416429547257 0 0.36563826314118858 -0.27610303428744132 0 0.3642317748145909 -0.28738163953679879 0 0.3642317748145909 -0.28738163953679879 0 0.35300639167440778 -0.29307041236073361 0 0.36903101031159269 -0.29882509064185508 0 0.37602396029607582 -0.28337416429547257 0 0.3642317748145909 -0.28738163953679879 0 0.36903101031159269 -0.29882509064185508 0 0.34044222845996258 -0.28076006146415078 0 0.35296391137523742 -0.27640773791334677 0 0.35300639167440778 -0.29307041236073361 0 0.35296391137523742 -0.27640773791334677 0 0.3642317748145909 -0.28738163953679879 0 0.35300639167440778 -0.29307041236073361 0 0.34348110183965058 -0.30433551394064878 0 0.35805218828281682 -0.31214138780885092 0 0.33983329139560409 -0.31867896351457731 0 0.34348110183965058 -0.30433551394064878 0 0.35300639167440778 -0.29307041236073361 0 0.35805218828281682 -0.31214138780885092 0 0.35300639167440778 -0.29307041236073361 0 0.35805218828281682 -0.31214138780885092 0 0.36903101031159269 -0.29882509064185508 0 0.37508656658834238 -0.31092115305901991 0 0.35805218828281682 -0.31214138780885092 0 0.36903101031159269 -0.29882509064185508 0 0.35805218828281682 -0.31214138780885092 0 0.37192475823844579 -0.32597088461031859 0 0.35222555581673581 -0.33185206570062442 0 0.37508656658834238 -0.31092115305901991 0 0.35805218828281682 -0.31214138780885092 0 0.37192475823844579 -0.32597088461031859 0 0.37192475823844579 -0.32597088461031859 0 0.37061343502540628 -0.34247307326733301 0 0.35222555581673581 -0.33185206570062442 0 0.37061343502540628 -0.34247307326733301 0 0.35222555581673581 -0.33185206570062442 0 0.35638577508307329 -0.34839104429900281 0 0.35222555581673581 -0.33185206570062442 0 0.35638577508307329 -0.34839104429900281 0 0.34165439925030938 -0.34174721385595441 0 0.35805218828281682 -0.31214138780885092 0 0.35222555581673581 -0.33185206570062442 0 0.33983329139560409 -0.31867896351457731 0 0.35934679581357032 -0.3773232776785469 0 0.36981155149106032 -0.36222490269097402 0 0.35647120644344271 -0.36169797210113219 0 0.38305933897976258 -0.37417935034349592 0 0.35934679581357032 -0.3773232776785469 0 0.36981155149106032 -0.36222490269097402 0 0.37061343502540628 -0.34247307326733301 0 0.36981155149106032 -0.36222490269097402 0 0.35638577508307329 -0.34839104429900281 0 0.36981155149106032 -0.36222490269097402 0 0.35638577508307329 -0.34839104429900281 0 0.35647120644344271 -0.36169797210113219 0 0.35638577508307329 -0.34839104429900281 0 0.34593442644715311 -0.35261055032424371 0 0.34165439925030938 -0.34174721385595441 0 0.35638577508307329 -0.34839104429900281 0 0.34593442644715311 -0.35261055032424371 0 0.35647120644344271 -0.36169797210113219 0 0.35934679581357032 -0.3773232776785469 0 0.35647120644344271 -0.36169797210113219 0 0.34353166074477332 -0.36498592267071528 0 0.35934679581357032 -0.3773232776785469 0 0.34362200193609821 -0.37841347551165178 0 0.34353166074477332 -0.36498592267071528 0 0.34593442644715311 -0.35261055032424371 0 0.35647120644344271 -0.36169797210113219 0 0.34353166074477332 -0.36498592267071528 0 0.34362200193609821 -0.37841347551165178 0 0.34353166074477332 -0.36498592267071528 0 0.32803069787284039 -0.36626837443597088 0 0.34353166074477332 -0.36498592267071528 0 0.33369567697529251 -0.3509177557005731 0 0.32803069787284039 -0.36626837443597088 0 0.34593442644715311 -0.35261055032424371 0 0.34353166074477332 -0.36498592267071528 0 0.33369567697529251 -0.3509177557005731 0 0.34593442644715311 -0.35261055032424371 0 0.33369567697529251 -0.3509177557005731 0 0.34165439925030938 -0.34174721385595441 0 0.31527600792009608 -0.33437060957290399 0 0.31033986525866508 -0.3565316456089026 0 0.32251998179511621 -0.34917901995666961 0 0.31527600792009608 -0.33437060957290399 0 0.31033986525866508 -0.3565316456089026 0 0.33369567697529251 -0.3509177557005731 0 0.32251998179511621 -0.34917901995666961 0 0.32803069787284039 -0.36626837443597088 0 0.32251998179511621 -0.34917901995666961 0 0.32803069787284039 -0.36626837443597088 0 0.31033986525866508 -0.3565316456089026 0 0.33369567697529251 -0.3509177557005731 0 0.32251998179511621 -0.34917901995666961 0 0.32660007233862531 -0.33804798369683592 0 0.31825973606703251 -0.37578048989938168 0 0.32803069787284039 -0.36626837443597088 0 0.31033986525866508 -0.3565316456089026 0 0.35222555581673581 -0.33185206570062442 0 0.33983329139560409 -0.31867896351457731 0 0.33492397430439808 -0.33095938113036782 0 0.33983329139560409 -0.31867896351457731 0 0.33492397430439808 -0.33095938113036782 0 0.32551033884728242 -0.32459502058814271 0 0.32751219973692031 -0.30931948010547489 0 0.33983329139560409 -0.31867896351457731 0 0.32551033884728242 -0.32459502058814271 0 0.35222555581673581 -0.33185206570062442 0 0.34165439925030938 -0.34174721385595441 0 0.33492397430439808 -0.33095938113036782 0 0.33369567697529251 -0.3509177557005731 0 0.34165439925030938 -0.34174721385595441 0 0.32660007233862531 -0.33804798369683592 0 0.34165439925030938 -0.34174721385595441 0 0.33492397430439808 -0.33095938113036782 0 0.32660007233862531 -0.33804798369683592 0 0.33492397430439808 -0.33095938113036782 0 0.32660007233862531 -0.33804798369683592 0 0.32551033884728242 -0.32459502058814271 0 0.32660007233862531 -0.33804798369683592 0 0.31527600792009608 -0.33437060957290399 0 0.32551033884728242 -0.32459502058814271 0 0.32251998179511621 -0.34917901995666961 0 0.32660007233862531 -0.33804798369683592 0 0.31527600792009608 -0.33437060957290399 0 0.32751219973692031 -0.30931948010547489 0 0.32551033884728242 -0.32459502058814271 0 0.31025889877798918 -0.31643497474053561 0 0.31527600792009608 -0.33437060957290399 0 0.32551033884728242 -0.32459502058814271 0 0.31025889877798918 -0.31643497474053561 0 0.31025889877798918 -0.31643497474053561 0 0.30023972102413771 -0.32749789535292612 0 0.30756357768471559 -0.33937629330333863 0 0.31025889877798918 -0.31643497474053561 0 0.30756357768471559 -0.33937629330333863 0 0.31025889877798918 -0.31643497474053561 0 0.30023972102413771 -0.32749789535292612 0 0.2965073251205021 -0.31266455427485013 0 0.31527600792009608 -0.33437060957290399 0 0.31025889877798918 -0.31643497474053561 0 0.30756357768471559 -0.33937629330333863 0 0.31527600792009608 -0.33437060957290399 0 0.30756357768471559 -0.33937629330333863 0 0.31033986525866508 -0.3565316456089026 0 0.30756357768471559 -0.33937629330333863 0 0.2971900741910164 -0.34054373197024362 0 0.30233918119431152 -0.34987830667896969 0 0.30023972102413771 -0.32749789535292612 0 0.30756357768471559 -0.33937629330333863 0 0.2971900741910164 -0.34054373197024362 0 0.30023972102413771 -0.32749789535292612 0 0.291160616663869 -0.33311327095598853 0 0.29133303294919027 -0.32384445864878292 0 0.30023972102413771 -0.32749789535292612 0 0.2971900741910164 -0.34054373197024362 0 0.291160616663869 -0.33311327095598853 0 0.2971900741910164 -0.34054373197024362 0 0.291160616663869 -0.33311327095598853 0 0.28731829047047069 -0.3431214083628234 0 0.28731829047047069 -0.3431214083628234 0 0.28135848764437332 -0.33638292916803841 0 0.27734759689527871 -0.34530049837124971 0 0.291160616663869 -0.33311327095598853 0 0.28731829047047069 -0.3431214083628234 0 0.28135848764437332 -0.33638292916803841 0 0.28135848764437332 -0.33638292916803841 0 0.28522464194563529 -0.32741373382554678 0 0.27736374244654283 -0.32781799267231188 0 0.291160616663869 -0.33311327095598853 0 0.28135848764437332 -0.33638292916803841 0 0.28522464194563529 -0.32741373382554678 0 0.28522464194563529 -0.32741373382554678 0 0.28335481983217059 -0.31887258250714018 0 0.29133303294919027 -0.32384445864878292 0 0.28335481983217059 -0.31887258250714018 0 0.2965073251205021 -0.31266455427485013 0 0.27863778647343301 -0.30621891121449868 0 0.28522464194563529 -0.32741373382554678 0 0.28335481983217059 -0.31887258250714018 0 0.27736374244654283 -0.32781799267231188 0 0.28335481983217059 -0.31887258250714018 0 0.2965073251205021 -0.31266455427485013 0 0.29133303294919027 -0.32384445864878292 0 0.30023972102413771 -0.32749789535292612 0 0.2965073251205021 -0.31266455427485013 0 0.29133303294919027 -0.32384445864878292 0 0.291160616663869 -0.33311327095598853 0 0.28522464194563529 -0.32741373382554678 0 0.29133303294919027 -0.32384445864878292 0 0.30540372259723397 -0.37869268164490127 0 0.31033986525866508 -0.3565316456089026 0 0.31825973606703251 -0.37578048989938168 0 0.30540372259723397 -0.37869268164490127 0 0.31033986525866508 -0.3565316456089026 0 0.30540372259723397 -0.37869268164490127 0 0.29817337293518292 -0.36403538853168821 0 0.31033986525866508 -0.3565316456089026 0 0.30540372259723397 -0.37869268164490127 0 0.29275331210553301 -0.37534973710015562 0 0.29817337293518292 -0.36403538853168821 0 0.30756357768471559 -0.33937629330333863 0 0.31033986525866508 -0.3565316456089026 0 0.30233918119431152 -0.34987830667896969 0 0.29817337293518292 -0.36403538853168821 0 0.30233918119431152 -0.34987830667896969 0 0.29353085597741713 -0.35094162602787349 0 0.29817337293518292 -0.36403538853168821 0 0.31033986525866508 -0.3565316456089026 0 0.30233918119431152 -0.34987830667896969 0 0.2971900741910164 -0.34054373197024362 0 0.30233918119431152 -0.34987830667896969 0 0.29353085597741713 -0.35094162602787349 0 0.2971900741910164 -0.34054373197024362 0 0.28731829047047069 -0.3431214083628234 0 0.29353085597741713 -0.35094162602787349 0 0.28731829047047069 -0.3431214083628234 0 0.29353085597741713 -0.35094162602787349 0 0.28297101132211938 -0.35169025372013052 0 0.28731829047047069 -0.3431214083628234 0 0.28297101132211938 -0.35169025372013052 0 0.27734759689527871 -0.34530049837124971 0 0.29353085597741713 -0.35094162602787349 0 0.28297101132211938 -0.35169025372013052 0 0.28287857820215823 -0.36496649044027962 0 0.29275331210553301 -0.37534973710015562 0 0.28169355432625692 -0.38092346919454811 0 0.28287857820215823 -0.36496649044027962 0 0.29817337293518292 -0.36403538853168821 0 0.29353085597741713 -0.35094162602787349 0 0.28287857820215823 -0.36496649044027962 0 0.29275331210553301 -0.37534973710015562 0 0.29817337293518292 -0.36403538853168821 0 0.28287857820215823 -0.36496649044027962 0 0.28169355432625692 -0.38092346919454811 0 0.28287857820215823 -0.36496649044027962 0 0.27243016697318528 -0.37365044705546191 0 0.27243016697318528 -0.37365044705546191 0 0.27049492497727828 -0.36334388446817711 0 0.25961332383325691 -0.36942443001682712 0 0.28287857820215823 -0.36496649044027962 0 0.27243016697318528 -0.37365044705546191 0 0.27049492497727828 -0.36334388446817711 0 0.28287857820215823 -0.36496649044027962 0 0.27049492497727828 -0.36334388446817711 0 0.27377973506527242 -0.35412124539842588 0 0.27049492497727828 -0.36334388446817711 0 0.27377973506527242 -0.35412124539842588 0 0.26377282081251902 -0.35455680942989098 0 0.28297101132211938 -0.35169025372013052 0 0.28287857820215823 -0.36496649044027962 0 0.27377973506527242 -0.35412124539842588 0 0.28297101132211938 -0.35169025372013052 0 0.27377973506527242 -0.35412124539842588 0 0.27734759689527871 -0.34530049837124971 0 0.27377973506527242 -0.35412124539842588 0 0.27734759689527871 -0.34530049837124971 0 0.26839958066217201 -0.34590892071264112 0 0.27377973506527242 -0.35412124539842588 0 0.26839958066217201 -0.34590892071264112 0 0.26377282081251902 -0.35455680942989098 0 0.25699040475811352 -0.3541679862639141 0 0.25961332383325691 -0.36942443001682712 0 0.2469008118118631 -0.34968638183042983 0 0.26839958066217201 -0.34590892071264112 0 0.26377282081251902 -0.35455680942989098 0 0.25767466257481508 -0.34300432377850848 0 0.25699040475811352 -0.3541679862639141 0 0.26377282081251902 -0.35455680942989098 0 0.25767466257481508 -0.34300432377850848 0 0.25699040475811352 -0.3541679862639141 0 0.25767466257481508 -0.34300432377850848 0 0.2469008118118631 -0.34968638183042983 0 0.25044292175549371 -0.36814469820673151 0 0.25961332383325691 -0.36942443001682712 0 0.2469008118118631 -0.34968638183042983 0 0.25961332383325691 -0.36942443001682712 0 0.2469008118118631 -0.34968638183042983 0 0.27049492497727828 -0.36334388446817711 0 0.26377282081251902 -0.35455680942989098 0 0.25961332383325691 -0.36942443001682712 0 0.25699040475811352 -0.3541679862639141 0 0.26377282081251902 -0.35455680942989098 0 0.25961332383325691 -0.36942443001682712 0 0.25044292175549371 -0.36814469820673151 0 0.25961332383325691 -0.36942443001682712 0 0.2482611573537368 -0.3784260541210292 0 0.26856896889160942 -0.31879970048829231 0 0.27736374244654283 -0.32781799267231188 0 0.26901914165129392 -0.33618555050722498 0 0.28335481983217059 -0.31887258250714018 0 0.26856896889160942 -0.31879970048829231 0 0.27863778647343301 -0.30621891121449868 0 0.28335481983217059 -0.31887258250714018 0 0.26856896889160942 -0.31879970048829231 0 0.27736374244654283 -0.32781799267231188 0 0.28135848764437332 -0.33638292916803841 0 0.27736374244654283 -0.32781799267231188 0 0.26901914165129392 -0.33618555050722498 0 0.28135848764437332 -0.33638292916803841 0 0.27734759689527871 -0.34530049837124971 0 0.26901914165129392 -0.33618555050722498 0 0.27734759689527871 -0.34530049837124971 0 0.26839958066217201 -0.34590892071264112 0 0.26901914165129392 -0.33618555050722498 0 0.26856896889160942 -0.31879970048829231 0 0.26901914165129392 -0.33618555050722498 0 0.25890587265904241 -0.32980045930865082 0 0.26839958066217201 -0.34590892071264112 0 0.26901914165129392 -0.33618555050722498 0 0.25767466257481508 -0.34300432377850848 0 0.26901914165129392 -0.33618555050722498 0 0.25890587265904241 -0.32980045930865082 0 0.25767466257481508 -0.34300432377850848 0 0.25890587265904241 -0.32980045930865082 0 0.25767466257481508 -0.34300432377850848 0 0.24540105427998629 -0.33668947524799742 0 0.25890587265904241 -0.32980045930865082 0 0.2465098687180414 -0.32365339516582342 0 0.24540105427998629 -0.33668947524799742 0 0.25890587265904241 -0.32980045930865082 0 0.25263430953707638 -0.30743443828358058 0 0.2465098687180414 -0.32365339516582342 0 0.26856896889160942 -0.31879970048829231 0 0.25890587265904241 -0.32980045930865082 0 0.25263430953707638 -0.30743443828358058 0 0.25263430953707638 -0.30743443828358058 0 0.27250698291535119 -0.2927754213932599 0 0.25263430953707638 -0.30743443828358058 0 0.25258823051352158 -0.28140111978066168 0 0.27250698291535119 -0.2927754213932599 0 0.25258823051352158 -0.28140111978066168 0 0.27250698291535119 -0.2927754213932599 0 0.28002905105727888 -0.28105595947057899 0 0.26856896889160942 -0.31879970048829231 0 0.25263430953707638 -0.30743443828358058 0 0.27863778647343301 -0.30621891121449868 0 0.25263430953707638 -0.30743443828358058 0 0.27250698291535119 -0.2927754213932599 0 0.27863778647343301 -0.30621891121449868 0 0.27250698291535119 -0.2927754213932599 0 0.27863778647343301 -0.30621891121449868 0 0.28696572307043661 -0.29286681039611889 0 0.2965073251205021 -0.31266455427485013 0 0.27863778647343301 -0.30621891121449868 0 0.29392497183074989 -0.29868050459458739 0 0.27863778647343301 -0.30621891121449868 0 0.29392497183074989 -0.29868050459458739 0 0.28696572307043661 -0.29286681039611889 0 0.27250698291535119 -0.2927754213932599 0 0.29237965629362611 -0.27811640450293917 0 0.27250698291535119 -0.2927754213932599 0 0.28696572307043661 -0.29286681039611889 0 0.29237965629362611 -0.27811640450293917 0 0.27250698291535119 -0.2927754213932599 0 0.29237965629362611 -0.27811640450293917 0 0.28002905105727888 -0.28105595947057899 0 0.28696572307043661 -0.29286681039611889 0 0.29737921783902271 -0.2885428102753092 0 0.29237965629362611 -0.27811640450293917 0 0.29392497183074989 -0.29868050459458739 0 0.28696572307043661 -0.29286681039611889 0 0.29737921783902271 -0.2885428102753092 0 0.31295421987126282 -0.2934936561777326 0 0.29392497183074989 -0.29868050459458739 0 0.29737921783902271 -0.2885428102753092 0 0.29737921783902271 -0.2885428102753092 0 0.30612299292806983 -0.27883251923670582 0 0.29237965629362611 -0.27811640450293917 0 0.31295421987126282 -0.2934936561777326 0 0.29737921783902271 -0.2885428102753092 0 0.30612299292806983 -0.27883251923670582 0 0.31295421987126282 -0.2934936561777326 0 0.2965073251205021 -0.31266455427485013 0 0.29392497183074989 -0.29868050459458739 0 0.31295421987126282 -0.2934936561777326 0 0.31025889877798918 -0.31643497474053561 0 0.31295421987126282 -0.2934936561777326 0 0.31025889877798918 -0.31643497474053561 0 0.2965073251205021 -0.31266455427485013 0 0.29283856278866721 -0.24718948583221509 0 0.31225232967190097 -0.26345738761261839 0 0.29503081285435201 -0.26331668125824159 0 0.29283856278866721 -0.24718948583221509 0 0.31834486205781021 -0.24761101905212671 0 0.31225232967190097 -0.26345738761261839 0 0.31564954096453629 -0.27055233761492958 0 0.31225232967190097 -0.26345738761261839 0 0.30612299292806983 -0.27883251923670582 0 0.31295421987126282 -0.2934936561777326 0 0.31564954096453629 -0.27055233761492958 0 0.30612299292806983 -0.27883251923670582 0 0.31225232967190097 -0.26345738761261839 0 0.29237965629362611 -0.27811640450293917 0 0.31225232967190097 -0.26345738761261839 0 0.29237965629362611 -0.27811640450293917 0 0.29503081285435201 -0.26331668125824159 0 0.31225232967190097 -0.26345738761261839 0 0.30612299292806983 -0.27883251923670582 0 0.29237965629362611 -0.27811640450293917 0 0.29237965629362611 -0.27811640450293917 0 0.28265270266321402 -0.26450344708519419 0 0.28002905105727888 -0.28105595947057899 0 0.29237965629362611 -0.27811640450293917 0 0.28265270266321402 -0.26450344708519419 0 0.29503081285435201 -0.26331668125824159 0 0.29283856278866721 -0.24718948583221509 0 0.28265270266321402 -0.26450344708519419 0 0.29503081285435201 -0.26331668125824159 0 0.29283856278866721 -0.24718948583221509 0 0.2673322635195241 -0.24676795261230139 0 0.28265270266321402 -0.26450344708519419 0 0.2673322635195241 -0.24676795261230139 0 0.28265270266321402 -0.26450344708519419 0 0.26636124844038261 -0.26791036197844381 0 0.25258823051352158 -0.28140111978066168 0 0.28002905105727888 -0.28105595947057899 0 0.26636124844038261 -0.26791036197844381 0 0.28265270266321402 -0.26450344708519419 0 0.28002905105727888 -0.28105595947057899 0 0.26636124844038261 -0.26791036197844381 0 0.25258823051352158 -0.28140111978066168 0 0.28002905105727888 -0.28105595947057899 0 0.25258823051352158 -0.28140111978066168 0 0.26636124844038261 -0.26791036197844381 0 0.24958087479489091 -0.26225426332452589 0 0.2673322635195241 -0.24676795261230139 0 0.26636124844038261 -0.26791036197844381 0 0.24958087479489091 -0.26225426332452589 0 0.2673322635195241 -0.24676795261230139 0 0.24958087479489091 -0.26225426332452589 0 0.241825964250381 -0.24634641939238769 0 0.24958087479489091 -0.26225426332452589 0 0.2326797206279102 -0.25965660372430482 0 0.241825964250381 -0.24634641939238769 0 0.24958087479489091 -0.26225426332452589 0 0.23669782141762599 -0.27144312245905661 0 0.2326797206279102 -0.25965660372430482 0 0.25258823051352158 -0.28140111978066168 0 0.24958087479489091 -0.26225426332452589 0 0.23669782141762599 -0.27144312245905661 0 0.25258823051352158 -0.28140111978066168 0 0.23669782141762599 -0.27144312245905661 0 0.22514740996976429 -0.28174628009074443 0 0.23669782141762599 -0.27144312245905661 0 0.22348414107573589 -0.27293275136022832 0 0.22514740996976429 -0.28174628009074443 0 0.23669782141762599 -0.27144312245905661 0 0.22348414107573589 -0.27293275136022832 0 0.2326797206279102 -0.25965660372430482 0 0.22348414107573589 -0.27293275136022832 0 0.22514740996976429 -0.28174628009074443 0 0.2326797206279102 -0.25965660372430482 0 0.21953302036006969 -0.26037336748552842 0 0.21631966498123789 -0.2459248861724741 0 0.2326797206279102 -0.25965660372430482 0 0.241825964250381 -0.24634641939238769 0 0.21631966498123789 -0.2459248861724741 0 0.22348414107573589 -0.27293275136022832 0 0.2326797206279102 -0.25965660372430482 0 0.21953302036006969 -0.26037336748552842 0 0.21953302036006969 -0.26037336748552842 0 0.20662172026948791 -0.26295170186895761 0 0.21631966498123789 -0.2459248861724741 0 0.22348414107573589 -0.27293275136022832 0 0.21953302036006969 -0.26037336748552842 0 0.20662172026948791 -0.26295170186895761 0 0.20662172026948791 -0.26295170186895761 0 0.19114111494899261 -0.25012612814469848 0 0.21631966498123789 -0.2459248861724741 0 0.22348414107573589 -0.27293275136022832 0 0.20662172026948791 -0.26295170186895761 0 0.2021741444292289 -0.28203524591977053 0 0.22348414107573589 -0.27293275136022832 0 0.2021741444292289 -0.28203524591977053 0 0.22514740996976429 -0.28174628009074443 0 0.20662172026948791 -0.26295170186895761 0 0.190029304045117 -0.26696038524291238 0 0.2021741444292289 -0.28203524591977053 0 0.190029304045117 -0.26696038524291238 0 0.2021741444292289 -0.28203524591977053 0 0.17920087888869321 -0.28232421174879663 0 0.20662172026948791 -0.26295170186895761 0 0.190029304045117 -0.26696038524291238 0 0.19114111494899261 -0.25012612814469848 0 0.19880829065311131 -0.30201994078042071 0 0.2000484150942661 -0.31569096454866208 0 0.1888222449241205 -0.31823764819080869 0 0.19880829065311131 -0.30201994078042071 0 0.1888222449241205 -0.31823764819080869 0 0.1801596219518431 -0.30228492764222548 0 0.19880829065311131 -0.30201994078042071 0 0.2021741444292289 -0.28203524591977053 0 0.17920087888869321 -0.28232421174879663 0 0.2021741444292289 -0.28203524591977053 0 0.17920087888869321 -0.28232421174879663 0 0.19880829065311131 -0.30201994078042071 0 0.2021741444292289 -0.28203524591977053 0 0.21383099557606089 -0.29432791640625933 0 0.2021741444292289 -0.28203524591977053 0 0.22514740996976429 -0.28174628009074443 0 0.2021741444292289 -0.28203524591977053 0 0.21383099557606089 -0.29432791640625933 0 0.22514740996976429 -0.28174628009074443 0 0.19880829065311131 -0.30201994078042071 0 0.21546728815017291 -0.30550597611294372 0 0.21116181781869231 -0.31595056310425351 0 0.19880829065311131 -0.30201994078042071 0 0.21383099557606089 -0.29432791640625933 0 0.21546728815017291 -0.30550597611294372 0 0.19880829065311131 -0.30201994078042071 0 0.21116181781869231 -0.31595056310425351 0 0.2000484150942661 -0.31569096454866208 0 0.21546728815017291 -0.30550597611294372 0 0.22213813491910681 -0.31387011061900377 0 0.21116181781869231 -0.31595056310425351 0 0.21546728815017291 -0.30550597611294372 0 0.22895452306428191 -0.30191986763232292 0 0.22213813491910681 -0.31387011061900377 0 0.22895452306428191 -0.30191986763232292 0 0.23276163615880119 -0.32209345517390092 0 0.21383099557606089 -0.29432791640625933 0 0.21546728815017291 -0.30550597611294372 0 0.22895452306428191 -0.30191986763232292 0 0.22895452306428191 -0.30191986763232292 0 0.22514740996976429 -0.28174628009074443 0 0.239584677834312 -0.29211359313032809 0 0.22895452306428191 -0.30191986763232292 0 0.22514740996976429 -0.28174628009074443 0 0.21383099557606089 -0.29432791640625933 0 0.22895452306428191 -0.30191986763232292 0 0.22514740996976429 -0.28174628009074443 0 0.25258823051352158 -0.28140111978066168 0 0.22514740996976429 -0.28174628009074443 0 0.239584677834312 -0.29211359313032809 0 0.25263430953707638 -0.30743443828358058 0 0.25258823051352158 -0.28140111978066168 0 0.239584677834312 -0.29211359313032809 0 0.25258823051352158 -0.28140111978066168 0 0.22514740996976429 -0.28174628009074443 0 0.25263430953707638 -0.30743443828358058 0 0.22895452306428191 -0.30191986763232292 0 0.23276163615880119 -0.32209345517390092 0 0.25263430953707638 -0.30743443828358058 0 0.22895452306428191 -0.30191986763232292 0 0.239584677834312 -0.29211359313032809 0 0.25263430953707638 -0.30743443828358058 0 0.23276163615880119 -0.32209345517390092 0 0.25263430953707638 -0.30743443828358058 0 0.2465098687180414 -0.32365339516582342 0 0.23276163615880119 -0.32209345517390092 0 0.23856751019957451 -0.32683121919944458 0 0.23418829979046929 -0.32994833364403248 0 0.23276163615880119 -0.32209345517390092 0 0.23856751019957451 -0.32683121919944458 0 0.2465098687180414 -0.32365339516582342 0 0.23276163615880119 -0.32209345517390092 0 0.23856751019957451 -0.32683121919944458 0 0.2465098687180414 -0.32365339516582342 0 0.24106484121386579 -0.32995177352852367 0 0.23418829979046929 -0.32994833364403248 0 0.23825879641398209 -0.35122246733739371 0 0.2465098687180414 -0.32365339516582342 0 0.24540105427998629 -0.33668947524799742 0 0.24106484121386579 -0.32995177352852367 0 0.23418829979046929 -0.32994833364403248 0 0.23825879641398209 -0.35122246733739371 0 0.23281047246740241 -0.34430503931555362 0 0.24540105427998629 -0.33668947524799742 0 0.23418829979046929 -0.32994833364403248 0 0.2469008118118631 -0.34968638183042983 0 0.23418829979046929 -0.32994833364403248 0 0.2469008118118631 -0.34968638183042983 0 0.23825879641398209 -0.35122246733739371 0 0.23418829979046929 -0.32994833364403248 0 0.2469008118118631 -0.34968638183042983 0 0.25767466257481508 -0.34300432377850848 0 0.24540105427998629 -0.33668947524799742 0 0.2469008118118631 -0.34968638183042983 0 0.24540105427998629 -0.33668947524799742 0 0.24106484121386579 -0.32995177352852367 0 0.23418829979046929 -0.32994833364403248 0 0.23856751019957451 -0.32683121919944458 0 0.24106484121386579 -0.32995177352852367 0 0.23418829979046929 -0.32994833364403248 0 0.2292568332794245 -0.33784030435283169 0 0.2254630853845625 -0.34264425881091592 0 0.21065389926768879 -0.33840115984577879 0 0.23418829979046929 -0.32994833364403248 0 0.2292568332794245 -0.33784030435283169 0 0.21065389926768879 -0.33840115984577879 0 0.23418829979046929 -0.32994833364403248 0 0.23276163615880119 -0.32209345517390092 0 0.21065389926768879 -0.33840115984577879 0 0.23276163615880119 -0.32209345517390092 0 0.21065389926768879 -0.33840115984577879 0 0.23418829979046929 -0.32994833364403248 0 0.2292568332794245 -0.33784030435283169 0 0.23281047246740241 -0.34430503931555362 0 0.2292568332794245 -0.33784030435283169 0 0.2254630853845625 -0.34264425881091592 0 0.23281047246740241 -0.34430503931555362 0 0.2190520387458684 -0.32346618836763341 0 0.23276163615880119 -0.32209345517390092 0 0.21065389926768879 -0.33840115984577879 0 0.22895452306428191 -0.30191986763232292 0 0.22213813491910681 -0.31387011061900377 0 0.23276163615880119 -0.32209345517390092 0 0.2190520387458684 -0.32346618836763341 0 0.22213813491910681 -0.31387011061900377 0 0.23276163615880119 -0.32209345517390092 0 0.23418829979046929 -0.32994833364403248 0 0.23276163615880119 -0.32209345517390092 0 0.24227551724107521 -0.37250674947551182 0 0.23825879641398209 -0.35122246733739371 0 0.25044292175549371 -0.36814469820673151 0 0.24446704076753581 -0.36107201595800997 0 0.2469008118118631 -0.34968638183042983 0 0.24227551724107521 -0.37250674947551182 0 0.23825879641398209 -0.35122246733739371 0 0.2342781995925422 -0.3610250652118473 0 0.24227551724107521 -0.37250674947551182 0 0.24446704076753581 -0.36107201595800997 0 0.23825879641398209 -0.35122246733739371 0 0.23590985708501391 -0.37147847470207412 0 0.24227551724107521 -0.37250674947551182 0 0.23364588529038871 -0.36647780850039302 0 0.23590985708501391 -0.37147847470207412 0 0.24227551724107521 -0.37250674947551182 0 0.2393353999074862 -0.37848999677050399 0 0.25044292175549371 -0.36814469820673151 0 0.24227551724107521 -0.37250674947551182 0 0.2482611573537368 -0.3784260541210292 0 0.25044292175549371 -0.36814469820673151 0 0.24227551724107521 -0.37250674947551182 0 0.24446704076753581 -0.36107201595800997 0 0.24227551724107521 -0.37250674947551182 0 0.23364588529038871 -0.36647780850039302 0 0.2342781995925422 -0.3610250652118473 0 0.24446704076753581 -0.36107201595800997 0 0.2469008118118631 -0.34968638183042983 0 0.23825879641398209 -0.35122246733739371 0 0.23825879641398209 -0.35122246733739371 0 0.23281047246740241 -0.34430503931555362 0 0.22924012357814549 -0.35164422222508401 0 0.2254630853845625 -0.34264425881091592 0 0.23281047246740241 -0.34430503931555362 0 0.22924012357814549 -0.35164422222508401 0 0.2254630853845625 -0.34264425881091592 0 0.21951153484923239 -0.35152442155279928 0 0.22924012357814549 -0.35164422222508401 0 0.2254630853845625 -0.34264425881091592 0 0.21951153484923239 -0.35152442155279928 0 0.2166346819353292 -0.3462883162978182 0 0.21951153484923239 -0.35152442155279928 0 0.2250568791133318 -0.35860350824761061 0 0.22924012357814549 -0.35164422222508401 0 0.21951153484923239 -0.35152442155279928 0 0.2250568791133318 -0.35860350824761061 0 0.2172090527507517 -0.35993316717702628 0 0.2250568791133318 -0.35860350824761061 0 0.22924012357814549 -0.35164422222508401 0 0.2342781995925422 -0.3610250652118473 0 0.23825879641398209 -0.35122246733739371 0 0.22924012357814549 -0.35164422222508401 0 0.2342781995925422 -0.3610250652118473 0 0.23590985708501391 -0.37147847470207412 0 0.2225047406935699 -0.37243745573707288 0 0.20962448608101239 -0.36894913256963008 0 0.23590985708501391 -0.37147847470207412 0 0.20962448608101239 -0.36894913256963008 0 0.23590985708501391 -0.37147847470207412 0 0.22556852886895609 -0.3646876662577288 0 0.20962448608101239 -0.36894913256963008 0 0.23364588529038871 -0.36647780850039302 0 0.2342781995925422 -0.3610250652118473 0 0.22556852886895609 -0.3646876662577288 0 0.2250568791133318 -0.35860350824761061 0 0.2342781995925422 -0.3610250652118473 0 0.22556852886895609 -0.3646876662577288 0 0.2250568791133318 -0.35860350824761061 0 0.22556852886895609 -0.3646876662577288 0 0.2172090527507517 -0.35993316717702628 0 0.23590985708501391 -0.37147847470207412 0 0.23364588529038871 -0.36647780850039302 0 0.22556852886895609 -0.3646876662577288 0 0.23590985708501391 -0.37147847470207412 0 0.2225047406935699 -0.37243745573707288 0 0.23012438972169619 -0.378071611927979 0 0.20962448608101239 -0.36894913256963008 0 0.2172090527507517 -0.35993316717702628 0 0.210910208239833 -0.35258342498177891 0 0.22556852886895609 -0.3646876662577288 0 0.20962448608101239 -0.36894913256963008 0 0.2172090527507517 -0.35993316717702628 0 0.20962448608101239 -0.36894913256963008 0 0.19116990091408151 -0.37287826308211408 0 0.2104183341188994 -0.379442971943527 0 0.20962448608101239 -0.36894913256963008 0 0.2132547428570096 -0.37779893430006461 0 0.2225047406935699 -0.37243745573707288 0 0.20962448608101239 -0.36894913256963008 0 0.2132547428570096 -0.37779893430006461 0 0.20962448608101239 -0.36894913256963008 0 0.210910208239833 -0.35258342498177891 0 0.1992233655025655 -0.34359339038021969 0 0.20962448608101239 -0.36894913256963008 0 0.1992233655025655 -0.34359339038021969 0 0.21951153484923239 -0.35152442155279928 0 0.2172090527507517 -0.35993316717702628 0 0.210910208239833 -0.35258342498177891 0 0.210910208239833 -0.35258342498177891 0 0.2166346819353292 -0.3462883162978182 0 0.21065389926768879 -0.33840115984577879 0 0.21951153484923239 -0.35152442155279928 0 0.210910208239833 -0.35258342498177891 0 0.2166346819353292 -0.3462883162978182 0 0.210910208239833 -0.35258342498177891 0 0.21065389926768879 -0.33840115984577879 0 0.1992233655025655 -0.34359339038021969 0 0.19256629073023701 -0.35621817183466209 0 0.1992233655025655 -0.34359339038021969 0 0.18106651392980991 -0.34776495440949379 0 0.20962448608101239 -0.36894913256963008 0 0.19256629073023701 -0.35621817183466209 0 0.1992233655025655 -0.34359339038021969 0 0.20962448608101239 -0.36894913256963008 0 0.19256629073023701 -0.35621817183466209 0 0.18250332991799451 -0.36633936598298689 0 0.20962448608101239 -0.36894913256963008 0 0.18250332991799451 -0.36633936598298689 0 0.20962448608101239 -0.36894913256963008 0 0.19116990091408151 -0.37287826308211408 0 0.18250332991799451 -0.36633936598298689 0 0.20367073050850271 -0.32651417672756722 0 0.21116181781869231 -0.31595056310425351 0 0.21195796424961741 -0.32618664768729949 0 0.20367073050850271 -0.32651417672756722 0 0.21116181781869231 -0.31595056310425351 0 0.2000484150942661 -0.31569096454866208 0 0.2190520387458684 -0.32346618836763341 0 0.22213813491910681 -0.31387011061900377 0 0.21116181781869231 -0.31595056310425351 0 0.2190520387458684 -0.32346618836763341 0 0.21116181781869231 -0.31595056310425351 0 0.21195796424961741 -0.32618664768729949 0 0.2190520387458684 -0.32346618836763341 0 0.21195796424961741 -0.32618664768729949 0 0.21065389926768879 -0.33840115984577879 0 0.20367073050850271 -0.32651417672756722 0 0.21065389926768879 -0.33840115984577879 0 0.1992233655025655 -0.34359339038021969 0 0.2254630853845625 -0.34264425881091592 0 0.2166346819353292 -0.3462883162978182 0 0.21065389926768879 -0.33840115984577879 0 0.20367073050850271 -0.32651417672756722 0 0.21195796424961741 -0.32618664768729949 0 0.21065389926768879 -0.33840115984577879 0 0.1992233655025655 -0.34359339038021969 0 0.1888222449241205 -0.31823764819080869 0 0.18092758534189601 -0.33388636232228092 0 0.20367073050850271 -0.32651417672756722 0 0.1992233655025655 -0.34359339038021969 0 0.1888222449241205 -0.31823764819080869 0 0.1992233655025655 -0.34359339038021969 0 0.1888222449241205 -0.31823764819080869 0 0.20367073050850271 -0.32651417672756722 0 0.2000484150942661 -0.31569096454866208 0 0.1888222449241205 -0.31823764819080869 0 0.1888222449241205 -0.31823764819080869 0 0.1718898103169971 -0.31864734595513988 0 0.1801596219518431 -0.30228492764222548 0 0.1888222449241205 -0.31823764819080869 0 0.1718898103169971 -0.31864734595513988 0 0.18092758534189601 -0.33388636232228092 0 0.1992233655025655 -0.34359339038021969 0 0.18092758534189601 -0.33388636232228092 0 0.18106651392980991 -0.34776495440949379 0 0.1718898103169971 -0.31864734595513988 0 0.18092758534189601 -0.33388636232228092 0 0.1636359920359868 -0.34118847267574209 0 0.18092758534189601 -0.33388636232228092 0 0.1636359920359868 -0.34118847267574209 0 0.18106651392980991 -0.34776495440949379 0 0.1718898103169971 -0.31864734595513988 0 0.1636359920359868 -0.34118847267574209 0 0.1718898103169971 -0.31864734595513988 0 0.1636359920359868 -0.34118847267574209 0 0.1529940417168362 -0.32536463537731569 0 0.1718898103169971 -0.31864734595513988 0 0.1529940417168362 -0.32536463537731569 0 0.15339341308746879 -0.30629934136042081 0 0.19116990091408151 -0.37287826308211408 0 0.18250332991799451 -0.36633936598298689 0 0.18213507412602539 -0.37851804946273582 0 0.19256629073023701 -0.35621817183466209 0 0.18250332991799451 -0.36633936598298689 0 0.1810764097999126 -0.35647066203769678 0 0.18250332991799451 -0.36633936598298689 0 0.1810764097999126 -0.35647066203769678 0 0.1698325437127633 -0.35539195438458049 0 0.1810764097999126 -0.35647066203769678 0 0.18106651392980991 -0.34776495440949379 0 0.1698325437127633 -0.35539195438458049 0 0.19256629073023701 -0.35621817183466209 0 0.1810764097999126 -0.35647066203769678 0 0.18106651392980991 -0.34776495440949379 0 0.1636359920359868 -0.34118847267574209 0 0.15538217375497659 -0.36372959939634442 0 0.1636359920359868 -0.34118847267574209 0 0.18106651392980991 -0.34776495440949379 0 0.1698325437127633 -0.35539195438458049 0 0.1636359920359868 -0.34118847267574209 0 0.1698325437127633 -0.35539195438458049 0 0.15538217375497659 -0.36372959939634442 0 0.18250332991799451 -0.36633936598298689 0 0.15538217375497659 -0.36372959939634442 0 0.16911690804954729 -0.38317716587003542 0 0.18250332991799451 -0.36633936598298689 0 0.15538217375497659 -0.36372959939634442 0 0.18250332991799451 -0.36633936598298689 0 0.1698325437127633 -0.35539195438458049 0 0.15538217375497659 -0.36372959939634442 0 0.15538217375497659 -0.36372959939634442 0 0.12685764576478131 -0.36098479163073532 0 0.1636359920359868 -0.34118847267574209 0 0.15538217375497659 -0.36372959939634442 0 0.14089030871468261 -0.34103873387838157 0 0.15538217375497659 -0.36372959939634442 0 0.12685764576478131 -0.36098479163073532 0 0.14089030871468261 -0.34103873387838157 0 0.12728705710854729 -0.34513512188540618 0 0.12685764576478131 -0.36098479163073532 0 0.14089030871468261 -0.34103873387838157 0 0.15538217375497659 -0.36372959939634442 0 0.12685764576478131 -0.36098479163073532 0 0.1282046162476089 -0.38095691847586421 0 0.14635141601174159 -0.31568865864755041 0 0.1529940417168362 -0.32536463537731569 0 0.15339341308746879 -0.30629934136042081 0 0.14210401742596521 -0.32541321810275542 0 0.14635141601174159 -0.31568865864755041 0 0.1529940417168362 -0.32536463537731569 0 0.14210401742596521 -0.32541321810275542 0 0.14635141601174159 -0.31568865864755041 0 0.1350587379727165 -0.31888622407140937 0 0.14210401742596521 -0.32541321810275542 0 0.1529940417168362 -0.32536463537731569 0 0.14089030871468261 -0.34103873387838157 0 0.1636359920359868 -0.34118847267574209 0 0.1529940417168362 -0.32536463537731569 0 0.14089030871468261 -0.34103873387838157 0 0.14210401742596521 -0.32541321810275542 0 0.14089030871468261 -0.34103873387838157 0 0.13409766817018251 -0.32847486143802967 0 0.12728705710854729 -0.34513512188540618 0 0.14089030871468261 -0.34103873387838157 0 0.1250424365443836 -0.33536005985411571 0 0.14089030871468261 -0.34103873387838157 0 0.13409766817018251 -0.32847486143802967 0 0.1250424365443836 -0.33536005985411571 0 0.13409766817018251 -0.32847486143802967 0 0.1250424365443836 -0.33536005985411571 0 0.12682888292133099 -0.32286958273294142 0 0.13409766817018251 -0.32847486143802967 0 0.12682888292133099 -0.32286958273294142 0 0.1350587379727165 -0.31888622407140937 0 0.14210401742596521 -0.32541321810275542 0 0.13409766817018251 -0.32847486143802967 0 0.1350587379727165 -0.31888622407140937 0 0.12682888292133099 -0.32286958273294142 0 0.1350587379727165 -0.31888622407140937 0 0.12566512822930301 -0.30957639132427739 0 0.12566512822930301 -0.30957639132427739 0 0.13424877856548309 -0.29498241169892231 0 0.1183498338777545 -0.3011169153292268 0 0.14635141601174159 -0.31568865864755041 0 0.1350587379727165 -0.31888622407140937 0 0.13424877856548309 -0.29498241169892231 0 0.1350587379727165 -0.31888622407140937 0 0.12566512822930301 -0.30957639132427739 0 0.13424877856548309 -0.29498241169892231 0 0.1350587379727165 -0.31888622407140937 0 0.13424877856548309 -0.29498241169892231 0 0.14635141601174159 -0.31568865864755041 0 0.15339341308746879 -0.30629934136042081 0 0.13424877856548309 -0.29498241169892231 0 0.15339341308746879 -0.30629934136042081 0 0.149039019633044 -0.28921525959066452 0 0.13424877856548309 -0.29498241169892231 0 0.15339341308746879 -0.30629934136042081 0 0.149039019633044 -0.28921525959066452 0 0.16491025705622259 -0.29305955620593421 0 0.13424877856548309 -0.29498241169892231 0 0.13343881915824971 -0.27107859932643519 0 0.149039019633044 -0.28921525959066452 0 0.13424877856548309 -0.29498241169892231 0 0.13343881915824971 -0.27107859932643519 0 0.13424877856548309 -0.29498241169892231 0 0.13343881915824971 -0.27107859932643519 0 0.1203225830851091 -0.27706418071163641 0 0.13343881915824971 -0.27107859932643519 0 0.1215386928393264 -0.26194431362140957 0 0.1203225830851091 -0.27706418071163641 0 0.13343881915824971 -0.27107859932643519 0 0.1477220578672673 -0.2558422650233334 0 0.13262885975101629 -0.24717478695394809 0 0.13343881915824971 -0.27107859932643519 0 0.1215386928393264 -0.26194431362140957 0 0.13262885975101629 -0.24717478695394809 0 0.13343881915824971 -0.27107859932643519 0 0.13262885975101629 -0.24717478695394809 0 0.13343881915824971 -0.27107859932643519 0 0.1477220578672673 -0.2558422650233334 0 0.1573802987312434 -0.27573537846706497 0 0.149039019633044 -0.28921525959066452 0 0.13343881915824971 -0.27107859932643519 0 0.1573802987312434 -0.27573537846706497 0 0.1573802987312434 -0.27573537846706497 0 0.17100866168918269 -0.25736463853233887 0 0.17920087888869321 -0.28232421174879663 0 0.1477220578672673 -0.2558422650233334 0 0.1573802987312434 -0.27573537846706497 0 0.17100866168918269 -0.25736463853233887 0 0.190029304045117 -0.26696038524291238 0 0.19114111494899261 -0.25012612814469848 0 0.17100866168918269 -0.25736463853233887 0 0.190029304045117 -0.26696038524291238 0 0.17100866168918269 -0.25736463853233887 0 0.17920087888869321 -0.28232421174879663 0 0.19880829065311131 -0.30201994078042071 0 0.17920087888869321 -0.28232421174879663 0 0.1801596219518431 -0.30228492764222548 0 0.17920087888869321 -0.28232421174879663 0 0.1801596219518431 -0.30228492764222548 0 0.16491025705622259 -0.29305955620593421 0 0.1718898103169971 -0.31864734595513988 0 0.1801596219518431 -0.30228492764222548 0 0.16491025705622259 -0.29305955620593421 0 0.1718898103169971 -0.31864734595513988 0 0.15339341308746879 -0.30629934136042081 0 0.16491025705622259 -0.29305955620593421 0 0.149039019633044 -0.28921525959066452 0 0.1573802987312434 -0.27573537846706497 0 0.16491025705622259 -0.29305955620593421 0 0.1573802987312434 -0.27573537846706497 0 0.17920087888869321 -0.28232421174879663 0 0.16491025705622259 -0.29305955620593421 0 0.1980679974322114 -0.49033784110653628 0 0.21246231120262721 -0.5 0 0.1833995880351218 -0.5 0 0.1980679974322114 -0.49033784110653628 0 0.19882327664547511 -0.47414981802787542 0 0.1818729269924422 -0.47300658784392302 0 0.1980679974322114 -0.49033784110653628 0 0.19882327664547511 -0.47414981802787542 0 0.2142173456092156 -0.47753829885741977 0 0.19882327664547511 -0.47414981802787542 0 0.2142173456092156 -0.47753829885741977 0 0.2073453862906853 -0.46228857747981472 0 0.1980679974322114 -0.49033784110653628 0 0.22654400263113511 -0.49239257725023738 0 0.1980679974322114 -0.49033784110653628 0 0.21246231120262721 -0.5 0 0.22654400263113511 -0.49239257725023738 0 0.1980679974322114 -0.49033784110653628 0 0.2142173456092156 -0.47753829885741977 0 0.22654400263113511 -0.49239257725023738 0 0.21246231120262721 -0.5 0 0.22654400263113511 -0.49239257725023738 0 0.24152503437013231 -0.5 0 0.25502000783005868 -0.49444731339393849 0 0.22654400263113511 -0.49239257725023738 0 0.2495977460456692 -0.47849405291595459 0 0.25502000783005868 -0.49444731339393849 0 0.22654400263113511 -0.49239257725023738 0 0.24152503437013231 -0.5 0 0.25502000783005868 -0.49444731339393849 0 0.22654400263113511 -0.49239257725023738 0 0.25549325552728491 -0.46270955385234708 0 0.2327904694012794 -0.47730120148521871 0 0.25549325552728491 -0.46270955385234708 0 0.2495977460456692 -0.47849405291595459 0 0.2327904694012794 -0.47730120148521871 0 0.22654400263113511 -0.49239257725023738 0 0.2495977460456692 -0.47849405291595459 0 0.2327904694012794 -0.47730120148521871 0 0.2142173456092156 -0.47753829885741977 0 0.22654400263113511 -0.49239257725023738 0 0.2327904694012794 -0.47730120148521871 0 0.2142173456092156 -0.47753829885741977 0 0.2327904694012794 -0.47730120148521871 0 0.2210142075467425 -0.46588975328616872 0 0.2327904694012794 -0.47730120148521871 0 0.2210142075467425 -0.46588975328616872 0 0.23176818609469149 -0.45351967431105372 0 0.2210142075467425 -0.46588975328616872 0 0.23176818609469149 -0.45351967431105372 0 0.21340249845532161 -0.44765480764389037 0 0.25549325552728491 -0.46270955385234708 0 0.2327904694012794 -0.47730120148521871 0 0.23176818609469149 -0.45351967431105372 0 0.25549325552728491 -0.46270955385234708 0 0.23176818609469149 -0.45351967431105372 0 0.24639694347105889 -0.43653412957101873 0 0.23176818609469149 -0.45351967431105372 0 0.2191064575035277 -0.43041674719942208 0 0.24639694347105889 -0.43653412957101873 0 0.23176818609469149 -0.45351967431105372 0 0.21340249845532161 -0.44765480764389037 0 0.2191064575035277 -0.43041674719942208 0 0.21340249845532161 -0.44765480764389037 0 0.19592853038925889 -0.43503997136209288 0 0.2191064575035277 -0.43041674719942208 0 0.21340249845532161 -0.44765480764389037 0 0.2073453862906853 -0.46228857747981472 0 0.19106011991819191 -0.45462719881715341 0 0.2210142075467425 -0.46588975328616872 0 0.21340249845532161 -0.44765480764389037 0 0.2073453862906853 -0.46228857747981472 0 0.2142173456092156 -0.47753829885741977 0 0.2210142075467425 -0.46588975328616872 0 0.2073453862906853 -0.46228857747981472 0 0.19882327664547511 -0.47414981802787542 0 0.19106011991819191 -0.45462719881715341 0 0.1818729269924422 -0.47300658784392302 0 0.19882327664547511 -0.47414981802787542 0 0.2073453862906853 -0.46228857747981472 0 0.19106011991819191 -0.45462719881715341 0 0.21340249845532161 -0.44765480764389037 0 0.19106011991819191 -0.45462719881715341 0 0.19592853038925889 -0.43503997136209288 0 0.19592853038925889 -0.43503997136209288 0 0.19532735907136989 -0.41092362337432348 0 0.1792295798343613 -0.42034995437615008 0 0.19592853038925889 -0.43503997136209288 0 0.19532735907136989 -0.41092362337432348 0 0.21540234936732719 -0.41296679644877338 0 0.19592853038925889 -0.43503997136209288 0 0.21540234936732719 -0.41296679644877338 0 0.2191064575035277 -0.43041674719942208 0 0.19592853038925889 -0.43503997136209288 0 0.2191064575035277 -0.43041674719942208 0 0.2191064575035277 -0.43041674719942208 0 0.24639694347105889 -0.43653412957101873 0 0.2416344071284621 -0.41628710500676902 0 0.25120355743271172 -0.4026778476323678 0 0.2416344071284621 -0.41628710500676902 0 0.2345151047606378 -0.40191246862750879 0 0.21540234936732719 -0.41296679644877338 0 0.2191064575035277 -0.43041674719942208 0 0.2416344071284621 -0.41628710500676902 0 0.21540234936732719 -0.41296679644877338 0 0.2416344071284621 -0.41628710500676902 0 0.2345151047606378 -0.40191246862750879 0 0.21540234936732719 -0.41296679644877338 0 0.22148035280968301 -0.39785123960098501 0 0.2345151047606378 -0.40191246862750879 0 0.22148035280968301 -0.39785123960098501 0 0.2345151047606378 -0.40191246862750879 0 0.24086839371777799 -0.3898280133623393 0 0.25120355743271172 -0.4026778476323678 0 0.2345151047606378 -0.40191246862750879 0 0.24086839371777799 -0.3898280133623393 0 0.25761262313876049 -0.38567315420765758 0 0.2482611573537368 -0.3784260541210292 0 0.24086839371777799 -0.3898280133623393 0 0.2482611573537368 -0.3784260541210292 0 0.24086839371777799 -0.3898280133623393 0 0.2393353999074862 -0.37848999677050399 0 0.24227551724107521 -0.37250674947551182 0 0.2482611573537368 -0.3784260541210292 0 0.2393353999074862 -0.37848999677050399 0 0.23590985708501391 -0.37147847470207412 0 0.2393353999074862 -0.37848999677050399 0 0.23012438972169619 -0.378071611927979 0 0.24086839371777799 -0.3898280133623393 0 0.2393353999074862 -0.37848999677050399 0 0.23012438972169619 -0.378071611927979 0 0.24086839371777799 -0.3898280133623393 0 0.21450020105474729 -0.38083509917589542 0 0.22148035280968301 -0.39785123960098501 0 0.24086839371777799 -0.3898280133623393 0 0.21450020105474729 -0.38083509917589542 0 0.24086839371777799 -0.3898280133623393 0 0.23012438972169619 -0.378071611927979 0 0.21450020105474729 -0.38083509917589542 0 0.2225047406935699 -0.37243745573707288 0 0.23012438972169619 -0.378071611927979 0 0.21450020105474729 -0.38083509917589542 0 0.20962448608101239 -0.36894913256963008 0 0.2132547428570096 -0.37779893430006461 0 0.2104183341188994 -0.379442971943527 0 0.2225047406935699 -0.37243745573707288 0 0.21450020105474729 -0.38083509917589542 0 0.2132547428570096 -0.37779893430006461 0 0.22148035280968301 -0.39785123960098501 0 0.21450020105474729 -0.38083509917589542 0 0.2225047406935699 -0.37243745573707288 0 0.2132547428570096 -0.37779893430006461 0 0.21450020105474729 -0.38083509917589542 0 0.2104183341188994 -0.379442971943527 0 0.21450020105474729 -0.38083509917589542 0 0.2132547428570096 -0.37779893430006461 0 0.2104183341188994 -0.379442971943527 0 0.21450020105474729 -0.38083509917589542 0 0.2132547428570096 -0.37779893430006461 0 0.2132547428570096 -0.37779893430006461 0 0.2104183341188994 -0.379442971943527 0 0.21450020105474729 -0.38083509917589542 0 0.2104183341188994 -0.379442971943527 0 0.20790992124306651 -0.39347820886838258 0 0.19532735907136989 -0.41092362337432348 0 0.21540234936732719 -0.41296679644877338 0 0.20790992124306651 -0.39347820886838258 0 0.21540234936732719 -0.41296679644877338 0 0.22148035280968301 -0.39785123960098501 0 0.20790992124306651 -0.39347820886838258 0 0.22148035280968301 -0.39785123960098501 0 0.21450020105474729 -0.38083509917589542 0 0.20790992124306651 -0.39347820886838258 0 0.19532735907136989 -0.41092362337432348 0 0.20790992124306651 -0.39347820886838258 0 0.1887281238709492 -0.39201503945380672 0 0.19532735907136989 -0.41092362337432348 0 0.1887281238709492 -0.39201503945380672 0 0.1827241456840151 -0.40673640960270702 0 0.19116990091408151 -0.37287826308211408 0 0.2104183341188994 -0.379442971943527 0 0.1887281238709492 -0.39201503945380672 0 0.2104183341188994 -0.379442971943527 0 0.1887281238709492 -0.39201503945380672 0 0.19116990091408151 -0.37287826308211408 0 0.2104183341188994 -0.379442971943527 0 0.2104183341188994 -0.379442971943527 0 0.20790992124306651 -0.39347820886838258 0 0.1887281238709492 -0.39201503945380672 0 0.19116990091408151 -0.37287826308211408 0 0.1887281238709492 -0.39201503945380672 0 0.18213507412602539 -0.37851804946273582 0 0.18250332991799451 -0.36633936598298689 0 0.18213507412602539 -0.37851804946273582 0 0.16911690804954729 -0.38317716587003542 0 0.1887281238709492 -0.39201503945380672 0 0.18213507412602539 -0.37851804946273582 0 0.16911690804954729 -0.38317716587003542 0 0.1887281238709492 -0.39201503945380672 0 0.16703791362299841 -0.40458710696408567 0 0.1887281238709492 -0.39201503945380672 0 0.16703791362299841 -0.40458710696408567 0 0.1827241456840151 -0.40673640960270702 0 0.1887281238709492 -0.39201503945380672 0 0.16703791362299841 -0.40458710696408567 0 0.16911690804954729 -0.38317716587003542 0 0.16703791362299841 -0.40458710696408567 0 0.16911690804954729 -0.38317716587003542 0 0.1452034556242989 -0.39152761571138389 0 0.15538217375497659 -0.36372959939634442 0 0.16911690804954729 -0.38317716587003542 0 0.1452034556242989 -0.39152761571138389 0 0.15538217375497659 -0.36372959939634442 0 0.1452034556242989 -0.39152761571138389 0 0.15538217375497659 -0.36372959939634442 0 0.1282046162476089 -0.38095691847586421 0 0.1452034556242989 -0.39152761571138389 0 0.1282046162476089 -0.38095691847586421 0 0.12819128990312029 -0.40418830216912649 0 0.1452034556242989 -0.39152761571138389 0 0.12819128990312029 -0.40418830216912649 0 0.1452034556242989 -0.39152761571138389 0 0.1453477033750476 -0.41715917447436468 0 0.16703791362299841 -0.40458710696408567 0 0.1452034556242989 -0.39152761571138389 0 0.1453477033750476 -0.41715917447436468 0 0.16703791362299841 -0.40458710696408567 0 0.1453477033750476 -0.41715917447436468 0 0.12819128990312029 -0.40418830216912649 0 0.1453477033750476 -0.41715917447436468 0 0.1291170922913808 -0.4202478670536095 0 0.1291170922913808 -0.4202478670536095 0 0.13859580615841419 -0.43144071031285403 0 0.1192272984179681 -0.43224803578164273 0 0.1453477033750476 -0.41715917447436468 0 0.1291170922913808 -0.4202478670536095 0 0.13859580615841419 -0.43144071031285403 0 0.13859580615841419 -0.43144071031285403 0 0.1606010297125999 -0.42586531205172429 0 0.14957267616072159 -0.44428641968743438 0 0.1453477033750476 -0.41715917447436468 0 0.13859580615841419 -0.43144071031285403 0 0.1606010297125999 -0.42586531205172429 0 0.1606010297125999 -0.42586531205172429 0 0.1792295798343613 -0.42034995437615008 0 0.1727506032749902 -0.43966319552476357 0 0.1606010297125999 -0.42586531205172429 0 0.1727506032749902 -0.43966319552476357 0 0.14957267616072159 -0.44428641968743438 0 0.16703791362299841 -0.40458710696408567 0 0.1606010297125999 -0.42586531205172429 0 0.1792295798343613 -0.42034995437615008 0 0.16703791362299841 -0.40458710696408567 0 0.1453477033750476 -0.41715917447436468 0 0.1606010297125999 -0.42586531205172429 0 0.16703791362299841 -0.40458710696408567 0 0.1792295798343613 -0.42034995437615008 0 0.1827241456840151 -0.40673640960270702 0 0.19532735907136989 -0.41092362337432348 0 0.1792295798343613 -0.42034995437615008 0 0.1827241456840151 -0.40673640960270702 0 0.19592853038925889 -0.43503997136209288 0 0.1792295798343613 -0.42034995437615008 0 0.1727506032749902 -0.43966319552476357 0 0.19592853038925889 -0.43503997136209288 0 0.1727506032749902 -0.43966319552476357 0 0.19106011991819191 -0.45462719881715341 0 0.19592853038925889 -0.43503997136209288 0 0.1727506032749902 -0.43966319552476357 0 0.19106011991819191 -0.45462719881715341 0 0.1727506032749902 -0.43966319552476357 0 0.16475550464023681 -0.46096451256837478 0 0.19106011991819191 -0.45462719881715341 0 0.16475550464023681 -0.46096451256837478 0 0.1818729269924422 -0.47300658784392302 0 0.1727506032749902 -0.43966319552476357 0 0.16475550464023681 -0.46096451256837478 0 0.14957267616072159 -0.44428641968743438 0 0.1727506032749902 -0.43966319552476357 0 0.14957267616072159 -0.44428641968743438 0 0.14957267616072159 -0.44428641968743438 0 0.12639474904645301 -0.44890964385010512 0 0.13231152922157771 -0.4625823197365363 0 0.13859580615841419 -0.43144071031285403 0 0.14957267616072159 -0.44428641968743438 0 0.12639474904645301 -0.44890964385010512 0 0.14957267616072159 -0.44428641968743438 0 0.12639474904645301 -0.44890964385010512 0 0.13859580615841419 -0.43144071031285403 0 0.12639474904645301 -0.44890964385010512 0 0.1192272984179681 -0.43224803578164273 0 0.16475550464023681 -0.46096451256837478 0 0.14957267616072159 -0.44428641968743438 0 0.1454927389375914 -0.47269579213492902 0 0.14957267616072159 -0.44428641968743438 0 0.13231152922157771 -0.4625823197365363 0 0.1454927389375914 -0.47269579213492902 0 0.1454927389375914 -0.47269579213492902 0 0.14271353367154549 -0.48564969916575218 0 0.1605813525890761 -0.47579092749066371 0 0.1454927389375914 -0.47269579213492902 0 0.1278825702633323 -0.47976177620316829 0 0.14271353367154549 -0.48564969916575218 0 0.13231152922157771 -0.4625823197365363 0 0.1454927389375914 -0.47269579213492902 0 0.1278825702633323 -0.47976177620316829 0 0.1278825702633323 -0.47976177620316829 0 0.12527414170011111 -0.5 0 0.14271353367154549 -0.48564969916575218 0 0.15433686486761641 -0.5 0 0.14271353367154549 -0.48564969916575218 0 0.1605813525890761 -0.47579092749066371 0 0.12527414170011111 -0.5 0 0.15433686486761641 -0.5 0 0.14271353367154549 -0.48564969916575218 0 0.15433686486761641 -0.5 0 0.16959199223328761 -0.48828310496283522 0 0.1605813525890761 -0.47579092749066371 0 0.15433686486761641 -0.5 0 0.16959199223328761 -0.48828310496283522 0 0.1833995880351218 -0.5 0 0.16959199223328761 -0.48828310496283522 0 0.1605813525890761 -0.47579092749066371 0 0.1818729269924422 -0.47300658784392302 0 0.16475550464023681 -0.46096451256837478 0 0.1454927389375914 -0.47269579213492902 0 0.1605813525890761 -0.47579092749066371 0 0.16475550464023681 -0.46096451256837478 0 0.1605813525890761 -0.47579092749066371 0 0.1818729269924422 -0.47300658784392302 0 0.1980679974322114 -0.49033784110653628 0 0.16959199223328761 -0.48828310496283522 0 0.1818729269924422 -0.47300658784392302 0 0.1980679974322114 -0.49033784110653628 0 0.16959199223328761 -0.48828310496283522 0 0.1980679974322114 -0.49033784110653628 0 0.16959199223328761 -0.48828310496283522 0 0.1833995880351218 -0.5 0 0.076746831472464416 -0.5 0 0.073381588795373126 -0.48196175794750978 0 0.057282244412323088 -0.49999999999999839 0 0.073381588795373126 -0.48196175794750978 0 0.057282244412323088 -0.49999999999999839 0 0.073381588795373126 -0.48196175794750978 0 0.07482527352521974 -0.46406095716315132 0 0.06098408752701636 -0.46479165493303393 0 0.073381588795373126 -0.48196175794750978 0 0.092846175855516966 -0.48196175794751089 0 0.089480933178426036 -0.46392351589502379 0 0.073381588795373126 -0.48196175794750978 0 0.089480933178426036 -0.46392351589502379 0 0.07482527352521974 -0.46406095716315132 0 0.092846175855516966 -0.48196175794751089 0 0.089480933178426036 -0.46392351589502379 0 0.073381588795373126 -0.48196175794750978 0 0.089480933178426036 -0.46392351589502379 0 0.076746831472464416 -0.5 0 0.092846175855516966 -0.48196175794751089 0 0.096211418532605855 -0.49999999999999839 0 0.076746831472464416 -0.5 0 0.073381588795373126 -0.48196175794750978 0 0.092846175855516966 -0.48196175794751089 0 0.092846175855516966 -0.48196175794751089 0 0.096211418532605855 -0.49999999999999839 0 0.1108265224384385 -0.4856669243456615 0 0.092846175855516966 -0.48196175794751089 0 0.096211418532605855 -0.49999999999999839 0 0.1278825702633323 -0.47976177620316829 0 0.12527414170011111 -0.5 0 0.1108265224384385 -0.4856669243456615 0 0.12527414170011111 -0.5 0 0.096211418532605855 -0.49999999999999839 0 0.1108265224384385 -0.4856669243456615 0 0.13231152922157771 -0.4625823197365363 0 0.1278825702633323 -0.47976177620316829 0 0.1122149116997903 -0.46725796680704468 0 0.1278825702633323 -0.47976177620316829 0 0.1108265224384385 -0.4856669243456615 0 0.1122149116997903 -0.46725796680704468 0 0.092846175855516966 -0.48196175794751089 0 0.1108265224384385 -0.4856669243456615 0 0.1122149116997903 -0.46725796680704468 0 0.092846175855516966 -0.48196175794751089 0 0.1122149116997903 -0.46725796680704468 0 0.089480933178426036 -0.46392351589502379 0 0.10625146277746041 -0.44513325555533279 0 0.089480933178426036 -0.46392351589502379 0 0.1122149116997903 -0.46725796680704468 0 0.10625146277746041 -0.44513325555533279 0 0.089480933178426036 -0.46392351589502379 0 0.12639474904645301 -0.44890964385010512 0 0.1122149116997903 -0.46725796680704468 0 0.10625146277746041 -0.44513325555533279 0 0.12639474904645301 -0.44890964385010512 0 0.13231152922157771 -0.4625823197365363 0 0.1122149116997903 -0.46725796680704468 0 0.12639474904645301 -0.44890964385010512 0 0.10625146277746041 -0.44513325555533279 0 0.1192272984179681 -0.43224803578164273 0 0.10625146277746041 -0.44513325555533279 0 0.088322274656320809 -0.44782874267488748 0 0.089480933178426036 -0.46392351589502379 0 0.10625146277746041 -0.44513325555533279 0 0.088322274656320809 -0.44782874267488748 0 0.0947671273870523 -0.43421267797201391 0 0.088322274656320809 -0.44782874267488748 0 0.085744667581147432 -0.44389653131083329 0 0.089480933178426036 -0.46392351589502379 0 0.088322274656320809 -0.44782874267488748 0 0.085744667581147432 -0.44389653131083329 0 0.082986426820486681 -0.42121719209518438 0 0.085744667581147432 -0.44389653131083329 0 0.078519046765437417 -0.44156909221940172 0 0.079263203420887468 -0.43455164210324537 0 0.085744667581147432 -0.44389653131083329 0 0.078519046765437417 -0.44156909221940172 0 0.07938570156714099 -0.4460409804265531 0 0.085744667581147432 -0.44389653131083329 0 0.079955418820862351 -0.45294381617158469 0 0.07938570156714099 -0.4460409804265531 0 0.085744667581147432 -0.44389653131083329 0 0.079955418820862351 -0.45294381617158469 0 0.089480933178426036 -0.46392351589502379 0 0.085744667581147432 -0.44389653131083329 0 0.089480933178426036 -0.46392351589502379 0 0.079955418820862351 -0.45294381617158469 0 0.089480933178426036 -0.46392351589502379 0 0.07482527352521974 -0.46406095716315132 0 0.079955418820862351 -0.45294381617158469 0 0.070324339304419142 -0.45668404086860481 0 0.07482527352521974 -0.46406095716315132 0 0.070324339304419142 -0.45668404086860481 0 0.07482527352521974 -0.46406095716315132 0 0.06098408752701636 -0.46479165493303393 0 0.070324339304419142 -0.45668404086860481 0 0.061931740220567827 -0.45010215968975231 0 0.06098408752701636 -0.46479165493303393 0 0.070324339304419142 -0.45668404086860481 0 0.073323673101116774 -0.44575448200439283 0 0.061931740220567827 -0.45010215968975231 0 0.065052178318991169 -0.43760912395517543 0 0.073323673101116774 -0.44575448200439283 0 0.061931740220567827 -0.45010215968975231 0 0.065052178318991169 -0.43760912395517543 0 0.073323673101116774 -0.44575448200439283 0 0.073903419010361876 -0.4372495112454487 0 0.078519046765437417 -0.44156909221940172 0 0.073323673101116774 -0.44575448200439283 0 0.073903419010361876 -0.4372495112454487 0 0.078519046765437417 -0.44156909221940172 0 0.073903419010361876 -0.4372495112454487 0 0.079263203420887468 -0.43455164210324537 0 0.078519046765437417 -0.44156909221940172 0 0.07938570156714099 -0.4460409804265531 0 0.073323673101116774 -0.44575448200439283 0 0.079955418820862351 -0.45294381617158469 0 0.07938570156714099 -0.4460409804265531 0 0.073323673101116774 -0.44575448200439283 0 0.079955418820862351 -0.45294381617158469 0 0.070324339304419142 -0.45668404086860481 0 0.073323673101116774 -0.44575448200439283 0 0.071039287258901657 -0.42391732524599912 0 0.077400804305442605 -0.42865079601366901 0 0.070799677912447373 -0.43094372263307951 0 0.071039287258901657 -0.42391732524599912 0 0.077555842379763762 -0.42431543084781298 0 0.077400804305442605 -0.42865079601366901 0 0.077400804305442605 -0.42865079601366901 0 0.075341776162284824 -0.43284891799886061 0 0.079263203420887468 -0.43455164210324537 0 0.077400804305442605 -0.42865079601366901 0 0.075341776162284824 -0.43284891799886061 0 0.070799677912447373 -0.43094372263307951 0 0.075341776162284824 -0.43284891799886061 0 0.073903419010361876 -0.4372495112454487 0 0.079263203420887468 -0.43455164210324537 0 0.075341776162284824 -0.43284891799886061 0 0.073903419010361876 -0.4372495112454487 0 0.070799677912447373 -0.43094372263307951 0 0.065052178318991169 -0.43760912395517543 0 0.073903419010361876 -0.4372495112454487 0 0.070799677912447373 -0.43094372263307951 0 0.065052178318991169 -0.43760912395517543 0 0.070799677912447373 -0.43094372263307951 0 0.059269948603070423 -0.42564966889694161 0 0.071039287258901657 -0.42391732524599912 0 0.066128123861397409 -0.41731899265803962 0 0.059269948603070423 -0.42564966889694161 0 0.071039287258901657 -0.42391732524599912 0 0.070799677912447373 -0.43094372263307951 0 0.059269948603070423 -0.42564966889694161 0 0.066128123861397409 -0.41731899265803962 0 0.075081326491288458 -0.41662534042645211 0 0.066890664201674957 -0.40375635233259721 0 0.066128123861397409 -0.41731899265803962 0 0.066890664201674957 -0.40375635233259721 0 0.056144522200146547 -0.41315938415833547 0 0.071039287258901657 -0.42391732524599912 0 0.066128123861397409 -0.41731899265803962 0 0.075081326491288458 -0.41662534042645211 0 0.071039287258901657 -0.42391732524599912 0 0.077555842379763762 -0.42431543084781298 0 0.075081326491288458 -0.41662534042645211 0 0.077555842379763762 -0.42431543084781298 0 0.075081326491288458 -0.41662534042645211 0 0.079407999418851488 -0.4215068775240231 0 0.082986426820486681 -0.42121719209518438 0 0.077650578984652774 -0.3946056415154815 0 0.082986426820486681 -0.42121719209518438 0 0.086208853185852641 -0.4144091597437477 0 0.077650578984652774 -0.3946056415154815 0 0.075081326491288458 -0.41662534042645211 0 0.079407999418851488 -0.4215068775240231 0 0.082986426820486681 -0.42121719209518438 0 0.086208853185852641 -0.4144091597437477 0 0.098733455909734091 -0.40916930595291001 0 0.092701205534801392 -0.39838571887211321 0 0.075081326491288458 -0.41662534042645211 0 0.082986426820486681 -0.42121719209518438 0 0.077650578984652774 -0.3946056415154815 0 0.088322274656320809 -0.44782874267488748 0 0.082986426820486681 -0.42121719209518438 0 0.0947671273870523 -0.43421267797201391 0 0.088322274656320809 -0.44782874267488748 0 0.082986426820486681 -0.42121719209518438 0 0.085744667581147432 -0.44389653131083329 0 0.08200840198386708 -0.42386954672664301 0 0.079263203420887468 -0.43455164210324537 0 0.082986426820486681 -0.42121719209518438 0 0.086208853185852641 -0.4144091597437477 0 0.0947671273870523 -0.43421267797201391 0 0.085744667581147432 -0.44389653131083329 0 0.082986426820486681 -0.42121719209518438 0 0.08200840198386708 -0.42386954672664301 0 0.085744667581147432 -0.44389653131083329 0 0.08200840198386708 -0.42386954672664301 0 0.086208853185852641 -0.4144091597437477 0 0.0947671273870523 -0.43421267797201391 0 0.086208853185852641 -0.4144091597437477 0 0.0947671273870523 -0.43421267797201391 0 0.099042583129883233 -0.42092544797192583 0 0.077400804305442605 -0.42865079601366901 0 0.08200840198386708 -0.42386954672664301 0 0.079263203420887468 -0.43455164210324537 0 0.077555842379763762 -0.42431543084781298 0 0.079407999418851488 -0.4215068775240231 0 0.08200840198386708 -0.42386954672664301 0 0.077555842379763762 -0.42431543084781298 0 0.077400804305442605 -0.42865079601366901 0 0.08200840198386708 -0.42386954672664301 0 0.079407999418851488 -0.4215068775240231 0 0.082986426820486681 -0.42121719209518438 0 0.08200840198386708 -0.42386954672664301 0 0.0947671273870523 -0.43421267797201391 0 0.1060640681935512 -0.42968460387971991 0 0.099042583129883233 -0.42092544797192583 0 0.1060640681935512 -0.42968460387971991 0 0.1110318692553921 -0.41590360211768429 0 0.099042583129883233 -0.42092544797192583 0 0.10625146277746041 -0.44513325555533279 0 0.0947671273870523 -0.43421267797201391 0 0.1060640681935512 -0.42968460387971991 0 0.10625146277746041 -0.44513325555533279 0 0.1060640681935512 -0.42968460387971991 0 0.1192272984179681 -0.43224803578164273 0 0.1060640681935512 -0.42968460387971991 0 0.1192272984179681 -0.43224803578164273 0 0.1110318692553921 -0.41590360211768429 0 0.1291170922913808 -0.4202478670536095 0 0.1192272984179681 -0.43224803578164273 0 0.1110318692553921 -0.41590360211768429 0 0.12819128990312029 -0.40418830216912649 0 0.1291170922913808 -0.4202478670536095 0 0.1110318692553921 -0.41590360211768429 0 0.1110318692553921 -0.41590360211768429 0 0.098733455909734091 -0.40916930595291001 0 0.1091062118687248 -0.39459575519512641 0 0.1110318692553921 -0.41590360211768429 0 0.099042583129883233 -0.42092544797192583 0 0.098733455909734091 -0.40916930595291001 0 0.086208853185852641 -0.4144091597437477 0 0.099042583129883233 -0.42092544797192583 0 0.098733455909734091 -0.40916930595291001 0 0.098733455909734091 -0.40916930595291001 0 0.1091062118687248 -0.39459575519512641 0 0.092701205534801392 -0.39838571887211321 0 0.1091062118687248 -0.39459575519512641 0 0.093849288134594006 -0.38241348132463759 0 0.092701205534801392 -0.39838571887211321 0 0.12819128990312029 -0.40418830216912649 0 0.1110318692553921 -0.41590360211768429 0 0.1091062118687248 -0.39459575519512641 0 0.1282046162476089 -0.38095691847586421 0 0.12819128990312029 -0.40418830216912649 0 0.1091062118687248 -0.39459575519512641 0 0.1282046162476089 -0.38095691847586421 0 0.1091062118687248 -0.39459575519512641 0 0.11127017595805901 -0.37543818609829788 0 0.1091062118687248 -0.39459575519512641 0 0.11127017595805901 -0.37543818609829788 0 0.093849288134594006 -0.38241348132463759 0 0.093849288134594006 -0.38241348132463759 0 0.077650578984652774 -0.3946056415154815 0 0.073729584384521846 -0.37505040880749901 0 0.086208853185852641 -0.4144091597437477 0 0.077650578984652774 -0.3946056415154815 0 0.086208853185852641 -0.4144091597437477 0 0.092701205534801392 -0.39838571887211321 0 0.077650578984652774 -0.3946056415154815 0 0.093849288134594006 -0.38241348132463759 0 0.092701205534801392 -0.39838571887211321 0 0.077650578984652774 -0.3946056415154815 0 0.077650578984652774 -0.3946056415154815 0 0.066890664201674957 -0.40375635233259721 0 0.055506997847348277 -0.38655100019227301 0 0.075081326491288458 -0.41662534042645211 0 0.077650578984652774 -0.3946056415154815 0 0.066890664201674957 -0.40375635233259721 0 0.077650578984652774 -0.3946056415154815 0 0.069003050489253231 -0.37459559227400052 0 0.077650578984652774 -0.3946056415154815 0 0.073729584384521846 -0.37505040880749901 0 0.077650578984652774 -0.3946056415154815 0 0.073729584384521846 -0.37505040880749901 0 0.069003050489253231 -0.37459559227400052 0 0.077650578984652774 -0.3946056415154815 0 0.055506997847348277 -0.38655100019227301 0 0.069003050489253231 -0.37459559227400052 0 0.055506997847348277 -0.38655100019227301 0 0.069003050489253231 -0.37459559227400052 0 0.056820718175877173 -0.36806103804822038 0 0.066890664201674957 -0.40375635233259721 0 0.055506997847348277 -0.38655100019227301 0 0.047208942060217453 -0.40249888506393128 0 0.055506997847348277 -0.38655100019227301 0 0.047208942060217453 -0.40249888506393128 0 0.036984570005532673 -0.38928336656440798 0 0.047208942060217453 -0.40249888506393128 0 0.036984570005532673 -0.38928336656440798 0 0.025527823976032909 -0.40502447466203362 0 0.055506997847348277 -0.38655100019227301 0 0.036984570005532673 -0.38928336656440798 0 0.040713899563300578 -0.37016374052279472 0 0.036984570005532673 -0.38928336656440798 0 0.018386413402321021 -0.38159959809408062 0 0.040713899563300578 -0.37016374052279472 0 -0.0045440780515582074 -0.37634213804182948 0 0.018386413402321021 -0.38159959809408062 0 0.0042832968027116938 -0.39390729120956841 0 0.0042832968027116938 -0.39390729120956841 0 0.025527823976032909 -0.40502447466203362 0 0.001104039012719632 -0.41279479384638318 0 0.018386413402321021 -0.38159959809408062 0 0.0042832968027116938 -0.39390729120956841 0 0.025527823976032909 -0.40502447466203362 0 0.036984570005532673 -0.38928336656440798 0 0.018386413402321021 -0.38159959809408062 0 0.025527823976032909 -0.40502447466203362 0 0.025527823976032909 -0.40502447466203362 0 0.024928417812377091 -0.42011555550696872 0 0.001104039012719632 -0.41279479384638318 0 0.025527823976032909 -0.40502447466203362 0 0.024928417812377091 -0.42011555550696872 0 0.042199074130569322 -0.41721873247394098 0 -0.0056355393443281322 -0.43417850540682151 0 0.001104039012719632 -0.41279479384638318 0 0.016590620058609371 -0.43402655680307461 0 0.001104039012719632 -0.41279479384638318 0 0.016590620058609371 -0.43402655680307461 0 0.024928417812377091 -0.42011555550696872 0 0.001104039012719632 -0.41279479384638318 0 0.016590620058609371 -0.43402655680307461 0 0.024928417812377091 -0.42011555550696872 0 0.016590620058609371 -0.43402655680307461 0 0.039220531883954191 -0.43151321974941081 0 0.016590620058609371 -0.43402655680307461 0 0.039220531883954191 -0.43151321974941081 0 0.037958903223785437 -0.44331435053791157 0 0.024928417812377091 -0.42011555550696872 0 0.039220531883954191 -0.43151321974941081 0 0.042199074130569322 -0.41721873247394098 0 0.047208942060217453 -0.40249888506393128 0 0.025527823976032909 -0.40502447466203362 0 0.042199074130569322 -0.41721873247394098 0 0.042199074130569322 -0.41721873247394098 0 0.056144522200146547 -0.41315938415833547 0 0.059269948603070423 -0.42564966889694161 0 0.066890664201674957 -0.40375635233259721 0 0.047208942060217453 -0.40249888506393128 0 0.056144522200146547 -0.41315938415833547 0 0.047208942060217453 -0.40249888506393128 0 0.042199074130569322 -0.41721873247394098 0 0.056144522200146547 -0.41315938415833547 0 0.066128123861397409 -0.41731899265803962 0 0.056144522200146547 -0.41315938415833547 0 0.059269948603070423 -0.42564966889694161 0 0.039220531883954191 -0.43151321974941081 0 0.042199074130569322 -0.41721873247394098 0 0.059269948603070423 -0.42564966889694161 0 0.039220531883954191 -0.43151321974941081 0 0.059269948603070423 -0.42564966889694161 0 0.052659586475865133 -0.44060241213490597 0 0.065052178318991169 -0.43760912395517543 0 0.059269948603070423 -0.42564966889694161 0 0.052659586475865133 -0.44060241213490597 0 0.052659586475865133 -0.44060241213490597 0 0.061931740220567827 -0.45010215968975231 0 0.049246576595998487 -0.45517124424240091 0 0.065052178318991169 -0.43760912395517543 0 0.052659586475865133 -0.44060241213490597 0 0.061931740220567827 -0.45010215968975231 0 0.061931740220567827 -0.45010215968975231 0 0.06098408752701636 -0.46479165493303393 0 0.049246576595998487 -0.45517124424240091 0 0.06098408752701636 -0.46479165493303393 0 0.049246576595998487 -0.45517124424240091 0 0.041120068244198102 -0.46765589227690352 0 0.041120068244198102 -0.46765589227690352 0 0.032077201104499992 -0.4552583197597655 0 0.02100241097709216 -0.47611673515724379 0 0.049246576595998487 -0.45517124424240091 0 0.032077201104499992 -0.4552583197597655 0 0.049246576595998487 -0.45517124424240091 0 0.041120068244198102 -0.46765589227690352 0 0.032077201104499992 -0.4552583197597655 0 0.041120068244198102 -0.46765589227690352 0 0.032077201104499992 -0.4552583197597655 0 0.049246576595998487 -0.45517124424240091 0 0.032077201104499992 -0.4552583197597655 0 0.037958903223785437 -0.44331435053791157 0 0.052659586475865133 -0.44060241213490597 0 0.049246576595998487 -0.45517124424240091 0 0.037958903223785437 -0.44331435053791157 0 0.039220531883954191 -0.43151321974941081 0 0.052659586475865133 -0.44060241213490597 0 0.037958903223785437 -0.44331435053791157 0 0.016590620058609371 -0.43402655680307461 0 0.032077201104499992 -0.4552583197597655 0 0.016590620058609371 -0.43402655680307461 0 0.032077201104499992 -0.4552583197597655 0 0.037958903223785437 -0.44331435053791157 0 0.016590620058609371 -0.43402655680307461 0 0.032077201104499992 -0.4552583197597655 0 0.0095213380248362935 -0.45537271317193212 0 -0.0056355393443281322 -0.43417850540682151 0 0.016590620058609371 -0.43402655680307461 0 0.0095213380248362935 -0.45537271317193212 0 0.0095213380248362935 -0.45537271317193212 0 0.02100241097709216 -0.47611673515724379 0 0.00083854738960830876 -0.47283466759869652 0 0.032077201104499992 -0.4552583197597655 0 0.0095213380248362935 -0.45537271317193212 0 0.02100241097709216 -0.47611673515724379 0 0.032077201104499992 -0.4552583197597655 0 0.0095213380248362935 -0.45537271317193212 0 -0.00074998226674904966 -0.5 0 0.02100241097709216 -0.47611673515724379 0 0.00083854738960830876 -0.47283466759869652 0 -0.00074998226674904966 -0.5 0 0.02100241097709216 -0.47611673515724379 0 0.028266131072786971 -0.5 0 0.02100241097709216 -0.47611673515724379 0 0.028266131072786971 -0.5 0 0.034117637690008758 -0.48226025729418232 0 0.028266131072786971 -0.5 0 0.034117637690008758 -0.48226025729418232 0 0.057282244412323088 -0.49999999999999839 0 0.041120068244198102 -0.46765589227690352 0 0.034117637690008758 -0.48226025729418232 0 0.050162935383897093 -0.48005346479404087 0 0.041120068244198102 -0.46765589227690352 0 0.02100241097709216 -0.47611673515724379 0 0.034117637690008758 -0.48226025729418232 0 0.041120068244198102 -0.46765589227690352 0 0.050162935383897093 -0.48005346479404087 0 0.06098408752701636 -0.46479165493303393 0 0.041120068244198102 -0.46765589227690352 0 0.050162935383897093 -0.48005346479404087 0 0.073381588795373126 -0.48196175794750978 0 0.06098408752701636 -0.46479165493303393 0 0.050162935383897093 -0.48005346479404087 0 0.073381588795373126 -0.48196175794750978 0 0.050162935383897093 -0.48005346479404087 0 0.057282244412323088 -0.49999999999999839 0 0.034117637690008758 -0.48226025729418232 0 0.050162935383897093 -0.48005346479404087 0 0.057282244412323088 -0.49999999999999839 0 0.08973256603953049 -0.29112869919944778 0 0.076647735456292082 -0.3022442942781986 0 0.071696339136511744 -0.29190915988545751 0 0.08973256603953049 -0.29112869919944778 0 0.071696339136511744 -0.29190915988545751 0 0.077049374344983601 -0.28277963704823361 0 0.08973256603953049 -0.29112869919944778 0 0.095962640407196223 -0.30809454887953802 0 0.08973256603953049 -0.29112869919944778 0 0.078232203795231103 -0.30967126003496742 0 0.076647735456292082 -0.3022442942781986 0 0.08973256603953049 -0.29112869919944778 0 0.078232203795231103 -0.30967126003496742 0 0.08973256603953049 -0.29112869919944778 0 0.078232203795231103 -0.30967126003496742 0 0.095962640407196223 -0.30809454887953802 0 0.076647735456292082 -0.3022442942781986 0 0.070955014032683367 -0.30628927406916151 0 0.064703943964452587 -0.30098146968257428 0 0.076647735456292082 -0.3022442942781986 0 0.064703943964452587 -0.30098146968257428 0 0.056288876731409178 -0.29199407338180761 0 0.076647735456292082 -0.3022442942781986 0 0.056288876731409178 -0.29199407338180761 0 0.078232203795231103 -0.30967126003496742 0 0.070955014032683367 -0.30628927406916151 0 0.069411162330954318 -0.31115267518272249 0 0.078232203795231103 -0.30967126003496742 0 0.076647735456292082 -0.3022442942781986 0 0.070955014032683367 -0.30628927406916151 0 0.065780024616486799 -0.3073966711673447 0 0.062418783310652509 -0.31563501197938759 0 0.060686584946680847 -0.30845007307775041 0 0.069411162330954318 -0.31115267518272249 0 0.065780024616486799 -0.3073966711673447 0 0.062418783310652509 -0.31563501197938759 0 0.070955014032683367 -0.30628927406916151 0 0.065780024616486799 -0.3073966711673447 0 0.064703943964452587 -0.30098146968257428 0 0.070955014032683367 -0.30628927406916151 0 0.069411162330954318 -0.31115267518272249 0 0.065780024616486799 -0.3073966711673447 0 0.065780024616486799 -0.3073966711673447 0 0.061945192289564299 -0.30416576465109157 0 0.060686584946680847 -0.30845007307775041 0 0.065780024616486799 -0.3073966711673447 0 0.064703943964452587 -0.30098146968257428 0 0.061945192289564299 -0.30416576465109157 0 0.076647735456292082 -0.3022442942781986 0 0.056288876731409178 -0.29199407338180761 0 0.060003368777415501 -0.29055578642065161 0 0.071696339136511744 -0.29190915988545751 0 0.062332698702891667 -0.2855095693082137 0 0.060003368777415501 -0.29055578642065161 0 0.076647735456292082 -0.3022442942781986 0 0.071696339136511744 -0.29190915988545751 0 0.060003368777415501 -0.29055578642065161 0 0.071696339136511744 -0.29190915988545751 0 0.077049374344983601 -0.28277963704823361 0 0.062332698702891667 -0.2855095693082137 0 0.069388151898004402 -0.27022476647295302 0 0.080508218407169735 -0.26600879113866949 0 0.062332698702891667 -0.2855095693082137 0 0.077049374344983601 -0.28277963704823361 0 0.080508218407169735 -0.26600879113866949 0 0.062332698702891667 -0.2855095693082137 0 0.080508218407169735 -0.26600879113866949 0 0.062332698702891667 -0.2855095693082137 0 0.069388151898004402 -0.27022476647295302 0 0.062332698702891667 -0.2855095693082137 0 0.069388151898004402 -0.27022476647295302 0 0.062332698702891667 -0.2855095693082137 0 0.055970385440740462 -0.26978903836384949 0 0.069388151898004402 -0.27022476647295302 0 0.065959754909267768 -0.25760756237501442 0 0.055970385440740462 -0.26978903836384949 0 0.065959754909267768 -0.25760756237501442 0 0.075848022628028339 -0.25331806284189923 0 0.065143911841209545 -0.24394330898717501 0 0.069388151898004402 -0.27022476647295302 0 0.076443605093115985 -0.25493996363769178 0 0.080508218407169735 -0.26600879113866949 0 0.069388151898004402 -0.27022476647295302 0 0.065959754909267768 -0.25760756237501442 0 0.076443605093115985 -0.25493996363769178 0 0.069388151898004402 -0.27022476647295302 0 0.076443605093115985 -0.25493996363769178 0 0.065959754909267768 -0.25760756237501442 0 0.076443605093115985 -0.25493996363769178 0 0.075848022628028339 -0.25331806284189923 0 0.076443605093115985 -0.25493996363769178 0 0.075848022628028339 -0.25331806284189923 0 0.076443605093115985 -0.25493996363769178 0 0.091092706367716492 -0.25370742960929421 0 0.095443639414999684 -0.24185550509743889 0 0.076443605093115985 -0.25493996363769178 0 0.086319610363444557 -0.25977366459266399 0 0.091092706367716492 -0.25370742960929421 0 0.076443605093115985 -0.25493996363769178 0 0.080508218407169735 -0.26600879113866949 0 0.076443605093115985 -0.25493996363769178 0 0.086319610363444557 -0.25977366459266399 0 0.080508218407169735 -0.26600879113866949 0 0.086319610363444557 -0.25977366459266399 0 0.080508218407169735 -0.26600879113866949 0 0.086319610363444557 -0.25977366459266399 0 0.080508218407169735 -0.26600879113866949 0 0.091767234032835709 -0.27067686208650449 0 0.086319610363444557 -0.25977366459266399 0 0.091092706367716492 -0.25370742960929421 0 0.095224948550017202 -0.26059689485314258 0 0.086319610363444557 -0.25977366459266399 0 0.091767234032835709 -0.27067686208650449 0 0.095224948550017202 -0.26059689485314258 0 0.08973256603953049 -0.29112869919944778 0 0.077049374344983601 -0.28277963704823361 0 0.080508218407169735 -0.26600879113866949 0 0.08973256603953049 -0.29112869919944778 0 0.080508218407169735 -0.26600879113866949 0 0.08973256603953049 -0.29112869919944778 0 0.080508218407169735 -0.26600879113866949 0 0.091767234032835709 -0.27067686208650449 0 0.08973256603953049 -0.29112869919944778 0 0.091767234032835709 -0.27067686208650449 0 0.1037613441409465 -0.26850945766011819 0 0.08973256603953049 -0.29112869919944778 0 0.1037613441409465 -0.26850945766011819 0 0.091767234032835709 -0.27067686208650449 0 0.1037613441409465 -0.26850945766011819 0 0.095224948550017202 -0.26059689485314258 0 0.1037613441409465 -0.26850945766011819 0 0.095224948550017202 -0.26059689485314258 0 0.1020317284170057 -0.25137111986553351 0 0.1037613441409465 -0.26850945766011819 0 0.1020317284170057 -0.25137111986553351 0 0.1177901222423639 -0.24589021612078951 0 0.091092706367716492 -0.25370742960929421 0 0.095224948550017202 -0.26059689485314258 0 0.1020317284170057 -0.25137111986553351 0 0.1215386928393264 -0.26194431362140957 0 0.1177901222423639 -0.24589021612078951 0 0.13262885975101629 -0.24717478695394809 0 0.1037613441409465 -0.26850945766011819 0 0.1215386928393264 -0.26194431362140957 0 0.1177901222423639 -0.24589021612078951 0 0.1037613441409465 -0.26850945766011819 0 0.1177901222423639 -0.24589021612078951 0 0.1037613441409465 -0.26850945766011819 0 0.1203225830851091 -0.27706418071163641 0 0.11215261820595079 -0.28874463848811027 0 0.1037613441409465 -0.26850945766011819 0 0.1215386928393264 -0.26194431362140957 0 0.1203225830851091 -0.27706418071163641 0 0.13424877856548309 -0.29498241169892231 0 0.1203225830851091 -0.27706418071163641 0 0.11215261820595079 -0.28874463848811027 0 0.13424877856548309 -0.29498241169892231 0 0.11215261820595079 -0.28874463848811027 0 0.1183498338777545 -0.3011169153292268 0 0.08973256603953049 -0.29112869919944778 0 0.1037613441409465 -0.26850945766011819 0 0.11215261820595079 -0.28874463848811027 0 0.08973256603953049 -0.29112869919944778 0 0.11215261820595079 -0.28874463848811027 0 0.1062960521433696 -0.30095807567056337 0 0.08973256603953049 -0.29112869919944778 0 0.095962640407196223 -0.30809454887953802 0 0.1062960521433696 -0.30095807567056337 0 0.095962640407196223 -0.30809454887953802 0 0.1062960521433696 -0.30095807567056337 0 0.1133865922446661 -0.31132305946426048 0 0.1062960521433696 -0.30095807567056337 0 0.1133865922446661 -0.31132305946426048 0 0.1183498338777545 -0.3011169153292268 0 0.11215261820595079 -0.28874463848811027 0 0.1062960521433696 -0.30095807567056337 0 0.1183498338777545 -0.3011169153292268 0 0.12566512822930301 -0.30957639132427739 0 0.1133865922446661 -0.31132305946426048 0 0.1183498338777545 -0.3011169153292268 0 0.12682888292133099 -0.32286958273294142 0 0.12566512822930301 -0.30957639132427739 0 0.1133865922446661 -0.31132305946426048 0 0.12682888292133099 -0.32286958273294142 0 0.11505908945872011 -0.32881775200730518 0 0.1021927147748611 -0.32506039855962859 0 0.12682888292133099 -0.32286958273294142 0 0.1021927147748611 -0.32506039855962859 0 0.12682888292133099 -0.32286958273294142 0 0.1133865922446661 -0.31132305946426048 0 0.1021927147748611 -0.32506039855962859 0 0.1250424365443836 -0.33536005985411571 0 0.11505908945872011 -0.32881775200730518 0 0.1140874200913351 -0.33476310253920871 0 0.1250424365443836 -0.33536005985411571 0 0.12682888292133099 -0.32286958273294142 0 0.11505908945872011 -0.32881775200730518 0 0.1250424365443836 -0.33536005985411571 0 0.11635783741034179 -0.34315690217839212 0 0.1140874200913351 -0.33476310253920871 0 0.12728705710854729 -0.34513512188540618 0 0.1250424365443836 -0.33536005985411571 0 0.11635783741034179 -0.34315690217839212 0 0.11635783741034179 -0.34315690217839212 0 0.1140874200913351 -0.33476310253920871 0 0.105939164246689 -0.33693604198238553 0 0.11505908945872011 -0.32881775200730518 0 0.1140874200913351 -0.33476310253920871 0 0.1080385727965409 -0.32954475667384492 0 0.1140874200913351 -0.33476310253920871 0 0.1080385727965409 -0.32954475667384492 0 0.105939164246689 -0.33693604198238553 0 0.105939164246689 -0.33693604198238553 0 0.093977804282303692 -0.33454161331220078 0 0.098333117774586032 -0.35823998386512601 0 0.1080385727965409 -0.32954475667384492 0 0.10256893476186291 -0.33160749359103497 0 0.105939164246689 -0.33693604198238553 0 0.1080385727965409 -0.32954475667384492 0 0.10256893476186291 -0.33160749359103497 0 0.1021927147748611 -0.32506039855962859 0 0.10256893476186291 -0.33160749359103497 0 0.105939164246689 -0.33693604198238553 0 0.093977804282303692 -0.33454161331220078 0 0.10256893476186291 -0.33160749359103497 0 0.093977804282303692 -0.33454161331220078 0 0.1021927147748611 -0.32506039855962859 0 0.095962640407196223 -0.30809454887953802 0 0.1021927147748611 -0.32506039855962859 0 0.095962640407196223 -0.30809454887953802 0 0.1133865922446661 -0.31132305946426048 0 0.1021927147748611 -0.32506039855962859 0 0.095962640407196223 -0.30809454887953802 0 0.1021927147748611 -0.32506039855962859 0 0.084462278162896379 -0.32663710971505722 0 0.11505908945872011 -0.32881775200730518 0 0.1080385727965409 -0.32954475667384492 0 0.1021927147748611 -0.32506039855962859 0 0.12685764576478131 -0.36098479163073532 0 0.098333117774586032 -0.35823998386512601 0 0.12685764576478131 -0.36098479163073532 0 0.1282046162476089 -0.38095691847586421 0 0.11127017595805901 -0.37543818609829788 0 0.12685764576478131 -0.36098479163073532 0 0.11127017595805901 -0.37543818609829788 0 0.098333117774586032 -0.35823998386512601 0 0.12728705710854729 -0.34513512188540618 0 0.12685764576478131 -0.36098479163073532 0 0.11635783741034179 -0.34315690217839212 0 0.12685764576478131 -0.36098479163073532 0 0.11635783741034179 -0.34315690217839212 0 0.098333117774586032 -0.35823998386512601 0 0.11635783741034179 -0.34315690217839212 0 0.105939164246689 -0.33693604198238553 0 0.098333117774586032 -0.35823998386512601 0 0.11127017595805901 -0.37543818609829788 0 0.093849288134594006 -0.38241348132463759 0 0.098333117774586032 -0.35823998386512601 0 0.073729584384521846 -0.37505040880749901 0 0.098333117774586032 -0.35823998386512601 0 0.069808589784390584 -0.35549517609951647 0 0.093849288134594006 -0.38241348132463759 0 0.073729584384521846 -0.37505040880749901 0 0.098333117774586032 -0.35823998386512601 0 0.098333117774586032 -0.35823998386512601 0 0.069808589784390584 -0.35549517609951647 0 0.098333117774586032 -0.35823998386512601 0 0.083025833934452301 -0.34632485244237471 0 0.069808589784390584 -0.35549517609951647 0 0.093977804282303692 -0.33454161331220078 0 0.098333117774586032 -0.35823998386512601 0 0.083025833934452301 -0.34632485244237471 0 0.074285269290585182 -0.34519217200328173 0 0.069808589784390584 -0.35549517609951647 0 0.0672949531787157 -0.34295888013888248 0 0.083025833934452301 -0.34632485244237471 0 0.074285269290585182 -0.34519217200328173 0 0.069808589784390584 -0.35549517609951647 0 0.069808589784390584 -0.35549517609951647 0 0.0672949531787157 -0.34295888013888248 0 0.06342909056921385 -0.34953550190130622 0 0.069808589784390584 -0.35549517609951647 0 0.0672949531787157 -0.34295888013888248 0 0.06342909056921385 -0.34953550190130622 0 0.069808589784390584 -0.35549517609951647 0 0.060355521993852593 -0.35458554303251999 0 0.069808589784390584 -0.35549517609951647 0 0.060355521993852593 -0.35458554303251999 0 0.069003050489253231 -0.37459559227400052 0 0.060355521993852593 -0.35458554303251999 0 0.073729584384521846 -0.37505040880749901 0 0.069808589784390584 -0.35549517609951647 0 0.069003050489253231 -0.37459559227400052 0 0.069808589784390584 -0.35549517609951647 0 0.069003050489253231 -0.37459559227400052 0 0.060355521993852593 -0.35458554303251999 0 0.073729584384521846 -0.37505040880749901 0 0.069808589784390584 -0.35549517609951647 0 0.1021927147748611 -0.32506039855962859 0 0.084462278162896379 -0.32663710971505722 0 0.078232203795231103 -0.30967126003496742 0 0.095962640407196223 -0.30809454887953802 0 0.084462278162896379 -0.32663710971505722 0 0.093977804282303692 -0.33454161331220078 0 0.084462278162896379 -0.32663710971505722 0 0.077011700264782185 -0.33598977933235269 0 0.093977804282303692 -0.33454161331220078 0 0.1021927147748611 -0.32506039855962859 0 0.084462278162896379 -0.32663710971505722 0 0.093977804282303692 -0.33454161331220078 0 0.083025833934452301 -0.34632485244237471 0 0.077011700264782185 -0.33598977933235269 0 0.0672949531787157 -0.34295888013888248 0 0.0667318415509318 -0.32821382087048701 0 0.056257297319895691 -0.345102408334306 0 0.077011700264782185 -0.33598977933235269 0 0.0672949531787157 -0.34295888013888248 0 0.0667318415509318 -0.32821382087048701 0 0.084462278162896379 -0.32663710971505722 0 0.077011700264782185 -0.33598977933235269 0 0.0667318415509318 -0.32821382087048701 0 0.083025833934452301 -0.34632485244237471 0 0.074285269290585182 -0.34519217200328173 0 0.077011700264782185 -0.33598977933235269 0 0.074285269290585182 -0.34519217200328173 0 0.077011700264782185 -0.33598977933235269 0 0.0672949531787157 -0.34295888013888248 0 0.069411162330954318 -0.31115267518272249 0 0.0667318415509318 -0.32821382087048701 0 0.062418783310652509 -0.31563501197938759 0 0.078232203795231103 -0.30967126003496742 0 0.0667318415509318 -0.32821382087048701 0 0.084462278162896379 -0.32663710971505722 0 0.0667318415509318 -0.32821382087048701 0 0.078232203795231103 -0.30967126003496742 0 0.069411162330954318 -0.31115267518272249 0 0.0667318415509318 -0.32821382087048701 0 0.078232203795231103 -0.30967126003496742 0 0.084462278162896379 -0.32663710971505722 0 0.0667318415509318 -0.32821382087048701 0 0.0667318415509318 -0.32821382087048701 0 0.055115630566937052 -0.32071122978668148 0 0.048086201500340209 -0.32987191814757399 0 0.062418783310652509 -0.31563501197938759 0 0.057620443532509669 -0.3132943690312035 0 0.055115630566937052 -0.32071122978668148 0 0.057620443532509669 -0.3132943690312035 0 0.048762373647490212 -0.31520927579895242 0 0.055115630566937052 -0.32071122978668148 0 0.057620443532509669 -0.3132943690312035 0 0.048762373647490212 -0.31520927579895242 0 0.053462628182449012 -0.30994545195964213 0 0.048762373647490212 -0.31520927579895242 0 0.047779073608074818 -0.32203599495175861 0 0.055115630566937052 -0.32071122978668148 0 0.047779073608074818 -0.32203599495175861 0 0.055115630566937052 -0.32071122978668148 0 0.048086201500340209 -0.32987191814757399 0 0.0667318415509318 -0.32821382087048701 0 0.062418783310652509 -0.31563501197938759 0 0.055115630566937052 -0.32071122978668148 0 0.0667318415509318 -0.32821382087048701 0 0.056257297319895691 -0.345102408334306 0 0.0667318415509318 -0.32821382087048701 0 0.048086201500340209 -0.32987191814757399 0 0.053086147900836197 -0.33491657195895441 0 0.0667318415509318 -0.32821382087048701 0 0.054638554867444608 -0.34135670039011318 0 0.053086147900836197 -0.33491657195895441 0 0.0667318415509318 -0.32821382087048701 0 0.048086201500340209 -0.32987191814757399 0 0.0667318415509318 -0.32821382087048701 0 0.054638554867444608 -0.34135670039011318 0 0.056257297319895691 -0.345102408334306 0 0.054638554867444608 -0.34135670039011318 0 0.056257297319895691 -0.345102408334306 0 0.051366550586739938 -0.34320922543050431 0 0.054638554867444608 -0.34135670039011318 0 0.047918806861010833 -0.3393468001702093 0 0.051366550586739938 -0.34320922543050431 0 0.054638554867444608 -0.34135670039011318 0 0.056257297319895691 -0.345102408334306 0 0.054638554867444608 -0.34135670039011318 0 0.047918806861010833 -0.3393468001702093 0 0.053086147900836197 -0.33491657195895441 0 0.051366550586739938 -0.34320922543050431 0 0.047918806861010833 -0.3393468001702093 0 0.046651543298608621 -0.34703099282738842 0 0.047918806861010833 -0.3393468001702093 0 0.048086201500340209 -0.32987191814757399 0 0.053086147900836197 -0.33491657195895441 0 0.048086201500340209 -0.32987191814757399 0 0.029440561449748669 -0.33153001542466198 0 0.047918806861010833 -0.3393468001702093 0 0.048086201500340209 -0.32987191814757399 0 0.03923069613773264 -0.33854645362784469 0 0.048086201500340209 -0.32987191814757399 0 0.03923069613773264 -0.33854645362784469 0 0.029440561449748669 -0.33153001542466198 0 0.047918806861010833 -0.3393468001702093 0 0.03923069613773264 -0.33854645362784469 0 0.046651543298608621 -0.34703099282738842 0 0.03923069613773264 -0.33854645362784469 0 0.029440561449748669 -0.33153001542466198 0 0.02710075569086396 -0.3436533439754107 0 0.040916033287490418 -0.32195919107216869 0 0.030390372544071221 -0.31978095338840329 0 0.029440561449748669 -0.33153001542466198 0 0.048086201500340209 -0.32987191814757399 0 0.040916033287490418 -0.32195919107216869 0 0.029440561449748669 -0.33153001542466198 0 0.041283125426482929 -0.31497483001678522 0 0.030390372544071221 -0.31978095338840329 0 0.041106353866967753 -0.30828362192020953 0 0.041283125426482929 -0.31497483001678522 0 0.040916033287490418 -0.32195919107216869 0 0.030390372544071221 -0.31978095338840329 0 0.030390372544071221 -0.31978095338840329 0 0.041106353866967753 -0.30828362192020953 0 0.048762373647490212 -0.31520927579895242 0 0.047779073608074818 -0.32203599495175861 0 0.040916033287490418 -0.32195919107216869 0 0.048762373647490212 -0.31520927579895242 0 0.041283125426482929 -0.31497483001678522 0 0.040916033287490418 -0.32195919107216869 0 0.048762373647490212 -0.31520927579895242 0 0.041283125426482929 -0.31497483001678522 0 0.045240493786395053 -0.30964110790419169 0 0.047779073608074818 -0.32203599495175861 0 0.048086201500340209 -0.32987191814757399 0 0.040916033287490418 -0.32195919107216869 0 0.069003050489253231 -0.37459559227400052 0 0.056820718175877173 -0.36806103804822038 0 0.060355521993852593 -0.35458554303251999 0 0.055506997847348277 -0.38655100019227301 0 0.056820718175877173 -0.36806103804822038 0 0.040713899563300578 -0.37016374052279472 0 0.056820718175877173 -0.36806103804822038 0 0.058524120985630257 -0.35440931421951433 0 0.040713899563300578 -0.37016374052279472 0 0.056257297319895691 -0.345102408334306 0 0.040713899563300578 -0.37016374052279472 0 0.058524120985630257 -0.35440931421951433 0 0.056257297319895691 -0.345102408334306 0 0.040713899563300578 -0.37016374052279472 0 0.056257297319895691 -0.345102408334306 0 0.046651543298608621 -0.34703099282738842 0 0.040713899563300578 -0.37016374052279472 0 0.056820718175877173 -0.36806103804822038 0 0.060355521993852593 -0.35458554303251999 0 0.058524120985630257 -0.35440931421951433 0 0.060355521993852593 -0.35458554303251999 0 0.058524120985630257 -0.35440931421951433 0 0.060355521993852593 -0.35458554303251999 0 0.056257297319895691 -0.345102408334306 0 0.060355521993852593 -0.35458554303251999 0 0.058524120985630257 -0.35440931421951433 0 0.056257297319895691 -0.345102408334306 0 0.06342909056921385 -0.34953550190130622 0 0.0672949531787157 -0.34295888013888248 0 0.056257297319895691 -0.345102408334306 0 0.06342909056921385 -0.34953550190130622 0 0.060355521993852593 -0.35458554303251999 0 0.056257297319895691 -0.345102408334306 0 0.051366550586739938 -0.34320922543050431 0 0.056257297319895691 -0.345102408334306 0 0.046651543298608621 -0.34703099282738842 0 0.046651543298608621 -0.34703099282738842 0 0.035372879914507348 -0.35218788370050391 0 0.040713899563300578 -0.37016374052279472 0 0.03923069613773264 -0.33854645362784469 0 0.046651543298608621 -0.34703099282738842 0 0.035372879914507348 -0.35218788370050391 0 0.03923069613773264 -0.33854645362784469 0 0.035372879914507348 -0.35218788370050391 0 0.02710075569086396 -0.3436533439754107 0 0.035372879914507348 -0.35218788370050391 0 0.040713899563300578 -0.37016374052279472 0 0.023983522088853119 -0.35991935047207008 0 0.018386413402321021 -0.38159959809408062 0 0.040713899563300578 -0.37016374052279472 0 0.023983522088853119 -0.35991935047207008 0 0.018386413402321021 -0.38159959809408062 0 0.023983522088853119 -0.35991935047207008 0 0.0071591267287209621 -0.35899339303477862 0 0.035372879914507348 -0.35218788370050391 0 0.023983522088853119 -0.35991935047207008 0 0.02710075569086396 -0.3436533439754107 0 0.023983522088853119 -0.35991935047207008 0 0.02710075569086396 -0.3436533439754107 0 0.01422910035809849 -0.34370331480918997 0 -0.001577102863922367 -0.33709986954692472 0 0.0071591267287209621 -0.35899339303477862 0 0.01422910035809849 -0.34370331480918997 0 0.023983522088853119 -0.35991935047207008 0 0.0071591267287209621 -0.35899339303477862 0 0.01422910035809849 -0.34370331480918997 0 -0.0045440780515582074 -0.37634213804182948 0 0.018386413402321021 -0.38159959809408062 0 0.0071591267287209621 -0.35899339303477862 0 0.020952718530298731 -0.32359528299693902 0 0.02024506105560334 -0.33364305466845212 0 0.0095021692490068407 -0.32573331613605899 0 0.020952718530298731 -0.32359528299693902 0 0.023534458528616992 -0.31403756259270588 0 0.0155742912759549 -0.31416605115110618 0 0.020952718530298731 -0.32359528299693902 0 0.023534458528616992 -0.31403756259270588 0 0.030390372544071221 -0.31978095338840329 0 0.023534458528616992 -0.31403756259270588 0 0.030390372544071221 -0.31978095338840329 0 0.030008581370220121 -0.30606329914383312 0 0.020952718530298731 -0.32359528299693902 0 0.030390372544071221 -0.31978095338840329 0 0.029440561449748669 -0.33153001542466198 0 0.020952718530298731 -0.32359528299693902 0 0.029440561449748669 -0.33153001542466198 0 0.02024506105560334 -0.33364305466845212 0 0.029440561449748669 -0.33153001542466198 0 0.02710075569086396 -0.3436533439754107 0 0.02024506105560334 -0.33364305466845212 0 0.02710075569086396 -0.3436533439754107 0 0.02024506105560334 -0.33364305466845212 0 0.01422910035809849 -0.34370331480918997 0 -0.001577102863922367 -0.33709986954692472 0 0.01422910035809849 -0.34370331480918997 0 0.0095021692490068407 -0.32573331613605899 0 0.02024506105560334 -0.33364305466845212 0 0.01422910035809849 -0.34370331480918997 0 0.0095021692490068407 -0.32573331613605899 0 -0.0041260757890620343 -0.31844599871806473 0 -0.001577102863922367 -0.33709986954692472 0 0.0095021692490068407 -0.32573331613605899 0 0.020952718530298731 -0.32359528299693902 0 0.0095021692490068407 -0.32573331613605899 0 0.0155742912759549 -0.31416605115110618 0 0.0095021692490068407 -0.32573331613605899 0 0.0155742912759549 -0.31416605115110618 0 0.0061083325726071017 -0.31012780829298919 0 -0.0041260757890620343 -0.31844599871806473 0 0.0095021692490068407 -0.32573331613605899 0 0.0061083325726071017 -0.31012780829298919 0 -0.0043544913837039621 -0.30743275831670741 0 0.0061083325726071017 -0.31012780829298919 0 0.010288348066557471 -0.29816422302620438 0 0.010288348066557471 -0.29816422302620438 0 0.013126575269923901 -0.30742072387879132 0 0.019116273228341359 -0.30766555701725062 0 0.010288348066557471 -0.29816422302620438 0 0.01549321125413089 -0.30024906704743859 0 0.019116273228341359 -0.30766555701725062 0 0.010288348066557471 -0.29816422302620438 0 0.01549321125413089 -0.30024906704743859 0 0.0061083325726071017 -0.31012780829298919 0 0.010288348066557471 -0.29816422302620438 0 0.013126575269923901 -0.30742072387879132 0 0.0155742912759549 -0.31416605115110618 0 0.0061083325726071017 -0.31012780829298919 0 0.013126575269923901 -0.30742072387879132 0 -0.0098538847530327718 -0.29155032043181067 0 0.010288348066557471 -0.29816422302620438 0 0.0075183014580197634 -0.28723613560314082 0 -0.0098538847530327718 -0.29155032043181067 0 0.010288348066557471 -0.29816422302620438 0 -0.001149090829619368 -0.27997961742707711 0 0.0075183014580197634 -0.28723613560314082 0 0.0084773740341431963 -0.2789891893923731 0 0.010288348066557471 -0.29816422302620438 0 0.01549321125413089 -0.30024906704743859 0 0.0075183014580197634 -0.28723613560314082 0 0.01549321125413089 -0.30024906704743859 0 0.0075183014580197634 -0.28723613560314082 0 0.01538802181150991 -0.29151970789793319 0 0.01538097974812766 -0.2852319417683174 0 0.019121665366983179 -0.28184103048649112 0 0.0084773740341431963 -0.2789891893923731 0 0.0075183014580197634 -0.28723613560314082 0 0.01538097974812766 -0.2852319417683174 0 0.0084773740341431963 -0.2789891893923731 0 0.0075183014580197634 -0.28723613560314082 0 0.01538802181150991 -0.29151970789793319 0 0.01538097974812766 -0.2852319417683174 0 0.01538097974812766 -0.2852319417683174 0 0.019121665366983179 -0.28184103048649112 0 0.023173181536327511 -0.2906759163096469 0 0.01549321125413089 -0.30024906704743859 0 0.01538802181150991 -0.29151970789793319 0 0.018542013129289849 -0.29498870154171181 0 0.01538802181150991 -0.29151970789793319 0 0.01538097974812766 -0.2852319417683174 0 0.023173181536327511 -0.2906759163096469 0 0.01538802181150991 -0.29151970789793319 0 0.023173181536327511 -0.2906759163096469 0 0.018542013129289849 -0.29498870154171181 0 0.023173181536327511 -0.2906759163096469 0 0.018542013129289849 -0.29498870154171181 0 0.022834616130315521 -0.29636102213282017 0 0.023173181536327511 -0.2906759163096469 0 0.022834616130315521 -0.29636102213282017 0 0.027696805354083011 -0.29512341298748812 0 0.027696805354083011 -0.29512341298748812 0 0.029512067590479651 -0.28961534336326111 0 0.032679706655428041 -0.29543793174384309 0 0.023173181536327511 -0.2906759163096469 0 0.027696805354083011 -0.29512341298748812 0 0.029512067590479651 -0.28961534336326111 0 0.019121665366983179 -0.28184103048649112 0 0.023173181536327511 -0.2906759163096469 0 0.029512067590479651 -0.28961534336326111 0 0.019121665366983179 -0.28184103048649112 0 0.029512067590479651 -0.28961534336326111 0 0.031491755341410299 -0.2795092884890516 0 0.01549321125413089 -0.30024906704743859 0 0.030008581370220121 -0.30606329914383312 0 0.041106353866967753 -0.30828362192020953 0 0.01549321125413089 -0.30024906704743859 0 0.041106353866967753 -0.30828362192020953 0 0.01549321125413089 -0.30024906704743859 0 0.029650260156732899 -0.30022333123716971 0 0.041106353866967753 -0.30828362192020953 0 0.023534458528616992 -0.31403756259270588 0 0.0155742912759549 -0.31416605115110618 0 0.019116273228341359 -0.30766555701725062 0 0.0155742912759549 -0.31416605115110618 0 0.013126575269923901 -0.30742072387879132 0 0.019116273228341359 -0.30766555701725062 0 0.01549321125413089 -0.30024906704743859 0 0.019116273228341359 -0.30766555701725062 0 0.030008581370220121 -0.30606329914383312 0 0.01549321125413089 -0.30024906704743859 0 0.030008581370220121 -0.30606329914383312 0 0.01549321125413089 -0.30024906704743859 0 0.022834616130315521 -0.29636102213282017 0 0.029650260156732899 -0.30022333123716971 0 0.01549321125413089 -0.30024906704743859 0 0.018542013129289849 -0.29498870154171181 0 0.022834616130315521 -0.29636102213282017 0 0.022834616130315521 -0.29636102213282017 0 0.027696805354083011 -0.29512341298748812 0 0.029650260156732899 -0.30022333123716971 0 0.027696805354083011 -0.29512341298748812 0 0.029650260156732899 -0.30022333123716971 0 0.032679706655428041 -0.29543793174384309 0 0.023534458528616992 -0.31403756259270588 0 0.019116273228341359 -0.30766555701725062 0 0.030008581370220121 -0.30606329914383312 0 0.030390372544071221 -0.31978095338840329 0 0.030008581370220121 -0.30606329914383312 0 0.041106353866967753 -0.30828362192020953 0 0.041106353866967753 -0.30828362192020953 0 0.038355244523723048 -0.2998654569219138 0 0.056288876731409178 -0.29199407338180761 0 0.041106353866967753 -0.30828362192020953 0 0.045240493786395053 -0.30964110790419169 0 0.04926537218274965 -0.30728454598874588 0 0.041283125426482929 -0.31497483001678522 0 0.041106353866967753 -0.30828362192020953 0 0.045240493786395053 -0.30964110790419169 0 0.041106353866967753 -0.30828362192020953 0 0.045240493786395053 -0.30964110790419169 0 0.029650260156732899 -0.30022333123716971 0 0.041106353866967753 -0.30828362192020953 0 0.038355244523723048 -0.2998654569219138 0 0.029650260156732899 -0.30022333123716971 0 0.038355244523723048 -0.2998654569219138 0 0.032679706655428041 -0.29543793174384309 0 0.056288876731409178 -0.29199407338180761 0 0.031491755341410299 -0.2795092884890516 0 0.038184155652121597 -0.29236211420938318 0 0.056288876731409178 -0.29199407338180761 0 0.031491755341410299 -0.2795092884890516 0 0.056288876731409178 -0.29199407338180761 0 0.050444254066524107 -0.28008281123157081 0 0.031491755341410299 -0.2795092884890516 0 0.038355244523723048 -0.2998654569219138 0 0.038184155652121597 -0.29236211420938318 0 0.056288876731409178 -0.29199407338180761 0 0.029512067590479651 -0.28961534336326111 0 0.032679706655428041 -0.29543793174384309 0 0.038184155652121597 -0.29236211420938318 0 0.038355244523723048 -0.2998654569219138 0 0.032679706655428041 -0.29543793174384309 0 0.038184155652121597 -0.29236211420938318 0 0.029512067590479651 -0.28961534336326111 0 0.038184155652121597 -0.29236211420938318 0 0.031491755341410299 -0.2795092884890516 0 0.062332698702891667 -0.2855095693082137 0 0.056288876731409178 -0.29199407338180761 0 0.050444254066524107 -0.28008281123157081 0 0.062332698702891667 -0.2855095693082137 0 0.056288876731409178 -0.29199407338180761 0 0.062332698702891667 -0.2855095693082137 0 0.060003368777415501 -0.29055578642065161 0 0.056288876731409178 -0.29199407338180761 0 0.059346356287301512 -0.29832350754537063 0 0.056016146002590528 -0.29983355933634759 0 0.062332698702891667 -0.2855095693082137 0 0.056288876731409178 -0.29199407338180761 0 0.060003368777415501 -0.29055578642065161 0 0.041106353866967753 -0.30828362192020953 0 0.056288876731409178 -0.29199407338180761 0 0.052327937234344812 -0.30179630502372629 0 0.064703943964452587 -0.30098146968257428 0 0.060376458450753762 -0.30048492778075309 0 0.059346356287301512 -0.29832350754537063 0 0.056288876731409178 -0.29199407338180761 0 0.056016146002590528 -0.29983355933634759 0 0.052327937234344812 -0.30179630502372629 0 0.064703943964452587 -0.30098146968257428 0 0.056288876731409178 -0.29199407338180761 0 0.059346356287301512 -0.29832350754537063 0 0.041106353866967753 -0.30828362192020953 0 0.056288876731409178 -0.29199407338180761 0 0.060376458450753762 -0.30048492778075309 0 0.059346356287301512 -0.29832350754537063 0 0.056016146002590528 -0.29983355933634759 0 0.060376458450753762 -0.30048492778075309 0 0.056016146002590528 -0.29983355933634759 0 0.057640037769518787 -0.30389771927458109 0 0.056016146002590528 -0.29983355933634759 0 0.057640037769518787 -0.30389771927458109 0 0.052327937234344812 -0.30179630502372629 0 0.064703943964452587 -0.30098146968257428 0 0.060376458450753762 -0.30048492778075309 0 0.061945192289564299 -0.30416576465109157 0 0.060376458450753762 -0.30048492778075309 0 0.057640037769518787 -0.30389771927458109 0 0.061945192289564299 -0.30416576465109157 0 0.057640037769518787 -0.30389771927458109 0 0.061945192289564299 -0.30416576465109157 0 0.060686584946680847 -0.30845007307775041 0 0.062418783310652509 -0.31563501197938759 0 0.057620443532509669 -0.3132943690312035 0 0.060686584946680847 -0.30845007307775041 0 0.057620443532509669 -0.3132943690312035 0 0.060686584946680847 -0.30845007307775041 0 0.056799090077486139 -0.30822885375440251 0 0.057620443532509669 -0.3132943690312035 0 0.056799090077486139 -0.30822885375440251 0 0.053462628182449012 -0.30994545195964213 0 0.057640037769518787 -0.30389771927458109 0 0.056799090077486139 -0.30822885375440251 0 0.053869637791311167 -0.3060629238485183 0 0.057640037769518787 -0.30389771927458109 0 0.060686584946680847 -0.30845007307775041 0 0.056799090077486139 -0.30822885375440251 0 0.056799090077486139 -0.30822885375440251 0 0.053869637791311167 -0.3060629238485183 0 0.053462628182449012 -0.30994545195964213 0 0.053869637791311167 -0.3060629238485183 0 0.04926537218274965 -0.30728454598874588 0 0.052327937234344812 -0.30179630502372629 0 0.053869637791311167 -0.3060629238485183 0 0.053462628182449012 -0.30994545195964213 0 0.04926537218274965 -0.30728454598874588 0 0.041106353866967753 -0.30828362192020953 0 0.04926537218274965 -0.30728454598874588 0 0.052327937234344812 -0.30179630502372629 0 0.045240493786395053 -0.30964110790419169 0 0.049182716949770992 -0.31052009541288311 0 0.04926537218274965 -0.30728454598874588 0 0.048762373647490212 -0.31520927579895242 0 0.045240493786395053 -0.30964110790419169 0 0.049182716949770992 -0.31052009541288311 0 0.053462628182449012 -0.30994545195964213 0 0.049182716949770992 -0.31052009541288311 0 0.04926537218274965 -0.30728454598874588 0 0.048762373647490212 -0.31520927579895242 0 0.053462628182449012 -0.30994545195964213 0 0.049182716949770992 -0.31052009541288311 0 0.057640037769518787 -0.30389771927458109 0 0.053869637791311167 -0.3060629238485183 0 0.052327937234344812 -0.30179630502372629 0 0.051558636686705357 -0.25427764188539648 0 0.055970385440740462 -0.26978903836384949 0 0.042410722703053787 -0.26348486395280241 0 0.065959754909267768 -0.25760756237501442 0 0.051558636686705357 -0.25427764188539648 0 0.065143911841209545 -0.24394330898717501 0 0.065959754909267768 -0.25760756237501442 0 0.051558636686705357 -0.25427764188539648 0 0.055970385440740462 -0.26978903836384949 0 0.062332698702891667 -0.2855095693082137 0 0.055970385440740462 -0.26978903836384949 0 0.050444254066524107 -0.28008281123157081 0 0.055970385440740462 -0.26978903836384949 0 0.050444254066524107 -0.28008281123157081 0 0.046137554116169183 -0.27361208661493203 0 0.055970385440740462 -0.26978903836384949 0 0.046137554116169183 -0.27361208661493203 0 0.042410722703053787 -0.26348486395280241 0 0.031491755341410299 -0.2795092884890516 0 0.042410722703053787 -0.26348486395280241 0 0.02928668200672881 -0.26433074303469278 0 0.050444254066524107 -0.28008281123157081 0 0.046137554116169183 -0.27361208661493203 0 0.031491755341410299 -0.2795092884890516 0 0.046137554116169183 -0.27361208661493203 0 0.031491755341410299 -0.2795092884890516 0 0.042410722703053787 -0.26348486395280241 0 0.051558636686705357 -0.25427764188539648 0 0.042410722703053787 -0.26348486395280241 0 0.033206971846713673 -0.25185890228224272 0 0.042410722703053787 -0.26348486395280241 0 0.033206971846713673 -0.25185890228224272 0 0.02928668200672881 -0.26433074303469278 0 0.033206971846713673 -0.25185890228224272 0 0.02928668200672881 -0.26433074303469278 0 0.02143643672137836 -0.25720519423892541 0 0.02928668200672881 -0.26433074303469278 0 0.02143643672137836 -0.25720519423892541 0 0.017298633111606981 -0.26883130325535443 0 0.02143643672137836 -0.25720519423892541 0 0.017298633111606981 -0.26883130325535443 0 0.010105141094597739 -0.25678453352626318 0 0.031491755341410299 -0.2795092884890516 0 0.017298633111606981 -0.26883130325535443 0 0.0066946339514107906 -0.2670245035962967 0 0.019121665366983179 -0.28184103048649112 0 0.031491755341410299 -0.2795092884890516 0 0.0066946339514107906 -0.2670245035962967 0 0.031491755341410299 -0.2795092884890516 0 0.0066946339514107906 -0.2670245035962967 0 0.031491755341410299 -0.2795092884890516 0 0.02928668200672881 -0.26433074303469278 0 0.017298633111606981 -0.26883130325535443 0 0.019121665366983179 -0.28184103048649112 0 0.0084773740341431963 -0.2789891893923731 0 0.0066946339514107906 -0.2670245035962967 0 -0.00068688953370720375 -0.27251861061258548 0 0.0084773740341431963 -0.2789891893923731 0 0.0066946339514107906 -0.2670245035962967 0 -0.001149090829619368 -0.27997961742707711 0 -0.00068688953370720375 -0.27251861061258548 0 0.0084773740341431963 -0.2789891893923731 0 -0.0035151632729158761 -0.26031510391047552 0 0.017298633111606981 -0.26883130325535443 0 -0.0035151632729158761 -0.26031510391047552 0 0.017298633111606981 -0.26883130325535443 0 0.0066946339514107906 -0.2670245035962967 0 -0.0035151632729158761 -0.26031510391047552 0 0.017298633111606981 -0.26883130325535443 0 0.010105141094597739 -0.25678453352626318 0 0.010105141094597739 -0.25678453352626318 0 0.0027424099200005921 -0.2488067507453634 0 0.012563388992918621 -0.24876431548119779 0 0.02143643672137836 -0.25720519423892541 0 0.010105141094597739 -0.25678453352626318 0 0.012563388992918621 -0.24876431548119779 0 -0.0035151632729158761 -0.26031510391047552 0 0.010105141094597739 -0.25678453352626318 0 0.0027424099200005921 -0.2488067507453634 0 -0.0029655673411040501 -0.24059911158531699 0 0.0027424099200005921 -0.2488067507453634 0 0.0081483909615173104 -0.23914451748620749 0 0.0027424099200005921 -0.2488067507453634 0 0.012563388992918621 -0.24876431548119779 0 0.0081483909615173104 -0.23914451748620749 0 0.0081483909615173104 -0.23914451748620749 0 0.0084296104956009237 -0.22706021558341721 0 0.020503392654194721 -0.2386068238800097 0 0.012563388992918621 -0.24876431548119779 0 0.0081483909615173104 -0.23914451748620749 0 0.020503392654194721 -0.2386068238800097 0 -0.0029655673411040501 -0.24059911158531699 0 -0.0026494742258749118 -0.22970021828591161 0 0.0081483909615173104 -0.23914451748620749 0 -0.0026494742258749118 -0.22970021828591161 0 0.0081483909615173104 -0.23914451748620749 0 0.0084296104956009237 -0.22706021558341721 0 -0.0026494742258749118 -0.22970021828591161 0 -0.0013284026811626879 -0.2209097724625754 0 0.0084296104956009237 -0.22706021558341721 0 -0.0013284026811626879 -0.2209097724625754 0 0.0084296104956009237 -0.22706021558341721 0 0.0066127676687242239 -0.21662901554121039 0 0.0084296104956009237 -0.22706021558341721 0 0.019630627796078059 -0.22077366860851841 0 0.0066127676687242239 -0.21662901554121039 0 0.019630627796078059 -0.22077366860851841 0 0.020503392654194721 -0.2386068238800097 0 0.038723783861331372 -0.22311930129536819 0 0.0084296104956009237 -0.22706021558341721 0 0.019630627796078059 -0.22077366860851841 0 0.020503392654194721 -0.2386068238800097 0 0.02143643672137836 -0.25720519423892541 0 0.012563388992918621 -0.24876431548119779 0 0.020503392654194721 -0.2386068238800097 0 0.033206971846713673 -0.25185890228224272 0 0.02143643672137836 -0.25720519423892541 0 0.020503392654194721 -0.2386068238800097 0 0.033206971846713673 -0.25185890228224272 0 0.020503392654194721 -0.2386068238800097 0 0.038723783861331372 -0.22311930129536819 0 -0.004265803062902156 -0.19941807724689919 0 0.0018111664139575849 -0.19828088940286809 0 0.0048140267753674498 -0.18307555078188911 0 0.0096839919568396642 -0.19202836780196861 0 0.010764005605534159 -0.20064493985970019 0 0.017345743797294831 -0.19307496878837671 0 0.0096839919568396642 -0.19202836780196861 0 0.017345743797294831 -0.19307496878837671 0 0.01465805567875733 -0.18650686459764881 0 0.0096839919568396642 -0.19202836780196861 0 0.0018111664139575849 -0.19828088940286809 0 0.0048140267753674498 -0.18307555078188911 0 0.0096839919568396642 -0.19202836780196861 0 0.0018111664139575849 -0.19828088940286809 0 0.010764005605534159 -0.20064493985970019 0 0.0018111664139575849 -0.19828088940286809 0 0.010764005605534159 -0.20064493985970019 0 0.00192396491515911 -0.2064487105067766 0 0.010764005605534159 -0.20064493985970019 0 0.01349692588557653 -0.20980716133574881 0 0.00192396491515911 -0.2064487105067766 0 0.010764005605534159 -0.20064493985970019 0 0.01349692588557653 -0.20980716133574881 0 0.020040045719173359 -0.20139631478509151 0 -0.0026912027171646269 -0.21330690576901629 0 0.00192396491515911 -0.2064487105067766 0 0.0066127676687242239 -0.21662901554121039 0 0.01349692588557653 -0.20980716133574881 0 0.00192396491515911 -0.2064487105067766 0 0.0066127676687242239 -0.21662901554121039 0 -0.0013284026811626879 -0.2209097724625754 0 -0.0026912027171646269 -0.21330690576901629 0 0.0066127676687242239 -0.21662901554121039 0 0.019630627796078059 -0.22077366860851841 0 0.01349692588557653 -0.20980716133574881 0 0.0066127676687242239 -0.21662901554121039 0 0.019630627796078059 -0.22077366860851841 0 0.01349692588557653 -0.20980716133574881 0 0.029501088647221289 -0.20589711246045281 0 0.019630627796078059 -0.22077366860851841 0 0.029501088647221289 -0.20589711246045281 0 0.038723783861331372 -0.22311930129536819 0 0.01349692588557653 -0.20980716133574881 0 0.029501088647221289 -0.20589711246045281 0 0.020040045719173359 -0.20139631478509151 0 0.029501088647221289 -0.20589711246045281 0 0.020040045719173359 -0.20139631478509151 0 0.028641441112138129 -0.1902165481655386 0 0.010764005605534159 -0.20064493985970019 0 0.020040045719173359 -0.20139631478509151 0 0.017345743797294831 -0.19307496878837671 0 0.028641441112138129 -0.1902165481655386 0 0.017345743797294831 -0.19307496878837671 0 0.02163365341285314 -0.18557025882465611 0 0.020040045719173359 -0.20139631478509151 0 0.028641441112138129 -0.1902165481655386 0 0.017345743797294831 -0.19307496878837671 0 0.017345743797294831 -0.19307496878837671 0 0.02163365341285314 -0.18557025882465611 0 0.01465805567875733 -0.18650686459764881 0 0.029501088647221289 -0.20589711246045281 0 0.028641441112138129 -0.1902165481655386 0 0.044240595875949043 -0.1943797003084938 0 0.044240595875949043 -0.1943797003084938 0 0.038723783861331372 -0.22311930129536819 0 0.029501088647221289 -0.20589711246045281 0 0.044240595875949043 -0.1943797003084938 0 0.038723783861331372 -0.22311930129536819 0 0.044240595875949043 -0.1943797003084938 0 0.038723783861331372 -0.22311930129536819 0 0.063204787798149864 -0.20641405628259379 0 0.044240595875949043 -0.1943797003084938 0 0.063204787798149864 -0.20641405628259379 0 0.061655398023434373 -0.18492951803204821 0 0.033206971846713673 -0.25185890228224272 0 0.038723783861331372 -0.22311930129536819 0 0.049186078424724763 -0.24004017522888871 0 0.033206971846713673 -0.25185890228224272 0 0.038723783861331372 -0.22311930129536819 0 0.051558636686705357 -0.25427764188539648 0 0.033206971846713673 -0.25185890228224272 0 0.049186078424724763 -0.24004017522888871 0 0.038723783861331372 -0.22311930129536819 0 0.049186078424724763 -0.24004017522888871 0 0.064103803799607201 -0.2283348229489644 0 0.038723783861331372 -0.22311930129536819 0 0.064103803799607201 -0.2283348229489644 0 0.063204787798149864 -0.20641405628259379 0 0.051558636686705357 -0.25427764188539648 0 0.049186078424724763 -0.24004017522888871 0 0.065143911841209545 -0.24394330898717501 0 0.049186078424724763 -0.24004017522888871 0 0.065143911841209545 -0.24394330898717501 0 0.064103803799607201 -0.2283348229489644 0 0.075848022628028339 -0.25331806284189923 0 0.065143911841209545 -0.24394330898717501 0 0.087610532554895551 -0.23074813927023899 0 0.076443605093115985 -0.25493996363769178 0 0.087610532554895551 -0.23074813927023899 0 0.076443605093115985 -0.25493996363769178 0 0.075848022628028339 -0.25331806284189923 0 0.087610532554895551 -0.23074813927023899 0 0.076443605093115985 -0.25493996363769178 0 0.087610532554895551 -0.23074813927023899 0 0.095443639414999684 -0.24185550509743889 0 0.065143911841209545 -0.24394330898717501 0 0.087610532554895551 -0.23074813927023899 0 0.064103803799607201 -0.2283348229489644 0 0.087610532554895551 -0.23074813927023899 0 0.064103803799607201 -0.2283348229489644 0 0.080463343212517691 -0.21299758853402781 0 0.064103803799607201 -0.2283348229489644 0 0.063204787798149864 -0.20641405628259379 0 0.080463343212517691 -0.21299758853402781 0 0.063204787798149864 -0.20641405628259379 0 0.079695521393969737 -0.1898797571448736 0 0.080463343212517691 -0.21299758853402781 0 0.063204787798149864 -0.20641405628259379 0 0.079695521393969737 -0.1898797571448736 0 0.061655398023434373 -0.18492951803204821 0 0.079695521393969737 -0.1898797571448736 0 0.098777460016674229 -0.20655631490278589 0 0.094356245204195041 -0.18548342087661349 0 0.087610532554895551 -0.23074813927023899 0 0.080463343212517691 -0.21299758853402781 0 0.098777460016674229 -0.20655631490278589 0 0.079695521393969737 -0.1898797571448736 0 0.080463343212517691 -0.21299758853402781 0 0.098777460016674229 -0.20655631490278589 0 0.087610532554895551 -0.23074813927023899 0 0.098777460016674229 -0.20655631490278589 0 0.098777460016674229 -0.20655631490278589 0 0.1084663943820852 -0.1928470697862158 0 0.094356245204195041 -0.18548342087661349 0 0.098777460016674229 -0.20655631490278589 0 0.1084663943820852 -0.1928470697862158 0 0.1195242053325193 -0.2014169041097208 0 0.1084663943820852 -0.1928470697862158 0 0.105982875785328 -0.18357485123006259 0 0.12619890527404909 -0.18775799847632191 0 0.1084663943820852 -0.1928470697862158 0 0.1195242053325193 -0.2014169041097208 0 0.12619890527404909 -0.18775799847632191 0 0.098777460016674229 -0.20655631490278589 0 0.1195242053325193 -0.2014169041097208 0 0.1192816475590663 -0.21557480127277981 0 0.098777460016674229 -0.20655631490278589 0 0.1192816475590663 -0.21557480127277981 0 0.11029038791227409 -0.22660169236888361 0 0.1195242053325193 -0.2014169041097208 0 0.1192816475590663 -0.21557480127277981 0 0.13139999557242399 -0.2109081068042869 0 0.1192816475590663 -0.21557480127277981 0 0.11029038791227409 -0.22660169236888361 0 0.13181890034378221 -0.22327097458146131 0 0.11029038791227409 -0.22660169236888361 0 0.1177901222423639 -0.24589021612078951 0 0.13181890034378221 -0.22327097458146131 0 0.11029038791227409 -0.22660169236888361 0 0.1177901222423639 -0.24589021612078951 0 0.1062135187501107 -0.23856369777528849 0 0.1177901222423639 -0.24589021612078951 0 0.13181890034378221 -0.22327097458146131 0 0.1020317284170057 -0.25137111986553351 0 0.1177901222423639 -0.24589021612078951 0 0.1062135187501107 -0.23856369777528849 0 0.087610532554895551 -0.23074813927023899 0 0.1062135187501107 -0.23856369777528849 0 0.095443639414999684 -0.24185550509743889 0 0.1020317284170057 -0.25137111986553351 0 0.1062135187501107 -0.23856369777528849 0 0.095443639414999684 -0.24185550509743889 0 0.091092706367716492 -0.25370742960929421 0 0.1020317284170057 -0.25137111986553351 0 0.095443639414999684 -0.24185550509743889 0 0.087610532554895551 -0.23074813927023899 0 0.098777460016674229 -0.20655631490278589 0 0.11029038791227409 -0.22660169236888361 0 0.087610532554895551 -0.23074813927023899 0 0.11029038791227409 -0.22660169236888361 0 0.1062135187501107 -0.23856369777528849 0 0.1022269229959759 -0.15327682149790189 0 0.088663376688522214 -0.16081384117231931 0 0.093186825536506923 -0.14238528577100021 0 0.10468428775897599 -0.1424671564744219 0 0.1022269229959759 -0.15327682149790189 0 0.11323387268013189 -0.15208550681209809 0 0.1022269229959759 -0.15327682149790189 0 0.11323387268013189 -0.15208550681209809 0 0.1114662121330805 -0.16228921879133781 0 0.10468428775897599 -0.1424671564744219 0 0.1022269229959759 -0.15327682149790189 0 0.093186825536506923 -0.14238528577100021 0 0.10468428775897599 -0.1424671564744219 0 0.096871299519339246 -0.12805542960503141 0 0.093186825536506923 -0.14238528577100021 0 0.096871299519339246 -0.12805542960503141 0 0.1104356937028393 -0.1325112702738834 0 0.10662489326393811 -0.11762879473577049 0 0.10468428775897599 -0.1424671564744219 0 0.096871299519339246 -0.12805542960503141 0 0.1104356937028393 -0.1325112702738834 0 0.1187349622451946 -0.13084609735667971 0 0.1219296683055989 -0.1162968266236087 0 0.1302136205600414 -0.1397389082456699 0 0.1104356937028393 -0.1325112702738834 0 0.1187349622451946 -0.13084609735667971 0 0.1161682299593927 -0.1419037632665596 0 0.10468428775897599 -0.1424671564744219 0 0.1104356937028393 -0.1325112702738834 0 0.1161682299593927 -0.1419037632665596 0 0.1104356937028393 -0.1325112702738834 0 0.1187349622451946 -0.13084609735667971 0 0.11492759869810081 -0.12377971837367679 0 0.1187349622451946 -0.13084609735667971 0 0.1161682299593927 -0.1419037632665596 0 0.1302136205600414 -0.1397389082456699 0 0.1161682299593927 -0.1419037632665596 0 0.1244000642595416 -0.15367748753498561 0 0.1302136205600414 -0.1397389082456699 0 0.10468428775897599 -0.1424671564744219 0 0.1161682299593927 -0.1419037632665596 0 0.11323387268013189 -0.15208550681209809 0 0.11323387268013189 -0.15208550681209809 0 0.1244000642595416 -0.15367748753498561 0 0.11851971935789191 -0.15865043782017671 0 0.1161682299593927 -0.1419037632665596 0 0.11323387268013189 -0.15208550681209809 0 0.1244000642595416 -0.15367748753498561 0 0.11851971935789191 -0.15865043782017671 0 0.1240318481414155 -0.1667109168666718 0 0.1114662121330805 -0.16228921879133781 0 0.1244000642595416 -0.15367748753498561 0 0.11851971935789191 -0.15865043782017671 0 0.1240318481414155 -0.1667109168666718 0 0.1240318481414155 -0.1667109168666718 0 0.1146308969001386 -0.1695967506855042 0 0.1212526670054596 -0.1751858831037508 0 0.1240318481414155 -0.1667109168666718 0 0.1146308969001386 -0.1695967506855042 0 0.1114662121330805 -0.16228921879133781 0 0.1146308969001386 -0.1695967506855042 0 0.1053579550801913 -0.17277051259110629 0 0.1087027552326182 -0.16702162362562981 0 0.1146308969001386 -0.1695967506855042 0 0.1114662121330805 -0.16228921879133781 0 0.1087027552326182 -0.16702162362562981 0 0.11323387268013189 -0.15208550681209809 0 0.11851971935789191 -0.15865043782017671 0 0.1114662121330805 -0.16228921879133781 0 0.10360896863350751 -0.17357605218682329 0 0.1053579550801913 -0.17277051259110629 0 0.12619890527404909 -0.18775799847632191 0 0.1146308969001386 -0.1695967506855042 0 0.1212526670054596 -0.1751858831037508 0 0.1053579550801913 -0.17277051259110629 0 0.1212526670054596 -0.1751858831037508 0 0.1053579550801913 -0.17277051259110629 0 0.12619890527404909 -0.18775799847632191 0 0.10360896863350751 -0.17357605218682329 0 0.12619890527404909 -0.18775799847632191 0 0.105982875785328 -0.18357485123006259 0 0.10360896863350751 -0.17357605218682329 0 0.12619890527404909 -0.18775799847632191 0 0.1084663943820852 -0.1928470697862158 0 0.105982875785328 -0.18357485123006259 0 0.094356245204195041 -0.18548342087661349 0 0.105982875785328 -0.18357485123006259 0 0.10360896863350751 -0.17357605218682329 0 0.09728386543280336 -0.17820971482433851 0 0.09728386543280336 -0.17820971482433851 0 0.094356245204195041 -0.18548342087661349 0 0.090939964032484125 -0.17328013158481781 0 0.10360896863350751 -0.17357605218682329 0 0.09728386543280336 -0.17820971482433851 0 0.090939964032484125 -0.17328013158481781 0 0.105982875785328 -0.18357485123006259 0 0.09728386543280336 -0.17820971482433851 0 0.094356245204195041 -0.18548342087661349 0 0.1053579550801913 -0.17277051259110629 0 0.088663376688522214 -0.16081384117231931 0 0.1053579550801913 -0.17277051259110629 0 0.1033559568170626 -0.16343001243457081 0 0.088663376688522214 -0.16081384117231931 0 0.10360896863350751 -0.17357605218682329 0 0.1053579550801913 -0.17277051259110629 0 0.088663376688522214 -0.16081384117231931 0 0.1022269229959759 -0.15327682149790189 0 0.1114662121330805 -0.16228921879133781 0 0.1033559568170626 -0.16343001243457081 0 0.1053579550801913 -0.17277051259110629 0 0.1033559568170626 -0.16343001243457081 0 0.1087027552326182 -0.16702162362562981 0 0.1114662121330805 -0.16228921879133781 0 0.1033559568170626 -0.16343001243457081 0 0.1087027552326182 -0.16702162362562981 0 0.10360896863350751 -0.17357605218682329 0 0.088663376688522214 -0.16081384117231931 0 0.090939964032484125 -0.17328013158481781 0 0.1022269229959759 -0.15327682149790189 0 0.1033559568170626 -0.16343001243457081 0 0.088663376688522214 -0.16081384117231931 0 0.088663376688522214 -0.16081384117231931 0 0.090939964032484125 -0.17328013158481781 0 0.071378677158536449 -0.16833397710266021 0 0.079695521393969737 -0.1898797571448736 0 0.090939964032484125 -0.17328013158481781 0 0.071378677158536449 -0.16833397710266021 0 0.079695521393969737 -0.1898797571448736 0 0.094356245204195041 -0.18548342087661349 0 0.090939964032484125 -0.17328013158481781 0 0.079695521393969737 -0.1898797571448736 0 0.071378677158536449 -0.16833397710266021 0 0.061655398023434373 -0.18492951803204821 0 0.088663376688522214 -0.16081384117231931 0 0.071378677158536449 -0.16833397710266021 0 0.071968798296853126 -0.1488571697535323 0 0.071378677158536449 -0.16833397710266021 0 0.071968798296853126 -0.1488571697535323 0 0.062094775812785108 -0.1549329361281393 0 0.071968798296853126 -0.1488571697535323 0 0.055274219905184128 -0.1369004983347453 0 0.071968798296853126 -0.1488571697535323 0 0.055274219905184128 -0.1369004983347453 0 0.062094775812785108 -0.1549329361281393 0 0.071968798296853126 -0.1488571697535323 0 0.093186825536506923 -0.14238528577100021 0 0.075889068766172033 -0.1310027659375092 0 0.088663376688522214 -0.16081384117231931 0 0.071968798296853126 -0.1488571697535323 0 0.093186825536506923 -0.14238528577100021 0 0.088663376688522214 -0.16081384117231931 0 0.071968798296853126 -0.1488571697535323 0 0.093186825536506923 -0.14238528577100021 0 0.075889068766172033 -0.1310027659375092 0 0.096871299519339246 -0.12805542960503141 0 0.075889068766172033 -0.1310027659375092 0 0.088012250561448555 -0.116858798094025 0 0.096871299519339246 -0.12805542960503141 0 0.093186825536506923 -0.14238528577100021 0 0.075889068766172033 -0.1310027659375092 0 0.065430849741011599 -0.13409517003245119 0 0.075889068766172033 -0.1310027659375092 0 0.058591311995837253 -0.1196202461040179 0 0.075889068766172033 -0.1310027659375092 0 0.058591311995837253 -0.1196202461040179 0 0.071968798296853126 -0.1488571697535323 0 0.065430849741011599 -0.13409517003245119 0 0.075889068766172033 -0.1310027659375092 0 0.071968798296853126 -0.1488571697535323 0 0.065430849741011599 -0.13409517003245119 0 0.055274219905184128 -0.1369004983347453 0 0.055274219905184128 -0.1369004983347453 0 0.058591311995837253 -0.1196202461040179 0 0.055274219905184128 -0.1369004983347453 0 0.058591311995837253 -0.1196202461040179 0 0.049434144635069732 -0.12458258703971881 0 0.055274219905184128 -0.1369004983347453 0 0.048086748014395407 -0.13631788261143729 0 0.038286229702577917 -0.12473368512432639 0 0.055274219905184128 -0.1369004983347453 0 0.049434144635069732 -0.12458258703971881 0 0.038286229702577917 -0.12473368512432639 0 0.065430849741011599 -0.13409517003245119 0 0.055274219905184128 -0.1369004983347453 0 0.058591311995837253 -0.1196202461040179 0 0.055274219905184128 -0.1369004983347453 0 0.049757407890566693 -0.16564009932161949 0 0.055274219905184128 -0.1369004983347453 0 0.062094775812785108 -0.1549329361281393 0 0.049757407890566693 -0.16564009932161949 0 0.055274219905184128 -0.1369004983347453 0 0.036733485081120662 -0.14858547488865431 0 0.049757407890566693 -0.16564009932161949 0 0.036733485081120662 -0.14858547488865431 0 0.036705516356044243 -0.1465271540965975 0 0.023453950688803651 -0.16293446993207081 0 0.041244270333716547 -0.1417847748837664 0 0.036705516356044243 -0.1465271540965975 0 0.041215751824924277 -0.13663238000986511 0 0.048086748014395407 -0.13631788261143729 0 0.041244270333716547 -0.1417847748837664 0 0.036733485081120662 -0.14858547488865431 0 0.048086748014395407 -0.13631788261143729 0 0.036733485081120662 -0.14858547488865431 0 0.041244270333716547 -0.1417847748837664 0 0.036705516356044243 -0.1465271540965975 0 0.041244270333716547 -0.1417847748837664 0 0.036733485081120662 -0.14858547488865431 0 0.036705516356044243 -0.1465271540965975 0 0.036733485081120662 -0.14858547488865431 0 0.036705516356044243 -0.1465271540965975 0 0.036705516356044243 -0.1465271540965975 0 0.030429273955141299 -0.1314739116950458 0 0.028377729012564658 -0.13803252370192759 0 0.036705516356044243 -0.1465271540965975 0 0.036422331587319612 -0.125686551037343 0 0.039860139469004741 -0.13247881369389011 0 0.036705516356044243 -0.1465271540965975 0 0.036422331587319612 -0.125686551037343 0 0.030429273955141299 -0.1314739116950458 0 0.055274219905184128 -0.1369004983347453 0 0.038286229702577917 -0.12473368512432639 0 0.036705516356044243 -0.1465271540965975 0 0.036422331587319612 -0.125686551037343 0 0.055274219905184128 -0.1369004983347453 0 0.048086748014395407 -0.13631788261143729 0 0.036733485081120662 -0.14858547488865431 0 0.036422331587319612 -0.125686551037343 0 0.030429273955141299 -0.1314739116950458 0 0.031253654414655531 -0.12478894398796481 0 0.036422331587319612 -0.125686551037343 0 0.039860139469004741 -0.13247881369389011 0 0.038286229702577917 -0.12473368512432639 0 0.048086748014395407 -0.13631788261143729 0 0.039860139469004741 -0.13247881369389011 0 0.038286229702577917 -0.12473368512432639 0 0.048086748014395407 -0.13631788261143729 0 0.039860139469004741 -0.13247881369389011 0 0.041215751824924277 -0.13663238000986511 0 0.036705516356044243 -0.1465271540965975 0 0.039860139469004741 -0.13247881369389011 0 0.041215751824924277 -0.13663238000986511 0 0.048086748014395407 -0.13631788261143729 0 0.041244270333716547 -0.1417847748837664 0 0.041215751824924277 -0.13663238000986511 0 0.071378677158536449 -0.16833397710266021 0 0.061655398023434373 -0.18492951803204821 0 0.049757407890566693 -0.16564009932161949 0 0.044240595875949043 -0.1943797003084938 0 0.061655398023434373 -0.18492951803204821 0 0.049757407890566693 -0.16564009932161949 0 0.044240595875949043 -0.1943797003084938 0 0.049757407890566693 -0.16564009932161949 0 0.071378677158536449 -0.16833397710266021 0 0.062094775812785108 -0.1549329361281393 0 0.049757407890566693 -0.16564009932161949 0 0.036733485081120662 -0.14858547488865431 0 0.049757407890566693 -0.16564009932161949 0 0.037109791569458428 -0.1762792459461866 0 0.036733485081120662 -0.14858547488865431 0 0.037109791569458428 -0.1762792459461866 0 0.036733485081120662 -0.14858547488865431 0 0.037109791569458428 -0.1762792459461866 0 0.028008171440386271 -0.16249247063385111 0 0.028641441112138129 -0.1902165481655386 0 0.044240595875949043 -0.1943797003084938 0 0.037109791569458428 -0.1762792459461866 0 0.044240595875949043 -0.1943797003084938 0 0.049757407890566693 -0.16564009932161949 0 0.037109791569458428 -0.1762792459461866 0 0.01978049176180046 -0.17823066769064891 0 0.023453950688803651 -0.16293446993207081 0 0.0048140267753674498 -0.18307555078188911 0 0.02163365341285314 -0.18557025882465611 0 0.01978049176180046 -0.17823066769064891 0 0.01465805567875733 -0.18650686459764881 0 0.02163365341285314 -0.18557025882465611 0 0.027485552203339109 -0.17997673198736161 0 0.01978049176180046 -0.17823066769064891 0 0.028641441112138129 -0.1902165481655386 0 0.037109791569458428 -0.1762792459461866 0 0.027485552203339109 -0.17997673198736161 0 0.028641441112138129 -0.1902165481655386 0 0.02163365341285314 -0.18557025882465611 0 0.027485552203339109 -0.17997673198736161 0 0.027485552203339109 -0.17997673198736161 0 0.01978049176180046 -0.17823066769064891 0 0.026611175645069061 -0.17178189211600589 0 0.037109791569458428 -0.1762792459461866 0 0.027485552203339109 -0.17997673198736161 0 0.026611175645069061 -0.17178189211600589 0 0.036705516356044243 -0.1465271540965975 0 0.023453950688803651 -0.16293446993207081 0 0.02075168615936317 -0.16319673192830819 0 0.023453950688803651 -0.16293446993207081 0 0.02075168615936317 -0.16319673192830819 0 0.0048140267753674498 -0.18307555078188911 0 0.01978049176180046 -0.17823066769064891 0 0.026611175645069061 -0.17178189211600589 0 0.023453950688803651 -0.16293446993207081 0 0.026611175645069061 -0.17178189211600589 0 0.023453950688803651 -0.16293446993207081 0 0.028008171440386271 -0.16249247063385111 0 0.037109791569458428 -0.1762792459461866 0 0.026611175645069061 -0.17178189211600589 0 0.028008171440386271 -0.16249247063385111 0 0.023453950688803651 -0.16293446993207081 0 0.028008171440386271 -0.16249247063385111 0 0.036733485081120662 -0.14858547488865431 0 0.023453950688803651 -0.16293446993207081 0 0.028008171440386271 -0.16249247063385111 0 0.023453950688803651 -0.16293446993207081 0 0.02075168615936317 -0.16319673192830819 0 -0.0027688611566753511 -0.16547946392012511 0 0.02075168615936317 -0.16319673192830819 0 -0.0027688611566753511 -0.16547946392012511 0 0.02075168615936317 -0.16319673192830819 0 0.0034042302756566991 -0.17156407370405879 0 -0.0027688611566753511 -0.16547946392012511 0 0.02075168615936317 -0.16319673192830819 0 0.0088583903144602467 -0.15598181189068061 0 0.02075168615936317 -0.16319673192830819 0 0.0034042302756566991 -0.17156407370405879 0 0.0053186359717474893 -0.17475588851297169 0 0.02075168615936317 -0.16319673192830819 0 0.017057141336223641 -0.1555006265717003 0 0.0088583903144602467 -0.15598181189068061 0 -0.0027688611566753511 -0.16547946392012511 0 0.0088583903144602467 -0.15598181189068061 0 0.00045122637493126582 -0.1517854916873472 0 0.02075168615936317 -0.16319673192830819 0 0.0048140267753674498 -0.18307555078188911 0 0.003257493952261509 -0.18147577808863569 0 0.02075168615936317 -0.16319673192830819 0 0.003257493952261509 -0.18147577808863569 0 0.02075168615936317 -0.16319673192830819 0 0.0053186359717474893 -0.17475588851297169 0 0.003257493952261509 -0.18147577808863569 0 0.023453950688803651 -0.16293446993207081 0 0.0048140267753674498 -0.18307555078188911 0 -0.0006421463779544927 -0.17749117828634089 0 0.0034042302756566991 -0.17156407370405879 0 0.0053186359717474893 -0.17475588851297169 0 -0.00017808415058946159 -0.180051680557515 0 -0.0006421463779544927 -0.17749117828634089 0 0.0053186359717474893 -0.17475588851297169 0 -0.00017808415058946159 -0.180051680557515 0 0.0053186359717474893 -0.17475588851297169 0 0.003257493952261509 -0.18147577808863569 0 0.0096839919568396642 -0.19202836780196861 0 0.0048140267753674498 -0.18307555078188911 0 0.01465805567875733 -0.18650686459764881 0 0.01978049176180046 -0.17823066769064891 0 0.0048140267753674498 -0.18307555078188911 0 0.01465805567875733 -0.18650686459764881 0 0.021035398396153138 -0.14051712831375271 0 0.022243159441555551 -0.13213332977934941 0 0.01393466028606275 -0.13427592097264271 0 0.022243159441555551 -0.13213332977934941 0 0.014777048534431819 -0.123224154239405 0 0.025271923468192969 -0.1242778116143344 0 0.022243159441555551 -0.13213332977934941 0 0.01393466028606275 -0.13427592097264271 0 0.014777048534431819 -0.123224154239405 0 0.022243159441555551 -0.13213332977934941 0 0.030429273955141299 -0.1314739116950458 0 0.025271923468192969 -0.1242778116143344 0 0.030429273955141299 -0.1314739116950458 0 0.025271923468192969 -0.1242778116143344 0 0.031253654414655531 -0.12478894398796481 0 0.022243159441555551 -0.13213332977934941 0 0.030429273955141299 -0.1314739116950458 0 0.028377729012564658 -0.13803252370192759 0 0.021035398396153138 -0.14051712831375271 0 0.022243159441555551 -0.13213332977934941 0 0.028377729012564658 -0.13803252370192759 0 0.036705516356044243 -0.1465271540965975 0 0.02075168615936317 -0.16319673192830819 0 0.022732862502682541 -0.149123645440255 0 0.036705516356044243 -0.1465271540965975 0 0.028377729012564658 -0.13803252370192759 0 0.02825953333083852 -0.1438725268074815 0 0.036705516356044243 -0.1465271540965975 0 0.02075168615936317 -0.16319673192830819 0 0.036705516356044243 -0.1465271540965975 0 0.02825953333083852 -0.1438725268074815 0 0.022732862502682541 -0.149123645440255 0 0.021035398396153138 -0.14051712831375271 0 0.02825953333083852 -0.1438725268074815 0 0.022732862502682541 -0.149123645440255 0 0.021035398396153138 -0.14051712831375271 0 0.028377729012564658 -0.13803252370192759 0 0.02825953333083852 -0.1438725268074815 0 0.036733485081120662 -0.14858547488865431 0 0.023453950688803651 -0.16293446993207081 0 0.022732862502682541 -0.149123645440255 0 0.017057141336223641 -0.1555006265717003 0 0.01081739455455369 -0.1452487697896154 0 0.02075168615936317 -0.16319673192830819 0 0.022732862502682541 -0.149123645440255 0 0.017057141336223641 -0.1555006265717003 0 0.021035398396153138 -0.14051712831375271 0 0.022732862502682541 -0.149123645440255 0 0.01081739455455369 -0.1452487697896154 0 0.017057141336223641 -0.1555006265717003 0 0.01081739455455369 -0.1452487697896154 0 0.0088583903144602467 -0.15598181189068061 0 0.01081739455455369 -0.1452487697896154 0 0.0088583903144602467 -0.15598181189068061 0 0.00045122637493126582 -0.1517854916873472 0 -0.001640428291223236 -0.14298893116563871 0 0.01081739455455369 -0.1452487697896154 0 0.00045122637493126582 -0.1517854916873472 0 -0.001640428291223236 -0.14298893116563871 0 0.01081739455455369 -0.1452487697896154 0 0.0034005497264944389 -0.13210390337836719 0 0.021035398396153138 -0.14051712831375271 0 0.01081739455455369 -0.1452487697896154 0 0.01393466028606275 -0.13427592097264271 0 0.01081739455455369 -0.1452487697896154 0 0.01393466028606275 -0.13427592097264271 0 0.0034005497264944389 -0.13210390337836719 0 0.01393466028606275 -0.13427592097264271 0 0.0034005497264944389 -0.13210390337836719 0 0.014777048534431819 -0.123224154239405 0 -0.0052050146446535051 -0.12567854354915689 0 0.0034005497264944389 -0.13210390337836719 0 0.0032915990406413471 -0.12013876224904881 0 0.0034005497264944389 -0.13210390337836719 0 0.0032915990406413471 -0.12013876224904881 0 0.014777048534431819 -0.123224154239405 0 0.0032915990406413471 -0.12013876224904881 0 0.014777048534431819 -0.123224154239405 0 0.011619108225447169 -0.1071320513464738 0 -0.008133696638513193 -0.1125551587318412 0 0.0032915990406413471 -0.12013876224904881 0 0.011619108225447169 -0.1071320513464738 0 -0.008133696638513193 -0.1125551587318412 0 0.011619108225447169 -0.1071320513464738 0 0.014777048534431819 -0.123224154239405 0 0.02415142704377455 -0.1150650881470848 0 0.025271923468192969 -0.1242778116143344 0 0.014777048534431819 -0.123224154239405 0 0.02415142704377455 -0.1150650881470848 0 0.011619108225447169 -0.1071320513464738 0 0.02415142704377455 -0.1150650881470848 0 0.033684080916615899 -0.11280499324312609 0 0.031371913089407087 -0.1017089439611049 0 0.02415142704377455 -0.1150650881470848 0 0.02983120830523886 -0.1199954931113995 0 0.033684080916615899 -0.11280499324312609 0 0.02415142704377455 -0.1150650881470848 0 0.02983120830523886 -0.1199954931113995 0 0.025271923468192969 -0.1242778116143344 0 0.02983120830523886 -0.1199954931113995 0 0.025271923468192969 -0.1242778116143344 0 0.031253654414655531 -0.12478894398796481 0 0.011619108225447169 -0.1071320513464738 0 0.031371913089407087 -0.1017089439611049 0 0.011619108225447169 -0.1071320513464738 0 0.01064068495058334 -0.088067081689834834 0 0.031371913089407087 -0.1017089439611049 0 0.02415142704377455 -0.1150650881470848 0 0.011619108225447169 -0.1071320513464738 0 0.031371913089407087 -0.1017089439611049 0 0.01064068495058334 -0.088067081689834834 0 0.031371913089407087 -0.1017089439611049 0 -0.0015874377870618421 -0.095350665785740515 0 0.011619108225447169 -0.1071320513464738 0 0.01064068495058334 -0.088067081689834834 0 -0.0015874377870618421 -0.095350665785740515 0 -0.008133696638513193 -0.1125551587318412 0 0.011619108225447169 -0.1071320513464738 0 -0.0002514379893186573 -0.075417423269466988 0 -0.0015874377870618421 -0.095350665785740515 0 0.01064068495058334 -0.088067081689834834 0 -0.0002514379893186573 -0.075417423269466988 0 0.01064068495058334 -0.088067081689834834 0 0.01578637000897708 -0.079335310569470976 0 -0.0002514379893186573 -0.075417423269466988 0 0.015246186795856469 -0.069214534723970836 0 0.01578637000897708 -0.079335310569470976 0 -0.001750364537067637 -0.056664560840608419 0 -0.0002514379893186573 -0.075417423269466988 0 0.015246186795856469 -0.069214534723970836 0 0.023254376485184108 -0.072483246581888316 0 0.035466724514054707 -0.055359930773666292 0 0.015246186795856469 -0.069214534723970836 0 0.023254376485184108 -0.072483246581888316 0 0.02316724349378874 -0.059166938515143298 0 0.023254376485184108 -0.072483246581888316 0 0.023186015336933551 -0.081400086223950965 0 0.01578637000897708 -0.079335310569470976 0 0.015246186795856469 -0.069214534723970836 0 0.023254376485184108 -0.072483246581888316 0 0.01578637000897708 -0.079335310569470976 0 0.023254376485184108 -0.072483246581888316 0 0.023186015336933551 -0.081400086223950965 0 0.035772842598234232 -0.077888280410421062 0 0.01064068495058334 -0.088067081689834834 0 0.030475802641689011 -0.089226511868139652 0 0.031371913089407087 -0.1017089439611049 0 0.01064068495058334 -0.088067081689834834 0 0.023186015336933551 -0.081400086223950965 0 0.030475802641689011 -0.089226511868139652 0 0.01064068495058334 -0.088067081689834834 0 0.023186015336933551 -0.081400086223950965 0 0.01578637000897708 -0.079335310569470976 0 0.023186015336933551 -0.081400086223950965 0 0.030475802641689011 -0.089226511868139652 0 0.035772842598234232 -0.077888280410421062 0 0.044899887383909362 -0.090743004447229658 0 0.035772842598234232 -0.077888280410421062 0 0.036078960682407547 -0.10041663004717589 0 0.030475802641689011 -0.089226511868139652 0 0.035772842598234232 -0.077888280410421062 0 0.036078960682407547 -0.10041663004717589 0 0.035772842598234232 -0.077888280410421062 0 0.036078960682407547 -0.10041663004717589 0 0.044899887383909362 -0.090743004447229658 0 0.035772842598234232 -0.077888280410421062 0 0.049145727289009539 -0.082131178007194328 0 0.035772842598234232 -0.077888280410421062 0 0.05046084268407084 -0.06652649439363803 0 0.035466724514054707 -0.055359930773666292 0 0.023254376485184108 -0.072483246581888316 0 0.035772842598234232 -0.077888280410421062 0 0.035466724514054707 -0.055359930773666292 0 0.035772842598234232 -0.077888280410421062 0 0.035466724514054707 -0.055359930773666292 0 0.035772842598234232 -0.077888280410421062 0 0.05046084268407084 -0.06652649439363803 0 0.049145727289009539 -0.082131178007194328 0 0.05046084268407084 -0.06652649439363803 0 0.049145727289009539 -0.082131178007194328 0 0.062987236936856955 -0.081153131036619336 0 0.05046084268407084 -0.06652649439363803 0 0.061821310934834867 -0.069700668194724175 0 0.062987236936856955 -0.081153131036619336 0 0.05046084268407084 -0.06652649439363803 0 0.062987236936856955 -0.081153131036619336 0 0.05046084268407084 -0.06652649439363803 0 0.061821310934834867 -0.069700668194724175 0 0.06005312885977334 -0.054112223492729067 0 0.051607826841976553 -0.094344979748063773 0 0.062009787793153637 -0.1018118397023092 0 0.065428263590471769 -0.084003433300600838 0 0.044899887383909362 -0.090743004447229658 0 0.049145727289009539 -0.082131178007194328 0 0.051607826841976553 -0.094344979748063773 0 0.049145727289009539 -0.082131178007194328 0 0.051607826841976553 -0.094344979748063773 0 0.062987236936856955 -0.081153131036619336 0 0.051607826841976553 -0.094344979748063773 0 0.065428263590471769 -0.084003433300600838 0 0.062987236936856955 -0.081153131036619336 0 0.051607826841976553 -0.094344979748063773 0 0.062987236936856955 -0.081153131036619336 0 0.051607826841976553 -0.094344979748063773 0 0.052613824073919922 -0.10577693706629999 0 0.062009787793153637 -0.1018118397023092 0 0.052613824073919922 -0.10577693706629999 0 0.062009787793153637 -0.1018118397023092 0 0.058591311995837253 -0.1196202461040179 0 0.044899887383909362 -0.090743004447229658 0 0.051607826841976553 -0.094344979748063773 0 0.048136211881546348 -0.097106327106624604 0 0.051607826841976553 -0.094344979748063773 0 0.052613824073919922 -0.10577693706629999 0 0.04022841674709636 -0.1075368284595084 0 0.062009787793153637 -0.1018118397023092 0 0.058591311995837253 -0.1196202461040179 0 0.058591311995837253 -0.1196202461040179 0 0.04022841674709636 -0.1075368284595084 0 0.052613824073919922 -0.10577693706629999 0 0.058591311995837253 -0.1196202461040179 0 0.04022841674709636 -0.1075368284595084 0 0.058591311995837253 -0.1196202461040179 0 0.045189723944236801 -0.1169921327326951 0 0.04022841674709636 -0.1075368284595084 0 0.058591311995837253 -0.1196202461040179 0 0.049434144635069732 -0.12458258703971881 0 0.045189723944236801 -0.1169921327326951 0 0.036422331587319612 -0.125686551037343 0 0.036139146818596549 -0.1048459479780884 0 0.036422331587319612 -0.125686551037343 0 0.038286229702577917 -0.12473368512432639 0 0.04022841674709636 -0.1075368284595084 0 0.036422331587319612 -0.125686551037343 0 0.036139146818596549 -0.1048459479780884 0 0.04022841674709636 -0.1075368284595084 0 0.045189723944236801 -0.1169921327326951 0 0.038286229702577917 -0.12473368512432639 0 0.04022841674709636 -0.1075368284595084 0 0.036422331587319612 -0.125686551037343 0 0.033684080916615899 -0.11280499324312609 0 0.036139146818596549 -0.1048459479780884 0 0.049434144635069732 -0.12458258703971881 0 0.045189723944236801 -0.1169921327326951 0 0.038286229702577917 -0.12473368512432639 0 0.02983120830523886 -0.1199954931113995 0 0.032797818805957467 -0.1208189953449583 0 0.033684080916615899 -0.11280499324312609 0 0.036422331587319612 -0.125686551037343 0 0.032797818805957467 -0.1208189953449583 0 0.033684080916615899 -0.11280499324312609 0 0.036422331587319612 -0.125686551037343 0 0.032797818805957467 -0.1208189953449583 0 0.031253654414655531 -0.12478894398796481 0 0.02983120830523886 -0.1199954931113995 0 0.032797818805957467 -0.1208189953449583 0 0.031253654414655531 -0.12478894398796481 0 0.033684080916615899 -0.11280499324312609 0 0.036139146818596549 -0.1048459479780884 0 0.031371913089407087 -0.1017089439611049 0 0.036139146818596549 -0.1048459479780884 0 0.04022841674709636 -0.1075368284595084 0 0.036139146818596549 -0.1048459479780884 0 0.036078960682407547 -0.10041663004717589 0 0.036139146818596549 -0.1048459479780884 0 0.036078960682407547 -0.10041663004717589 0 0.04022841674709636 -0.1075368284595084 0 0.036139146818596549 -0.1048459479780884 0 0.031371913089407087 -0.1017089439611049 0 0.036078960682407547 -0.10041663004717589 0 0.036139146818596549 -0.1048459479780884 0 0.031371913089407087 -0.1017089439611049 0 0.031371913089407087 -0.1017089439611049 0 0.036078960682407547 -0.10041663004717589 0 0.030475802641689011 -0.089226511868139652 0 0.031371913089407087 -0.1017089439611049 0 0.036078960682407547 -0.10041663004717589 0 0.051607826841976553 -0.094344979748063773 0 0.04022841674709636 -0.1075368284595084 0 0.044899887383909362 -0.090743004447229658 0 0.048136211881546348 -0.097106327106624604 0 0.036078960682407547 -0.10041663004717589 0 0.051607826841976553 -0.094344979748063773 0 0.048136211881546348 -0.097106327106624604 0 0.04022841674709636 -0.1075368284595084 0 0.048136211881546348 -0.097106327106624604 0 0.036078960682407547 -0.10041663004717589 0 0.048136211881546348 -0.097106327106624604 0 0.036078960682407547 -0.10041663004717589 0 0.04022841674709636 -0.1075368284595084 0 0.018106675171310972 -0.0051844803352407024 0 0.035701371435562873 -0.022193831695433069 0 0.039864691636193668 -0.0014390661307540731 0 0.0080705234781095411 0.0063488255175038772 0 0.018106675171310972 -0.0051844803352407024 0 0.0064494369519845218 -0.003400704004759007 0 0.018106675171310972 -0.0051844803352407024 0 0.0064494369519845218 -0.003400704004759007 0 0.0055755829353018836 -0.0141155314523333 0 -0.005955033776784309 -0.00065162974896590398 0 0.0064494369519845218 -0.003400704004759007 0 0.0055755829353018836 -0.0141155314523333 0 0.018106675171310972 -0.0051844803352407024 0 0.0055755829353018836 -0.0141155314523333 0 0.017106199647384818 -0.02757943315570351 0 -0.00043252118046987418 -0.034611490377770067 0 0.0055755829353018836 -0.0141155314523333 0 0.017106199647384818 -0.02757943315570351 0 0.0055755829353018836 -0.0141155314523333 0 0.017106199647384818 -0.02757943315570351 0 0.018106675171310972 -0.0051844803352407024 0 0.017106199647384818 -0.02757943315570351 0 0.018106675171310972 -0.0051844803352407024 0 0.017106199647384818 -0.02757943315570351 0 0.035701371435562873 -0.022193831695433069 0 0.017106199647384818 -0.02757943315570351 0 0.0275203240393357 -0.039739645453179373 0 0.035701371435562873 -0.022193831695433069 0 0.017106199647384818 -0.02757943315570351 0 0.0275203240393357 -0.039739645453179373 0 0.016176193221619079 -0.048396983939837067 0 0.017106199647384818 -0.02757943315570351 0 0.016176193221619079 -0.048396983939837067 0 0.0275203240393357 -0.039739645453179373 0 0.016176193221619079 -0.048396983939837067 0 0.02754405747670513 -0.050472485739246557 0 0.0275203240393357 -0.039739645453179373 0 0.02754405747670513 -0.050472485739246557 0 0.035389802114728357 -0.049698930014407491 0 0.017106199647384818 -0.02757943315570351 0 0.0275203240393357 -0.039739645453179373 0 -0.00043252118046987418 -0.034611490377770067 0 -0.001750364537067637 -0.056664560840608419 0 0.016176193221619079 -0.048396983939837067 0 -0.00043252118046987418 -0.034611490377770067 0 0.017106199647384818 -0.02757943315570351 0 0.016176193221619079 -0.048396983939837067 0 -0.001750364537067637 -0.056664560840608419 0 0.015246186795856469 -0.069214534723970836 0 0.016176193221619079 -0.048396983939837067 0 0.015246186795856469 -0.069214534723970836 0 0.02316724349378874 -0.059166938515143298 0 0.016176193221619079 -0.048396983939837067 0 0.023254376485184108 -0.072483246581888316 0 0.02316724349378874 -0.059166938515143298 0 0.035466724514054707 -0.055359930773666292 0 0.015246186795856469 -0.069214534723970836 0 0.016176193221619079 -0.048396983939837067 0 0.02316724349378874 -0.059166938515143298 0 0.016176193221619079 -0.048396983939837067 0 0.02754405747670513 -0.050472485739246557 0 0.02316724349378874 -0.059166938515143298 0 0.02754405747670513 -0.050472485739246557 0 0.035466724514054707 -0.055359930773666292 0 0.02754405747670513 -0.050472485739246557 0 0.035466724514054707 -0.055359930773666292 0 0.035389802114728357 -0.049698930014407491 0 0.0275203240393357 -0.039739645453179373 0 0.035389802114728357 -0.049698930014407491 0 0.037934448431286759 -0.051899857750655053 0 0.035466724514054707 -0.055359930773666292 0 0.035389802114728357 -0.049698930014407491 0 0.037934448431286759 -0.051899857750655053 0 0.035466724514054707 -0.055359930773666292 0 0.035389802114728357 -0.049698930014407491 0 0.035466724514054707 -0.055359930773666292 0 0.037934448431286759 -0.051899857750655053 0 0.05046084268407084 -0.06652649439363803 0 0.037934448431286759 -0.051899857750655053 0 0.05046084268407084 -0.06652649439363803 0 0.035466724514054707 -0.055359930773666292 0 0.037934448431286759 -0.051899857750655053 0 0.037934448431286759 -0.051899857750655053 0 0.06005312885977334 -0.054112223492729067 0 0.049278340504218039 -0.035994231248692957 0 0.05046084268407084 -0.06652649439363803 0 0.037934448431286759 -0.051899857750655053 0 0.06005312885977334 -0.054112223492729067 0 0.06005312885977334 -0.054112223492729067 0 0.049278340504218039 -0.035994231248692957 0 0.06174616837876315 -0.036022052842868267 0 0.037934448431286759 -0.051899857750655053 0 0.049278340504218039 -0.035994231248692957 0 0.0275203240393357 -0.039739645453179373 0 0.037934448431286759 -0.051899857750655053 0 0.049278340504218039 -0.035994231248692957 0 0.0275203240393357 -0.039739645453179373 0 0.049278340504218039 -0.035994231248692957 0 0.035701371435562873 -0.022193831695433069 0 0.0275203240393357 -0.039739645453179373 0 0.037934448431286759 -0.051899857750655053 0 0.049278340504218039 -0.035994231248692957 0 0.06174616837876315 -0.036022052842868267 0 0.060622232577148563 -0.020088604746730281 0 0.049278340504218039 -0.035994231248692957 0 0.060622232577148563 -0.020088604746730281 0 0.049278340504218039 -0.035994231248692957 0 0.035701371435562873 -0.022193831695433069 0 0.060622232577148563 -0.020088604746730281 0 0.057640412731564762 0.0021444022285601791 0 0.060622232577148563 -0.020088604746730281 0 0.039864691636193668 -0.0014390661307540731 0 0.060622232577148563 -0.020088604746730281 0 0.039864691636193668 -0.0014390661307540731 0 0.035701371435562873 -0.022193831695433069 0 0.060622232577148563 -0.020088604746730281 0 0.039864691636193668 -0.0014390661307540731 0 0.083985513779162302 0.01266978384428228 0 0.07844066029613643 -0.016215897997078479 0 0.099044760328135611 -0.0097913334577598293 0 0.083985513779162302 0.01266978384428228 0 0.07844066029613643 -0.016215897997078479 0 0.083985513779162302 0.01266978384428228 0 0.072303873178155398 -0.0037094104512239751 0 0.07844066029613643 -0.016215897997078479 0 0.060622232577148563 -0.020088604746730281 0 0.072303873178155398 -0.0037094104512239751 0 0.057640412731564762 0.0021444022285601791 0 0.060622232577148563 -0.020088604746730281 0 0.072303873178155398 -0.0037094104512239751 0 0.060622232577148563 -0.020088604746730281 0 0.072303873178155398 -0.0037094104512239751 0 0.07844066029613643 -0.016215897997078479 0 0.060622232577148563 -0.020088604746730281 0 0.06588133313956529 -0.02481362488774987 0 0.07844066029613643 -0.016215897997078479 0 0.06174616837876315 -0.036022052842868267 0 0.060622232577148563 -0.020088604746730281 0 0.06588133313956529 -0.02481362488774987 0 0.06588133313956529 -0.02481362488774987 0 0.07844066029613643 -0.016215897997078479 0 0.072895806813110614 -0.045101579838439237 0 0.07844066029613643 -0.016215897997078479 0 0.072895806813110614 -0.045101579838439237 0 0.060622232577148563 -0.020088604746730281 0 0.06588133313956529 -0.02481362488774987 0 0.07844066029613643 -0.016215897997078479 0 0.10014735301683141 -0.03807439274180164 0 0.099044760328135611 -0.0097913334577598293 0 0.072895806813110614 -0.045101579838439237 0 0.084293778265628963 -0.05645302203011044 0 0.10014735301683141 -0.03807439274180164 0 0.07844066029613643 -0.016215897997078479 0 0.072895806813110614 -0.045101579838439237 0 0.10014735301683141 -0.03807439274180164 0 0.06174616837876315 -0.036022052842868267 0 0.06588133313956529 -0.02481362488774987 0 0.072895806813110614 -0.045101579838439237 0 0.06005312885977334 -0.054112223492729067 0 0.06174616837876315 -0.036022052842868267 0 0.072895806813110614 -0.045101579838439237 0 0.072895806813110614 -0.045101579838439237 0 0.068440203514426534 -0.074831651318419193 0 0.072895806813110614 -0.045101579838439237 0 0.084293778265628963 -0.05645302203011044 0 0.068440203514426534 -0.074831651318419193 0 0.06005312885977334 -0.054112223492729067 0 0.072895806813110614 -0.045101579838439237 0 0.068440203514426534 -0.074831651318419193 0 0.084293778265628963 -0.05645302203011044 0 0.10014735301683141 -0.03807439274180164 0 0.1136930697105103 -0.056449290215918761 0 0.10014735301683141 -0.03807439274180164 0 0.098580119763752833 -0.063072002916063616 0 0.084293778265628963 -0.05645302203011044 0 0.10014735301683141 -0.03807439274180164 0 0.098580119763752833 -0.063072002916063616 0 0.1136930697105103 -0.056449290215918761 0 0.1231974503292815 -0.04340440012675871 0 0.13189311520541089 -0.062187177045071727 0 0.1136930697105103 -0.056449290215918761 0 0.1231974503292815 -0.04340440012675871 0 0.10014735301683141 -0.03807439274180164 0 0.1231974503292815 -0.04340440012675871 0 0.10014735301683141 -0.03807439274180164 0 0.1160009277680339 -0.019695763453492811 0 0.10014735301683141 -0.03807439274180164 0 0.1160009277680339 -0.019695763453492811 0 0.10014735301683141 -0.03807439274180164 0 0.1160009277680339 -0.019695763453492811 0 0.099044760328135611 -0.0097913334577598293 0 0.1231974503292815 -0.04340440012675871 0 0.1160009277680339 -0.019695763453492811 0 0.13203905152099829 -0.029706734900094948 0 0.1160009277680339 -0.019695763453492811 0 0.1206137002203433 -0.0013104439519602269 0 0.099044760328135611 -0.0097913334577598293 0 0.10665516239915999 0.0082388424151153949 0 0.1206137002203433 -0.0013104439519602269 0 0.099044760328135611 -0.0097913334577598293 0 0.079413505639534088 -0.100333515979438 0 0.091483540482631964 -0.10455278015305559 0 0.088012250561448555 -0.116858798094025 0 0.079413505639534088 -0.100333515979438 0 0.091483540482631964 -0.10455278015305559 0 0.086270025111483961 -0.088653376420149144 0 0.079413505639534088 -0.100333515979438 0 0.088012250561448555 -0.116858798094025 0 0.072923593065731637 -0.11421024030988999 0 0.075889068766172033 -0.1310027659375092 0 0.088012250561448555 -0.116858798094025 0 0.072923593065731637 -0.11421024030988999 0 0.075889068766172033 -0.1310027659375092 0 0.058591311995837253 -0.1196202461040179 0 0.072923593065731637 -0.11421024030988999 0 0.062009787793153637 -0.1018118397023092 0 0.058591311995837253 -0.1196202461040179 0 0.072923593065731637 -0.11421024030988999 0 0.062009787793153637 -0.1018118397023092 0 0.079413505639534088 -0.100333515979438 0 0.072923593065731637 -0.11421024030988999 0 0.062009787793153637 -0.1018118397023092 0 0.079413505639534088 -0.100333515979438 0 0.065428263590471769 -0.084003433300600838 0 0.062009787793153637 -0.1018118397023092 0 0.065428263590471769 -0.084003433300600838 0 0.065428263590471769 -0.084003433300600838 0 0.068440203514426534 -0.074831651318419193 0 0.086270025111483961 -0.088653376420149144 0 0.079413505639534088 -0.100333515979438 0 0.065428263590471769 -0.084003433300600838 0 0.086270025111483961 -0.088653376420149144 0 0.079413505639534088 -0.100333515979438 0 0.065428263590471769 -0.084003433300600838 0 0.068440203514426534 -0.074831651318419193 0 0.086270025111483961 -0.088653376420149144 0 0.065428263590471769 -0.084003433300600838 0 0.066830698392318394 -0.076697507974795853 0 0.068440203514426534 -0.074831651318419193 0 0.065428263590471769 -0.084003433300600838 0 0.062987236936856955 -0.081153131036619336 0 0.065428263590471769 -0.084003433300600838 0 0.066830698392318394 -0.076697507974795853 0 0.065428263590471769 -0.084003433300600838 0 0.062987236936856955 -0.081153131036619336 0 0.066830698392318394 -0.076697507974795853 0 0.062987236936856955 -0.081153131036619336 0 0.066830698392318394 -0.076697507974795853 0 0.061821310934834867 -0.069700668194724175 0 0.06005312885977334 -0.054112223492729067 0 0.068440203514426534 -0.074831651318419193 0 0.084293778265628963 -0.05645302203011044 0 0.068440203514426534 -0.074831651318419193 0 0.061821310934834867 -0.069700668194724175 0 0.062987236936856955 -0.081153131036619336 0 0.066830698392318394 -0.076697507974795853 0 0.061821310934834867 -0.069700668194724175 0 0.066830698392318394 -0.076697507974795853 0 0.068440203514426534 -0.074831651318419193 0 0.061821310934834867 -0.069700668194724175 0 0.068440203514426534 -0.074831651318419193 0 0.066830698392318394 -0.076697507974795853 0 0.068440203514426534 -0.074831651318419193 0 0.084293778265628963 -0.05645302203011044 0 0.068440203514426534 -0.074831651318419193 0 0.087144364394588378 -0.072665534351491798 0 0.084293778265628963 -0.05645302203011044 0 0.087144364394588378 -0.072665534351491798 0 0.098580119763752833 -0.063072002916063616 0 0.087144364394588378 -0.072665534351491798 0 0.086270025111483961 -0.088653376420149144 0 0.098898927887089927 -0.078413648686551984 0 0.068440203514426534 -0.074831651318419193 0 0.087144364394588378 -0.072665534351491798 0 0.086270025111483961 -0.088653376420149144 0 0.086270025111483961 -0.088653376420149144 0 0.1062464362105722 -0.088575014570022703 0 0.098898927887089927 -0.078413648686551984 0 0.1062464362105722 -0.088575014570022703 0 0.098898927887089927 -0.078413648686551984 0 0.1146473102372747 -0.075508478249898106 0 0.086270025111483961 -0.088653376420149144 0 0.1062464362105722 -0.088575014570022703 0 0.1040998467085414 -0.10247510152187909 0 0.098898927887089927 -0.078413648686551984 0 0.098580119763752833 -0.063072002916063616 0 0.1146473102372747 -0.075508478249898106 0 0.1136930697105103 -0.056449290215918761 0 0.098580119763752833 -0.063072002916063616 0 0.1146473102372747 -0.075508478249898106 0 0.087144364394588378 -0.072665534351491798 0 0.098898927887089927 -0.078413648686551984 0 0.098580119763752833 -0.063072002916063616 0 0.1136930697105103 -0.056449290215918761 0 0.1146473102372747 -0.075508478249898106 0 0.13189311520541089 -0.062187177045071727 0 0.1062464362105722 -0.088575014570022703 0 0.1146473102372747 -0.075508478249898106 0 0.12061742891270499 -0.092395668150313831 0 0.1146473102372747 -0.075508478249898106 0 0.12061742891270499 -0.092395668150313831 0 0.13335946705513449 -0.084346517904557675 0 0.1235117276923038 -0.1026304824118203 0 0.1040998467085414 -0.10247510152187909 0 0.1203206048074365 -0.1117434689145779 0 0.12061742891270499 -0.092395668150313831 0 0.1235117276923038 -0.1026304824118203 0 0.1040998467085414 -0.10247510152187909 0 0.1062464362105722 -0.088575014570022703 0 0.12061742891270499 -0.092395668150313831 0 0.1040998467085414 -0.10247510152187909 0 0.1235117276923038 -0.1026304824118203 0 0.1203206048074365 -0.1117434689145779 0 0.12953827030511009 -0.11035200403398911 0 0.086270025111483961 -0.088653376420149144 0 0.1040998467085414 -0.10247510152187909 0 0.091483540482631964 -0.10455278015305559 0 0.086270025111483961 -0.088653376420149144 0 0.1040998467085414 -0.10247510152187909 0 0.091483540482631964 -0.10455278015305559 0 0.1040998467085414 -0.10247510152187909 0 0.10662489326393811 -0.11762879473577049 0 0.096871299519339246 -0.12805542960503141 0 0.088012250561448555 -0.116858798094025 0 0.10662489326393811 -0.11762879473577049 0 0.091483540482631964 -0.10455278015305559 0 0.088012250561448555 -0.116858798094025 0 0.10662489326393811 -0.11762879473577049 0 0.1040998467085414 -0.10247510152187909 0 0.1203206048074365 -0.1117434689145779 0 0.1219296683055989 -0.1162968266236087 0 0.1040998467085414 -0.10247510152187909 0 0.10662489326393811 -0.11762879473577049 0 0.1219296683055989 -0.1162968266236087 0 0.1104356937028393 -0.1325112702738834 0 0.10662489326393811 -0.11762879473577049 0 0.11492759869810081 -0.12377971837367679 0 0.10662489326393811 -0.11762879473577049 0 0.11492759869810081 -0.12377971837367679 0 0.1219296683055989 -0.1162968266236087 0 0.1040998467085414 -0.10247510152187909 0 0.1219296683055989 -0.1162968266236087 0 0.1203206048074365 -0.1117434689145779 0 0.1219296683055989 -0.1162968266236087 0 0.12651485758455541 -0.1144810070339857 0 0.1219296683055989 -0.1162968266236087 0 0.1257077033995595 -0.11922556947216501 0 0.12651485758455541 -0.1144810070339857 0 0.1203206048074365 -0.1117434689145779 0 0.1219296683055989 -0.1162968266236087 0 0.1187349622451946 -0.13084609735667971 0 0.11492759869810081 -0.12377971837367679 0 0.1219296683055989 -0.1162968266236087 0 0.1219296683055989 -0.1162968266236087 0 0.1257077033995595 -0.11922556947216501 0 0.1257077033995595 -0.11922556947216501 0 0.12651485758455541 -0.1144810070339857 0 0.13463760708164399 -0.11816609908304759 0 0.13463760708164399 -0.11816609908304759 0 0.13653823999591949 -0.1033935440095748 0 0.1449311722822835 -0.12606042349723379 0 0.1203206048074365 -0.1117434689145779 0 0.12953827030511009 -0.11035200403398911 0 0.12651485758455541 -0.1144810070339857 0 0.12953827030511009 -0.11035200403398911 0 0.12651485758455541 -0.1144810070339857 0 0.13463760708164399 -0.11816609908304759 0 0.12953827030511009 -0.11035200403398911 0 0.13463760708164399 -0.11816609908304759 0 0.13653823999591949 -0.1033935440095748 0 0.13653823999591949 -0.1033935440095748 0 0.1449311722822835 -0.12606042349723379 0 0.1558611224926767 -0.10534036001477851 0 0.13653823999591949 -0.1033935440095748 0 0.1449311722822835 -0.12606042349723379 0 0.1558611224926767 -0.10534036001477851 0 0.16489553698488801 -0.123348901448795 0 0.1449311722822835 -0.12606042349723379 0 0.1558611224926767 -0.10534036001477851 0 0.14759823247489809 -0.093318795453446263 0 0.16495065887152391 -0.089313427238731757 0 0.1558611224926767 -0.10534036001477851 0 0.13653823999591949 -0.1033935440095748 0 0.14759823247489809 -0.093318795453446263 0 0.12061742891270499 -0.092395668150313831 0 0.1235117276923038 -0.1026304824118203 0 0.13653823999591949 -0.1033935440095748 0 0.1235117276923038 -0.1026304824118203 0 0.12953827030511009 -0.11035200403398911 0 0.13653823999591949 -0.1033935440095748 0 0.13653823999591949 -0.1033935440095748 0 0.13335946705513449 -0.084346517904557675 0 0.14759823247489809 -0.093318795453446263 0 0.12061742891270499 -0.092395668150313831 0 0.13653823999591949 -0.1033935440095748 0 0.13335946705513449 -0.084346517904557675 0 0.13335946705513449 -0.084346517904557675 0 0.1492784759112733 -0.077979475155739345 0 0.13189311520541089 -0.062187177045071727 0 0.1146473102372747 -0.075508478249898106 0 0.13335946705513449 -0.084346517904557675 0 0.13189311520541089 -0.062187177045071727 0 0.1492784759112733 -0.077979475155739345 0 0.13189311520541089 -0.062187177045071727 0 0.15177811276718181 -0.058128161924042528 0 0.1492784759112733 -0.077979475155739345 0 0.1665667425550631 -0.070844028220930125 0 0.15177811276718181 -0.058128161924042528 0 0.1492784759112733 -0.077979475155739345 0 0.14759823247489809 -0.093318795453446263 0 0.16495065887152391 -0.089313427238731757 0 0.13335946705513449 -0.084346517904557675 0 0.1492784759112733 -0.077979475155739345 0 0.14759823247489809 -0.093318795453446263 0 0.16495065887152391 -0.089313427238731757 0 0.1665667425550631 -0.070844028220930125 0 0.18255188286880539 -0.094761285495683065 0 0.1492784759112733 -0.077979475155739345 0 0.16495065887152391 -0.089313427238731757 0 0.1665667425550631 -0.070844028220930125 0 0.1665667425550631 -0.070844028220930125 0 0.18694513105087571 -0.066935417755369875 0 0.18255188286880539 -0.094761285495683065 0 0.1665667425550631 -0.070844028220930125 0 0.18694513105087571 -0.066935417755369875 0 0.17034664851144291 -0.054523862401197172 0 0.18255188286880539 -0.094761285495683065 0 0.17710688219400481 -0.1133731463523138 0 0.1987687337279099 -0.11223076851443541 0 0.17710688219400481 -0.1133731463523138 0 0.1987687337279099 -0.11223076851443541 0 0.18345713489574411 -0.1311844162878768 0 0.17710688219400481 -0.1133731463523138 0 0.16489553698488801 -0.123348901448795 0 0.18345713489574411 -0.1311844162878768 0 0.1558611224926767 -0.10534036001477851 0 0.17710688219400481 -0.1133731463523138 0 0.16489553698488801 -0.123348901448795 0 0.1558611224926767 -0.10534036001477851 0 0.18255188286880539 -0.094761285495683065 0 0.1558611224926767 -0.10534036001477851 0 0.16495065887152391 -0.089313427238731757 0 0.18255188286880539 -0.094761285495683065 0 0.1558611224926767 -0.10534036001477851 0 0.18255188286880539 -0.094761285495683065 0 0.17710688219400481 -0.1133731463523138 0 0.1587549426863048 0.010424559420693411 0 0.13941868320877371 -0.0044837161440816689 0 0.1593946414982633 -0.009684733403574142 0 0.13941868320877371 -0.0044837161440816689 0 0.148864514981047 -0.025390386023529221 0 0.1593946414982633 -0.009684733403574142 0 0.1160009277680339 -0.019695763453492811 0 0.1206137002203433 -0.0013104439519602269 0 0.13941868320877371 -0.0044837161440816689 0 0.13941868320877371 -0.0044837161440816689 0 0.13203905152099829 -0.029706734900094948 0 0.148864514981047 -0.025390386023529221 0 0.1160009277680339 -0.019695763453492811 0 0.13941868320877371 -0.0044837161440816689 0 0.13203905152099829 -0.029706734900094948 0 0.13203905152099829 -0.029706734900094948 0 0.148864514981047 -0.025390386023529221 0 0.14101246614638099 -0.043839250645244431 0 0.148864514981047 -0.025390386023529221 0 0.14101246614638099 -0.043839250645244431 0 0.15775468151842589 -0.041293213093942127 0 0.1231974503292815 -0.04340440012675871 0 0.13203905152099829 -0.029706734900094948 0 0.14101246614638099 -0.043839250645244431 0 0.1231974503292815 -0.04340440012675871 0 0.14101246614638099 -0.043839250645244431 0 0.13189311520541089 -0.062187177045071727 0 0.14101246614638099 -0.043839250645244431 0 0.13189311520541089 -0.062187177045071727 0 0.15177811276718181 -0.058128161924042528 0 0.14101246614638099 -0.043839250645244431 0 0.15177811276718181 -0.058128161924042528 0 0.15775468151842589 -0.041293213093942127 0 0.15177811276718181 -0.058128161924042528 0 0.17034664851144291 -0.054523862401197172 0 0.15775468151842589 -0.041293213093942127 0 0.1665667425550631 -0.070844028220930125 0 0.15177811276718181 -0.058128161924042528 0 0.17034664851144291 -0.054523862401197172 0 0.18694513105087571 -0.066935417755369875 0 0.17034664851144291 -0.054523862401197172 0 0.1860395666488798 -0.049655422897888837 0 0.17034664851144291 -0.054523862401197172 0 0.1860395666488798 -0.049655422897888837 0 0.17299565652823151 -0.040286930515009499 0 0.1860395666488798 -0.049655422897888837 0 0.17299565652823151 -0.040286930515009499 0 0.1876475424548579 -0.036561019661426532 0 0.17299565652823151 -0.040286930515009499 0 0.18283405586556931 -0.025295325679231019 0 0.1876475424548579 -0.036561019661426532 0 0.17299565652823151 -0.040286930515009499 0 0.15775468151842589 -0.041293213093942127 0 0.16680773294433729 -0.025704838707747511 0 0.17034664851144291 -0.054523862401197172 0 0.17299565652823151 -0.040286930515009499 0 0.15775468151842589 -0.041293213093942127 0 0.148864514981047 -0.025390386023529221 0 0.16680773294433729 -0.025704838707747511 0 0.1593946414982633 -0.009684733403574142 0 0.148864514981047 -0.025390386023529221 0 0.15775468151842589 -0.041293213093942127 0 0.16680773294433729 -0.025704838707747511 0 0.16680773294433729 -0.025704838707747511 0 0.17926970834577641 -0.01281116751755198 0 0.1593946414982633 -0.009684733403574142 0 0.16680773294433729 -0.025704838707747511 0 0.18283405586556931 -0.025295325679231019 0 0.17926970834577641 -0.01281116751755198 0 0.18283405586556931 -0.025295325679231019 0 0.17926970834577641 -0.01281116751755198 0 0.19836131282057151 -0.01474081064256838 0 0.17299565652823151 -0.040286930515009499 0 0.16680773294433729 -0.025704838707747511 0 0.18283405586556931 -0.025295325679231019 0 0.17839613439305321 0.01122044144786965 0 0.17926970834577641 -0.01281116751755198 0 0.1593946414982633 -0.009684733403574142 0 0.21342499714513219 0.00043043798660082077 0 0.19766583477880109 0.001912667634719362 0 0.19836131282057151 -0.01474081064256838 0 0.21342499714513219 0.00043043798660082077 0 0.21356711403898659 -0.01414919568242106 0 0.22645603309500489 -0.0079266425461590843 0 0.21342499714513219 0.00043043798660082077 0 0.21356711403898659 -0.01414919568242106 0 0.19836131282057151 -0.01474081064256838 0 0.19766583477880109 0.001912667634719362 0 0.17926970834577641 -0.01281116751755198 0 0.19836131282057151 -0.01474081064256838 0 0.19766583477880109 0.001912667634719362 0 0.17926970834577641 -0.01281116751755198 0 0.19836131282057151 -0.01474081064256838 0 0.19471481634961499 -0.027241610824279349 0 0.2082711353323686 -0.02353823257950249 0 0.18283405586556931 -0.025295325679231019 0 0.19836131282057151 -0.01474081064256838 0 0.19471481634961499 -0.027241610824279349 0 0.18283405586556931 -0.025295325679231019 0 0.19471481634961499 -0.027241610824279349 0 0.1876475424548579 -0.036561019661426532 0 0.19471481634961499 -0.027241610824279349 0 0.2082711353323686 -0.02353823257950249 0 0.21388731935238989 -0.037343889453023631 0 0.21356711403898659 -0.01414919568242106 0 0.19836131282057151 -0.01474081064256838 0 0.2082711353323686 -0.02353823257950249 0 0.21356711403898659 -0.01414919568242106 0 0.2082711353323686 -0.02353823257950249 0 0.22082511410028019 -0.024215656295220048 0 0.2082711353323686 -0.02353823257950249 0 0.21388731935238989 -0.037343889453023631 0 0.22082511410028019 -0.024215656295220048 0 0.1985238367259097 -0.039373211708185467 0 0.22537808104192461 -0.048460829209348862 0 0.19471481634961499 -0.027241610824279349 0 0.21388731935238989 -0.037343889453023631 0 0.21388731935238989 -0.037343889453023631 0 0.1985238367259097 -0.039373211708185467 0 0.22537808104192461 -0.048460829209348862 0 0.19471481634961499 -0.027241610824279349 0 0.21388731935238989 -0.037343889453023631 0 0.1985238367259097 -0.039373211708185467 0 0.19471481634961499 -0.027241610824279349 0 0.1876475424548579 -0.036561019661426532 0 0.1985238367259097 -0.039373211708185467 0 0.1860395666488798 -0.049655422897888837 0 0.1876475424548579 -0.036561019661426532 0 0.1985238367259097 -0.039373211708185467 0 0.18694513105087571 -0.066935417755369875 0 0.1860395666488798 -0.049655422897888837 0 0.20383605811841249 -0.06010053374791452 0 0.1860395666488798 -0.049655422897888837 0 0.1985238367259097 -0.039373211708185467 0 0.20383605811841249 -0.06010053374791452 0 0.1985238367259097 -0.039373211708185467 0 0.21244194139462089 -0.053018215094613949 0 0.22537808104192461 -0.048460829209348862 0 0.1985238367259097 -0.039373211708185467 0 0.21244194139462089 -0.053018215094613949 0 0.20383605811841249 -0.06010053374791452 0 0.21244194139462089 -0.053018215094613949 0 0.20383605811841249 -0.06010053374791452 0 0.22202978969223661 -0.064138285713006962 0 0.22537808104192461 -0.048460829209348862 0 0.23389339992829089 -0.060937674522590052 0 0.22202978969223661 -0.064138285713006962 0 0.21244194139462089 -0.053018215094613949 0 0.22537808104192461 -0.048460829209348862 0 0.22202978969223661 -0.064138285713006962 0 0.25223232535793949 -0.05754844671051218 0 0.22537808104192461 -0.048460829209348862 0 0.25223232535793949 -0.05754844671051218 0 0.2330598223551647 -0.047446168081767881 0 0.25223232535793949 -0.05754844671051218 0 0.22537808104192461 -0.048460829209348862 0 0.2330598223551647 -0.047446168081767881 0 0.25223232535793949 -0.05754844671051218 0 0.22537808104192461 -0.048460829209348862 0 0.23389339992829089 -0.060937674522590052 0 0.25223232535793949 -0.05754844671051218 0 0.2330598223551647 -0.047446168081767881 0 0.24761980631944289 -0.047502434203812949 0 0.2330598223551647 -0.047446168081767881 0 0.24256936002964249 -0.04269730238775811 0 0.23850577351345639 -0.035531652765563262 0 0.2330598223551647 -0.047446168081767881 0 0.24761980631944289 -0.047502434203812949 0 0.24256936002964249 -0.04269730238775811 0 0.25009504246611047 -0.038360360843509973 0 0.24761980631944289 -0.047502434203812949 0 0.24256936002964249 -0.04269730238775811 0 0.25009504246611047 -0.038360360843509973 0 0.24256936002964249 -0.04269730238775811 0 0.23850577351345639 -0.035531652765563262 0 0.25009504246611047 -0.038360360843509973 0 0.23850577351345639 -0.035531652765563262 0 0.24787362215428729 -0.026530281006512179 0 0.2330598223551647 -0.047446168081767881 0 0.23850577351345639 -0.035531652765563262 0 0.2284224705399536 -0.033521923994399468 0 0.21388731935238989 -0.037343889453023631 0 0.2330598223551647 -0.047446168081767881 0 0.21388731935238989 -0.037343889453023631 0 0.2330598223551647 -0.047446168081767881 0 0.2284224705399536 -0.033521923994399468 0 0.21388731935238989 -0.037343889453023631 0 0.22537808104192461 -0.048460829209348862 0 0.2330598223551647 -0.047446168081767881 0 0.21388731935238989 -0.037343889453023631 0 0.2284224705399536 -0.033521923994399468 0 0.22082511410028019 -0.024215656295220048 0 0.22082511410028019 -0.024215656295220048 0 0.2362172520174351 -0.0211323760073324 0 0.22645603309500489 -0.0079266425461590843 0 0.2284224705399536 -0.033521923994399468 0 0.22082511410028019 -0.024215656295220048 0 0.2362172520174351 -0.0211323760073324 0 0.23850577351345639 -0.035531652765563262 0 0.24787362215428729 -0.026530281006512179 0 0.2362172520174351 -0.0211323760073324 0 0.23850577351345639 -0.035531652765563262 0 0.2284224705399536 -0.033521923994399468 0 0.2362172520174351 -0.0211323760073324 0 0.24787362215428729 -0.026530281006512179 0 0.2362172520174351 -0.0211323760073324 0 0.24947908137975239 -0.01432068232552239 0 0.2362172520174351 -0.0211323760073324 0 0.2436413306404871 -0.00076180485788342601 0 0.22645603309500489 -0.0079266425461590843 0 0.2362172520174351 -0.0211323760073324 0 0.24947908137975239 -0.01432068232552239 0 0.2436413306404871 -0.00076180485788342601 0 0.21356711403898659 -0.01414919568242106 0 0.22082511410028019 -0.024215656295220048 0 0.22645603309500489 -0.0079266425461590843 0 0.2281297420242622 0.0086620935979782147 0 0.2436413306404871 -0.00076180485788342601 0 0.22645603309500489 -0.0079266425461590843 0 0.21601667394215041 -0.1031178000691909 0 0.1987687337279099 -0.11223076851443541 0 0.20924264324493411 -0.08418221097658761 0 0.21601667394215041 -0.1031178000691909 0 0.2184691610165409 -0.1203613263329483 0 0.1987687337279099 -0.11223076851443541 0 0.2184691610165409 -0.1203613263329483 0 0.1987687337279099 -0.11223076851443541 0 0.20194707475756829 -0.13824936360815421 0 0.18255188286880539 -0.094761285495683065 0 0.1987687337279099 -0.11223076851443541 0 0.20924264324493411 -0.08418221097658761 0 0.18255188286880539 -0.094761285495683065 0 0.20924264324493411 -0.08418221097658761 0 0.18694513105087571 -0.066935417755369875 0 0.18255188286880539 -0.094761285495683065 0 0.20924264324493411 -0.08418221097658761 0 0.18694513105087571 -0.066935417755369875 0 0.20383605811841249 -0.06010053374791452 0 0.20924264324493411 -0.08418221097658761 0 0.20383605811841249 -0.06010053374791452 0 0.20924264324493411 -0.08418221097658761 0 0.22202978969223661 -0.064138285713006962 0 0.20924264324493411 -0.08418221097658761 0 0.23593340362106291 -0.073603136457492169 0 0.20924264324493411 -0.08418221097658761 0 0.23593340362106291 -0.073603136457492169 0 0.236554828794693 -0.099794201696253138 0 0.20924264324493411 -0.08418221097658761 0 0.22202978969223661 -0.064138285713006962 0 0.23593340362106291 -0.073603136457492169 0 0.23389339992829089 -0.060937674522590052 0 0.22202978969223661 -0.064138285713006962 0 0.23593340362106291 -0.073603136457492169 0 0.25223232535793949 -0.05754844671051218 0 0.23389339992829089 -0.060937674522590052 0 0.23593340362106291 -0.073603136457492169 0 0.2626241639971918 -0.063024061938397297 0 0.23593340362106291 -0.073603136457492169 0 0.25719093844559487 -0.096764792864917598 0 0.25461741204489308 -0.081782834783805977 0 0.236554828794693 -0.099794201696253138 0 0.25461741204489308 -0.081782834783805977 0 0.23593340362106291 -0.073603136457492169 0 0.236554828794693 -0.099794201696253138 0 0.21601667394215041 -0.1031178000691909 0 0.2184691610165409 -0.1203613263329483 0 0.236554828794693 -0.099794201696253138 0 0.21601667394215041 -0.1031178000691909 0 0.20924264324493411 -0.08418221097658761 0 0.236554828794693 -0.099794201696253138 0 0.2184691610165409 -0.1203613263329483 0 0.236554828794693 -0.099794201696253138 0 0.23971402826136601 -0.126718664709667 0 0.26098579452461529 -0.11288985447006671 0 0.236554828794693 -0.099794201696253138 0 0.23971402826136601 -0.126718664709667 0 0.25945131562544088 -0.13852292678989489 0 0.23971402826136601 -0.126718664709667 0 0.23980097462271571 -0.1515326796801737 0 0.23980097462271571 -0.1515326796801737 0 0.2210625487914426 -0.14405228571427561 0 0.21925062342169241 -0.16976086732663159 0 0.23971402826136601 -0.126718664709667 0 0.23980097462271571 -0.1515326796801737 0 0.2210625487914426 -0.14405228571427561 0 0.2184691610165409 -0.1203613263329483 0 0.23971402826136601 -0.126718664709667 0 0.2210625487914426 -0.14405228571427561 0 0.2184691610165409 -0.1203613263329483 0 0.2210625487914426 -0.14405228571427561 0 0.20194707475756829 -0.13824936360815421 0 0.2210625487914426 -0.14405228571427561 0 0.20194707475756829 -0.13824936360815421 0 0.20625157870920849 -0.1575693688478659 0 0.20194707475756829 -0.13824936360815421 0 0.20625157870920849 -0.1575693688478659 0 0.18124254503696069 -0.1558663009725112 0 0.20194707475756829 -0.13824936360815421 0 0.18345713489574411 -0.1311844162878768 0 0.18124254503696069 -0.1558663009725112 0 0.1987687337279099 -0.11223076851443541 0 0.20194707475756829 -0.13824936360815421 0 0.18345713489574411 -0.1311844162878768 0 0.19462731199118311 -0.1770868762503503 0 0.18300304527315781 -0.19660438365283461 0 0.19462731199118311 -0.1770868762503503 0 0.20625157870920849 -0.1575693688478659 0 0.19462731199118311 -0.1770868762503503 0 0.20625157870920849 -0.1575693688478659 0 0.18124254503696069 -0.1558663009725112 0 0.2210625487914426 -0.14405228571427561 0 0.20625157870920849 -0.1575693688478659 0 0.21925062342169241 -0.16976086732663159 0 0.19462731199118311 -0.1770868762503503 0 0.20625157870920849 -0.1575693688478659 0 0.21925062342169241 -0.16976086732663159 0 0.21925062342169241 -0.16976086732663159 0 0.22626327558363929 -0.18780638304664751 0 0.20581069122725451 -0.19514898070725889 0 0.19462731199118311 -0.1770868762503503 0 0.21925062342169241 -0.16976086732663159 0 0.20581069122725451 -0.19514898070725889 0 0.21925062342169241 -0.16976086732663159 0 0.24093798302640301 -0.1751294970398497 0 0.22626327558363929 -0.18780638304664751 0 0.23980097462271571 -0.1515326796801737 0 0.21925062342169241 -0.16976086732663159 0 0.24093798302640301 -0.1751294970398497 0 0.25804042287958878 -0.16192638771227119 0 0.23980097462271571 -0.1515326796801737 0 0.24093798302640301 -0.1751294970398497 0 0.24093798302640301 -0.1751294970398497 0 0.2429329588959783 -0.19589121002838389 0 0.22626327558363929 -0.18780638304664751 0 0.25839779079523978 -0.18373801066477721 0 0.24093798302640301 -0.1751294970398497 0 0.2429329588959783 -0.19589121002838389 0 0.24706181512966341 -0.21567978006854929 0 0.22674000233588909 -0.20693587767326641 0 0.2316530435304992 -0.22766462044802291 0 0.2429329588959783 -0.19589121002838389 0 0.24706181512966341 -0.21567978006854929 0 0.22674000233588909 -0.20693587767326641 0 0.22674000233588909 -0.20693587767326641 0 0.2316530435304992 -0.22766462044802291 0 0.20671822964830011 -0.21942429174073649 0 0.22674000233588909 -0.20693587767326641 0 0.22626327558363929 -0.18780638304664751 0 0.20581069122725451 -0.19514898070725889 0 0.2429329588959783 -0.19589121002838389 0 0.22674000233588909 -0.20693587767326641 0 0.22626327558363929 -0.18780638304664751 0 0.25084946915888318 -0.2315805032454408 0 0.241825964250381 -0.24634641939238769 0 0.2316530435304992 -0.22766462044802291 0 0.25084946915888318 -0.2315805032454408 0 0.24706181512966341 -0.21567978006854929 0 0.2316530435304992 -0.22766462044802291 0 0.241825964250381 -0.24634641939238769 0 0.21631966498123789 -0.2459248861724741 0 0.241825964250381 -0.24634641939238769 0 0.2316530435304992 -0.22766462044802291 0 0.21631966498123789 -0.2459248861724741 0 0.21631966498123789 -0.2459248861724741 0 0.20671822964830011 -0.21942429174073649 0 0.19314860593541661 -0.23337504444067089 0 0.2316530435304992 -0.22766462044802291 0 0.21631966498123789 -0.2459248861724741 0 0.20671822964830011 -0.21942429174073649 0 0.20671822964830011 -0.21942429174073649 0 0.1875234581053235 -0.2207899310704593 0 0.19314860593541661 -0.23337504444067089 0 0.1875234581053235 -0.2207899310704593 0 0.19314860593541661 -0.23337504444067089 0 0.18282013523505089 -0.22763180914021389 0 0.19114111494899261 -0.25012612814469848 0 0.21631966498123789 -0.2459248861724741 0 0.19314860593541661 -0.23337504444067089 0 0.22674000233588909 -0.20693587767326641 0 0.20671822964830011 -0.21942429174073649 0 0.20581069122725451 -0.19514898070725889 0 0.20671822964830011 -0.21942429174073649 0 0.1875234581053235 -0.2207899310704593 0 0.19252150122720851 -0.20894715818645659 0 0.20671822964830011 -0.21942429174073649 0 0.20581069122725451 -0.19514898070725889 0 0.19252150122720851 -0.20894715818645659 0 0.1875234581053235 -0.2207899310704593 0 0.19252150122720851 -0.20894715818645659 0 0.18304998135646869 -0.21303262558299629 0 0.20581069122725451 -0.19514898070725889 0 0.19252150122720851 -0.20894715818645659 0 0.18300304527315781 -0.19660438365283461 0 0.19462731199118311 -0.1770868762503503 0 0.20581069122725451 -0.19514898070725889 0 0.18300304527315781 -0.19660438365283461 0 0.18300304527315781 -0.19660438365283461 0 0.17010996914137549 -0.19406106196021081 0 0.17813998165953779 -0.1790025610616918 0 0.18300304527315781 -0.19660438365283461 0 0.17010996914137549 -0.19406106196021081 0 0.17021802445900469 -0.20196875057353339 0 0.19252150122720851 -0.20894715818645659 0 0.18300304527315781 -0.19660438365283461 0 0.18304998135646869 -0.21303262558299629 0 0.18300304527315781 -0.19660438365283461 0 0.1713787785551322 -0.21612189105531879 0 0.17021802445900469 -0.20196875057353339 0 0.18300304527315781 -0.19660438365283461 0 0.1713787785551322 -0.21612189105531879 0 0.18300304527315781 -0.19660438365283461 0 0.18304998135646869 -0.21303262558299629 0 0.1713787785551322 -0.21612189105531879 0 0.1875234581053235 -0.2207899310704593 0 0.18304998135646869 -0.21303262558299629 0 0.17705821492803581 -0.2196874372043324 0 0.18304998135646869 -0.21303262558299629 0 0.1713787785551322 -0.21612189105531879 0 0.17705821492803581 -0.2196874372043324 0 0.1713787785551322 -0.21612189105531879 0 0.17705821492803581 -0.2196874372043324 0 0.1713787785551322 -0.21612189105531879 0 0.1627311419825512 -0.20445253145361009 0 0.17021802445900469 -0.20196875057353339 0 0.1713787785551322 -0.21612189105531879 0 0.1627311419825512 -0.20445253145361009 0 0.14878884191459071 -0.20193994476582039 0 0.1713787785551322 -0.21612189105531879 0 0.14878884191459071 -0.20193994476582039 0 0.15208343437747471 -0.21292612524973389 0 0.1713787785551322 -0.21612189105531879 0 0.15474498588285659 -0.2204364850537078 0 0.15208343437747471 -0.21292612524973389 0 0.1713787785551322 -0.21612189105531879 0 0.14878884191459071 -0.20193994476582039 0 0.1627311419825512 -0.20445253145361009 0 0.15824674370286221 -0.19949790927858099 0 0.14878884191459071 -0.20193994476582039 0 0.1627311419825512 -0.20445253145361009 0 0.15824674370286221 -0.19949790927858099 0 0.16378113657145871 -0.19859510588302731 0 0.15824674370286221 -0.19949790927858099 0 0.16378113657145871 -0.19859510588302731 0 0.1575998035714998 -0.1929952761492012 0 0.16378113657145871 -0.19859510588302731 0 0.1575998035714998 -0.1929952761492012 0 0.17010996914137549 -0.19406106196021081 0 0.16378113657145871 -0.19859510588302731 0 0.17010996914137549 -0.19406106196021081 0 0.17021802445900469 -0.20196875057353339 0 0.1627311419825512 -0.20445253145361009 0 0.16378113657145871 -0.19859510588302731 0 0.17021802445900469 -0.20196875057353339 0 0.19114111494899261 -0.25012612814469848 0 0.19314860593541661 -0.23337504444067089 0 0.1757336505638733 -0.23581721459219521 0 0.19114111494899261 -0.25012612814469848 0 0.17100866168918269 -0.25736463853233887 0 0.1757336505638733 -0.23581721459219521 0 0.1757336505638733 -0.23581721459219521 0 0.18282013523505089 -0.22763180914021389 0 0.17705821492803581 -0.2196874372043324 0 0.1713787785551322 -0.21612189105531879 0 0.1757336505638733 -0.23581721459219521 0 0.17705821492803581 -0.2196874372043324 0 0.19314860593541661 -0.23337504444067089 0 0.1757336505638733 -0.23581721459219521 0 0.18282013523505089 -0.22763180914021389 0 0.1875234581053235 -0.2207899310704593 0 0.18282013523505089 -0.22763180914021389 0 0.17705821492803581 -0.2196874372043324 0 0.1713787785551322 -0.21612189105531879 0 0.15955041821119981 -0.23598207803932619 0 0.1713787785551322 -0.21612189105531879 0 0.1757336505638733 -0.23581721459219521 0 0.15955041821119981 -0.23598207803932619 0 0.1713787785551322 -0.21612189105531879 0 0.15955041821119981 -0.23598207803932619 0 0.15474498588285659 -0.2204364850537078 0 0.1477220578672673 -0.2558422650233334 0 0.17100866168918269 -0.25736463853233887 0 0.15955041821119981 -0.23598207803932619 0 0.17100866168918269 -0.25736463853233887 0 0.1757336505638733 -0.23581721459219521 0 0.15955041821119981 -0.23598207803932619 0 0.1477220578672673 -0.2558422650233334 0 0.1429079907846279 -0.23486085918450689 0 0.13262885975101629 -0.24717478695394809 0 0.1477220578672673 -0.2558422650233334 0 0.15955041821119981 -0.23598207803932619 0 0.1477220578672673 -0.2558422650233334 0 0.15955041821119981 -0.23598207803932619 0 0.1429079907846279 -0.23486085918450689 0 0.15955041821119981 -0.23598207803932619 0 0.1429079907846279 -0.23486085918450689 0 0.1501815002449205 -0.2276317796932161 0 0.1429079907846279 -0.23486085918450689 0 0.1501815002449205 -0.2276317796932161 0 0.1435226061009976 -0.21924769649532341 0 0.15955041821119981 -0.23598207803932619 0 0.1501815002449205 -0.2276317796932161 0 0.15474498588285659 -0.2204364850537078 0 0.1501815002449205 -0.2276317796932161 0 0.15474498588285659 -0.2204364850537078 0 0.1435226061009976 -0.21924769649532341 0 0.1429079907846279 -0.23486085918450689 0 0.1435226061009976 -0.21924769649532341 0 0.13181890034378221 -0.22327097458146131 0 0.13181890034378221 -0.22327097458146131 0 0.13262885975101629 -0.24717478695394809 0 0.1177901222423639 -0.24589021612078951 0 0.13181890034378221 -0.22327097458146131 0 0.13262885975101629 -0.24717478695394809 0 0.1429079907846279 -0.23486085918450689 0 0.13181890034378221 -0.22327097458146131 0 0.13262885975101629 -0.24717478695394809 0 0.1575998035714998 -0.1929952761492012 0 0.14878884191459071 -0.20193994476582039 0 0.14678152506892581 -0.18662307148979221 0 0.15824674370286221 -0.19949790927858099 0 0.1575998035714998 -0.1929952761492012 0 0.14878884191459071 -0.20193994476582039 0 0.15474498588285659 -0.2204364850537078 0 0.1435226061009976 -0.21924769649532341 0 0.15208343437747471 -0.21292612524973389 0 0.1435226061009976 -0.21924769649532341 0 0.15208343437747471 -0.21292612524973389 0 0.14198195943379671 -0.20688460887849919 0 0.14878884191459071 -0.20193994476582039 0 0.15208343437747471 -0.21292612524973389 0 0.14198195943379671 -0.20688460887849919 0 0.14878884191459071 -0.20193994476582039 0 0.14198195943379671 -0.20688460887849919 0 0.13357878150547589 -0.20178151260692981 0 0.13181890034378221 -0.22327097458146131 0 0.14198195943379671 -0.20688460887849919 0 0.13139999557242399 -0.2109081068042869 0 0.1435226061009976 -0.21924769649532341 0 0.13181890034378221 -0.22327097458146131 0 0.14198195943379671 -0.20688460887849919 0 0.13181890034378221 -0.22327097458146131 0 0.14198195943379671 -0.20688460887849919 0 0.14198195943379671 -0.20688460887849919 0 0.13139999557242399 -0.2109081068042869 0 0.13357878150547589 -0.20178151260692981 0 0.13181890034378221 -0.22327097458146131 0 0.13139999557242399 -0.2109081068042869 0 0.1192816475590663 -0.21557480127277981 0 0.13181890034378221 -0.22327097458146131 0 0.13139999557242399 -0.2109081068042869 0 0.1195242053325193 -0.2014169041097208 0 0.13139999557242399 -0.2109081068042869 0 0.13357878150547589 -0.20178151260692981 0 0.14878884191459071 -0.20193994476582039 0 0.12619890527404909 -0.18775799847632191 0 0.14878884191459071 -0.20193994476582039 0 0.12619890527404909 -0.18775799847632191 0 0.14678152506892581 -0.18662307148979221 0 0.14878884191459071 -0.20193994476582039 0 0.13357878150547589 -0.20178151260692981 0 0.12619890527404909 -0.18775799847632191 0 0.1195242053325193 -0.2014169041097208 0 0.13357878150547589 -0.20178151260692981 0 0.12619890527404909 -0.18775799847632191 0 0.1313525036608667 -0.17589177196085351 0 0.14678152506892581 -0.18662307148979221 0 0.1384975728144836 -0.163180989867731 0 0.12619890527404909 -0.18775799847632191 0 0.1313525036608667 -0.17589177196085351 0 0.14678152506892581 -0.18662307148979221 0 0.1212526670054596 -0.1751858831037508 0 0.12619890527404909 -0.18775799847632191 0 0.1313525036608667 -0.17589177196085351 0 0.1240318481414155 -0.1667109168666718 0 0.1212526670054596 -0.1751858831037508 0 0.1313525036608667 -0.17589177196085351 0 0.1575998035714998 -0.1929952761492012 0 0.14678152506892581 -0.18662307148979221 0 0.16171703685501149 -0.17139418247255181 0 0.14678152506892581 -0.18662307148979221 0 0.1384975728144836 -0.163180989867731 0 0.16171703685501149 -0.17139418247255181 0 0.14678152506892581 -0.18662307148979221 0 0.1384975728144836 -0.163180989867731 0 0.1384975728144836 -0.163180989867731 0 0.15332410456864751 -0.14872730298489281 0 0.16171703685501149 -0.17139418247255181 0 0.1240318481414155 -0.1667109168666718 0 0.1313525036608667 -0.17589177196085351 0 0.1384975728144836 -0.163180989867731 0 0.1244000642595416 -0.15367748753498561 0 0.1240318481414155 -0.1667109168666718 0 0.1384975728144836 -0.163180989867731 0 0.1384975728144836 -0.163180989867731 0 0.1302136205600414 -0.1397389082456699 0 0.1244000642595416 -0.15367748753498561 0 0.1384975728144836 -0.163180989867731 0 0.1302136205600414 -0.1397389082456699 0 0.1219296683055989 -0.1162968266236087 0 0.1302136205600414 -0.1397389082456699 0 0.13463760708164399 -0.11816609908304759 0 0.1302136205600414 -0.1397389082456699 0 0.1449311722822835 -0.12606042349723379 0 0.1257077033995595 -0.11922556947216501 0 0.13463760708164399 -0.11816609908304759 0 0.1302136205600414 -0.1397389082456699 0 0.1219296683055989 -0.1162968266236087 0 0.1257077033995595 -0.11922556947216501 0 0.1302136205600414 -0.1397389082456699 0 0.1302136205600414 -0.1397389082456699 0 0.1449311722822835 -0.12606042349723379 0 0.15332410456864751 -0.14872730298489281 0 0.1449311722822835 -0.12606042349723379 0 0.15332410456864751 -0.14872730298489281 0 0.1449311722822835 -0.12606042349723379 0 0.15332410456864751 -0.14872730298489281 0 0.16863938910292031 -0.14038316530859041 0 0.1384975728144836 -0.163180989867731 0 0.1302136205600414 -0.1397389082456699 0 0.15332410456864751 -0.14872730298489281 0 0.15332410456864751 -0.14872730298489281 0 0.16863938910292031 -0.14038316530859041 0 0.18124254503696069 -0.1558663009725112 0 0.16489553698488801 -0.123348901448795 0 0.1449311722822835 -0.12606042349723379 0 0.16863938910292031 -0.14038316530859041 0 0.16489553698488801 -0.123348901448795 0 0.16863938910292031 -0.14038316530859041 0 0.18345713489574411 -0.1311844162878768 0 0.16863938910292031 -0.14038316530859041 0 0.18345713489574411 -0.1311844162878768 0 0.18124254503696069 -0.1558663009725112 0 0.19462731199118311 -0.1770868762503503 0 0.18124254503696069 -0.1558663009725112 0 0.17813998165953779 -0.1790025610616918 0 0.18124254503696069 -0.1558663009725112 0 0.17813998165953779 -0.1790025610616918 0 0.16171703685501149 -0.17139418247255181 0 0.19462731199118311 -0.1770868762503503 0 0.18300304527315781 -0.19660438365283461 0 0.17813998165953779 -0.1790025610616918 0 0.17010996914137549 -0.19406106196021081 0 0.16171703685501149 -0.17139418247255181 0 0.1575998035714998 -0.1929952761492012 0 0.17010996914137549 -0.19406106196021081 0 0.16171703685501149 -0.17139418247255181 0 0.17010996914137549 -0.19406106196021081 0 0.17813998165953779 -0.1790025610616918 0 0.16171703685501149 -0.17139418247255181 0 0.15332410456864751 -0.14872730298489281 0 0.16171703685501149 -0.17139418247255181 0 0.15332410456864751 -0.14872730298489281 0 0.18124254503696069 -0.1558663009725112 0 0.16171703685501149 -0.17139418247255181 0 
</DataArray>
</Points>
<Cells>
<DataArray type="UInt32" Name="connectivity" format="ascii">
0 1 2 3 4 5 6 7 8 9 10 11 12 13 14 15 16 17 18 19 20 21 22 23 24 25 26 27 28 29 30 31 32 33 34 35 36 37 38 39 40 41 42 43 44 45 46 47 48 49 50 51 52 53 54 55 56 57 58 59 60 61 62 63 64 65 66 67 68 69 70 71 72 73 74 75 76 77 78 79 80 81 82 83 84 85 86 87 88 89 90 91 92 93 94 95 96 97 98 99 100 101 102 103 104 105 106 107 108 109 110 111 112 113 114 115 116 117 118 119 120 121 122 123 124 125 126 127 128 129 130 131 132 133 134 135 136 137 138 139 140 141 142 143 144 145 146 147 148 149 150 151 152 153 154 155 156 157 158 159 160 161 162 163 164 165 166 167 168 169 170 171 172 173 174 175 176 177 178 179 180 181 182 183 184 185 186 187 188 189 190 191 192 193 194 195 196 197 198 199 200 201 202 203 204 205 206 207 208 209 210 211 212 213 214 215 216 217 218 219 220 221 222 223 224 225 226 227 228 229 230 231 232 233 234 235 236 237 238 239 240 241 242 243 244 245 246 247 248 249 250 251 252 253 254 255 256 257 258 259 260 261 262 263 264 265 266 267 268 269 270 271 272 273 274 275 276 277 278 279 280 281 282 283 284 285 286 287 288 289 290 291 292 293 294 295 296 297 298 299 300 301 302 303 304 305 306 307 308 309 310 311 312 313 314 315 316 317 318 319 320 321 322 323 324 325 326 327 328 329 330 331 332 333 334 335 336 337 338 339 340 341 342 343 344 345 346 347 348 349 350 351 352 353 354 355 356 357 358 359 360 361 362 363 364 365 366 367 368 369 370 371 372 373 374 375 376 377 378 379 380 381 382 383 384 385 386 387 388 389 390 391 392 393 394 395 396 397 398 399 400 401 402 403 404 405 406 407 408 409 410 411 412 413 414 415 416 417 418 419 420 421 422 423 424 425 426 427 428 429 430 431 432 433 434 435 436 437 438 439 440 441 442 443 444 445 446 447 448 449 450 451 452 453 454 455 456 457 458 459 460 461 462 463 464 465 466 467 468 469 470 471 472 473 474 475 476 477 478 479 480 481 482 483 484 485 486 487 488 489 490 491 492 493 494 495 496 497 498 499 500 501 502 503 504 505 506 507 508 509 510 511 512 513 514 515 516 517 518 519 520 521 522 523 524 525 526 527 528 529 530 531 532 533 534 535 536 537 538 539 540 541 542 543 544 545 546 547 548 549 550 551 552 553 554 555 556 557 558 559 560 561 562 563 564 565 566 567 568 569 570 571 572 573 574 575 576 577 578 579 580 581 582 583 584 585 586 587 588 589 590 591 592 593 594 595 596 597 598 599 600 601 602 603 604 605 606 607 608 609 610 611 612 613 614 615 616 617 618 619 620 621 622 623 624 625 626 627 628 629 630 631 632 633 634 635 636 637 638 639 640 641 642 643 644 645 646 647 648 649 650 651 652 653 654 655 656 657 658 659 660 661 662 663 664 665 666 667 668 669 670 671 672 673 674 675 676 677 678 679 680 681 682 683 684 685 686 687 688 689 690 691 692 693 694 695 696 697 698 699 700 701 702 703 704 705 706 707 708 709 710 711 712 713 714 715 716 717 718 719 720 721 722 723 724 725 726 727 728 729 730 731 732 733 734 735 736 737 738 739 740 741 742 743 744 745 746 747 748 749 750 751 752 753 754 755 756 757 758 759 760 761 762 763 764 765 766 767 768 769 770 771 772 773 774 775 776 777 778 779 780 781 782 783 784 785 786 787 788 789 790 791 792 793 794 795 796 797 798 799 800 801 802 803 804 805 806 807 808 809 810 811 812 813 814 815 816 817 818 819 820 821 822 823 824 825 826 827 828 829 830 831 832 833 834 835 836 837 838 839 840 841 842 843 844 845 846 847 848 849 850 851 852 853 854 855 856 857 858 859 860 861 862 863 864 865 866 867 868 869 870 871 872 873 874 875 876 877 878 879 880 881 882 883 884 885 886 887 888 889 890 891 892 893 894 895 896 897 898 899 900 901 902 903 904 905 906 907 908 909 910 911 912 913 914 915 916 917 918 919 920 921 922 923 924 925 926 927 928 929 930 931 932 933 934 935 936 937 938 939 940 941 942 943 944 945 946 947 948 949 950 951 952 953 954 955 956 957 958 959 960 961 962 963 964 965 966 967 968 969 970 971 972 973 974 975 976 977 978 979 980 981 982 983 984 985 986 987 988 989 990 991 992 993 994 995 996 997 998 999 1000 1001 1002 1003 1004 1005 1006 1007 1008 1009 1010 1011 1012 1013 1014 1015 1016 1017 1018 1019 1020 1021 1022 1023 1024 1025 1026 1027 1028 1029 1030 1031 1032 1033 1034 1035 1036 1037 1038 1039 1040 1041 1042 1043 1044 1045 1046 1047 1048 1049 1050 1051 1052 1053 1054 1055 1056 1057 1058 1059 1060 1061 1062 1063 1064 1065 1066 1067 1068 1069 1070 1071 1072 1073 1074 1075 1076 1077 1078 1079 1080 1081 1082 1083 1084 1085 1086 1087 1088 1089 1090 1091 1092 1093 1094 1095 1096 1097 1098 1099 1100 1101 1102 1103 1104 1105 1106 1107 1108 1109 1110 1111 1112 1113 1114 1115 1116 1117 1118 1119 1120 1121 1122 1123 1124 1125 1126 1127 1128 1129 1130 1131 1132 1133 1134 1135 1136 1137 1138 1139 1140 1141 1142 1143 1144 1145 1146 1147 1148 1149 1150 1151 1152 1153 1154 1155 1156 1157 1158 1159 1160 1161 1162 1163 1164 1165 1166 1167 1168 1169 1170 1171 1172 1173 1174 1175 1176 1177 1178 1179 1180 1181 1182 1183 1184 1185 1186 1187 1188 1189 1190 1191 1192 1193 1194 1195 1196 1197 1198 1199 1200 1201 1202 1203 1204 1205 1206 1207 1208 1209 1210 1211 1212 1213 1214 1215 1216 1217 1218 1219 1220 1221 1222 1223 1224 1225 1226 1227 1228 1229 1230 1231 1232 1233 1234 1235 1236 1237 1238 1239 1240 1241 1242 1243 1244 1245 1246 1247 1248 1249 1250 1251 1252 1253 1254 1255 1256 1257 1258 1259 1260 1261 1262 1263 1264 1265 1266 1267 1268 1269 1270 1271 1272 1273 1274 1275 1276 1277 1278 1279 1280 1281 1282 1283 1284 1285 1286 1287 1288 1289 1290 1291 1292 1293 1294 1295 1296 1297 1298 1299 1300 1301 1302 1303 1304 1305 1306 1307 1308 1309 1310 1311 1312 1313 1314 1315 1316 1317 1318 1319 1320 1321 1322 1323 1324 1325 1326 1327 1328 1329 1330 1331 1332 1333 1334 1335 1336 1337 1338 1339 1340 1341 1342 1343 1344 1345 1346 1347 1348 1349 1350 1351 1352 1353 1354 1355 1356 1357 1358 1359 1360 1361 1362 1363 1364 1365 1366 1367 1368 1369 1370 1371 1372 1373 1374 1375 1376 1377 1378 1379 1380 1381 1382 1383 1384 1385 1386 1387 1388 1389 1390 1391 1392 1393 1394 1395 1396 1397 1398 1399 1400 1401 1402 1403 1404 1405 1406 1407 1408 1409 1410 1411 1412 1413 1414 1415 1416 1417 1418 1419 1420 1421 1422 1423 1424 1425 1426 1427 1428 1429 1430 1431 1432 1433 1434 1435 1436 1437 1438 1439 1440 1441 1442 1443 1444 1445 1446 1447 1448 1449 1450 1451 1452 1453 1454 1455 1456 1457 1458 1459 1460 1461 1462 1463 1464 1465 1466 1467 1468 1469 1470 1471 1472 1473 1474 1475 1476 1477 1478 1479 1480 1481 1482 1483 1484 1485 1486 1487 1488 1489 1490 1491 1492 1493 1494 1495 1496 1497 1498 1499 1500 1501 1502 1503 1504 1505 1506 1507 1508 1509 1510 1511 1512 1513 1514 1515 1516 1517 1518 1519 1520 1521 1522 1523 1524 1525 1526 1527 1528 1529 1530 1531 1532 1533 1534 1535 1536 1537 1538 1539 1540 1541 1542 1543 1544 1545 1546 1547 1548 1549 1550 1551 1552 1553 1554 1555 1556 1557 1558 1559 1560 1561 1562 1563 1564 1565 1566 1567 1568 1569 1570 1571 1572 1573 1574 1575 1576 1577 1578 1579 1580 1581 1582 1583 1584 1585 1586 1587 1588 1589 1590 1591 1592 1593 1594 1595 1596 1597 1598 1599 1600 1601 1602 1603 1604 1605 1606 1607 1608 1609 1610 1611 1612 1613 1614 1615 1616 1617 1618 1619 1620 1621 1622 1623 1624 1625 1626 1627 1628 1629 1630 1631 1632 1633 1634 1635 1636 1637 1638 1639 1640 1641 1642 1643 1644 1645 1646 1647 1648 1649 1650 1651 1652 1653 1654 1655 1656 1657 1658 1659 1660 1661 1662 1663 1664 1665 1666 1667 1668 1669 1670 1671 1672 1673 1674 1675 1676 1677 1678 1679 1680 1681 1682 1683 1684 1685 1686 1687 1688 1689 1690 1691 1692 1693 1694 1695 1696 1697 1698 1699 1700 1701 1702 1703 1704 1705 1706 1707 1708 1709 1710 1711 1712 1713 1714 1715 1716 1717 1718 1719 1720 1721 1722 1723 1724 1725 1726 1727 1728 1729 1730 1731 1732 1733 1734 1735 1736 1737 1738 1739 1740 1741 1742 1743 1744 1745 1746 1747 1748 1749 1750 1751 1752 1753 1754 1755 1756 1757 1758 1759 1760 1761 1762 1763 1764 1765 1766 1767 1768 1769 1770 1771 1772 1773 1774 1775 1776 1777 1778 1779 1780 1781 1782 1783 1784 1785 1786 1787 1788 1789 1790 1791 1792 1793 1794 1795 1796 1797 1798 1799 1800 1801 1802 1803 1804 1805 1806 1807 1808 1809 1810 1811 1812 1813 1814 1815 1816 1817 1818 1819 1820 1821 1822 1823 1824 1825 1826 1827 1828 1829 1830 1831 1832 1833 1834 1835 1836 1837 1838 1839 1840 1841 1842 1843 1844 1845 1846 1847 1848 1849 1850 1851 1852 1853 1854 1855 1856 1857 1858 1859 1860 1861 1862 1863 1864 1865 1866 1867 1868 1869 1870 1871 1872 1873 1874 1875 1876 1877 1878 1879 1880 1881 1882 1883 1884 1885 1886 1887 1888 1889 1890 1891 1892 1893 1894 1895 1896 1897 1898 1899 1900 1901 1902 1903 1904 1905 1906 1907 1908 1909 1910 1911 1912 1913 1914 1915 1916 1917 1918 1919 1920 1921 1922 1923 1924 1925 1926 1927 1928 1929 1930 1931 1932 1933 1934 1935 1936 1937 1938 1939 1940 1941 1942 1943 1944 1945 1946 1947 1948 1949 1950 1951 1952 1953 1954 1955 1956 1957 1958 1959 1960 1961 1962 1963 1964 1965 1966 1967 1968 1969 1970 1971 1972 1973 1974 1975 1976 1977 1978 1979 1980 1981 1982 1983 1984 1985 1986 1987 1988 1989 1990 1991 1992 1993 1994 1995 1996 1997 1998 1999 2000 2001 2002 2003 2004 2005 2006 2007 2008 2009 2010 2011 2012 2013 2014 2015 2016 2017 2018 2019 2020 2021 2022 2023 2024 2025 2026 2027 2028 2029 2030 2031 2032 2033 2034 2035 2036 2037 2038 2039 2040 2041 2042 2043 2044 2045 2046 2047 2048 2049 2050 2051 2052 2053 2054 2055 2056 2057 2058 2059 2060 2061 2062 2063 2064 2065 2066 2067 2068 2069 2070 2071 2072 2073 2074 2075 2076 2077 2078 2079 2080 2081 2082 2083 2084 2085 2086 2087 2088 2089 2090 2091 2092 2093 2094 2095 2096 2097 2098 2099 2100 2101 2102 2103 2104 2105 2106 2107 2108 2109 2110 2111 2112 2113 2114 2115 2116 2117 2118 2119 2120 2121 2122 2123 2124 2125 2126 2127 2128 2129 2130 2131 2132 2133 2134 2135 2136 2137 2138 2139 2140 2141 2142 2143 2144 2145 2146 2147 2148 2149 2150 2151 2152 2153 2154 2155 2156 2157 2158 2159 2160 2161 2162 2163 2164 2165 2166 2167 2168 2169 2170 2171 2172 2173 2174 2175 2176 2177 2178 2179 2180 2181 2182 2183 2184 2185 2186 2187 2188 2189 2190 2191 2192 2193 2194 2195 2196 2197 2198 2199 2200 2201 2202 2203 2204 2205 2206 2207 2208 2209 2210 2211 2212 2213 2214 2215 2216 2217 2218 2219 2220 2221 2222 2223 2224 2225 2226 2227 2228 2229 2230 2231 2232 2233 2234 2235 2236 2237 2238 2239 2240 2241 2242 2243 2244 2245 2246 2247 2248 2249 2250 2251 2252 2253 2254 2255 2256 2257 2258 2259 2260 2261 2262 2263 2264 2265 2266 2267 2268 2269 2270 2271 2272 2273 2274 2275 2276 2277 2278 2279 2280 2281 2282 2283 2284 2285 2286 2287 2288 2289 2290 2291 2292 2293 2294 2295 2296 2297 2298 2299 2300 2301 2302 2303 2304 2305 2306 2307 2308 2309 2310 2311 2312 2313 2314 2315 2316 2317 2318 2319 2320 2321 2322 2323 2324 2325 2326 2327 2328 2329 2330 2331 2332 2333 2334 2335 2336 2337 2338 2339 2340 2341 2342 2343 2344 2345 2346 2347 2348 2349 2350 2351 2352 2353 2354 2355 2356 2357 2358 2359 2360 2361 2362 2363 2364 2365 2366 2367 2368 2369 2370 2371 2372 2373 2374 2375 2376 2377 2378 2379 2380 2381 2382 2383 2384 2385 2386 2387 2388 2389 2390 2391 2392 2393 2394 2395 2396 2397 2398 2399 2400 2401 2402 2403 2404 2405 2406 2407 2408 2409 2410 2411 2412 2413 2414 2415 2416 2417 2418 2419 2420 2421 2422 2423 2424 2425 2426 2427 2428 2429 2430 2431 2432 2433 2434 2435 2436 2437 2438 2439 2440 2441 2442 2443 2444 2445 2446 2447 2448 2449 2450 2451 2452 2453 2454 2455 2456 2457 2458 2459 2460 2461 2462 2463 2464 2465 2466 2467 2468 2469 2470 2471 2472 2473 2474 2475 2476 2477 2478 2479 2480 2481 2482 2483 2484 2485 2486 2487 2488 2489 2490 2491 2492 2493 2494 2495 2496 2497 2498 2499 2500 2501 2502 2503 2504 2505 2506 2507 2508 2509 2510 2511 2512 2513 2514 2515 2516 2517 2518 2519 2520 2521 2522 2523 2524 2525 2526 2527 2528 2529 2530 2531 2532 2533 2534 2535 2536 2537 2538 2539 2540 2541 2542 2543 2544 2545 2546 2547 2548 2549 2550 2551 2552 2553 2554 2555 2556 2557 2558 2559 2560 2561 2562 2563 2564 2565 2566 2567 2568 2569 2570 2571 2572 2573 2574 2575 2576 2577 2578 2579 2580 2581 2582 2583 2584 2585 2586 2587 2588 2589 2590 2591 2592 2593 2594 2595 2596 2597 2598 2599 2600 2601 2602 2603 2604 2605 2606 2607 2608 2609 2610 2611 2612 2613 2614 2615 2616 2617 2618 2619 2620 2621 2622 2623 2624 2625 2626 2627 2628 2629 2630 2631 2632 2633 2634 2635 2636 2637 2638 2639 2640 2641 2642 2643 2644 2645 2646 2647 2648 2649 2650 2651 2652 2653 2654 2655 2656 2657 2658 2659 2660 2661 2662 2663 2664 2665 2666 2667 2668 2669 2670 2671 2672 2673 2674 2675 2676 2677 2678 2679 2680 2681 2682 2683 2684 2685 2686 2687 2688 2689 2690 2691 2692 2693 2694 2695 2696 2697 2698 2699 2700 2701 2702 2703 2704 2705 2706 2707 2708 2709 2710 2711 2712 2713 2714 2715 2716 2717 2718 2719 2720 2721 2722 2723 2724 2725 2726 2727 2728 2729 2730 2731 2732 2733 2734 2735 2736 2737 2738 2739 2740 2741 2742 2743 2744 2745 2746 2747 2748 2749 2750 2751 2752 2753 2754 2755 2756 2757 2758 2759 2760 2761 2762 2763 2764 2765 2766 2767 2768 2769 2770 2771 2772 2773 2774 2775 2776 2777 2778 2779 2780 2781 2782 2783 2784 2785 2786 2787 2788 2789 2790 2791 2792 2793 2794 2795 2796 2797 2798 2799 2800 2801 2802 2803 2804 2805 2806 2807 2808 2809 2810 2811 2812 2813 2814 2815 2816 2817 2818 2819 2820 2821 2822 2823 2824 2825 2826 2827 2828 2829 2830 2831 2832 2833 2834 2835 2836 2837 2838 2839 2840 2841 2842 2843 2844 2845 2846 2847 2848 2849 2850 2851 2852 2853 2854 2855 2856 2857 2858 2859 2860 2861 2862 2863 2864 2865 2866 2867 2868 2869 2870 2871 2872 2873 2874 2875 2876 2877 2878 2879 2880 2881 2882 2883 2884 2885 2886 2887 2888 2889 2890 2891 2892 2893 2894 2895 2896 2897 2898 2899 2900 2901 2902 2903 2904 2905 2906 2907 2908 2909 2910 2911 2912 2913 2914 2915 2916 2917 2918 2919 2920 2921 2922 2923 2924 2925 2926 2927 2928 2929 2930 2931 2932 2933 2934 2935 2936 2937 2938 2939 2940 2941 2942 2943 2944 2945 2946 2947 2948 2949 2950 2951 2952 2953 2954 2955 2956 2957 2958 2959 2960 2961 2962 2963 2964 2965 2966 2967 2968 2969 2970 2971 2972 2973 2974 2975 2976 2977 2978 2979 2980 2981 2982 2983 2984 2985 2986 2987 2988 2989 2990 2991 2992 2993 2994 2995 2996 2997 2998 2999 3000 3001 3002 3003 3004 3005 3006 3007 3008 3009 3010 3011 3012 3013 3014 3015 3016 3017 3018 3019 3020 3021 3022 3023 3024 3025 3026 3027 3028 3029 3030 3031 3032 3033 3034 3035 3036 3037 3038 3039 3040 3041 3042 3043 3044 3045 3046 3047 3048 3049 3050 3051 3052 3053 3054 3055 3056 3057 3058 3059 3060 3061 3062 3063 3064 3065 3066 3067 3068 3069 3070 3071 3072 3073 3074 3075 3076 3077 3078 3079 3080 3081 3082 3083 3084 3085 3086 3087 3088 3089 3090 3091 3092 3093 3094 3095 3096 3097 3098 3099 3100 3101 3102 3103 3104 3105 3106 3107 3108 3109 3110 3111 3112 3113 3114 3115 3116 3117 3118 3119 3120 3121 3122 3123 3124 3125 3126 3127 3128 3129 3130 3131 3132 3133 3134 3135 3136 3137 3138 3139 3140 3141 3142 3143 3144 3145 3146 3147 3148 3149 3150 3151 3152 3153 3154 3155 3156 3157 3158 3159 3160 3161 3162 3163 3164 3165 3166 3167 3168 3169 3170 3171 3172 3173 3174 3175 3176 3177 3178 3179 3180 3181 3182 3183 3184 3185 3186 3187 3188 3189 3190 3191 3192 3193 3194 3195 3196 3197 3198 3199 3200 3201 3202 3203 3204 3205 3206 3207 3208 3209 3210 3211 3212 3213 3214 3215 3216 3217 3218 3219 3220 3221 3222 3223 3224 3225 3226 3227 3228 3229 3230 3231 3232 3233 3234 3235 3236 3237 3238 3239 3240 3241 3242 3243 3244 3245 3246 3247 3248 3249 3250 3251 3252 3253 3254 3255 3256 3257 3258 3259 3260 3261 3262 3263 3264 3265 3266 3267 3268 3269 3270 3271 3272 3273 3274 3275 3276 3277 3278 3279 3280 3281 3282 3283 3284 3285 3286 3287 3288 3289 3290 3291 3292 3293 3294 3295 3296 3297 3298 3299 3300 3301 3302 3303 3304 3305 3306 3307 3308 3309 3310 3311 3312 3313 3314 3315 3316 3317 3318 3319 3320 3321 3322 3323 3324 3325 3326 3327 3328 3329 3330 3331 3332 3333 3334 3335 3336 3337 3338 3339 3340 3341 3342 3343 3344 3345 3346 3347 3348 3349 3350 3351 3352 3353 3354 3355 3356 3357 3358 3359 3360 3361 3362 3363 3364 3365 3366 3367 3368 3369 3370 3371 3372 3373 3374 3375 3376 3377 3378 3379 3380 3381 3382 3383 3384 3385 3386 3387 3388 3389 3390 3391 3392 3393 3394 3395 3396 3397 3398 3399 3400 3401 3402 3403 3404 3405 3406 3407 3408 3409 3410 3411 3412 3413 3414 3415 3416 3417 3418 3419 3420 3421 3422 3423 3424 3425 3426 3427 3428 3429 3430 3431 3432 3433 3434 3435 3436 3437 3438 3439 3440 3441 3442 3443 3444 3445 3446 3447 3448 3449 3450 3451 3452 3453 3454 3455 3456 3457 3458 3459 3460 3461 3462 3463 3464 3465 3466 3467 3468 3469 3470 3471 3472 3473 3474 3475 3476 3477 3478 3479 3480 3481 3482 3483 3484 3485 3486 3487 3488 3489 3490 3491 3492 3493 3494 3495 3496 3497 3498 3499 3500 3501 3502 3503 3504 3505 3506 3507 3508 3509 3510 3511 3512 3513 3514 3515 3516 3517 3518 3519 3520 3521 3522 3523 3524 3525 3526 3527 3528 3529 3530 3531 3532 3533 3534 3535 3536 3537 3538 3539 3540 3541 3542 3543 3544 3545 3546 3547 3548 3549 3550 3551 3552 3553 3554 3555 3556 3557 3558 3559 3560 3561 3562 3563 3564 3565 3566 3567 3568 3569 3570 3571 3572 3573 3574 3575 3576 3577 3578 3579 3580 3581 3582 3583 3584 3585 3586 3587 3588 3589 3590 3591 3592 3593 3594 3595 3596 3597 3598 3599 3600 3601 3602 3603 3604 3605 3606 3607 3608 3609 3610 3611 3612 3613 3614 3615 3616 3617 3618 3619 3620 3621 3622 3623 3624 3625 3626 3627 3628 3629 3630 3631 3632 3633 3634 3635 3636 3637 3638 3639 3640 3641 3642 3643 3644 3645 3646 3647 3648 3649 3650 3651 3652 3653 3654 3655 3656 3657 3658 3659 3660 3661 3662 3663 3664 3665 3666 3667 3668 3669 3670 3671 3672 3673 3674 3675 3676 3677 3678 3679 3680 3681 3682 3683 3684 3685 3686 3687 3688 3689 3690 3691 3692 3693 3694 3695 3696 3697 3698 3699 3700 3701 3702 3703 3704 3705 3706 3707 3708 3709 3710 3711 3712 3713 3714 3715 3716 3717 3718 3719 3720 3721 3722 3723 3724 3725 3726 3727 3728 3729 3730 3731 3732 3733 3734 3735 3736 3737 3738 3739 3740 3741 3742 3743 3744 3745 3746 3747 3748 3749 3750 3751 3752 3753 3754 3755 3756 3757 3758 3759 3760 3761 3762 3763 3764 3765 3766 3767 3768 3769 3770 3771 3772 3773 3774 3775 3776 3777 3778 3779 3780 3781 3782 3783 3784 3785 3786 3787 3788 3789 3790 3791 3792 3793 3794 3795 3796 3797 3798 3799 3800 3801 3802 3803 3804 3805 3806 3807 3808 3809 3810 3811 3812 3813 3814 3815 3816 3817 3818 3819 3820 3821 3822 3823 3824 3825 3826 3827 3828 3829 3830 3831 3832 3833 3834 3835 3836 3837 3838 3839 3840 3841 3842 3843 3844 3845 3846 3847 3848 3849 3850 3851 3852 3853 3854 3855 3856 3857 3858 3859 3860 3861 3862 3863 3864 3865 3866 3867 3868 3869 3870 3871 3872 3873 3874 3875 3876 3877 3878 3879 3880 3881 3882 3883 3884 3885 3886 3887 3888 3889 3890 3891 3892 3893 3894 3895 3896 3897 3898 3899 3900 3901 3902 3903 3904 3905 3906 3907 3908 3909 3910 3911 3912 3913 3914 3915 3916 3917 3918 3919 3920 3921 3922 3923 3924 3925 3926 3927 3928 3929 3930 3931 3932 3933 3934 3935 3936 3937 3938 3939 3940 3941 3942 3943 3944 3945 3946 3947 3948 3949 3950 3951 3952 3953 3954 3955 3956 3957 3958 3959 3960 3961 3962 3963 3964 3965 3966 3967 3968 3969 3970 3971 3972 3973 3974 3975 3976 3977 3978 3979 3980 3981 3982 3983 3984 3985 3986 3987 3988 3989 3990 3991 3992 3993 3994 3995 3996 3997 3998 3999 4000 4001 4002 4003 4004 4005 4006 4007 4008 4009 4010 4011 4012 4013 4014 4015 4016 4017 4018 4019 4020 4021 4022 4023 4024 4025 4026 4027 4028 4029 4030 4031 4032 4033 4034 4035 4036 4037 4038 4039 4040 4041 4042 4043 4044 4045 4046 4047 4048 4049 4050 4051 4052 4053 4054 4055 4056 4057 4058 4059 4060 4061 4062 4063 4064 4065 4066 4067 4068 4069 4070 4071 4072 4073 4074 4075 4076 4077 4078 4079 4080 4081 4082 4083 4084 4085 4086 4087 4088 4089 4090 4091 4092 4093 4094 4095 4096 4097 4098 4099 4100 4101 4102 4103 4104 4105 4106 4107 4108 4109 4110 4111 4112 4113 4114 4115 4116 4117 4118 4119 4120 4121 4122 4123 4124 4125 4126 4127 4128 4129 4130 4131 4132 4133 4134 4135 4136 4137 4138 4139 4140 4141 4142 4143 4144 4145 4146 4147 4148 4149 4150 4151 4152 4153 4154 4155 4156 4157 4158 4159 4160 4161 4162 4163 4164 4165 4166 4167 4168 4169 4170 4171 4172 4173 4174 4175 4176 4177 4178 4179 4180 4181 4182 4183 4184 4185 4186 4187 4188 4189 4190 4191 4192 4193 4194 4195 4196 4197 4198 4199 4200 4201 4202 4203 4204 4205 4206 4207 4208 4209 4210 4211 4212 4213 4214 4215 4216 4217 4218 4219 4220 4221 4222 4223 4224 4225 4226 4227 4228 4229 4230 4231 4232 4233 4234 4235 4236 4237 4238 4239 4240 4241 4242 4243 4244 4245 4246 4247 4248 4249 4250 4251 4252 4253 4254 4255 4256 4257 4258 4259 4260 4261 4262 4263 4264 4265 4266 4267 4268 4269 4270 4271 4272 4273 4274 4275 4276 4277 4278 4279 4280 4281 4282 4283 4284 4285 4286 4287 4288 4289 4290 4291 4292 4293 4294 4295 4296 4297 4298 4299 4300 4301 4302 4303 4304 4305 4306 4307 4308 4309 4310 4311 4312 4313 4314 4315 4316 4317 4318 4319 4320 4321 4322 4323 4324 4325 4326 4327 4328 4329 4330 4331 4332 4333 4334 4335 4336 4337 4338 4339 4340 4341 4342 4343 4344 4345 4346 4347 4348 4349 4350 4351 4352 4353 4354 4355 4356 4357 4358 4359 4360 4361 4362 4363 4364 4365 4366 4367 4368 4369 4370 4371 4372 4373 4374 4375 4376 4377 4378 4379 4380 4381 4382 4383 4384 4385 4386 4387 4388 4389 4390 4391 4392 4393 4394 4395 4396 4397 4398 4399 4400 4401 4402 4403 4404 4405 4406 4407 4408 4409 4410 4411 4412 4413 4414 4415 4416 4417 4418 4419 4420 4421 4422 4423 4424 4425 4426 4427 4428 4429 4430 4431 4432 4433 4434 4435 4436 4437 4438 4439 4440 4441 4442 4443 4444 4445 4446 4447 4448 4449 4450 4451 4452 4453 4454 4455 4456 4457 4458 4459 4460 4461 4462 4463 4464 4465 4466 4467 4468 4469 4470 4471 4472 4473 4474 4475 4476 4477 4478 4479 4480 4481 4482 4483 4484 4485 4486 4487 4488 4489 4490 4491 4492 4493 4494 4495 4496 4497 4498 4499 4500 4501 4502 4503 4504 4505 4506 4507 4508 4509 4510 4511 4512 4513 4514 4515 4516 4517 4518 4519 4520 4521 4522 4523 4524 4525 4526 4527 4528 4529 4530 4531 4532 4533 4534 4535 4536 4537 4538 4539 4540 4541 4542 4543 4544 4545 4546 4547 4548 4549 4550 4551 4552 4553 4554 4555 4556 4557 4558 4559 4560 4561 4562 4563 4564 4565 4566 4567 4568 4569 4570 4571 4572 4573 4574 4575 4576 4577 4578 4579 4580 4581 4582 4583 4584 4585 4586 4587 4588 4589 4590 4591 4592 4593 4594 4595 4596 4597 4598 4599 4600 4601 4602 4603 4604 4605 4606 4607 4608 4609 4610 4611 4612 4613 4614 4615 4616 4617 4618 4619 4620 4621 4622 4623 4624 4625 4626 4627 4628 4629 4630 4631 4632 4633 4634 4635 4636 4637 4638 4639 4640 4641 4642 4643 4644 4645 4646 4647 4648 4649 4650 4651 4652 4653 4654 4655 4656 4657 4658 4659 4660 4661 4662 4663 4664 4665 4666 4667 4668 4669 4670 4671 4672 4673 4674 4675 4676 4677 4678 4679 4680 4681 4682 4683 4684 4685 4686 4687 4688 4689 4690 4691 4692 4693 4694 4695 4696 4697 4698 4699 4700 4701 4702 4703 4704 4705 4706 4707 4708 4709 4710 4711 4712 4713 4714 4715 4716 4717 4718 4719 4720 4721 4722 4723 4724 4725 4726 4727 4728 4729 4730 4731 4732 4733 4734 4735 4736 4737 4738 4739 4740 4741 4742 4743 4744 4745 4746 4747 4748 4749 4750 4751 4752 4753 4754 4755 4756 4757 4758 4759 4760 4761 4762 4763 4764 4765 4766 4767 4768 4769 4770 4771 4772 4773 4774 4775 4776 4777 4778 4779 4780 4781 4782 4783 4784 4785 4786 4787 4788 4789 4790 4791 4792 4793 4794 4795 4796 4797 4798 4799 4800 4801 4802 4803 4804 4805 4806 4807 4808 4809 4810 4811 4812 4813 4814 4815 4816 4817 4818 4819 4820 4821 4822 4823 4824 4825 4826 4827 4828 4829 4830 4831 4832 4833 4834 4835 4836 4837 4838 4839 4840 4841 4842 4843 4844 4845 4846 4847 4848 4849 4850 4851 4852 4853 4854 4855 4856 4857 4858 4859 4860 4861 4862 4863 4864 4865 4866 4867 4868 4869 4870 4871 4872 4873 4874 4875 4876 4877 4878 4879 4880 4881 4882 4883 4884 4885 4886 4887 4888 4889 4890 4891 4892 4893 4894 4895 4896 4897 4898 4899 4900 4901 4902 4903 4904 4905 4906 4907 4908 4909 4910 4911 4912 4913 4914 4915 4916 4917 4918 4919 4920 4921 4922 4923 4924 4925 4926 4927 4928 4929 4930 4931 4932 4933 4934 4935 4936 4937 4938 4939 4940 4941 4942 4943 4944 4945 4946 4947 4948 4949 4950 4951 4952 4953 4954 4955 4956 4957 4958 4959 4960 4961 4962 4963 4964 4965 4966 4967 4968 4969 4970 4971 4972 4973 4974 4975 4976 4977 4978 4979 4980 4981 4982 4983 4984 4985 4986 4987 4988 4989 4990 4991 4992 4993 4994 4995 4996 4997 4998 4999 5000 5001 5002 5003 5004 5005 5006 5007 5008 5009 5010 5011 5012 5013 5014 5015 5016 5017 5018 5019 5020 5021 5022 5023 5024 5025 5026 5027 5028 5029 5030 5031 5032 5033 5034 5035 5036 5037 5038 5039 5040 5041 5042 5043 5044 5045 5046 5047 5048 5049 5050 5051 5052 5053 5054 5055 5056 5057 5058 5059 5060 5061 5062 5063 5064 5065 5066 5067 5068 5069 5070 5071 5072 5073 5074 5075 5076 5077 5078 5079 5080 5081 5082 5083 5084 5085 5086 5087 5088 5089 5090 5091 5092 5093 5094 5095 5096 5097 5098 5099 5100 5101 5102 5103 5104 5105 5106 5107 5108 5109 5110 5111 5112 5113 5114 5115 5116 5117 5118 5119 5120 5121 5122 5123 5124 5125 5126 5127 5128 5129 5130 5131 5132 5133 5134 5135 5136 5137 5138 5139 5140 5141 5142 5143 5144 5145 5146 5147 5148 5149 5150 5151 5152 5153 5154 5155 5156 5157 5158 5159 5160 5161 5162 5163 5164 5165 5166 5167 5168 5169 5170 5171 5172 5173 5174 5175 5176 5177 5178 5179 5180 5181 5182 5183 5184 5185 5186 5187 5188 5189 5190 5191 5192 5193 5194 5195 5196 5197 5198 5199 5200 5201 5202 5203 5204 5205 5206 5207 5208 5209 5210 5211 5212 5213 5214 5215 5216 5217 5218 5219 5220 5221 5222 5223 5224 5225 5226 5227 5228 5229 5230 5231 5232 5233 5234 5235 5236 5237 5238 5239 5240 5241 5242 5243 5244 5245 5246 5247 5248 5249 5250 5251 5252 5253 5254 5255 5256 5257 5258 5259 5260 5261 5262 5263 5264 5265 5266 5267 5268 5269 5270 5271 5272 5273 5274 5275 5276 5277 5278 5279 5280 5281 5282 5283 5284 5285 5286 5287 5288 5289 5290 5291 5292 5293 5294 5295 5296 5297 5298 5299 5300 5301 5302 5303 5304 5305 5306 5307 5308 5309 5310 5311 5312 5313 5314 5315 5316 5317 5318 5319 5320 5321 5322 5323 5324 5325 5326 5327 5328 5329 5330 5331 5332 5333 5334 5335 5336 5337 5338 5339 5340 5341 5342 5343 5344 5345 5346 5347 5348 5349 5350 5351 5352 5353 5354 5355 5356 5357 5358 5359 5360 5361 5362 5363 5364 5365 5366 5367 5368 5369 5370 5371 5372 5373 5374 5375 5376 5377 5378 5379 5380 5381 5382 5383 5384 5385 5386 5387 5388 5389 5390 5391 5392 5393 5394 5395 5396 5397 5398 5399 5400 5401 5402 5403 5404 5405 5406 5407 5408 5409 5410 5411 5412 5413 5414 5415 5416 5417 5418 5419 5420 5421 5422 5423 5424 5425 5426 5427 5428 5429 5430 5431 5432 5433 5434 5435 5436 5437 5438 5439 5440 5441 5442 5443 5444 5445 5446 5447 5448 5449 5450 5451 5452 5453 5454 5455 5456 5457 5458 5459 5460 5461 5462 5463 5464 5465 5466 5467 5468 5469 5470 5471 5472 5473 5474 5475 5476 5477 5478 5479 5480 5481 5482 5483 5484 5485 5486 5487 5488 5489 5490 5491 5492 5493 5494 5495 5496 5497 5498 5499 5500 5501 5502 5503 5504 5505 5506 5507 5508 5509 5510 5511 5512 5513 5514 5515 5516 5517 5518 5519 5520 5521 5522 5523 5524 5525 5526 5527 5528 5529 5530 5531 5532 5533 5534 5535 5536 5537 5538 5539 5540 5541 5542 5543 5544 5545 5546 5547 5548 5549 5550 5551 5552 5553 5554 5555 5556 5557 5558 5559 5560 5561 5562 5563 5564 5565 5566 5567 5568 5569 5570 5571 5572 5573 5574 5575 5576 5577 5578 5579 5580 5581 5582 5583 5584 5585 5586 5587 5588 5589 5590 5591 5592 5593 5594 5595 5596 5597 5598 5599 5600 5601 5602 5603 5604 5605 5606 5607 5608 5609 5610 5611 5612 5613 5614 5615 5616 5617 5618 5619 5620 5621 5622 5623 5624 5625 5626 5627 5628 5629 5630 5631 5632 5633 5634 5635 5636 5637 5638 5639 5640 5641 5642 5643 5644 5645 5646 5647 5648 5649 5650 5651 5652 5653 5654 5655 5656 5657 5658 5659 5660 5661 5662 5663 5664 5665 5666 5667 5668 5669 5670 5671 5672 5673 5674 5675 5676 5677 5678 5679 5680 5681 5682 5683 5684 5685 5686 5687 5688 5689 5690 5691 5692 5693 5694 5695 5696 5697 5698 5699 5700 5701 5702 5703 5704 5705 5706 5707 5708 5709 5710 5711 5712 5713 5714 5715 5716 5717 5718 5719 5720 5721 5722 5723 5724 5725 5726 5727 5728 5729 5730 5731 5732 5733 5734 5735 5736 5737 5738 5739 5740 5741 5742 5743 5744 5745 5746 5747 5748 5749 5750 5751 5752 5753 5754 5755 5756 5757 5758 5759 5760 5761 5762 5763 5764 5765 5766 5767 5768 5769 5770 5771 5772 5773 5774 5775 5776 5777 5778 5779 5780 5781 5782 5783 5784 5785 5786 5787 5788 5789 5790 5791 5792 5793 5794 5795 5796 5797 5798 5799 5800 5801 5802 5803 5804 5805 5806 5807 5808 5809 5810 5811 5812 5813 5814 5815 5816 5817 5818 5819 5820 5821 5822 5823 5824 5825 5826 5827 5828 5829 5830 5831 5832 5833 5834 5835 5836 5837 5838 5839 5840 5841 5842 5843 5844 5845 5846 5847 5848 5849 5850 5851 5852 5853 5854 5855 5856 5857 5858 5859 5860 5861 5862 5863 5864 5865 5866 5867 5868 5869 5870 5871 5872 5873 5874 5875 5876 5877 5878 5879 5880 5881 5882 5883 5884 5885 5886 5887 5888 5889 5890 5891 5892 5893 5894 5895 5896 5897 5898 5899 5900 5901 5902 5903 5904 5905 5906 5907 5908 5909 5910 5911 5912 5913 5914 5915 5916 5917 5918 5919 5920 5921 5922 5923 5924 5925 5926 5927 5928 5929 5930 5931 5932 5933 5934 5935 5936 5937 5938 5939 5940 5941 5942 5943 5944 5945 5946 5947 5948 5949 5950 5951 5952 5953 5954 5955 5956 5957 5958 5959 5960 5961 5962 5963 5964 5965 5966 5967 5968 5969 5970 5971 5972 5973 5974 5975 5976 5977 5978 5979 5980 5981 5982 5983 5984 5985 5986 5987 5988 5989 5990 5991 5992 5993 5994 5995 5996 5997 5998 5999 6000 6001 6002 6003 6004 6005 6006 6007 6008 6009 6010 6011 6012 6013 6014 6015 6016 6017 6018 6019 6020 6021 6022 6023 6024 6025 6026 6027 6028 6029 6030 6031 6032 6033 6034 6035 6036 6037 6038 6039 6040 6041 6042 6043 6044 6045 6046 6047 6048 6049 6050 6051 6052 6053 6054 6055 6056 6057 6058 6059 6060 6061 6062 6063 6064 6065 6066 6067 6068 6069 6070 6071 6072 6073 6074 6075 6076 6077 6078 6079 6080 6081 6082 6083 6084 6085 6086 6087 6088 6089 6090 6091 6092 6093 6094 6095 6096 6097 6098 6099 6100 6101 6102 6103 6104 6105 6106 6107 6108 6109 6110 6111 6112 6113 6114 6115 6116 6117 6118 6119 6120 6121 6122 6123 6124 6125 6126 6127 6128 6129 6130 6131 6132 6133 6134 6135 6136 6137 6138 6139 6140 6141 6142 6143 6144 6145 6146 6147 6148 6149 6150 6151 6152 6153 6154 6155 6156 6157 6158 6159 6160 6161 6162 6163 6164 6165 6166 6167 6168 6169 6170 6171 6172 6173 6174 6175 6176 6177 6178 6179 6180 6181 6182 6183 6184 6185 6186 6187 6188 6189 6190 6191 6192 6193 6194 6195 6196 6197 6198 6199 6200 6201 6202 6203 6204 6205 6206 6207 6208 6209 6210 6211 6212 6213 6214 6215 6216 6217 6218 6219 6220 6221 6222 6223 6224 6225 6226 6227 6228 6229 6230 6231 6232 6233 6234 6235 6236 6237 6238 6239 6240 6241 6242 6243 6244 6245 6246 6247 6248 6249 6250 6251 6252 6253 6254 6255 6256 6257 6258 6259 6260 6261 6262 6263 6264 6265 6266 6267 6268 6269 6270 6271 6272 6273 6274 6275 6276 6277 6278 6279 6280 6281 6282 6283 6284 6285 6286 6287 6288 6289 6290 6291 6292 6293 6294 6295 6296 6297 6298 6299 6300 6301 6302 6303 6304 6305 6306 6307 6308 6309 6310 6311 6312 6313 6314 6315 6316 6317 6318 6319 6320 6321 6322 6323 6324 6325 6326 6327 6328 6329 6330 6331 6332 6333 6334 6335 6336 6337 6338 6339 6340 6341 6342 6343 6344 6345 6346 6347 6348 6349 6350 6351 6352 6353 6354 6355 6356 6357 6358 6359 6360 6361 6362 6363 6364 6365 6366 6367 6368 6369 6370 6371 6372 6373 6374 6375 6376 6377 6378 6379 6380 6381 6382 6383 6384 6385 6386 6387 6388 6389 6390 6391 6392 6393 6394 6395 6396 6397 6398 6399 6400 6401 6402 6403 6404 6405 6406 6407 6408 6409 6410 6411 6412 6413 6414 6415 6416 6417 6418 6419 6420 6421 6422 6423 6424 6425 6426 6427 6428 6429 6430 6431 6432 6433 6434 6435 6436 6437 6438 6439 6440 6441 6442 6443 6444 6445 6446 6447 6448 6449 6450 6451 6452 6453 6454 6455 6456 6457 6458 6459 6460 6461 6462 6463 6464 6465 6466 6467 6468 6469 6470 6471 6472 6473 6474 6475 6476 6477 6478 6479 6480 6481 6482 6483 6484 6485 6486 6487 6488 6489 6490 6491 6492 6493 6494 6495 6496 6497 6498 6499 6500 6501 6502 6503 6504 6505 6506 6507 6508 6509 6510 6511 6512 6513 6514 6515 6516 6517 6518 6519 6520 6521 6522 6523 6524 6525 6526 6527 6528 6529 6530 6531 6532 6533 6534 6535 6536 6537 6538 6539 6540 6541 6542 6543 6544 6545 6546 6547 6548 6549 6550 6551 6552 6553 6554 6555 6556 6557 6558 6559 6560 6561 6562 6563 6564 6565 6566 6567 6568 6569 6570 6571 6572 6573 6574 6575 6576 6577 6578 6579 6580 6581 6582 6583 6584 6585 6586 6587 6588 6589 6590 6591 6592 6593 6594 6595 6596 6597 6598 6599 6600 6601 6602 6603 6604 6605 6606 6607 6608 6609 6610 6611 6612 6613 6614 6615 6616 6617 6618 6619 6620 6621 6622 6623 6624 6625 6626 6627 6628 6629 6630 6631 6632 6633 6634 6635 6636 6637 6638 6639 6640 6641 6642 6643 6644 6645 6646 6647 6648 6649 6650 6651 6652 6653 6654 6655 6656 6657 6658 6659 6660 6661 6662 6663 6664 6665 6666 6667 6668 6669 6670 6671 6672 6673 6674 6675 6676 6677 6678 6679 6680 6681 6682 6683 6684 6685 6686 6687 6688 6689 6690 6691 6692 6693 6694 6695 6696 6697 6698 6699 6700 6701 6702 6703 6704 6705 6706 6707 6708 6709 6710 6711 6712 6713 6714 6715 6716 6717 6718 6719 6720 6721 6722 6723 6724 6725 6726 6727 6728 6729 6730 6731 6732 6733 6734 6735 6736 6737 6738 6739 6740 6741 6742 6743 6744 6745 6746 6747 6748 6749 6750 6751 6752 6753 6754 6755 6756 6757 6758 6759 6760 6761 6762 6763 6764 6765 6766 6767 6768 6769 6770 6771 6772 6773 6774 6775 6776 6777 6778 6779 6780 6781 6782 6783 6784 6785 6786 6787 6788 6789 6790 6791 6792 6793 6794 6795 6796 6797 6798 6799 6800 6801 6802 6803 6804 6805 6806 6807 6808 6809 6810 6811 6812 6813 6814 6815 6816 6817 6818 6819 6820 6821 6822 6823 6824 6825 6826 6827 6828 6829 6830 6831 6832 6833 6834 6835 6836 6837 6838 6839 6840 6841 6842 6843 6844 6845 6846 6847 6848 6849 6850 6851 6852 6853 6854 6855 6856 6857 6858 6859 6860 6861 6862 6863 6864 6865 6866 6867 6868 6869 6870 6871 6872 6873 6874 6875 6876 6877 6878 6879 6880 6881 6882 6883 6884 6885 6886 6887 6888 6889 6890 6891 6892 6893 6894 6895 6896 6897 6898 6899 6900 6901 6902 6903 6904 6905 6906 6907 6908 6909 6910 6911 6912 6913 6914 6915 6916 6917 6918 6919 6920 6921 6922 6923 6924 6925 6926 6927 6928 6929 6930 6931 6932 6933 6934 6935 6936 6937 6938 6939 6940 6941 6942 6943 6944 6945 6946 6947 6948 6949 6950 6951 6952 6953 6954 6955 6956 6957 6958 6959 6960 6961 6962 6963 6964 6965 6966 6967 6968 6969 6970 6971 6972 6973 6974 6975 6976 6977 6978 6979 6980 6981 6982 6983 6984 6985 6986 6987 6988 6989 6990 6991 6992 6993 6994 6995 6996 6997 6998 6999 7000 7001 7002 7003 7004 7005 7006 7007 7008 7009 7010 7011 7012 7013 7014 7015 7016 7017 7018 7019 7020 7021 7022 7023 7024 7025 7026 7027 7028 7029 7030 7031 7032 7033 7034 7035 7036 7037 7038 7039 7040 7041 7042 7043 7044 7045 7046 7047 7048 7049 7050 7051 7052 7053 7054 7055 7056 7057 7058 7059 7060 7061 7062 7063 7064 7065 7066 7067 7068 7069 7070 7071 7072 7073 7074 7075 7076 7077 7078 7079 7080 7081 7082 7083 7084 7085 7086 7087 7088 7089 7090 7091 7092 7093 7094 7095 7096 7097 7098 7099 7100 7101 7102 7103 7104 7105 7106 7107 7108 7109 7110 7111 7112 7113 7114 7115 7116 7117 7118 7119 7120 7121 7122 7123 7124 7125 7126 7127 7128 7129 7130 7131 7132 7133 7134 7135 7136 7137 7138 7139 7140 7141 7142 7143 7144 7145 7146 7147 7148 7149 7150 7151 7152 7153 7154 7155 7156 7157 7158 7159 7160 7161 7162 7163 7164 7165 7166 7167 7168 7169 7170 7171 7172 7173 7174 7175 7176 7177 7178 7179 7180 7181 7182 7183 7184 7185 7186 7187 7188 7189 7190 7191 7192 7193 7194 7195 7196 7197 7198 7199 7200 7201 7202 7203 7204 7205 7206 7207 7208 7209 7210 7211 7212 7213 7214 7215 7216 7217 7218 7219 7220 7221 7222 7223 7224 7225 7226 7227 7228 7229 7230 7231 7232 7233 7234 7235 7236 7237 7238 7239 7240 7241 7242 7243 7244 7245 7246 7247 7248 7249 7250 7251 7252 7253 7254 7255 7256 7257 7258 7259 7260 7261 7262 7263 7264 7265 7266 7267 7268 7269 7270 7271 7272 7273 7274 7275 7276 7277 7278 7279 7280 7281 7282 7283 7284 7285 7286 7287 7288 7289 7290 7291 7292 7293 7294 7295 7296 7297 7298 7299 7300 7301 7302 7303 7304 7305 7306 7307 7308 7309 7310 7311 7312 7313 7314 7315 7316 7317 7318 7319 7320 7321 7322 7323 7324 7325 7326 7327 7328 7329 7330 7331 7332 7333 7334 7335 7336 7337 7338 7339 7340 7341 7342 7343 7344 7345 7346 7347 7348 7349 7350 7351 7352 7353 7354 7355 7356 7357 7358 7359 7360 7361 7362 7363 7364 7365 7366 7367 7368 7369 7370 7371 7372 7373 7374 7375 7376 7377 7378 7379 7380 7381 7382 7383 7384 7385 7386 7387 7388 7389 7390 7391 7392 7393 7394 7395 7396 7397 7398 7399 7400 7401 7402 7403 7404 7405 7406 7407 7408 7409 7410 7411 7412 7413 7414 7415 7416 7417 7418 7419 7420 7421 7422 7423 7424 7425 7426 7427 7428 7429 7430 7431 7432 7433 7434 7435 7436 7437 7438 7439 7440 7441 7442 7443 7444 7445 7446 7447 7448 7449 7450 7451 7452 7453 7454 7455 7456 7457 7458 7459 7460 7461 7462 7463 7464 7465 7466 7467 7468 7469 7470 7471 7472 7473 7474 7475 7476 7477 7478 7479 7480 7481 7482 7483 7484 7485 7486 7487 7488 7489 7490 7491 7492 7493 7494 7495 7496 7497 7498 7499 7500 7501 7502 7503 7504 7505 7506 7507 7508 7509 7510 7511 7512 7513 7514 7515 7516 7517 7518 7519 7520 7521 7522 7523 7524 7525 7526 7527 7528 7529 7530 7531 7532 7533 7534 7535 7536 7537 7538 7539 7540 7541 7542 7543 7544 7545 7546 7547 7548 7549 7550 7551 7552 7553 7554 7555 7556 7557 7558 7559 7560 7561 7562 7563 7564 7565 7566 7567 7568 7569 7570 7571 7572 7573 7574 7575 7576 7577 7578 7579 7580 7581 7582 7583 7584 7585 7586 7587 7588 7589 7590 7591 7592 7593 7594 7595 7596 7597 7598 7599 7600 7601 7602 7603 7604 7605 7606 7607 7608 7609 7610 7611 7612 7613 7614 7615 7616 7617 7618 7619 7620 7621 7622 7623 7624 7625 7626 7627 7628 7629 7630 7631 7632 7633 7634 7635 7636 7637 7638 7639 7640 7641 7642 7643 7644 7645 7646 7647 7648 7649 7650 7651 7652 7653 7654 7655 7656 7657 7658 7659 7660 7661 7662 7663 7664 7665 7666 7667 7668 7669 7670 7671 7672 7673 7674 7675 7676 7677 7678 7679 7680 7681 7682 7683 7684 7685 7686 7687 7688 7689 7690 7691 7692 7693 7694 7695 7696 7697 7698 7699 7700 7701 7702 7703 7704 7705 7706 7707 7708 7709 7710 7711 7712 7713 7714 7715 7716 7717 7718 7719 7720 7721 7722 7723 7724 7725 7726 7727 7728 7729 7730 7731 7732 7733 7734 7735 7736 7737 7738 7739 7740 7741 7742 7743 7744 7745 7746 7747 7748 7749 7750 7751 7752 7753 7754 7755 7756 7757 7758 7759 7760 7761 7762 7763 7764 7765 7766 7767 7768 7769 7770 7771 7772 7773 7774 7775 7776 7777 7778 7779 7780 7781 7782 7783 7784 7785 7786 7787 7788 7789 7790 7791 7792 7793 7794 7795 7796 7797 7798 7799 7800 7801 7802 7803 7804 7805 7806 7807 7808 7809 7810 7811 7812 7813 7814 7815 7816 7817 7818 7819 7820 7821 7822 7823 7824 7825 7826 7827 7828 7829 7830 7831 7832 7833 7834 7835 7836 7837 7838 7839 7840 7841 7842 7843 7844 7845 7846 7847 7848 7849 7850 7851 7852 7853 7854 7855 7856 7857 7858 7859 7860 7861 7862 7863 7864 7865 7866 7867 7868 7869 7870 7871 7872 7873 7874 7875 7876 7877 7878 7879 7880 7881 7882 7883 7884 7885 7886 7887 7888 7889 7890 7891 7892 7893 7894 7895 7896 7897 7898 7899 7900 7901 7902 7903 7904 7905 7906 7907 7908 7909 7910 7911 7912 7913 7914 7915 7916 7917 7918 7919 7920 7921 7922 7923 7924 7925 7926 7927 7928 7929 7930 7931 7932 7933 7934 7935 7936 7937 7938 7939 7940 7941 7942 7943 7944 7945 7946 7947 7948 7949 7950 7951 7952 7953 7954 7955 7956 7957 7958 7959 7960 7961 7962 7963 7964 7965 7966 7967 7968 7969 7970 7971 7972 7973 7974 7975 7976 7977 7978 7979 7980 7981 7982 7983 7984 7985 7986 7987 7988 7989 7990 7991 7992 7993 7994 7995 7996 7997 7998 7999 8000 8001 8002 8003 8004 8005 8006 8007 8008 8009 8010 8011 8012 8013 8014 8015 8016 8017 8018 8019 8020 8021 8022 8023 8024 8025 8026 8027 8028 8029 8030 8031 8032 8033 8034 8035 8036 8037 8038 8039 8040 8041 8042 8043 8044 8045 8046 8047 8048 8049 8050 8051 8052 8053 8054 8055 8056 8057 8058 8059 8060 8061 8062 8063 8064 8065 8066 8067 8068 8069 8070 8071 8072 8073 8074 8075 8076 8077 8078 8079 8080 8081 8082 8083 8084 8085 8086 8087 8088 8089 8090 8091 8092 8093 8094 8095 8096 8097 8098 8099 8100 8101 8102 8103 8104 8105 8106 8107 8108 8109 8110 8111 8112 8113 8114 8115 8116 8117 8118 8119 8120 8121 8122 8123 8124 8125 8126 8127 8128 8129 8130 8131 8132 8133 8134 8135 8136 8137 8138 8139 8140 8141 8142 8143 8144 8145 8146 8147 8148 8149 8150 8151 8152 8153 8154 8155 8156 8157 8158 8159 8160 8161 8162 8163 8164 8165 8166 8167 8168 8169 8170 8171 8172 8173 8174 8175 8176 8177 8178 8179 8180 8181 8182 8183 8184 8185 8186 8187 8188 8189 8190 8191 8192 8193 8194 8195 8196 8197 8198 8199 8200 8201 8202 8203 8204 8205 8206 8207 8208 8209 8210 8211 8212 8213 8214 8215 8216 8217 8218 8219 8220 8221 8222 8223 8224 8225 8226 8227 8228 8229 8230 8231 8232 8233 8234 8235 8236 8237 8238 8239 8240 8241 8242 8243 8244 8245 8246 8247 8248 8249 8250 8251 8252 8253 8254 8255 8256 8257 8258 8259 8260 8261 8262 8263 8264 8265 8266 8267 8268 8269 8270 8271 8272 8273 8274 8275 8276 8277 8278 8279 8280 8281 8282 8283 8284 8285 8286 8287 8288 8289 8290 8291 8292 8293 8294 8295 8296 8297 8298 8299 8300 8301 8302 8303 8304 8305 8306 8307 8308 8309 8310 8311 8312 8313 8314 8315 8316 8317 8318 8319 8320 8321 8322 8323 8324 8325 8326 8327 8328 8329 8330 8331 8332 8333 8334 8335 8336 8337 8338 8339 8340 8341 8342 8343 8344 8345 8346 8347 8348 8349 8350 8351 8352 8353 8354 8355 8356 8357 8358 8359 8360 8361 8362 8363 8364 8365 8366 8367 8368 8369 8370 8371 8372 8373 8374 8375 8376 8377 8378 8379 8380 8381 8382 8383 8384 8385 8386 8387 8388 8389 8390 8391 8392 8393 8394 8395 8396 8397 8398 8399 8400 8401 8402 8403 8404 8405 8406 8407 8408 8409 8410 8411 8412 8413 8414 8415 8416 8417 8418 8419 8420 8421 8422 8423 8424 8425 8426 8427 8428 8429 8430 8431 8432 8433 8434 8435 8436 8437 8438 8439 8440 8441 8442 8443 8444 8445 8446 8447 8448 8449 8450 8451 8452 8453 8454 8455 8456 8457 8458 8459 8460 8461 8462 8463 8464 8465 8466 8467 8468 8469 8470 8471 8472 8473 8474 8475 8476 8477 8478 8479 8480 8481 8482 8483 8484 8485 8486 8487 8488 8489 8490 8491 8492 8493 8494 8495 8496 8497 8498 8499 8500 8501 8502 8503 8504 8505 8506 8507 8508 8509 8510 8511 8512 8513 8514 8515 8516 8517 8518 8519 8520 8521 8522 8523 8524 8525 8526 8527 8528 8529 8530 8531 8532 8533 8534 8535 8536 8537 8538 8539 8540 8541 8542 8543 8544 8545 8546 8547 8548 8549 8550 8551 8552 8553 8554 8555 8556 8557 8558 8559 8560 8561 8562 8563 8564 8565 8566 8567 8568 8569 8570 8571 8572 8573 8574 8575 8576 8577 8578 8579 8580 8581 8582 8583 8584 8585 8586 8587 8588 8589 8590 8591 8592 8593 8594 8595 8596 8597 8598 8599 8600 8601 8602 8603 8604 8605 8606 8607 8608 8609 8610 8611 8612 8613 8614 8615 8616 8617 8618 8619 8620 8621 8622 8623 8624 8625 8626 8627 8628 8629 8630 8631 8632 8633 8634 8635 8636 8637 8638 8639 8640 8641 8642 8643 8644 8645 8646 8647 8648 8649 8650 8651 8652 8653 8654 8655 8656 8657 8658 8659 8660 8661 8662 8663 8664 8665 8666 8667 8668 8669 8670 8671 8672 8673 8674 8675 8676 8677 8678 8679 8680 8681 8682 8683 8684 8685 8686 8687 8688 8689 8690 8691 8692 8693 8694 8695 8696 8697 8698 8699 8700 8701 8702 8703 8704 8705 8706 8707 8708 8709 8710 8711 8712 8713 8714 8715 8716 8717 8718 8719 8720 8721 8722 8723 8724 8725 8726 8727 8728 8729 8730 8731 8732 8733 8734 8735 8736 8737 8738 8739 8740 8741 8742 8743 8744 8745 8746 8747 8748 8749 8750 8751 8752 8753 8754 8755 8756 8757 8758 8759 8760 8761 8762 8763 8764 8765 8766 8767 8768 8769 8770 8771 8772 8773 8774 8775 8776 8777 8778 8779 8780 8781 8782 8783 8784 8785 8786 8787 8788 8789 8790 8791 8792 8793 8794 8795 8796 8797 8798 8799 8800 8801 8802 8803 8804 8805 8806 8807 8808 8809 8810 8811 8812 8813 8814 8815 8816 8817 8818 8819 8820 8821 8822 8823 8824 8825 8826 8827 8828 8829 8830 8831 8832 8833 8834 8835 8836 8837 8838 8839 8840 8841 8842 8843 8844 8845 8846 8847 8848 8849 8850 8851 8852 8853 8854 8855 8856 8857 8858 8859 8860 8861 8862 8863 8864 8865 8866 8867 8868 8869 8870 8871 8872 8873 8874 8875 8876 8877 8878 8879 8880 8881 8882 8883 8884 8885 8886 8887 8888 8889 8890 8891 8892 8893 8894 8895 8896 8897 8898 8899 8900 8901 8902 8903 8904 8905 8906 8907 8908 8909 8910 8911 8912 8913 8914 8915 8916 8917 8918 8919 8920 8921 8922 8923 8924 8925 8926 8927 8928 8929 8930 8931 8932 8933 8934 8935 8936 8937 8938 8939 8940 8941 8942 8943 8944 8945 8946 8947 8948 8949 8950 8951 8952 8953 8954 8955 8956 8957 8958 8959 8960 8961 8962 8963 8964 8965 8966 8967 8968 8969 8970 8971 8972 8973 8974 8975 8976 8977 8978 8979 8980 8981 8982 8983 8984 8985 8986 8987 8988 8989 8990 8991 8992 8993 8994 8995 8996 8997 8998 8999 9000 9001 9002 9003 9004 9005 9006 9007 9008 9009 9010 9011 9012 9013 9014 9015 9016 9017 9018 9019 9020 9021 9022 9023 9024 9025 9026 9027 9028 9029 9030 9031 9032 9033 9034 9035 9036 9037 9038 9039 9040 9041 9042 9043 9044 9045 9046 9047 9048 9049 9050 9051 9052 9053 9054 9055 9056 9057 9058 9059 9060 9061 9062 9063 9064 9065 9066 9067 9068 9069 9070 9071 9072 9073 9074 9075 9076 9077 9078 9079 9080 9081 9082 9083 9084 9085 9086 9087 9088 9089 9090 9091 9092 9093 9094 9095 9096 9097 9098 9099 9100 9101 9102 9103 9104 9105 9106 9107 9108 9109 9110 9111 9112 9113 9114 9115 9116 9117 9118 9119 9120 9121 9122 9123 9124 9125 9126 9127 9128 9129 9130 9131 9132 9133 9134 9135 9136 9137 9138 9139 9140 9141 9142 9143 9144 9145 9146 9147 9148 9149 9150 9151 9152 9153 9154 9155 9156 9157 9158 9159 9160 9161 9162 9163 9164 9165 9166 9167 9168 9169 9170 9171 9172 9173 9174 9175 9176 9177 9178 9179 9180 9181 9182 9183 9184 9185 9186 9187 9188 9189 9190 9191 9192 9193 9194 9195 9196 9197 9198 9199 9200 9201 9202 9203 9204 9205 9206 9207 9208 9209 9210 9211 9212 9213 9214 9215 9216 9217 9218 9219 9220 9221 9222 9223 9224 9225 9226 9227 9228 9229 9230 9231 9232 9233 9234 9235 9236 9237 9238 9239 9240 9241 9242 9243 9244 9245 9246 9247 9248 9249 9250 9251 9252 9253 9254 9255 9256 9257 9258 9259 9260 9261 9262 9263 9264 9265 9266 9267 9268 9269 9270 9271 9272 9273 9274 9275 9276 9277 9278 9279 9280 9281 9282 9283 9284 9285 9286 9287 9288 9289 9290 9291 9292 9293 9294 9295 9296 9297 9298 9299 9300 9301 9302 9303 9304 9305 9306 9307 9308 9309 9310 9311 9312 9313 9314 9315 9316 9317 9318 9319 9320 9321 9322 9323 9324 9325 9326 9327 9328 9329 9330 9331 9332 9333 9334 9335 9336 9337 9338 9339 9340 9341 9342 9343 9344 9345 9346 9347 9348 9349 9350 9351 9352 9353 9354 9355 9356 9357 9358 9359 9360 9361 9362 9363 9364 9365 9366 9367 9368 9369 9370 9371 9372 9373 9374 9375 9376 9377 9378 9379 9380 9381 9382 9383 9384 9385 9386 9387 9388 9389 9390 9391 9392 9393 9394 9395 9396 9397 9398 9399 9400 9401 9402 9403 9404 9405 9406 9407 9408 9409 9410 9411 9412 9413 9414 9415 9416 9417 9418 9419 9420 9421 9422 9423 9424 9425 9426 9427 9428 9429 9430 9431 9432 9433 9434 9435 9436 9437 9438 9439 9440 9441 9442 9443 9444 9445 9446 9447 9448 9449 9450 9451 9452 9453 9454 9455 9456 9457 9458 9459 9460 9461 9462 9463 9464 9465 9466 9467 9468 9469 9470 9471 9472 9473 9474 9475 9476 9477 9478 9479 9480 9481 9482 9483 9484 9485 9486 9487 9488 9489 9490 9491 9492 9493 9494 9495 9496 9497 9498 9499 9500 9501 9502 9503 9504 9505 9506 9507 9508 9509 9510 9511 9512 9513 9514 9515 9516 9517 9518 9519 9520 9521 9522 9523 9524 9525 9526 9527 9528 9529 9530 9531 9532 9533 9534 9535 9536 9537 9538 9539 9540 9541 9542 9543 9544 9545 9546 9547 9548 9549 9550 9551 9552 9553 9554 9555 9556 9557 9558 9559 9560 9561 9562 9563 9564 9565 9566 9567 9568 9569 9570 9571 9572 9573 9574 9575 9576 9577 9578 9579 9580 9581 9582 9583 9584 9585 9586 9587 9588 9589 9590 9591 9592 9593 9594 9595 9596 9597 9598 9599 9600 9601 9602 9603 9604 9605 9606 9607 9608 9609 9610 9611 9612 9613 9614 9615 9616 9617 9618 9619 9620 9621 9622 9623 9624 9625 9626 9627 9628 9629 9630 9631 9632 9633 9634 9635 9636 9637 9638 9639 9640 9641 9642 9643 9644 9645 9646 9647 9648 9649 9650 9651 9652 9653 9654 9655 9656 9657 9658 9659 9660 9661 9662 9663 9664 9665 9666 9667 9668 9669 9670 9671 9672 9673 9674 9675 9676 9677 9678 9679 9680 9681 9682 9683 9684 9685 9686 9687 9688 9689 9690 9691 9692 9693 9694 9695 9696 9697 9698 9699 9700 9701 9702 9703 9704 9705 9706 9707 9708 9709 9710 9711 9712 9713 9714 9715 9716 9717 9718 9719 9720 9721 9722 9723 9724 9725 9726 9727 9728 9729 9730 9731 9732 9733 9734 9735 9736 9737 9738 9739 9740 9741 9742 9743 9744 9745 9746 9747 9748 9749 9750 9751 9752 9753 9754 9755 9756 9757 9758 9759 9760 9761 9762 9763 9764 9765 9766 9767 9768 9769 9770 9771 9772 9773 9774 9775 9776 9777 9778 9779 9780 9781 9782 9783 9784 9785 9786 9787 9788 9789 9790 9791 9792 9793 9794 9795 9796 9797 9798 9799 9800 9801 9802 9803 9804 9805 9806 9807 9808 9809 9810 9811 9812 9813 9814 9815 9816 9817 9818 9819 9820 9821 9822 9823 9824 9825 9826 9827 9828 9829 9830 9831 9832 9833 9834 9835 9836 9837 9838 9839 9840 9841 9842 9843 9844 9845 9846 9847 9848 9849 9850 9851 9852 9853 9854 9855 9856 9857 9858 9859 9860 9861 9862 9863 9864 9865 9866 9867 9868 9869 9870 9871 9872 9873 9874 9875 9876 9877 9878 9879 9880 9881 9882 9883 9884 9885 9886 9887 9888 9889 9890 9891 9892 9893 9894 9895 9896 9897 9898 9899 9900 9901 9902 9903 9904 9905 9906 9907 9908 9909 9910 9911 9912 9913 9914 9915 9916 9917 9918 9919 9920 9921 9922 9923 9924 9925 9926 9927 9928 9929 9930 9931 9932 9933 9934 9935 9936 9937 9938 9939 9940 9941 9942 9943 9944 9945 9946 9947 9948 9949 9950 9951 9952 9953 9954 9955 9956 9957 9958 9959 9960 9961 9962 9963 9964 9965 9966 9967 9968 9969 9970 9971 9972 9973 9974 9975 9976 9977 9978 9979 9980 9981 9982 9983 9984 9985 9986 9987 9988 9989 9990 9991 9992 9993 9994 9995 9996 9997 9998 9999 10000 10001 10002 10003 10004 10005 10006 10007 10008 10009 10010 10011 10012 10013 10014 10015 10016 10017 10018 10019 10020 10021 10022 10023 10024 10025 10026 10027 10028 10029 10030 10031 10032 10033 10034 10035 10036 10037 10038 10039 10040 10041 10042 10043 10044 10045 10046 10047 10048 10049 10050 10051 10052 10053 10054 10055 10056 10057 10058 10059 10060 10061 10062 10063 10064 10065 10066 10067 10068 10069 10070 10071 10072 10073 10074 10075 10076 10077 10078 10079 10080 10081 10082 10083 10084 10085 10086 10087 10088 10089 10090 10091 10092 10093 10094 10095 10096 10097 10098 10099 10100 10101 10102 10103 10104 10105 10106 10107 10108 10109 10110 10111 10112 10113 10114 10115 10116 10117 10118 10119 10120 10121 10122 10123 10124 10125 10126 10127 10128 10129 10130 10131 10132 10133 10134 10135 10136 10137 10138 10139 10140 10141 10142 10143 10144 10145 10146 10147 10148 10149 10150 10151 10152 10153 10154 10155 10156 10157 10158 10159 10160 10161 10162 10163 10164 10165 10166 10167 10168 10169 10170 10171 10172 10173 10174 10175 10176 10177 10178 10179 10180 10181 10182 10183 10184 10185 10186 10187 10188 10189 10190 10191 10192 10193 10194 10195 10196 10197 10198 10199 10200 10201 10202 10203 10204 10205 10206 10207 10208 10209 10210 10211 10212 10213 10214 10215 10216 10217 10218 10219 10220 10221 10222 10223 10224 10225 10226 10227 10228 10229 10230 10231 10232 10233 10234 10235 10236 10237 10238 10239 10240 10241 10242 10243 10244 10245 10246 10247 10248 10249 10250 10251 10252 10253 10254 10255 10256 10257 10258 10259 10260 10261 10262 10263 10264 10265 10266 10267 10268 10269 10270 10271 10272 10273 10274 10275 10276 10277 10278 10279 10280 10281 10282 10283 10284 10285 10286 10287 10288 10289 10290 10291 10292 10293 10294 10295 10296 10297 10298 10299 10300 10301 10302 10303 10304 10305 10306 10307 10308 10309 10310 10311 10312 10313 10314 10315 10316 10317 10318 10319 10320 10321 10322 10323 10324 10325 10326 10327 10328 10329 10330 10331 10332 10333 10334 10335 10336 10337 10338 10339 10340 10341 10342 10343 10344 10345 10346 10347 10348 10349 10350 10351 10352 10353 10354 10355 10356 10357 10358 10359 10360 10361 10362 10363 10364 10365 10366 10367 10368 10369 10370 10371 10372 10373 10374 10375 10376 10377 10378 10379 10380 10381 10382 10383 10384 10385 10386 10387 10388 10389 10390 10391 10392 10393 10394 10395 10396 10397 10398 10399 10400 10401 10402 10403 10404 10405 10406 10407 10408 10409 10410 10411 10412 10413 10414 10415 10416 10417 10418 10419 10420 10421 10422 10423 10424 10425 10426 10427 10428 10429 10430 10431 10432 10433 10434 10435 10436 10437 10438 10439 10440 10441 10442 10443 10444 10445 10446 10447 10448 10449 10450 10451 10452 10453 10454 10455 10456 10457 10458 10459 10460 10461 10462 10463 10464 10465 10466 10467 10468 10469 10470 10471 10472 10473 10474 10475 10476 10477 10478 10479 10480 10481 10482 10483 10484 10485 10486 10487 10488 10489 10490 10491 10492 10493 10494 10495 10496 10497 10498 10499 10500 10501 10502 10503 10504 10505 10506 10507 10508 10509 10510 10511 10512 10513 10514 10515 10516 10517 10518 10519 10520 10521 10522 10523 10524 10525 10526 10527 10528 10529 10530 10531 10532 10533 10534 10535 10536 10537 10538 10539 10540 10541 10542 10543 10544 10545 10546 10547 10548 10549 10550 10551 10552 10553 10554 10555 10556 10557 10558 10559 10560 10561 10562 10563 10564 10565 10566 10567 10568 10569 10570 10571 10572 10573 10574 10575 10576 10577 10578 10579 10580 10581 10582 10583 10584 10585 10586 10587 10588 10589 10590 10591 10592 10593 10594 10595 10596 10597 10598 10599 10600 10601 10602 10603 10604 10605 10606 10607 10608 10609 10610 10611 10612 10613 10614 10615 10616 10617 10618 10619 10620 10621 10622 10623 10624 10625 10626 10627 10628 10629 10630 10631 10632 10633 10634 10635 10636 10637 10638 10639 10640 10641 10642 10643 10644 10645 10646 10647 10648 10649 10650 10651 10652 10653 10654 10655 10656 10657 10658 10659 10660 10661 10662 10663 10664 10665 10666 10667 10668 10669 10670 10671 10672 10673 10674 10675 10676 10677 10678 10679 10680 10681 10682 10683 10684 10685 10686 10687 10688 10689 10690 10691 10692 10693 10694 10695 10696 10697 10698 10699 10700 10701 10702 10703 10704 10705 10706 10707 10708 10709 10710 10711 10712 10713 10714 10715 10716 10717 10718 10719 10720 10721 10722 10723 10724 10725 10726 10727 10728 10729 10730 10731 10732 10733 10734 10735 10736 10737 10738 10739 10740 10741 10742 10743 10744 10745 10746 10747 10748 10749 10750 10751 10752 10753 10754 10755 10756 10757 10758 10759 10760 10761 10762 10763 10764 10765 10766 10767 10768 10769 10770 10771 10772 10773 10774 10775 10776 10777 10778 10779 10780 10781 10782 10783 10784 10785 10786 10787 10788 10789 10790 10791 10792 10793 10794 10795 10796 10797 10798 10799 10800 10801 10802 10803 10804 10805 10806 10807 10808 10809 10810 10811 10812 10813 10814 10815 10816 10817 10818 10819 10820 10821 10822 10823 10824 10825 10826 10827 10828 10829 10830 10831 10832 10833 10834 10835 10836 10837 10838 10839 10840 10841 10842 10843 10844 10845 10846 10847 10848 10849 10850 10851 10852 10853 10854 10855 10856 10857 10858 10859 10860 10861 10862 10863 10864 10865 10866 10867 10868 10869 10870 10871 10872 10873 10874 10875 10876 10877 10878 10879 10880 10881 10882 10883 10884 10885 10886 10887 10888 10889 10890 10891 10892 10893 10894 10895 10896 10897 10898 10899 10900 10901 10902 10903 10904 10905 10906 10907 10908 10909 10910 10911 10912 10913 10914 10915 10916 10917 10918 10919 10920 10921 10922 10923 10924 10925 10926 10927 10928 10929 10930 10931 10932 10933 10934 10935 10936 10937 10938 10939 10940 10941 10942 10943 10944 10945 10946 10947 10948 10949 10950 10951 10952 10953 10954 10955 10956 10957 10958 10959 10960 10961 10962 10963 10964 10965 10966 10967 10968 10969 10970 10971 10972 10973 10974 10975 10976 10977 10978 10979 10980 10981 10982 10983 10984 10985 10986 10987 10988 10989 10990 10991 10992 10993 10994 10995 10996 10997 10998 10999 11000 11001 11002 11003 11004 11005 11006 11007 11008 11009 11010 11011 11012 11013 11014 11015 11016 11017 11018 11019 11020 11021 11022 11023 11024 11025 11026 11027 11028 11029 11030 11031 11032 11033 11034 11035 11036 11037 11038 11039 11040 11041 11042 11043 11044 11045 11046 11047 11048 11049 11050 11051 11052 11053 11054 11055 11056 11057 11058 11059 11060 11061 11062 11063 11064 11065 11066 11067 11068 11069 11070 11071 11072 11073 11074 11075 11076 11077 11078 11079 11080 11081 11082 11083 11084 11085 11086 11087 11088 11089 11090 11091 11092 11093 11094 11095 11096 11097 11098 11099 11100 11101 11102 11103 11104 11105 11106 11107 11108 11109 11110 11111 11112 11113 11114 11115 11116 11117 11118 11119 11120 11121 11122 11123 11124 11125 11126 11127 11128 11129 11130 11131 11132 11133 11134 11135 11136 11137 11138 11139 11140 11141 11142 11143 11144 11145 11146 11147 11148 11149 11150 11151 11152 11153 11154 11155 11156 11157 11158 11159 11160 11161 11162 11163 11164 11165 11166 11167 11168 11169 11170 11171 11172 11173 11174 11175 11176 11177 11178 11179 11180 11181 11182 11183 11184 11185 11186 11187 11188 11189 11190 11191 11192 11193 11194 11195 11196 11197 11198 11199 11200 11201 11202 11203 11204 11205 11206 11207 11208 11209 11210 11211 11212 11213 11214 11215 11216 11217 11218 11219 11220 11221 11222 11223 11224 11225 11226 11227 11228 11229 11230 11231 11232 11233 11234 11235 11236 11237 11238 11239 11240 11241 11242 11243 11244 11245 11246 11247 11248 11249 11250 11251 11252 11253 11254 11255 11256 11257 11258 11259 11260 11261 11262 11263 11264 11265 11266 11267 11268 11269 11270 11271 11272 11273 11274 11275 11276 11277 11278 11279 11280 11281 11282 11283 11284 11285 11286 11287 11288 11289 11290 11291 11292 11293 11294 11295 11296 11297 11298 11299 11300 11301 11302 11303 11304 11305 11306 11307 11308 11309 11310 11311 11312 11313 11314 11315 11316 11317 11318 11319 11320 11321 11322 11323 11324 11325 11326 11327 11328 11329 11330 11331 11332 11333 11334 11335 11336 11337 11338 11339 11340 11341 11342 11343 11344 11345 11346 11347 11348 11349 11350 11351 11352 11353 11354 11355 11356 11357 11358 11359 11360 11361 11362 11363 11364 11365 11366 11367 11368 11369 11370 11371 11372 11373 11374 11375 11376 11377 11378 11379 11380 11381 11382 11383 11384 11385 11386 11387 11388 11389 11390 11391 11392 11393 11394 11395 11396 11397 11398 11399 11400 11401 11402 11403 11404 11405 11406 11407 11408 11409 11410 11411 11412 11413 11414 11415 11416 11417 11418 11419 11420 11421 11422 11423 11424 11425 11426 11427 11428 11429 11430 11431 11432 11433 11434 11435 11436 11437 11438 11439 11440 11441 11442 11443 11444 11445 11446 11447 11448 11449 11450 11451 11452 11453 11454 11455 11456 11457 11458 11459 11460 11461 11462 11463 11464 11465 11466 11467 11468 11469 11470 11471 11472 11473 11474 11475 11476 11477 11478 11479 11480 11481 11482 11483 11484 11485 11486 11487 11488 11489 11490 11491 11492 11493 11494 11495 11496 11497 11498 11499 11500 11501 11502 11503 11504 11505 11506 11507 11508 11509 11510 11511 11512 11513 11514 11515 11516 11517 11518 11519 11520 11521 11522 11523 11524 11525 11526 11527 11528 11529 11530 11531 11532 11533 11534 11535 11536 11537 11538 11539 11540 11541 11542 11543 11544 11545 11546 11547 11548 11549 11550 11551 11552 11553 11554 11555 11556 11557 11558 11559 11560 11561 11562 11563 11564 11565 11566 11567 11568 11569 11570 11571 11572 11573 11574 11575 11576 11577 11578 11579 11580 11581 11582 11583 11584 11585 11586 11587 11588 11589 11590 11591 11592 11593 11594 11595 11596 11597 11598 11599 11600 11601 11602 11603 11604 11605 11606 11607 11608 11609 11610 11611 11612 11613 11614 11615 11616 11617 11618 11619 11620 11621 11622 11623 11624 11625 11626 11627 11628 11629 11630 11631 11632 11633 11634 11635 11636 11637 11638 11639 11640 11641 11642 11643 11644 11645 11646 11647 11648 11649 11650 11651 11652 11653 11654 11655 11656 11657 11658 11659 11660 11661 11662 11663 11664 11665 11666 11667 11668 11669 11670 11671 11672 11673 11674 11675 11676 11677 11678 11679 11680 11681 11682 11683 11684 11685 11686 11687 11688 11689 11690 11691 11692 11693 11694 11695 11696 11697 11698 11699 11700 11701 11702 11703 11704 11705 11706 11707 11708 11709 11710 11711 11712 11713 11714 11715 11716 11717 11718 11719 11720 11721 11722 11723 11724 11725 11726 11727 11728 11729 11730 11731 11732 11733 11734 11735 11736 11737 11738 11739 11740 11741 11742 11743 11744 11745 11746 11747 11748 11749 11750 11751 11752 11753 11754 11755 11756 11757 11758 11759 11760 11761 11762 11763 11764 11765 11766 11767 11768 11769 11770 11771 11772 11773 11774 11775 11776 11777 11778 11779 11780 11781 11782 11783 11784 11785 11786 11787 11788 11789 11790 11791 11792 11793 11794 11795 11796 11797 11798 11799 11800 11801 11802 11803 11804 11805 11806 11807 11808 11809 11810 11811 11812 11813 11814 11815 11816 11817 11818 11819 11820 11821 11822 11823 11824 11825 11826 11827 11828 11829 11830 11831 11832 11833 11834 11835 11836 11837 11838 11839 11840 11841 11842 11843 11844 11845 11846 11847 11848 11849 11850 11851 11852 11853 11854 11855 11856 11857 11858 11859 11860 11861 11862 11863 11864 11865 11866 11867 11868 11869 11870 11871 11872 11873 11874 11875 11876 11877 11878 11879 11880 11881 11882 11883 11884 11885 11886 11887 11888 11889 11890 11891 11892 11893 11894 11895 11896 11897 11898 11899 11900 11901 11902 11903 11904 11905 11906 11907 11908 11909 11910 11911 11912 11913 11914 11915 11916 11917 11918 11919 11920 11921 11922 11923 11924 11925 11926 11927 11928 11929 11930 11931 11932 11933 11934 11935 11936 11937 11938 11939 11940 11941 11942 11943 11944 11945 11946 11947 11948 11949 11950 11951 11952 11953 11954 11955 11956 11957 11958 11959 11960 11961 11962 11963 11964 11965 11966 11967 11968 11969 11970 11971 11972 11973 11974 11975 11976 11977 11978 11979 11980 11981 11982 11983 11984 11985 11986 11987 11988 11989 11990 11991 11992 11993 11994 11995 11996 11997 11998 11999 12000 12001 12002 12003 12004 12005 12006 12007 12008 12009 12010 12011 12012 12013 12014 12015 12016 12017 12018 12019 12020 12021 12022 12023 12024 12025 12026 12027 12028 12029 12030 12031 12032 12033 12034 12035 12036 12037 12038 12039 12040 12041 12042 12043 12044 12045 12046 12047 12048 12049 12050 12051 12052 12053 12054 12055 12056 12057 12058 12059 12060 12061 12062 12063 12064 12065 12066 12067 12068 12069 12070 12071 12072 12073 12074 12075 12076 12077 12078 12079 12080 12081 12082 12083 12084 12085 12086 12087 12088 12089 12090 12091 12092 12093 12094 12095 12096 12097 12098 12099 12100 12101 12102 12103 12104 12105 12106 12107 12108 12109 12110 12111 12112 12113 12114 12115 12116 12117 12118 12119 12120 12121 12122 12123 12124 12125 12126 12127 12128 12129 12130 12131 12132 12133 12134 12135 12136 12137 12138 12139 12140 12141 12142 12143 12144 12145 12146 12147 12148 12149 12150 12151 12152 12153 12154 12155 12156 12157 12158 12159 12160 12161 12162 12163 12164 12165 12166 12167 12168 12169 12170 12171 12172 12173 12174 12175 12176 12177 12178 12179 12180 12181 12182 12183 12184 12185 12186 12187 12188 12189 12190 12191 12192 12193 12194 12195 12196 12197 12198 12199 12200 12201 12202 12203 12204 12205 12206 12207 12208 12209 12210 12211 12212 12213 12214 12215 12216 12217 12218 12219 12220 12221 12222 12223 12224 12225 12226 12227 12228 12229 12230 12231 12232 12233 12234 12235 12236 12237 12238 12239 12240 12241 12242 12243 12244 12245 12246 12247 12248 12249 12250 12251 12252 12253 12254 12255 12256 12257 12258 12259 12260 12261 12262 12263 12264 12265 12266 12267 12268 12269 12270 12271 12272 12273 12274 12275 12276 12277 12278 12279 12280 12281 12282 12283 12284 12285 12286 12287 12288 12289 12290 12291 12292 12293 12294 12295 12296 12297 12298 12299 12300 12301 12302 12303 12304 12305 12306 12307 12308 12309 12310 12311 12312 12313 12314 12315 12316 12317 12318 12319 12320 12321 12322 12323 12324 12325 12326 12327 12328 12329 12330 12331 12332 12333 12334 12335 12336 12337 12338 12339 12340 12341 12342 12343 12344 12345 12346 12347 12348 12349 12350 12351 12352 12353 12354 12355 12356 12357 12358 12359 12360 12361 12362 12363 12364 12365 12366 12367 12368 12369 12370 12371 12372 12373 12374 12375 12376 12377 12378 12379 12380 12381 12382 12383 12384 12385 12386 12387 12388 12389 12390 12391 12392 12393 12394 12395 12396 12397 12398 12399 12400 12401 12402 12403 12404 12405 12406 12407 12408 12409 12410 12411 12412 12413 12414 12415 12416 12417 12418 12419 12420 12421 12422 12423 12424 12425 12426 12427 12428 12429 12430 12431 12432 12433 12434 12435 12436 12437 12438 12439 12440 12441 12442 12443 12444 12445 12446 12447 12448 12449 12450 12451 12452 12453 12454 12455 12456 12457 12458 12459 12460 12461 12462 12463 12464 12465 12466 12467 12468 12469 12470 12471 12472 12473 12474 12475 12476 12477 12478 12479 12480 12481 12482 12483 12484 12485 12486 12487 12488 12489 12490 12491 12492 12493 12494 12495 12496 12497 12498 12499 12500 12501 12502 12503 12504 12505 12506 12507 12508 12509 12510 12511 12512 12513 12514 12515 12516 12517 12518 12519 12520 12521 12522 12523 12524 12525 12526 12527 12528 12529 12530 12531 12532 12533 12534 12535 12536 12537 12538 12539 12540 12541 12542 12543 12544 12545 12546 12547 12548 12549 12550 12551 12552 12553 12554 12555 12556 12557 12558 12559 12560 12561 12562 12563 12564 12565 12566 12567 12568 12569 12570 12571 12572 12573 12574 12575 12576 12577 12578 12579 12580 12581 12582 12583 12584 12585 12586 12587 12588 12589 12590 12591 12592 12593 12594 12595 12596 12597 12598 12599 12600 12601 12602 12603 12604 12605 12606 12607 12608 12609 12610 12611 12612 12613 12614 12615 12616 12617 12618 12619 12620 12621 12622 12623 12624 12625 12626 12627 12628 12629 12630 12631 12632 12633 12634 12635 12636 12637 12638 12639 12640 12641 12642 12643 12644 12645 12646 12647 12648 12649 12650 12651 12652 12653 12654 12655 12656 12657 12658 12659 12660 12661 12662 12663 12664 12665 12666 12667 12668 12669 12670 12671 12672 12673 12674 12675 12676 12677 12678 12679 12680 12681 12682 12683 12684 12685 12686 12687 12688 12689 12690 12691 12692 12693 12694 12695 12696 12697 12698 12699 12700 12701 12702 12703 12704 12705 12706 12707 12708 12709 12710 12711 12712 12713 12714 12715 12716 12717 12718 12719 12720 12721 12722 12723 12724 12725 12726 12727 12728 12729 12730 12731 12732 12733 12734 12735 12736 12737 12738 12739 12740 12741 12742 12743 12744 12745 12746 12747 12748 12749 12750 12751 12752 12753 12754 12755 12756 12757 12758 12759 12760 12761 12762 12763 12764 12765 12766 12767 12768 12769 12770 12771 12772 12773 12774 12775 12776 12777 12778 12779 12780 12781 12782 12783 12784 12785 12786 12787 12788 12789 12790 12791 12792 12793 12794 12795 12796 12797 12798 12799 12800 12801 12802 12803 12804 12805 12806 12807 12808 12809 12810 12811 12812 12813 12814 12815 12816 12817 12818 12819 12820 12821 12822 12823 12824 12825 12826 12827 12828 12829 12830 12831 12832 12833 12834 12835 12836 12837 12838 12839 12840 12841 12842 12843 12844 12845 12846 12847 12848 12849 12850 12851 12852 12853 12854 12855 12856 12857 12858 12859 12860 12861 12862 12863 12864 12865 12866 12867 12868 12869 12870 12871 12872 12873 12874 12875 12876 12877 12878 12879 12880 12881 12882 12883 12884 12885 12886 12887 12888 12889 12890 12891 12892 12893 12894 12895 12896 12897 12898 12899 12900 12901 12902 12903 12904 12905 12906 12907 12908 12909 12910 12911 12912 12913 12914 12915 12916 12917 12918 12919 12920 12921 12922 12923 12924 12925 12926 12927 12928 12929 12930 12931 12932 12933 12934 12935 12936 12937 12938 12939 12940 12941 12942 12943 12944 12945 12946 12947 12948 12949 12950 12951 12952 12953 12954 12955 12956 12957 12958 12959 12960 12961 12962 12963 12964 12965 12966 12967 12968 12969 12970 12971 12972 12973 12974 12975 12976 12977 12978 12979 12980 12981 12982 12983 12984 12985 12986 12987 12988 12989 12990 12991 12992 12993 12994 12995 12996 12997 12998 12999 13000 13001 13002 13003 13004 13005 13006 13007 13008 13009 13010 13011 13012 13013 13014 13015 13016 13017 13018 13019 13020 13021 13022 13023 13024 13025 13026 13027 13028 13029 13030 13031 13032 13033 13034 13035 13036 13037 13038 13039 13040 13041 13042 13043 13044 13045 13046 13047 13048 13049 13050 13051 13052 13053 13054 13055 13056 13057 13058 13059 13060 13061 13062 13063 13064 13065 13066 13067 13068 13069 13070 13071 13072 13073 13074 13075 13076 13077 13078 13079 13080 13081 13082 13083 13084 13085 13086 13087 13088 13089 13090 13091 13092 13093 13094 13095 13096 13097 13098 13099 13100 13101 13102 13103 13104 13105 13106 13107 13108 13109 13110 13111 13112 13113 13114 13115 13116 13117 13118 13119 13120 13121 13122 13123 13124 13125 13126 13127 13128 13129 13130 13131 13132 13133 13134 13135 13136 13137 13138 13139 13140 13141 13142 13143 13144 13145 13146 13147 13148 13149 13150 13151 13152 13153 13154 13155 13156 13157 13158 13159 13160 13161 13162 13163 13164 13165 13166 13167 13168 13169 13170 13171 13172 13173 13174 13175 13176 13177 13178 13179 13180 13181 13182 13183 13184 13185 13186 13187 13188 13189 13190 13191 13192 13193 13194 13195 13196 13197 13198 13199 13200 13201 13202 13203 13204 13205 13206 13207 13208 13209 13210 13211 13212 13213 13214 13215 13216 13217 13218 13219 13220 13221 13222 13223 13224 13225 13226 13227 13228 13229 13230 13231 13232 13233 13234 13235 13236 13237 13238 13239 13240 13241 13242 13243 13244 13245 13246 13247 13248 13249 13250 13251 13252 13253 13254 13255 13256 13257 13258 13259 13260 13261 13262 13263 13264 13265 13266 13267 13268 13269 13270 13271 13272 13273 13274 13275 13276 13277 13278 13279 13280 13281 13282 13283 13284 13285 13286 13287 13288 13289 13290 13291 13292 13293 13294 13295 13296 13297 13298 13299 13300 13301 13302 13303 13304 13305 13306 13307 13308 13309 13310 13311 13312 13313 13314 13315 13316 13317 13318 13319 13320 13321 13322 13323 13324 13325 13326 13327 13328 13329 13330 13331 13332 13333 13334 13335 13336 13337 13338 13339 13340 13341 13342 13343 13344 13345 13346 13347 13348 13349 13350 13351 13352 13353 13354 13355 13356 13357 13358 13359 13360 13361 13362 13363 13364 13365 13366 13367 13368 13369 13370 13371 13372 13373 13374 13375 13376 13377 13378 13379 13380 13381 13382 13383 13384 13385 13386 13387 13388 13389 13390 13391 13392 13393 13394 13395 13396 13397 13398 13399 13400 13401 13402 13403 13404 13405 13406 13407 13408 13409 13410 13411 13412 13413 13414 13415 13416 13417 13418 13419 13420 13421 13422 13423 13424 13425 13426 13427 13428 13429 13430 13431 13432 13433 13434 13435 13436 13437 13438 13439 13440 13441 13442 13443 13444 13445 13446 13447 13448 13449 13450 13451 13452 13453 13454 13455 13456 13457 13458 13459 13460 13461 13462 13463 13464 13465 13466 13467 13468 13469 13470 13471 13472 13473 13474 13475 13476 13477 13478 13479 13480 13481 13482 13483 13484 13485 13486 13487 13488 13489 13490 13491 13492 13493 13494 13495 13496 13497 13498 13499 13500 13501 13502 13503 13504 13505 13506 13507 13508 13509 13510 13511 13512 13513 13514 13515 13516 13517 13518 13519 13520 13521 13522 13523 13524 13525 13526 13527 13528 13529 13530 13531 13532 13533 13534 13535 13536 13537 13538 13539 13540 13541 13542 13543 13544 13545 13546 13547 13548 13549 13550 13551 13552 13553 13554 13555 13556 13557 13558 13559 13560 13561 13562 13563 13564 13565 13566 13567 13568 13569 13570 13571 13572 13573 13574 13575 13576 13577 13578 13579 13580 13581 13582 13583 13584 13585 13586 13587 13588 13589 13590 13591 13592 13593 13594 13595 13596 13597 13598 13599 13600 13601 13602 13603 13604 13605 13606 13607 13608 13609 13610 13611 13612 13613 13614 13615 13616 13617 13618 13619 13620 13621 13622 13623 13624 13625 13626 13627 13628 13629 13630 13631 13632 13633 13634 13635 13636 13637 13638 13639 13640 13641 13642 13643 13644 13645 13646 13647 13648 13649 13650 13651 13652 13653 13654 13655 13656 13657 13658 13659 13660 13661 13662 13663 13664 13665 13666 13667 13668 13669 13670 13671 13672 13673 13674 13675 13676 13677 13678 13679 13680 13681 13682 13683 13684 13685 13686 13687 13688 13689 13690 13691 13692 13693 13694 13695 13696 13697 13698 13699 13700 13701 13702 13703 13704 13705 13706 13707 13708 13709 13710 13711 13712 13713 13714 13715 13716 13717 13718 13719 13720 13721 13722 13723 13724 13725 13726 13727 13728 13729 13730 13731 13732 13733 13734 13735 13736 13737 13738 13739 13740 13741 13742 13743 13744 13745 13746 13747 13748 13749 13750 13751 13752 13753 13754 13755 13756 13757 13758 13759 13760 13761 13762 13763 13764 13765 13766 13767 13768 13769 13770 13771 13772 13773 13774 13775 13776 13777 13778 13779 13780 13781 13782 13783 13784 13785 13786 13787 13788 13789 13790 13791 13792 13793 13794 13795 13796 13797 13798 13799 13800 13801 13802 13803 13804 13805 13806 13807 13808 13809 13810 13811 13812 13813 13814 13815 13816 13817 13818 13819 13820 13821 13822 13823 13824 13825 13826 13827 13828 13829 13830 13831 13832 13833 13834 13835 13836 13837 13838 13839 13840 13841 13842 13843 13844 13845 13846 13847 13848 13849 13850 13851 13852 13853 13854 13855 13856 13857 13858 13859 13860 13861 13862 13863 13864 13865 13866 13867 13868 13869 13870 13871 13872 13873 13874 13875 13876 13877 13878 13879 13880 13881 13882 13883 13884 13885 13886 13887 13888 13889 13890 13891 13892 13893 13894 13895 13896 13897 13898 13899 13900 13901 13902 13903 13904 13905 13906 13907 13908 13909 13910 13911 13912 13913 13914 13915 13916 13917 13918 13919 13920 13921 13922 13923 13924 13925 13926 13927 13928 13929 13930 13931 13932 13933 13934 13935 13936 13937 13938 13939 13940 13941 13942 13943 13944 13945 13946 13947 13948 13949 13950 13951 13952 13953 13954 13955 13956 13957 13958 13959 13960 13961 13962 13963 13964 13965 13966 13967 13968 13969 13970 13971 13972 13973 13974 13975 13976 13977 13978 13979 13980 13981 13982 13983 13984 13985 13986 13987 13988 13989 13990 13991 13992 13993 13994 13995 13996 13997 13998 13999 14000 14001 14002 14003 14004 14005 14006 14007 14008 14009 14010 14011 14012 14013 14014 14015 14016 14017 14018 14019 14020 14021 14022 14023 14024 14025 14026 14027 14028 14029 14030 14031 14032 14033 14034 14035 14036 14037 14038 14039 14040 14041 14042 14043 14044 14045 14046 14047 14048 14049 14050 14051 14052 14053 14054 14055 14056 14057 14058 14059 14060 14061 14062 14063 14064 14065 14066 14067 14068 14069 14070 14071 14072 14073 14074 14075 14076 14077 14078 14079 14080 14081 14082 14083 14084 14085 14086 14087 14088 14089 14090 14091 14092 14093 14094 14095 14096 14097 14098 14099 14100 14101 14102 14103 14104 14105 14106 14107 14108 14109 14110 14111 14112 14113 14114 14115 14116 14117 14118 14119 14120 14121 14122 14123 14124 14125 14126 14127 14128 14129 14130 14131 14132 14133 14134 14135 14136 14137 14138 14139 14140 14141 14142 14143 14144 14145 14146 14147 14148 14149 14150 14151 14152 14153 14154 14155 14156 14157 14158 14159 14160 14161 14162 14163 14164 14165 14166 14167 14168 14169 14170 14171 14172 14173 14174 14175 14176 14177 14178 14179 14180 14181 14182 14183 14184 14185 14186 14187 14188 14189 14190 14191 14192 14193 14194 14195 14196 14197 14198 14199 14200 14201 14202 14203 14204 14205 14206 14207 14208 14209 14210 14211 14212 14213 14214 14215 14216 14217 14218 14219 14220 14221 14222 14223 14224 14225 14226 14227 14228 14229 14230 14231 14232 14233 14234 14235 14236 14237 14238 14239 14240 14241 14242 14243 14244 14245 14246 14247 14248 14249 14250 14251 14252 14253 14254 14255 14256 14257 14258 14259 14260 14261 14262 14263 14264 14265 14266 14267 14268 14269 14270 14271 14272 14273 14274 14275 14276 14277 14278 14279 14280 14281 14282 14283 14284 14285 14286 14287 14288 14289 14290 14291 14292 14293 14294 14295 14296 14297 14298 14299 14300 14301 14302 14303 14304 14305 14306 14307 14308 14309 14310 14311 14312 14313 14314 14315 14316 14317 14318 14319 14320 14321 14322 14323 14324 14325 14326 14327 14328 14329 14330 14331 14332 14333 14334 14335 14336 14337 14338 14339 14340 14341 14342 14343 14344 14345 14346 14347 14348 14349 14350 14351 14352 14353 14354 14355 14356 14357 14358 14359 14360 14361 14362 14363 14364 14365 14366 14367 14368 14369 14370 14371 14372 14373 14374 14375 14376 14377 14378 14379 14380 14381 14382 14383 14384 14385 14386 14387 14388 14389 14390 14391 14392 14393 14394 14395 14396 14397 14398 14399 14400 14401 14402 14403 14404 14405 14406 14407 14408 14409 14410 14411 14412 14413 14414 14415 14416 14417 14418 14419 14420 14421 14422 14423 14424 14425 14426 14427 14428 14429 14430 14431 14432 14433 14434 14435 14436 14437 14438 14439 14440 14441 14442 14443 14444 14445 14446 14447 14448 14449 14450 14451 14452 14453 14454 14455 14456 14457 14458 14459 14460 14461 14462 14463 14464 14465 14466 14467 14468 14469 14470 14471 14472 14473 14474 14475 14476 14477 14478 14479 14480 14481 14482 14483 14484 14485 14486 14487 14488 14489 14490 14491 14492 14493 14494 14495 14496 14497 14498 14499 14500 14501 14502 14503 14504 14505 14506 14507 14508 14509 14510 14511 14512 14513 14514 14515 14516 14517 14518 14519 14520 14521 14522 14523 14524 14525 14526 14527 14528 14529 14530 14531 14532 14533 14534 14535 14536 14537 14538 14539 14540 14541 14542 14543 14544 14545 14546 14547 14548 14549 14550 14551 14552 14553 14554 14555 14556 14557 14558 14559 14560 14561 14562 14563 14564 14565 14566 14567 14568 14569 14570 14571 14572 14573 14574 14575 14576 14577 14578 14579 14580 14581 14582 14583 14584 14585 14586 14587 14588 14589 14590 14591 14592 14593 14594 14595 14596 14597 14598 14599 14600 14601 14602 14603 14604 14605 14606 14607 14608 14609 14610 14611 14612 14613 14614 14615 14616 14617 14618 14619 14620 14621 14622 14623 14624 14625 14626 14627 14628 14629 14630 14631 14632 14633 14634 14635 14636 14637 14638 14639 14640 14641 14642 14643 14644 14645 14646 14647 14648 14649 14650 14651 14652 14653 14654 14655 14656 14657 14658 14659 14660 14661 14662 14663 14664 14665 14666 14667 14668 14669 14670 14671 14672 14673 14674 14675 14676 14677 14678 14679 14680 14681 14682 14683 14684 14685 14686 14687 14688 14689 14690 14691 14692 14693 14694 14695 14696 14697 14698 14699 14700 14701 14702 14703 14704 14705 14706 14707 14708 14709 14710 14711 14712 14713 14714 14715 14716 14717 14718 14719 14720 14721 14722 14723 14724 14725 14726 14727 14728 14729 14730 14731 14732 14733 14734 14735 14736 14737 14738 14739 14740 14741 14742 14743 14744 14745 14746 14747 14748 14749 14750 14751 14752 14753 14754 14755 14756 14757 14758 14759 14760 14761 14762 14763 14764 14765 14766 14767 14768 14769 14770 14771 14772 14773 14774 14775 14776 14777 14778 14779 14780 14781 14782 14783 14784 14785 14786 14787 14788 14789 14790 14791 14792 14793 14794 14795 14796 14797 14798 14799 14800 14801 14802 14803 14804 14805 14806 14807 14808 14809 14810 14811 14812 14813 14814 14815 14816 14817 14818 14819 14820 14821 14822 14823 14824 14825 14826 14827 14828 14829 14830 14831 14832 14833 14834 14835 14836 14837 14838 14839 14840 14841 14842 14843 14844 14845 14846 14847 14848 14849 14850 14851 14852 14853 14854 14855 14856 14857 14858 14859 14860 14861 14862 14863 14864 14865 14866 14867 14868 14869 14870 14871 14872 14873 14874 14875 14876 14877 14878 14879 14880 14881 14882 14883 14884 14885 14886 14887 14888 14889 14890 14891 14892 14893 14894 14895 14896 14897 14898 14899 14900 14901 14902 14903 14904 14905 14906 14907 14908 14909 14910 14911 14912 14913 14914 14915 14916 14917 14918 14919 14920 14921 14922 14923 14924 14925 14926 14927 14928 14929 14930 14931 14932 14933 14934 14935 14936 14937 14938 14939 14940 14941 14942 14943 14944 14945 14946 14947 14948 14949 14950 14951 14952 14953 14954 14955 14956 14957 14958 14959 14960 14961 14962 14963 14964 14965 14966 14967 14968 14969 14970 14971 14972 14973 14974 14975 14976 14977 14978 14979 14980 14981 14982 14983 14984 14985 14986 14987 14988 14989 14990 14991 14992 14993 14994 14995 14996 14997 14998 14999 15000 15001 15002 15003 15004 15005 15006 15007 15008 15009 15010 15011 15012 15013 15014 15015 15016 15017 15018 15019 15020 15021 15022 15023 15024 15025 15026 15027 15028 15029 15030 15031 15032 15033 15034 15035 15036 15037 15038 15039 15040 15041 15042 15043 15044 15045 15046 15047 15048 15049 15050 15051 15052 15053 15054 15055 15056 15057 15058 15059 15060 15061 15062 15063 15064 15065 15066 15067 15068 15069 15070 15071 15072 15073 15074 15075 15076 15077 15078 15079 15080 15081 15082 15083 15084 15085 15086 15087 15088 15089 15090 15091 15092 15093 15094 15095 15096 15097 15098 15099 15100 15101 15102 15103 15104 15105 15106 15107 15108 15109 15110 15111 15112 15113 15114 15115 15116 15117 15118 15119 15120 15121 15122 15123 15124 15125 15126 15127 15128 15129 15130 15131 15132 15133 15134 15135 15136 15137 15138 15139 15140 15141 15142 15143 15144 15145 15146 15147 15148 15149 15150 15151 15152 15153 15154 15155 15156 15157 15158 15159 15160 15161 15162 15163 15164 15165 15166 15167 15168 15169 15170 15171 15172 15173 15174 15175 15176 15177 15178 15179 15180 15181 15182 15183 15184 15185 15186 15187 15188 15189 15190 15191 15192 15193 15194 15195 15196 15197 15198 15199 15200 15201 15202 15203 15204 15205 15206 15207 15208 15209 15210 15211 15212 15213 15214 15215 15216 15217 15218 15219 15220 15221 15222 15223 15224 15225 15226 15227 15228 15229 15230 15231 15232 15233 15234 15235 15236 15237 15238 15239 15240 15241 15242 15243 15244 15245 15246 15247 15248 15249 15250 15251 15252 15253 15254 15255 15256 15257 15258 15259 15260 15261 15262 15263 15264 15265 15266 15267 15268 15269 15270 15271 15272 15273 15274 15275 15276 15277 15278 15279 15280 15281 15282 15283 15284 15285 15286 15287 15288 15289 15290 15291 15292 15293 15294 15295 15296 15297 15298 15299 15300 15301 15302 15303 15304 15305 15306 15307 15308 15309 15310 15311 15312 15313 15314 15315 15316 15317 15318 15319 15320 15321 15322 15323 15324 15325 15326 15327 15328 15329 15330 15331 15332 15333 15334 15335 15336 15337 15338 15339 15340 15341 15342 15343 15344 15345 15346 15347 15348 15349 15350 15351 15352 15353 15354 15355 15356 15357 15358 15359 15360 15361 15362 15363 15364 15365 15366 15367 15368 15369 15370 15371 15372 15373 15374 15375 15376 15377 15378 15379 15380 15381 15382 15383 15384 15385 15386 15387 15388 15389 15390 15391 15392 15393 15394 15395 15396 15397 15398 15399 15400 15401 15402 15403 15404 15405 15406 15407 15408 15409 15410 15411 15412 15413 15414 15415 15416 15417 15418 15419 15420 15421 15422 15423 15424 15425 15426 15427 15428 15429 15430 15431 15432 15433 15434 15435 15436 15437 15438 15439 15440 15441 15442 15443 15444 15445 15446 15447 15448 15449 15450 15451 15452 15453 15454 15455 15456 15457 15458 15459 15460 15461 15462 15463 15464 15465 15466 15467 15468 15469 15470 15471 15472 15473 15474 15475 15476 15477 15478 15479 15480 15481 15482 15483 15484 15485 15486 15487 15488 15489 15490 15491 15492 15493 15494 15495 15496 15497 15498 15499 15500 15501 15502 15503 15504 15505 15506 15507 15508 15509 15510 15511 15512 15513 15514 15515 15516 15517 15518 15519 15520 15521 15522 15523 15524 15525 15526 15527 15528 15529 15530 15531 15532 15533 15534 15535 15536 15537 15538 15539 15540 15541 15542 15543 15544 15545 15546 15547 15548 15549 15550 15551 15552 15553 15554 15555 15556 15557 15558 15559 15560 15561 15562 15563 15564 15565 15566 15567 15568 15569 15570 15571 15572 15573 15574 15575 15576 15577 15578 15579 15580 15581 15582 15583 15584 15585 15586 15587 15588 15589 15590 15591 15592 15593 15594 15595 15596 15597 15598 15599 15600 15601 15602 15603 15604 15605 15606 15607 15608 15609 15610 15611 15612 15613 15614 15615 15616 15617 15618 15619 15620 15621 15622 15623 15624 15625 15626 15627 15628 15629 15630 15631 15632 15633 15634 15635 15636 15637 15638 15639 15640 15641 15642 15643 15644 15645 15646 15647 15648 15649 15650 15651 15652 15653 15654 15655 15656 15657 15658 15659 15660 15661 15662 15663 15664 15665 15666 15667 15668 15669 15670 15671 15672 15673 15674 15675 15676 15677 15678 15679 15680 15681 15682 15683 15684 15685 15686 15687 15688 15689 15690 15691 15692 15693 15694 15695 15696 15697 15698 15699 15700 15701 15702 15703 15704 15705 15706 15707 15708 15709 15710 15711 15712 15713 15714 15715 15716 15717 15718 15719 15720 15721 15722 15723 15724 15725 15726 15727 15728 15729 15730 15731 15732 15733 15734 15735 15736 15737 15738 15739 15740 15741 15742 15743 15744 15745 15746 15747 15748 15749 15750 15751 15752 15753 15754 15755 15756 15757 15758 15759 15760 15761 15762 15763 15764 15765 15766 15767 15768 15769 15770 15771 15772 15773 15774 15775 15776 15777 15778 15779 15780 15781 15782 15783 15784 15785 15786 15787 15788 15789 15790 15791 15792 15793 15794 15795 15796 15797 15798 15799 15800 15801 15802 15803 15804 15805 15806 15807 15808 15809 15810 15811 15812 15813 15814 15815 15816 15817 15818 15819 15820 15821 15822 15823 15824 15825 15826 15827 15828 15829 15830 15831 15832 15833 15834 15835 15836 15837 15838 15839 15840 15841 15842 15843 15844 15845 15846 15847 15848 15849 15850 15851 15852 15853 15854 15855 15856 15857 15858 15859 15860 15861 15862 15863 15864 15865 15866 15867 15868 15869 15870 15871 15872 15873 15874 15875 15876 15877 15878 15879 15880 15881 15882 15883 15884 15885 15886 15887 15888 15889 15890 15891 15892 15893 15894 15895 15896 15897 15898 15899 15900 15901 15902 15903 15904 15905 15906 15907 15908 15909 15910 15911 15912 15913 15914 15915 15916 15917 15918 15919 15920 15921 15922 15923 15924 15925 15926 15927 15928 15929 15930 15931 15932 15933 15934 15935 15936 15937 15938 15939 15940 15941 15942 15943 15944 15945 15946 15947 15948 15949 15950 15951 15952 15953 15954 15955 15956 15957 15958 15959 15960 15961 15962 15963 15964 15965 15966 15967 15968 15969 15970 15971 15972 15973 15974 15975 15976 15977 15978 15979 15980 15981 15982 15983 15984 15985 15986 15987 15988 15989 15990 15991 15992 15993 15994 15995 15996 15997 15998 15999 16000 16001 16002 16003 16004 16005 16006 16007 16008 16009 16010 16011 16012 16013 16014 16015 16016 16017 16018 16019 16020 16021 16022 16023 16024 16025 16026 16027 16028 16029 16030 16031 16032 16033 16034 16035 16036 16037 16038 16039 16040 16041 16042 16043 16044 16045 16046 16047 16048 16049 16050 16051 16052 16053 16054 16055 16056 16057 16058 16059 16060 16061 16062 16063 16064 16065 16066 16067 16068 16069 16070 16071 16072 16073 16074 16075 16076 16077 16078 16079 16080 16081 16082 16083 16084 16085 16086 16087 16088 16089 16090 16091 16092 16093 16094 16095 16096 16097 16098 16099 16100 16101 16102 16103 16104 16105 16106 16107 16108 16109 16110 16111 16112 16113 16114 16115 16116 16117 16118 16119 16120 16121 16122 16123 16124 16125 16126 16127 16128 16129 16130 16131 16132 16133 16134 16135 16136 16137 16138 16139 16140 16141 16142 16143 16144 16145 16146 16147 16148 16149 16150 16151 16152 16153 16154 16155 16156 16157 16158 16159 16160 16161 16162 16163 16164 16165 16166 16167 16168 16169 16170 16171 16172 16173 16174 16175 16176 16177 16178 16179 16180 16181 16182 16183 16184 16185 16186 16187 16188 16189 16190 16191 16192 16193 16194 16195 16196 16197 16198 16199 16200 16201 16202 16203 16204 16205 16206 16207 16208 16209 16210 16211 16212 16213 16214 16215 16216 16217 16218 16219 16220 16221 16222 16223 16224 16225 16226 16227 16228 16229 16230 16231 16232 16233 16234 16235 16236 16237 16238 16239 16240 16241 16242 16243 16244 16245 16246 16247 16248 16249 16250 16251 16252 16253 16254 16255 16256 16257 16258 16259 16260 16261 16262 16263 16264 16265 16266 16267 16268 16269 16270 16271 16272 16273 16274 16275 16276 16277 16278 16279 16280 16281 16282 16283 16284 16285 16286 16287 16288 16289 16290 16291 16292 16293 16294 16295 16296 16297 16298 16299 16300 16301 16302 16303 16304 16305 16306 16307 16308 16309 16310 16311 16312 16313 16314 16315 16316 16317 16318 16319 16320 16321 16322 16323 16324 16325 16326 16327 16328 16329 16330 16331 16332 16333 16334 16335 16336 16337 16338 16339 16340 16341 16342 16343 16344 16345 16346 16347 16348 16349 16350 16351 16352 16353 16354 16355 16356 16357 16358 16359 16360 16361 16362 16363 16364 16365 16366 16367 16368 16369 16370 16371 16372 16373 16374 16375 16376 16377 16378 16379 16380 16381 16382 16383 16384 16385 16386 16387 16388 16389 16390 16391 16392 16393 16394 16395 16396 16397 16398 16399 16400 16401 16402 16403 16404 16405 16406 16407 16408 16409 16410 16411 16412 16413 16414 16415 16416 16417 16418 16419 16420 16421 16422 16423 16424 16425 16426 16427 16428 16429 16430 16431 16432 16433 16434 16435 16436 16437 16438 16439 16440 16441 16442 16443 16444 16445 16446 16447 16448 16449 16450 16451 16452 16453 16454 16455 16456 16457 16458 16459 16460 16461 16462 16463 16464 16465 16466 16467 16468 16469 16470 16471 16472 16473 16474 16475 16476 16477 16478 16479 16480 16481 16482 16483 16484 16485 16486 16487 16488 16489 16490 16491 16492 16493 16494 16495 16496 16497 16498 16499 16500 16501 16502 16503 16504 16505 16506 16507 16508 16509 16510 16511 16512 16513 16514 16515 16516 16517 16518 16519 16520 16521 16522 16523 16524 16525 16526 16527 16528 16529 16530 16531 16532 16533 16534 16535 16536 16537 16538 16539 16540 16541 16542 16543 16544 16545 16546 16547 16548 16549 16550 16551 16552 16553 16554 16555 16556 16557 16558 16559 16560 16561 16562 16563 16564 16565 16566 16567 16568 16569 16570 16571 16572 16573 16574 16575 16576 16577 16578 16579 16580 16581 16582 16583 16584 16585 16586 16587 16588 16589 16590 16591 16592 16593 16594 16595 16596 16597 16598 16599 16600 16601 16602 16603 16604 16605 16606 16607 16608 16609 16610 16611 16612 16613 16614 16615 16616 16617 16618 16619 16620 16621 16622 16623 16624 16625 16626 16627 16628 16629 16630 16631 16632 16633 16634 16635 16636 16637 16638 16639 16640 16641 16642 16643 16644 16645 16646 16647 16648 16649 16650 16651 16652 16653 16654 16655 16656 16657 16658 16659 16660 16661 16662 16663 16664 16665 16666 16667 16668 16669 16670 16671 16672 16673 16674 16675 16676 16677 16678 16679 16680 16681 16682 16683 16684 16685 16686 16687 16688 16689 16690 16691 16692 16693 16694 16695 16696 16697 16698 16699 16700 16701 16702 16703 16704 16705 16706 16707 16708 16709 16710 16711 16712 16713 16714 16715 16716 16717 16718 16719 16720 16721 16722 16723 16724 16725 16726 16727 16728 16729 16730 16731 16732 16733 16734 16735 16736 16737 16738 16739 16740 16741 16742 16743 16744 16745 16746 16747 16748 16749 16750 16751 16752 16753 16754 16755 16756 16757 16758 16759 16760 16761 16762 16763 16764 16765 16766 16767 16768 16769 16770 16771 16772 16773 16774 16775 16776 16777 16778 16779 16780 16781 16782 16783 16784 16785 16786 16787 16788 16789 16790 16791 16792 16793 16794 16795 16796 16797 16798 16799 16800 16801 16802 16803 16804 16805 16806 16807 16808 16809 16810 16811 16812 16813 16814 16815 16816 16817 16818 16819 16820 16821 16822 16823 16824 16825 16826 16827 16828 16829 16830 16831 16832 16833 16834 16835 16836 16837 16838 16839 16840 16841 16842 16843 16844 16845 16846 16847 16848 16849 16850 16851 16852 16853 16854 16855 16856 16857 16858 16859 16860 16861 16862 16863 16864 16865 16866 16867 16868 16869 16870 16871 16872 16873 16874 16875 16876 16877 16878 16879 16880 16881 16882 16883 16884 16885 16886 16887 16888 16889 16890 16891 16892 16893 16894 16895 16896 16897 16898 16899 16900 16901 16902 16903 16904 16905 16906 16907 16908 16909 16910 16911 16912 16913 16914 16915 16916 16917 16918 16919 16920 16921 16922 16923 16924 16925 16926 16927 16928 16929 16930 16931 16932 16933 16934 16935 16936 16937 16938 16939 16940 16941 16942 16943 16944 16945 16946 16947 16948 16949 16950 16951 16952 16953 16954 16955 16956 16957 16958 16959 16960 16961 16962 16963 16964 16965 16966 16967 16968 16969 16970 16971 16972 16973 16974 16975 16976 16977 16978 16979 16980 16981 16982 16983 16984 16985 16986 16987 16988 16989 16990 16991 16992 16993 16994 16995 16996 16997 16998 16999 17000 17001 17002 17003 17004 17005 17006 17007 17008 17009 17010 17011 17012 17013 17014 17015 17016 17017 17018 17019 17020 17021 17022 17023 17024 17025 17026 17027 17028 17029 17030 17031 17032 17033 17034 17035 17036 17037 17038 17039 17040 17041 17042 17043 17044 17045 17046 17047 17048 17049 17050 17051 17052 17053 17054 17055 17056 17057 17058 17059 17060 17061 17062 17063 17064 17065 17066 17067 17068 17069 17070 17071 17072 17073 17074 17075 17076 17077 17078 17079 17080 17081 17082 17083 17084 17085 17086 17087 17088 17089 17090 17091 17092 17093 17094 17095 17096 17097 17098 17099 17100 17101 17102 17103 17104 17105 17106 17107 17108 17109 17110 17111 17112 17113 17114 17115 17116 17117 17118 17119 17120 17121 17122 17123 17124 17125 17126 17127 17128 17129 17130 17131 17132 17133 17134 17135 17136 17137 17138 17139 17140 17141 17142 17143 17144 17145 17146 17147 17148 17149 17150 17151 17152 17153 17154 17155 17156 17157 17158 17159 17160 17161 17162 17163 17164 17165 17166 17167 17168 17169 17170 17171 17172 17173 17174 17175 17176 17177 17178 17179 17180 17181 17182 17183 17184 17185 17186 17187 17188 17189 17190 17191 17192 17193 17194 17195 17196 17197 17198 17199 17200 17201 17202 17203 17204 17205 17206 17207 17208 17209 17210 17211 17212 17213 17214 17215 17216 17217 17218 17219 17220 17221 17222 17223 17224 17225 17226 17227 17228 17229 17230 17231 17232 17233 17234 17235 17236 17237 17238 17239 17240 17241 17242 17243 17244 17245 17246 17247 17248 17249 17250 17251 17252 17253 17254 17255 17256 17257 17258 17259 17260 17261 17262 17263 17264 17265 17266 17267 17268 17269 17270 17271 17272 17273 17274 17275 17276 17277 17278 17279 17280 17281 17282 17283 17284 17285 17286 17287 17288 17289 17290 17291 17292 17293 17294 17295 17296 17297 17298 17299 17300 17301 17302 17303 17304 17305 17306 17307 17308 17309 17310 17311 17312 17313 17314 17315 17316 17317 17318 17319 17320 17321 17322 17323 17324 17325 17326 17327 17328 17329 17330 17331 17332 17333 17334 17335 17336 17337 17338 17339 17340 17341 17342 17343 17344 17345 17346 17347 17348 17349 17350 17351 17352 17353 17354 17355 17356 17357 17358 17359 17360 17361 17362 17363 17364 17365 17366 17367 17368 17369 17370 17371 17372 17373 17374 17375 17376 17377 17378 17379 17380 17381 17382 17383 17384 17385 17386 17387 17388 17389 17390 17391 17392 17393 17394 17395 17396 17397 17398 17399 17400 17401 17402 17403 17404 17405 17406 17407 17408 17409 17410 17411 17412 17413 17414 17415 17416 17417 17418 17419 17420 17421 17422 17423 17424 17425 17426 17427 17428 17429 17430 17431 17432 17433 17434 17435 17436 17437 17438 17439 17440 17441 17442 17443 17444 17445 17446 17447 17448 17449 17450 17451 17452 17453 17454 17455 17456 17457 17458 17459 17460 17461 17462 17463 17464 17465 17466 17467 17468 17469 17470 17471 17472 17473 17474 17475 17476 17477 17478 17479 17480 17481 17482 17483 17484 17485 17486 17487 17488 17489 17490 17491 17492 17493 17494 17495 17496 17497 17498 17499 17500 17501 17502 17503 17504 17505 17506 17507 17508 17509 17510 17511 17512 17513 17514 17515 17516 17517 17518 17519 17520 17521 17522 17523 17524 17525 17526 17527 17528 17529 17530 17531 17532 17533 17534 17535 17536 17537 17538 17539 17540 17541 17542 17543 17544 17545 17546 17547 17548 17549 17550 17551 17552 17553 17554 17555 17556 17557 17558 17559 17560 17561 17562 17563 17564 17565 17566 17567 17568 17569 17570 17571 17572 17573 17574 17575 17576 17577 17578 17579 17580 17581 17582 17583 17584 17585 17586 17587 17588 17589 17590 17591 17592 17593 17594 17595 17596 17597 17598 17599 17600 17601 17602 17603 17604 17605 17606 17607 17608 17609 17610 17611 17612 17613 17614 17615 17616 17617 17618 17619 17620 17621 17622 17623 17624 17625 17626 17627 17628 17629 17630 17631 17632 17633 17634 17635 17636 17637 17638 17639 17640 17641 17642 17643 17644 17645 17646 17647 17648 17649 17650 17651 17652 17653 17654 17655 17656 17657 17658 17659 17660 17661 17662 17663 17664 17665 17666 17667 17668 17669 17670 17671 17672 17673 17674 17675 17676 17677 17678 17679 17680 17681 17682 17683 17684 17685 17686 17687 17688 17689 17690 17691 17692 17693 17694 17695 17696 17697 17698 17699 17700 17701 17702 17703 17704 17705 17706 17707 17708 17709 17710 17711 17712 17713 17714 17715 17716 17717 17718 17719 17720 17721 17722 17723 17724 17725 17726 17727 17728 17729 17730 17731 17732 17733 17734 17735 17736 17737 17738 17739 17740 17741 17742 17743 17744 17745 17746 17747 17748 17749 17750 17751 17752 17753 17754 17755 17756 17757 17758 17759 17760 17761 17762 17763 17764 17765 17766 17767 17768 17769 17770 17771 17772 17773 17774 17775 17776 17777 17778 17779 17780 17781 17782 17783 17784 17785 17786 17787 17788 17789 17790 17791 17792 17793 17794 17795 17796 17797 17798 17799 17800 17801 17802 17803 17804 17805 17806 17807 17808 17809 17810 17811 17812 17813 17814 17815 17816 17817 17818 17819 17820 17821 17822 17823 17824 17825 17826 17827 17828 17829 17830 17831 17832 17833 17834 17835 17836 17837 17838 17839 17840 17841 17842 17843 17844 17845 17846 17847 17848 17849 17850 17851 17852 17853 17854 17855 17856 17857 17858 17859 17860 17861 17862 17863 17864 17865 17866 17867 17868 17869 17870 17871 17872 17873 17874 17875 17876 17877 17878 17879 17880 17881 17882 17883 17884 17885 17886 17887 17888 17889 17890 17891 17892 17893 17894 17895 17896 17897 17898 17899 17900 17901 17902 17903 17904 17905 17906 17907 17908 17909 17910 17911 17912 17913 17914 17915 17916 17917 17918 17919 17920 17921 17922 17923 17924 17925 17926 17927 17928 17929 17930 17931 17932 17933 17934 17935 17936 17937 17938 17939 17940 17941 17942 17943 17944 17945 17946 17947 17948 17949 17950 17951 17952 17953 17954 17955 17956 17957 17958 17959 17960 17961 17962 17963 17964 17965 17966 17967 17968 17969 17970 17971 17972 17973 17974 17975 17976 17977 17978 17979 17980 17981 17982 17983 17984 17985 17986 17987 17988 17989 17990 17991 17992 17993 17994 17995 17996 17997 17998 17999 18000 18001 18002 18003 18004 18005 18006 18007 18008 18009 18010 18011 18012 18013 18014 18015 18016 18017 18018 18019 18020 18021 18022 18023 18024 18025 18026 18027 18028 18029 18030 18031 18032 18033 18034 18035 18036 18037 18038 18039 18040 18041 18042 18043 18044 18045 18046 18047 18048 18049 18050 18051 18052 18053 18054 18055 18056 18057 18058 18059 18060 18061 18062 18063 18064 18065 18066 18067 18068 18069 18070 18071 18072 18073 18074 18075 18076 18077 18078 18079 18080 18081 18082 18083 18084 18085 18086 18087 18088 18089 18090 18091 18092 18093 18094 18095 18096 18097 18098 18099 18100 18101 18102 18103 18104 18105 18106 18107 18108 18109 18110 18111 18112 18113 18114 18115 18116 18117 18118 18119 18120 18121 18122 18123 18124 18125 18126 18127 18128 18129 18130 18131 18132 18133 18134 18135 18136 18137 18138 18139 18140 18141 18142 18143 18144 18145 18146 18147 18148 18149 18150 18151 18152 18153 18154 18155 18156 18157 18158 18159 18160 18161 18162 18163 18164 18165 18166 18167 18168 18169 18170 18171 18172 18173 18174 18175 18176 18177 18178 18179 18180 18181 18182 18183 18184 18185 18186 18187 18188 18189 18190 18191 18192 18193 18194 18195 18196 18197 18198 18199 18200 18201 18202 18203 18204 18205 18206 18207 18208 18209 18210 18211 18212 18213 18214 18215 18216 18217 18218 18219 18220 18221 18222 18223 18224 18225 18226 18227 18228 18229 18230 18231 18232 18233 18234 18235 18236 18237 18238 18239 18240 18241 18242 18243 18244 18245 18246 18247 18248 18249 18250 18251 18252 18253 18254 18255 18256 18257 18258 18259 18260 18261 18262 18263 18264 18265 18266 18267 18268 18269 18270 18271 18272 18273 18274 18275 18276 18277 18278 18279 18280 18281 18282 18283 18284 18285 18286 18287 18288 18289 18290 18291 18292 18293 18294 18295 18296 18297 18298 18299 18300 18301 18302 18303 18304 18305 18306 18307 18308 18309 18310 18311 18312 18313 18314 18315 18316 18317 18318 18319 18320 18321 18322 18323 18324 18325 18326 18327 18328 18329 18330 18331 18332 18333 18334 18335 18336 18337 18338 18339 18340 18341 18342 18343 18344 18345 18346 18347 18348 18349 18350 18351 18352 18353 18354 18355 18356 18357 18358 18359 18360 18361 18362 18363 18364 18365 18366 18367 18368 18369 18370 18371 18372 18373 18374 18375 18376 18377 18378 18379 18380 18381 18382 18383 18384 18385 18386 18387 18388 18389 18390 18391 18392 18393 18394 18395 18396 18397 18398 18399 18400 18401 18402 18403 18404 18405 18406 18407 18408 18409 18410 18411 18412 18413 18414 18415 18416 18417 18418 18419 18420 18421 18422 18423 18424 18425 18426 18427 18428 18429 18430 18431 18432 18433 18434 18435 18436 18437 18438 18439 18440 18441 18442 18443 18444 18445 18446 18447 18448 18449 18450 18451 18452 18453 18454 18455 18456 18457 18458 18459 18460 18461 18462 18463 18464 18465 18466 18467 18468 18469 18470 18471 18472 18473 18474 18475 18476 18477 18478 18479 18480 18481 18482 18483 18484 18485 18486 18487 18488 18489 18490 18491 18492 18493 18494 18495 18496 18497 18498 18499 18500 18501 18502 18503 18504 18505 18506 18507 18508 18509 18510 18511 18512 18513 18514 18515 18516 18517 18518 18519 18520 18521 18522 18523 18524 18525 18526 18527 18528 18529 18530 18531 18532 18533 18534 18535 18536 18537 18538 18539 18540 18541 18542 18543 18544 18545 18546 18547 18548 18549 18550 18551 18552 18553 18554 18555 18556 18557 18558 18559 18560 18561 18562 18563 18564 18565 18566 18567 18568 18569 18570 18571 18572 18573 18574 18575 18576 18577 18578 18579 18580 18581 18582 18583 18584 18585 18586 18587 18588 18589 18590 18591 18592 18593 18594 18595 18596 18597 18598 18599 18600 18601 18602 18603 18604 18605 18606 18607 18608 18609 18610 18611 18612 18613 18614 18615 18616 18617 18618 18619 18620 18621 18622 18623 18624 18625 18626 18627 18628 18629 18630 18631 18632 18633 18634 18635 18636 18637 18638 18639 18640 18641 18642 18643 18644 18645 18646 18647 18648 18649 18650 18651 18652 18653 18654 18655 18656 18657 18658 18659 18660 18661 18662 18663 18664 18665 18666 18667 18668 18669 18670 18671 18672 18673 18674 18675 18676 18677 18678 18679 18680 18681 18682 18683 18684 18685 18686 18687 18688 18689 18690 18691 18692 18693 18694 18695 18696 18697 18698 18699 18700 18701 18702 18703 18704 18705 18706 18707 18708 18709 18710 18711 18712 18713 18714 18715 18716 18717 18718 18719 18720 18721 18722 18723 18724 18725 18726 18727 18728 18729 18730 18731 18732 18733 18734 18735 18736 18737 18738 18739 18740 18741 18742 18743 18744 18745 18746 18747 18748 18749 18750 18751 18752 18753 18754 18755 18756 18757 18758 18759 18760 18761 18762 18763 18764 18765 18766 18767 18768 18769 18770 18771 18772 18773 18774 18775 18776 18777 18778 18779 18780 18781 18782 18783 18784 18785 18786 18787 18788 18789 18790 18791 18792 18793 18794 18795 18796 18797 18798 18799 18800 18801 18802 18803 18804 18805 18806 18807 18808 18809 18810 18811 18812 18813 18814 18815 18816 18817 18818 18819 18820 18821 18822 18823 18824 18825 18826 18827 18828 18829 18830 18831 18832 18833 18834 18835 18836 18837 18838 18839 18840 18841 18842 18843 18844 18845 18846 18847 18848 18849 18850 18851 18852 18853 18854 18855 18856 18857 18858 18859 18860 18861 18862 18863 18864 18865 18866 18867 18868 18869 18870 18871 18872 18873 18874 18875 18876 18877 18878 18879 18880 18881 18882 18883 18884 18885 18886 18887 18888 18889 18890 18891 18892 18893 18894 18895 18896 18897 18898 18899 18900 18901 18902 18903 18904 18905 18906 18907 18908 18909 18910 18911 18912 18913 18914 18915 18916 18917 18918 18919 18920 18921 18922 18923 18924 18925 18926 18927 18928 18929 18930 18931 18932 18933 18934 18935 18936 18937 18938 18939 18940 18941 18942 18943 18944 18945 18946 18947 18948 18949 18950 18951 18952 18953 18954 18955 18956 18957 18958 18959 18960 18961 18962 18963 18964 18965 18966 18967 18968 18969 18970 18971 18972 18973 18974 18975 18976 18977 18978 18979 18980 18981 18982 18983 18984 18985 18986 18987 18988 18989 18990 18991 18992 18993 18994 18995 18996 18997 18998 18999 19000 19001 19002 19003 19004 19005 19006 19007 19008 19009 19010 19011 19012 19013 19014 19015 19016 19017 19018 19019 19020 19021 19022 19023 19024 19025 19026 19027 19028 19029 19030 19031 19032 19033 19034 19035 19036 19037 19038 19039 19040 19041 19042 19043 19044 19045 19046 19047 19048 19049 19050 19051 19052 19053 19054 19055 19056 19057 19058 19059 19060 19061 19062 19063 19064 19065 19066 19067 19068 19069 19070 19071 19072 19073 19074 19075 19076 19077 19078 19079 19080 19081 19082 19083 19084 19085 19086 19087 19088 19089 19090 19091 19092 19093 19094 19095 19096 19097 19098 19099 19100 19101 19102 19103 19104 19105 19106 19107 19108 19109 19110 19111 19112 19113 19114 19115 19116 19117 19118 19119 19120 19121 19122 19123 19124 19125 19126 19127 19128 19129 19130 19131 19132 19133 19134 19135 19136 19137 19138 19139 19140 19141 19142 19143 19144 19145 19146 19147 19148 19149 19150 19151 19152 19153 19154 19155 19156 19157 19158 19159 19160 19161 19162 19163 19164 19165 19166 19167 19168 19169 19170 19171 19172 19173 19174 19175 19176 19177 19178 19179 19180 19181 19182 19183 19184 19185 19186 19187 19188 19189 19190 19191 19192 19193 19194 19195 19196 19197 19198 19199 19200 19201 19202 19203 19204 19205 19206 19207 19208 19209 19210 19211 19212 19213 19214 19215 19216 19217 19218 19219 19220 19221 19222 19223 19224 19225 19226 19227 19228 19229 19230 19231 19232 19233 19234 19235 19236 19237 19238 19239 19240 19241 19242 19243 19244 19245 19246 19247 19248 19249 19250 19251 19252 19253 19254 19255 19256 19257 19258 19259 19260 19261 19262 19263 19264 19265 19266 19267 19268 19269 19270 19271 19272 19273 19274 19275 19276 19277 19278 19279 19280 19281 19282 19283 19284 19285 19286 19287 19288 19289 19290 19291 19292 19293 19294 19295 19296 19297 19298 19299 19300 19301 19302 19303 19304 19305 19306 19307 19308 19309 19310 19311 19312 19313 19314 19315 19316 19317 19318 19319 19320 19321 19322 19323 19324 19325 19326 19327 19328 19329 19330 19331 19332 19333 19334 19335 19336 19337 19338 19339 19340 19341 19342 19343 19344 19345 19346 19347 19348 19349 19350 19351 19352 19353 19354 19355 19356 19357 19358 19359 19360 19361 19362 19363 19364 19365 19366 19367 19368 19369 19370 19371 19372 19373 19374 19375 19376 19377 19378 19379 19380 19381 19382 19383 19384 19385 19386 19387 19388 19389 19390 19391 19392 19393 19394 19395 19396 19397 19398 19399 19400 19401 19402 19403 19404 19405 19406 19407 19408 19409 19410 19411 19412 19413 19414 19415 19416 19417 19418 19419 19420 19421 19422 19423 19424 19425 19426 19427 19428 19429 19430 19431 19432 19433 19434 19435 19436 19437 19438 19439 19440 19441 19442 19443 19444 19445 19446 19447 19448 19449 19450 19451 19452 19453 19454 19455 19456 19457 19458 19459 19460 19461 19462 19463 19464 19465 19466 19467 19468 19469 19470 19471 19472 19473 19474 19475 19476 19477 19478 19479 19480 19481 19482 19483 19484 19485 19486 19487 19488 19489 19490 19491 19492 19493 19494 19495 19496 19497 19498 19499 19500 19501 19502 19503 19504 19505 19506 19507 19508 19509 19510 19511 19512 19513 19514 19515 19516 19517 19518 19519 19520 19521 19522 19523 19524 19525 19526 19527 19528 19529 19530 19531 19532 19533 19534 19535 19536 19537 19538 19539 19540 19541 19542 19543 19544 19545 19546 19547 19548 19549 19550 19551 19552 19553 19554 19555 19556 19557 19558 19559 19560 19561 19562 19563 19564 19565 19566 19567 19568 19569 19570 19571 19572 19573 19574 19575 19576 19577 19578 19579 19580 19581 19582 19583 19584 19585 19586 19587 19588 19589 19590 19591 19592 19593 19594 19595 19596 19597 19598 19599 19600 19601 19602 19603 19604 19605 19606 19607 19608 19609 19610 19611 19612 19613 19614 19615 19616 19617 19618 19619 19620 19621 19622 19623 19624 19625 19626 19627 19628 19629 19630 19631 19632 19633 19634 19635 19636 19637 19638 19639 19640 19641 19642 19643 19644 19645 19646 19647 19648 19649 19650 19651 19652 19653 19654 19655 19656 19657 19658 19659 19660 19661 19662 19663 19664 19665 19666 19667 19668 19669 19670 19671 19672 19673 19674 19675 19676 19677 19678 19679 19680 19681 19682 19683 19684 19685 19686 19687 19688 19689 19690 19691 19692 19693 19694 19695 19696 19697 19698 19699 19700 19701 19702 19703 19704 19705 19706 19707 19708 19709 19710 19711 19712 19713 19714 19715 19716 19717 19718 19719 19720 19721 19722 19723 19724 19725 19726 19727 19728 19729 19730 19731 19732 19733 19734 19735 19736 19737 19738 19739 19740 19741 19742 19743 19744 19745 19746 19747 19748 19749 19750 19751 19752 19753 19754 19755 19756 19757 19758 19759 19760 19761 19762 19763 19764 19765 19766 19767 19768 19769 19770 19771 19772 19773 19774 19775 19776 19777 19778 19779 19780 19781 19782 19783 19784 19785 19786 19787 19788 19789 19790 19791 19792 19793 19794 19795 19796 19797 19798 19799 19800 19801 19802 19803 19804 19805 19806 19807 19808 19809 19810 19811 19812 19813 19814 19815 19816 19817 19818 19819 19820 19821 19822 19823 19824 19825 19826 19827 19828 19829 19830 19831 19832 19833 19834 19835 19836 19837 19838 19839 19840 19841 19842 19843 19844 19845 19846 19847 19848 19849 19850 19851 19852 19853 19854 19855 19856 19857 19858 19859 19860 19861 19862 19863 19864 19865 19866 19867 19868 19869 19870 19871 19872 19873 19874 19875 19876 19877 19878 19879 19880 19881 19882 19883 19884 19885 19886 19887 19888 19889 19890 19891 19892 19893 19894 19895 19896 19897 19898 19899 19900 19901 19902 19903 19904 19905 19906 19907 19908 19909 19910 19911 19912 19913 19914 19915 19916 19917 19918 19919 19920 19921 19922 19923 19924 19925 19926 19927 19928 19929 19930 19931 19932 19933 19934 19935 19936 19937 19938 19939 19940 19941 19942 19943 19944 19945 19946 19947 19948 19949 19950 19951 19952 19953 19954 19955 19956 19957 19958 19959 19960 19961 19962 19963 19964 19965 19966 19967 19968 19969 19970 19971 19972 19973 19974 19975 19976 19977 19978 19979 19980 19981 19982 19983 19984 19985 19986 19987 19988 19989 19990 19991 19992 19993 19994 19995 19996 19997 19998 19999 20000 20001 20002 20003 20004 20005 20006 20007 20008 20009 20010 20011 20012 20013 20014 20015 20016 20017 20018 20019 20020 20021 20022 20023 20024 20025 20026 20027 20028 20029 20030 20031 20032 20033 20034 20035 20036 20037 20038 20039 20040 20041 20042 20043 20044 20045 20046 20047 20048 20049 20050 20051 20052 20053 20054 20055 20056 20057 20058 20059 20060 20061 20062 20063 20064 20065 20066 20067 20068 20069 20070 20071 20072 20073 20074 20075 20076 20077 20078 20079 20080 20081 20082 20083 20084 20085 20086 20087 20088 20089 20090 20091 20092 20093 20094 20095 20096 20097 20098 20099 20100 20101 20102 20103 20104 20105 20106 20107 20108 20109 20110 20111 20112 20113 20114 20115 20116 20117 20118 20119 20120 20121 20122 20123 20124 20125 20126 20127 20128 20129 20130 20131 20132 20133 20134 20135 20136 20137 20138 20139 20140 20141 20142 20143 20144 20145 20146 20147 20148 20149 20150 20151 20152 20153 20154 20155 20156 20157 20158 20159 20160 20161 20162 20163 20164 20165 20166 20167 20168 20169 20170 20171 20172 20173 20174 20175 20176 20177 20178 20179 20180 20181 20182 20183 20184 20185 20186 20187 20188 20189 20190 20191 20192 20193 20194 20195 20196 20197 20198 20199 20200 20201 20202 20203 20204 20205 20206 20207 20208 20209 20210 20211 20212 20213 20214 20215 20216 20217 20218 20219 20220 20221 20222 20223 20224 20225 20226 20227 20228 20229 20230 20231 20232 20233 20234 20235 20236 20237 20238 20239 20240 20241 20242 20243 20244 20245 20246 20247 20248 20249 20250 20251 20252 20253 20254 20255 20256 20257 20258 20259 20260 20261 20262 20263 20264 20265 20266 20267 20268 20269 20270 20271 20272 20273 20274 20275 20276 20277 20278 20279 20280 20281 20282 20283 20284 20285 20286 20287 20288 20289 20290 20291 20292 20293 20294 20295 20296 20297 20298 20299 20300 20301 20302 20303 20304 20305 20306 20307 20308 20309 20310 20311 20312 20313 20314 20315 20316 20317 20318 20319 20320 20321 20322 20323 20324 20325 20326 20327 20328 20329 20330 20331 20332 20333 20334 20335 20336 20337 20338 20339 20340 20341 20342 20343 20344 20345 20346 20347 20348 20349 20350 20351 20352 20353 20354 20355 20356 20357 20358 20359 20360 20361 20362 20363 20364 20365 20366 20367 20368 20369 20370 20371 20372 20373 20374 20375 20376 20377 20378 20379 20380 20381 20382 20383 20384 20385 20386 20387 20388 20389 20390 20391 20392 20393 20394 20395 20396 20397 20398 20399 20400 20401 20402 20403 20404 20405 20406 20407 20408 20409 20410 20411 20412 20413 20414 20415 20416 20417 20418 20419 20420 20421 20422 20423 20424 20425 20426 20427 20428 20429 20430 20431 20432 20433 20434 20435 20436 20437 20438 20439 20440 20441 20442 20443 20444 20445 20446 20447 20448 20449 20450 20451 20452 20453 20454 20455 20456 20457 20458 20459 20460 20461 20462 20463 20464 20465 20466 20467 20468 20469 20470 20471 20472 20473 20474 20475 20476 20477 20478 20479 20480 20481 20482 20483 20484 20485 20486 20487 20488 20489 20490 20491 20492 20493 20494 20495 20496 20497 20498 20499 20500 20501 20502 20503 20504 20505 20506 20507 20508 20509 20510 20511 20512 20513 20514 20515 20516 20517 20518 20519 20520 20521 20522 20523 20524 20525 20526 20527 20528 20529 20530 20531 20532 20533 20534 20535 20536 20537 20538 20539 20540 20541 20542 20543 20544 20545 20546 20547 20548 20549 20550 20551 20552 20553 20554 20555 20556 20557 20558 20559 20560 20561 20562 20563 20564 20565 20566 20567 20568 20569 20570 20571 20572 20573 20574 20575 20576 20577 20578 20579 20580 20581 20582 20583 20584 20585 20586 20587 20588 20589 20590 20591 20592 20593 20594 20595 20596 20597 20598 20599 20600 20601 20602 20603 20604 20605 20606 20607 20608 20609 20610 20611 20612 20613 20614 20615 20616 20617 20618 20619 20620 20621 20622 20623 20624 20625 20626 20627 20628 20629 20630 20631 20632 20633 20634 20635 20636 20637 20638 20639 20640 20641 20642 20643 20644 20645 20646 20647 20648 20649 20650 20651 20652 20653 20654 20655 20656 20657 20658 20659 20660 20661 20662 20663 20664 20665 20666 20667 20668 20669 20670 20671 20672 20673 20674 20675 20676 20677 20678 20679 20680 20681 20682 20683 20684 20685 20686 20687 20688 20689 20690 20691 20692 20693 20694 20695 20696 20697 20698 20699 20700 20701 20702 20703 20704 20705 20706 20707 20708 20709 20710 20711 20712 20713 20714 20715 20716 20717 20718 20719 20720 20721 20722 20723 20724 20725 20726 20727 20728 20729 20730 20731 20732 20733 20734 20735 20736 20737 20738 20739 20740 20741 20742 20743 20744 20745 20746 20747 20748 20749 20750 20751 20752 20753 20754 20755 20756 20757 20758 20759 20760 20761 20762 20763 20764 20765 20766 20767 20768 20769 20770 20771 20772 20773 20774 20775 20776 20777 20778 20779 20780 20781 20782 20783 20784 20785 20786 20787 20788 20789 20790 20791 20792 20793 20794 20795 20796 20797 20798 20799 20800 20801 20802 20803 20804 20805 20806 20807 20808 20809 20810 20811 20812 20813 20814 20815 20816 20817 20818 20819 20820 20821 20822 20823 20824 20825 20826 20827 20828 20829 20830 20831 20832 20833 20834 20835 20836 20837 20838 20839 20840 20841 20842 20843 20844 20845 20846 20847 20848 20849 20850 20851 20852 20853 20854 20855 20856 20857 20858 20859 20860 20861 20862 20863 20864 20865 20866 20867 20868 20869 20870 20871 20872 20873 20874 20875 20876 20877 20878 20879 20880 20881 20882 20883 20884 20885 20886 20887 20888 20889 20890 20891 20892 20893 20894 20895 20896 20897 20898 20899 20900 20901 20902 20903 20904 20905 20906 20907 20908 20909 20910 20911 20912 20913 20914 20915 20916 20917 20918 20919 20920 20921 20922 20923 20924 20925 20926 20927 20928 20929 20930 20931 20932 20933 20934 20935 20936 20937 20938 20939 20940 20941 20942 20943 20944 20945 20946 20947 20948 20949 20950 20951 20952 20953 20954 20955 20956 20957 20958 20959 20960 20961 20962 20963 20964 20965 20966 20967 20968 20969 20970 20971 20972 20973 20974 20975 20976 20977 20978 20979 20980 20981 20982 20983 20984 20985 20986 20987 20988 20989 20990 20991 20992 20993 20994 20995 20996 20997 20998 20999 21000 21001 21002 21003 21004 21005 21006 21007 21008 21009 21010 21011 21012 21013 21014 21015 21016 21017 21018 21019 21020 21021 21022 21023 21024 21025 21026 21027 21028 21029 21030 21031 21032 21033 21034 21035 21036 21037 21038 21039 21040 21041 21042 21043 21044 21045 21046 21047 21048 21049 21050 21051 21052 21053 21054 21055 21056 21057 21058 21059 21060 21061 21062 21063 21064 21065 21066 21067 21068 21069 21070 21071 21072 21073 21074 21075 21076 21077 21078 21079 21080 21081 21082 21083 21084 21085 21086 21087 21088 21089 21090 21091 21092 21093 21094 21095 21096 21097 21098 21099 21100 21101 21102 21103 21104 21105 21106 21107 21108 21109 21110 21111 21112 21113 21114 21115 21116 21117 21118 21119 21120 21121 21122 21123 21124 21125 21126 21127 21128 21129 21130 21131 21132 21133 21134 21135 21136 21137 21138 21139 21140 21141 21142 21143 21144 21145 21146 21147 21148 21149 21150 21151 21152 21153 21154 21155 21156 21157 21158 21159 21160 21161 21162 21163 21164 21165 21166 21167 21168 21169 21170 21171 21172 21173 21174 21175 21176 21177 21178 21179 21180 21181 21182 21183 21184 21185 21186 21187 21188 21189 21190 21191 21192 21193 21194 21195 21196 21197 21198 21199 21200 21201 21202 21203 21204 21205 21206 21207 21208 21209 21210 21211 21212 21213 21214 21215 21216 21217 21218 21219 21220 21221 21222 21223 21224 21225 21226 21227 21228 21229 21230 21231 21232 21233 21234 21235 21236 21237 21238 21239 21240 21241 21242 21243 21244 21245 21246 21247 21248 21249 21250 21251 21252 21253 21254 21255 21256 21257 21258 21259 21260 21261 21262 21263 21264 21265 21266 21267 21268 21269 21270 21271 21272 21273 21274 21275 21276 21277 21278 21279 21280 21281 21282 21283 21284 21285 21286 21287 21288 21289 21290 21291 21292 21293 21294 21295 21296 21297 21298 21299 21300 21301 21302 21303 21304 21305 21306 21307 21308 21309 21310 21311 21312 21313 21314 21315 21316 21317 21318 21319 21320 21321 21322 21323 21324 21325 21326 21327 21328 21329 21330 21331 21332 21333 21334 21335 21336 21337 21338 21339 21340 21341 21342 21343 21344 21345 21346 21347 21348 21349 21350 21351 21352 21353 21354 21355 21356 21357 21358 21359 21360 21361 21362 21363 21364 21365 21366 21367 21368 21369 21370 21371 21372 21373 21374 21375 21376 21377 21378 21379 21380 21381 21382 21383 21384 21385 21386 21387 21388 21389 21390 21391 21392 21393 21394 21395 21396 21397 21398 21399 21400 21401 21402 21403 21404 21405 21406 21407 21408 21409 21410 21411 21412 21413 21414 21415 21416 21417 21418 21419 21420 21421 21422 21423 21424 21425 21426 21427 21428 21429 21430 21431 21432 21433 21434 21435 21436 21437 21438 21439 21440 21441 21442 21443 21444 21445 21446 21447 21448 21449 21450 21451 21452 21453 21454 21455 21456 21457 21458 21459 21460 21461 21462 21463 21464 21465 21466 21467 21468 21469 21470 21471 21472 21473 21474 21475 21476 21477 21478 21479 21480 21481 21482 21483 21484 21485 21486 21487 21488 21489 21490 21491 21492 21493 21494 21495 21496 21497 21498 21499 21500 21501 21502 21503 21504 21505 21506 21507 21508 21509 21510 21511 21512 21513 21514 21515 21516 21517 21518 21519 21520 21521 21522 21523 21524 21525 21526 21527 21528 21529 21530 21531 21532 21533 21534 21535 21536 21537 21538 21539 21540 21541 21542 21543 21544 21545 21546 21547 21548 21549 21550 21551 21552 21553 21554 21555 21556 21557 21558 21559 21560 21561 21562 21563 21564 21565 21566 21567 21568 21569 21570 21571 21572 21573 21574 21575 21576 21577 21578 21579 21580 21581 21582 21583 21584 21585 21586 21587 21588 21589 21590 21591 21592 21593 21594 21595 21596 21597 21598 21599 21600 21601 21602 21603 21604 21605 21606 21607 21608 21609 21610 21611 21612 21613 21614 21615 21616 21617 21618 21619 21620 21621 21622 21623 21624 21625 21626 21627 21628 21629 21630 21631 21632 21633 21634 21635 21636 21637 21638 21639 21640 21641 21642 21643 21644 21645 21646 21647 21648 21649 21650 21651 21652 21653 21654 21655 21656 21657 21658 21659 21660 21661 21662 21663 21664 21665 21666 21667 21668 21669 21670 21671 21672 21673 21674 21675 21676 21677 21678 21679 21680 21681 21682 21683 21684 21685 21686 21687 21688 21689 21690 21691 21692 21693 21694 21695 21696 21697 21698 21699 21700 21701 21702 21703 21704 21705 21706 21707 21708 21709 21710 21711 21712 21713 21714 21715 21716 21717 21718 21719 21720 21721 21722 21723 21724 21725 21726 21727 21728 21729 21730 21731 21732 21733 21734 21735 21736 21737 21738 21739 21740 21741 21742 21743 21744 21745 21746 21747 21748 21749 21750 21751 21752 21753 21754 21755 21756 21757 21758 21759 21760 21761 21762 21763 21764 21765 21766 21767 21768 21769 21770 21771 21772 21773 21774 21775 21776 21777 21778 21779 21780 21781 21782 21783 21784 21785 21786 21787 21788 21789 21790 21791 21792 21793 21794 21795 21796 21797 21798 21799 21800 21801 21802 21803 21804 21805 21806 21807 21808 21809 21810 21811 21812 21813 21814 21815 21816 21817 21818 21819 21820 21821 21822 21823 21824 21825 21826 21827 21828 21829 21830 21831 21832 21833 21834 21835 21836 21837 21838 21839 21840 21841 21842 21843 21844 21845 21846 21847 21848 21849 21850 21851 21852 21853 21854 21855 21856 21857 21858 21859 21860 21861 21862 21863 21864 21865 21866 21867 21868 21869 21870 21871 21872 21873 21874 21875 21876 21877 21878 21879 21880 21881 21882 21883 21884 21885 21886 21887 21888 21889 21890 21891 21892 21893 21894 21895 21896 21897 21898 21899 21900 21901 21902 21903 21904 21905 21906 21907 21908 21909 21910 21911 21912 21913 21914 21915 21916 21917 21918 21919 21920 21921 21922 21923 21924 21925 21926 21927 21928 21929 21930 21931 21932 21933 21934 21935 21936 21937 21938 21939 21940 21941 21942 21943 21944 21945 21946 21947 21948 21949 21950 21951 21952 21953 21954 21955 21956 21957 21958 21959 21960 21961 21962 21963 21964 21965 21966 21967 21968 21969 21970 21971 21972 21973 21974 21975 21976 21977 21978 21979 21980 21981 21982 21983 21984 21985 21986 21987 21988 21989 21990 21991 21992 21993 21994 21995 21996 21997 21998 21999 22000 22001 22002 22003 22004 22005 22006 22007 22008 22009 22010 22011 22012 22013 22014 22015 22016 22017 22018 22019 22020 22021 22022 22023 22024 22025 22026 22027 22028 22029 22030 22031 22032 22033 22034 22035 22036 22037 22038 22039 22040 22041 22042 22043 22044 22045 22046 22047 22048 22049 22050 22051 22052 22053 22054 22055 22056 22057 22058 22059 22060 22061 22062 22063 22064 22065 22066 22067 22068 22069 22070 22071 22072 22073 22074 22075 22076 22077 22078 22079 22080 22081 22082 22083 22084 22085 22086 22087 22088 22089 22090 22091 22092 22093 22094 22095 22096 22097 22098 22099 22100 22101 22102 22103 22104 22105 22106 22107 22108 22109 22110 22111 22112 22113 22114 22115 22116 22117 22118 22119 22120 22121 22122 22123 22124 22125 22126 22127 22128 22129 22130 22131 22132 22133 22134 22135 22136 22137 22138 22139 22140 22141 22142 22143 22144 22145 22146 22147 22148 22149 22150 22151 22152 22153 22154 22155 22156 22157 22158 22159 22160 22161 22162 22163 22164 22165 22166 22167 22168 22169 22170 22171 22172 22173 22174 22175 22176 22177 22178 22179 22180 22181 22182 22183 22184 22185 22186 22187 22188 22189 22190 22191 22192 22193 22194 22195 22196 22197 22198 22199 22200 22201 22202 22203 22204 22205 22206 22207 22208 22209 22210 22211 22212 22213 22214 22215 22216 22217 22218 22219 22220 22221 22222 22223 22224 22225 22226 22227 22228 22229 22230 22231 22232 22233 22234 22235 22236 22237 22238 22239 22240 22241 22242 22243 22244 22245 22246 22247 22248 22249 22250 22251 22252 22253 22254 22255 22256 22257 22258 22259 22260 22261 22262 22263 22264 22265 22266 22267 22268 22269 22270 22271 22272 22273 22274 22275 22276 22277 22278 22279 22280 22281 22282 22283 22284 22285 22286 22287 22288 22289 22290 22291 22292 22293 22294 22295 22296 22297 22298 22299 22300 22301 22302 22303 22304 22305 22306 22307 22308 22309 22310 22311 22312 22313 22314 22315 22316 22317 22318 22319 22320 22321 22322 22323 22324 22325 22326 22327 22328 22329 22330 22331 22332 22333 22334 22335 22336 22337 22338 22339 22340 22341 22342 22343 22344 22345 22346 22347 22348 22349 22350 22351 22352 22353 22354 22355 22356 22357 22358 22359 22360 22361 22362 22363 22364 22365 22366 22367 22368 22369 22370 22371 22372 22373 22374 22375 22376 22377 22378 22379 22380 22381 22382 22383 22384 22385 22386 22387 22388 22389 22390 22391 22392 22393 22394 22395 22396 22397 22398 22399 22400 22401 22402 22403 22404 22405 22406 22407 22408 22409 22410 22411 22412 22413 22414 22415 22416 22417 22418 22419 22420 22421 22422 22423 22424 22425 22426 22427 22428 22429 22430 22431 22432 22433 22434 22435 22436 22437 22438 22439 22440 22441 22442 22443 22444 22445 22446 22447 22448 22449 22450 22451 22452 22453 22454 22455 22456 22457 22458 22459 22460 22461 22462 22463 22464 22465 22466 22467 22468 22469 22470 22471 22472 22473 22474 22475 22476 22477 22478 22479 22480 22481 22482 22483 22484 22485 22486 22487 22488 22489 22490 22491 22492 22493 22494 22495 22496 22497 22498 22499 22500 22501 22502 22503 22504 22505 22506 22507 22508 22509 22510 22511 22512 22513 22514 22515 22516 22517 22518 22519 22520 22521 22522 22523 22524 22525 22526 22527 22528 22529 22530 22531 22532 22533 22534 22535 22536 22537 22538 22539 22540 22541 22542 22543 22544 22545 22546 22547 22548 22549 22550 22551 22552 22553 22554 22555 22556 22557 22558 22559 22560 22561 22562 22563 22564 22565 22566 22567 22568 22569 22570 22571 22572 22573 22574 22575 22576 22577 22578 22579 22580 22581 22582 22583 22584 22585 22586 22587 22588 22589 22590 22591 22592 22593 22594 22595 22596 22597 22598 22599 22600 22601 22602 22603 22604 22605 22606 22607 22608 22609 22610 22611 22612 22613 22614 22615 22616 22617 22618 22619 22620 22621 22622 22623 22624 22625 22626 22627 22628 22629 22630 22631 22632 22633 22634 22635 22636 22637 22638 22639 22640 22641 22642 22643 22644 22645 22646 22647 22648 22649 22650 22651 22652 22653 22654 22655 22656 22657 22658 22659 22660 22661 22662 22663 22664 22665 22666 22667 22668 22669 22670 22671 22672 22673 22674 22675 22676 22677 22678 22679 22680 22681 22682 22683 22684 22685 22686 22687 22688 22689 22690 22691 22692 22693 22694 22695 22696 22697 22698 22699 22700 22701 22702 22703 22704 22705 22706 22707 22708 22709 22710 22711 22712 22713 22714 22715 22716 22717 22718 22719 22720 22721 22722 22723 22724 22725 22726 22727 22728 22729 22730 22731 22732 22733 22734 22735 22736 22737 22738 22739 22740 22741 22742 22743 22744 22745 22746 22747 22748 22749 22750 22751 22752 22753 22754 22755 22756 22757 22758 22759 22760 22761 22762 22763 22764 22765 22766 22767 22768 22769 22770 22771 22772 22773 22774 22775 22776 22777 22778 22779 22780 22781 22782 22783 22784 22785 22786 22787 22788 22789 22790 22791 22792 22793 22794 22795 22796 22797 22798 22799 22800 22801 22802 22803 22804 22805 22806 22807 22808 22809 22810 22811 22812 22813 22814 22815 22816 22817 22818 22819 22820 22821 22822 22823 22824 22825 22826 22827 22828 22829 22830 22831 22832 22833 22834 22835 22836 22837 22838 22839 22840 22841 22842 22843 22844 22845 22846 22847 22848 22849 22850 22851 22852 22853 22854 22855 22856 22857 22858 22859 22860 22861 22862 22863 22864 22865 22866 22867 22868 22869 22870 22871 22872 22873 22874 22875 22876 22877 22878 22879 22880 22881 22882 22883 22884 22885 22886 22887 22888 22889 22890 22891 22892 22893 22894 22895 22896 22897 22898 22899 22900 22901 22902 22903 22904 22905 22906 22907 22908 22909 22910 22911 22912 22913 22914 22915 22916 22917 22918 22919 22920 22921 22922 22923 22924 22925 22926 22927 22928 22929 22930 22931 22932 22933 22934 22935 22936 22937 22938 22939 22940 22941 22942 22943 22944 22945 22946 22947 22948 22949 22950 22951 22952 22953 22954 22955 22956 22957 22958 22959 22960 22961 22962 22963 22964 22965 22966 22967 22968 22969 22970 22971 22972 22973 22974 22975 22976 22977 22978 22979 22980 22981 22982 22983 22984 22985 22986 22987 22988 22989 22990 22991 22992 22993 22994 22995 22996 22997 22998 22999 23000 23001 23002 23003 23004 23005 23006 23007 23008 23009 23010 23011 23012 23013 23014 23015 23016 23017 23018 23019 23020 23021 23022 23023 23024 23025 23026 23027 23028 23029 23030 23031 23032 23033 23034 23035 23036 23037 23038 23039 23040 23041 23042 23043 23044 23045 23046 23047 23048 23049 23050 23051 23052 23053 23054 23055 23056 23057 23058 23059 23060 23061 23062 23063 23064 23065 23066 23067 23068 23069 23070 23071 23072 23073 23074 23075 23076 23077 23078 23079 23080 23081 23082 23083 23084 23085 23086 23087 23088 23089 23090 23091 23092 23093 23094 23095 23096 23097 23098 23099 23100 23101 23102 23103 23104 23105 23106 23107 23108 23109 23110 23111 23112 23113 23114 23115 23116 23117 23118 23119 23120 23121 23122 23123 23124 23125 23126 23127 23128 23129 23130 23131 23132 23133 23134 23135 23136 23137 23138 23139 23140 23141 23142 23143 23144 23145 23146 23147 23148 23149 23150 23151 23152 23153 23154 23155 23156 23157 23158 23159 23160 23161 23162 23163 23164 23165 23166 23167 23168 23169 23170 23171 23172 23173 23174 23175 23176 23177 23178 23179 23180 23181 23182 23183 23184 23185 23186 23187 23188 23189 23190 23191 23192 23193 23194 23195 23196 23197 23198 23199 23200 23201 23202 23203 23204 23205 23206 23207 23208 23209 23210 23211 23212 23213 23214 23215 23216 23217 23218 23219 23220 23221 23222 23223 23224 23225 23226 23227 23228 23229 23230 23231 23232 23233 23234 23235 23236 23237 23238 23239 23240 23241 23242 23243 23244 23245 23246 23247 23248 23249 23250 23251 23252 23253 23254 23255 23256 23257 23258 23259 23260 23261 23262 23263 23264 23265 23266 23267 23268 23269 23270 23271 23272 23273 23274 23275 23276 23277 23278 23279 23280 23281 23282 23283 23284 23285 23286 23287 23288 23289 23290 23291 23292 23293 23294 23295 23296 23297 23298 23299 23300 23301 23302 23303 23304 23305 23306 23307 23308 23309 23310 23311 23312 23313 23314 23315 23316 23317 23318 23319 23320 23321 23322 23323 23324 23325 23326 23327 23328 23329 23330 23331 23332 23333 23334 23335 23336 23337 23338 23339 23340 23341 23342 23343 23344 23345 23346 23347 23348 23349 23350 23351 23352 23353 23354 23355 23356 23357 23358 23359 23360 23361 23362 23363 23364 23365 23366 23367 23368 23369 23370 23371 23372 23373 23374 23375 23376 23377 23378 23379 23380 23381 23382 23383 23384 23385 23386 23387 23388 23389 23390 23391 23392 23393 23394 23395 23396 23397 23398 23399 23400 23401 23402 23403 23404 23405 23406 23407 23408 23409 23410 23411 23412 23413 23414 23415 23416 23417 23418 23419 23420 23421 23422 23423 23424 23425 23426 23427 23428 23429 23430 23431 23432 23433 23434 23435 23436 23437 23438 23439 23440 23441 23442 23443 23444 23445 23446 23447 23448 23449 23450 23451 23452 23453 23454 23455 23456 23457 23458 23459 23460 23461 23462 23463 23464 23465 23466 23467 23468 23469 23470 23471 23472 23473 23474 23475 23476 23477 23478 23479 23480 23481 23482 23483 23484 23485 23486 23487 23488 23489 23490 23491 23492 23493 23494 23495 23496 23497 23498 23499 23500 23501 23502 23503 23504 23505 23506 23507 23508 23509 23510 23511 23512 23513 23514 23515 23516 23517 23518 23519 23520 23521 23522 23523 23524 23525 23526 23527 23528 23529 23530 23531 23532 23533 23534 23535 23536 23537 23538 23539 23540 23541 23542 23543 23544 23545 23546 23547 23548 23549 23550 23551 23552 23553 23554 23555 23556 23557 23558 23559 23560 23561 23562 23563 23564 23565 23566 23567 23568 23569 23570 23571 23572 23573 23574 23575 23576 23577 23578 23579 23580 23581 23582 23583 23584 23585 23586 23587 23588 23589 23590 23591 23592 23593 23594 23595 23596 23597 23598 23599 23600 23601 23602 23603 23604 23605 23606 23607 23608 23609 23610 23611 23612 23613 23614 23615 23616 23617 23618 23619 23620 23621 23622 23623 23624 23625 23626 23627 23628 23629 23630 23631 23632 23633 23634 23635 23636 23637 23638 23639 23640 23641 23642 23643 23644 23645 23646 23647 23648 23649 23650 23651 23652 23653 23654 23655 23656 23657 23658 23659 23660 23661 23662 23663 23664 23665 23666 23667 23668 23669 23670 23671 23672 23673 23674 23675 23676 23677 23678 23679 23680 23681 23682 23683 23684 23685 23686 23687 23688 23689 23690 23691 23692 23693 23694 23695 23696 23697 23698 23699 23700 23701 23702 23703 23704 23705 23706 23707 23708 23709 23710 23711 23712 23713 23714 23715 23716 23717 23718 23719 23720 23721 23722 23723 23724 23725 23726 23727 23728 23729 23730 23731 23732 23733 23734 23735 23736 23737 23738 23739 23740 23741 23742 23743 23744 23745 23746 23747 23748 23749 23750 23751 23752 23753 23754 23755 23756 23757 23758 23759 23760 23761 23762 23763 23764 23765 23766 23767 23768 23769 23770 23771 23772 23773 23774 23775 23776 23777 23778 23779 23780 23781 23782 23783 23784 23785 23786 23787 23788 23789 23790 23791 23792 23793 23794 23795 23796 23797 23798 23799 23800 23801 23802 23803 23804 23805 23806 23807 23808 23809 23810 23811 23812 23813 23814 23815 23816 23817 23818 23819 23820 23821 23822 23823 23824 23825 23826 23827 23828 23829 23830 23831 23832 23833 23834 23835 23836 23837 23838 23839 23840 23841 23842 23843 23844 23845 23846 23847 23848 23849 23850 23851 23852 23853 23854 23855 23856 23857 23858 23859 23860 23861 23862 23863 23864 23865 23866 23867 23868 23869 23870 23871 23872 23873 23874 23875 23876 23877 23878 23879 23880 23881 23882 23883 23884 23885 23886 23887 23888 23889 23890 23891 23892 23893 23894 23895 23896 23897 23898 23899 23900 23901 23902 23903 23904 23905 23906 23907 23908 23909 23910 23911 23912 23913 23914 23915 23916 23917 23918 23919 23920 23921 23922 23923 23924 23925 23926 23927 23928 23929 23930 23931 23932 23933 23934 23935 23936 23937 23938 23939 23940 23941 23942 23943 23944 23945 23946 23947 23948 23949 23950 23951 23952 23953 23954 23955 23956 23957 23958 23959 23960 23961 23962 23963 23964 23965 23966 23967 23968 23969 23970 23971 23972 23973 23974 23975 23976 23977 23978 23979 23980 23981 23982 23983 23984 23985 23986 23987 23988 23989 23990 23991 23992 23993 23994 23995 23996 23997 23998 23999 24000 24001 24002 24003 24004 24005 24006 24007 24008 24009 24010 24011 24012 24013 24014 24015 24016 24017 24018 24019 24020 24021 24022 24023 24024 24025 24026 24027 24028 24029 24030 24031 24032 24033 24034 24035 24036 24037 24038 24039 24040 24041 24042 24043 24044 24045 24046 24047 24048 24049 24050 24051 24052 24053 24054 24055 24056 24057 24058 24059 24060 24061 24062 24063 24064 24065 24066 24067 24068 24069 24070 24071 24072 24073 24074 24075 24076 24077 24078 24079 24080 24081 24082 24083 24084 24085 24086 24087 24088 24089 24090 24091 24092 24093 24094 24095 24096 24097 24098 24099 24100 24101 24102 24103 24104 24105 24106 24107 24108 24109 24110 24111 24112 24113 24114 24115 24116 24117 24118 24119 24120 24121 24122 24123 24124 24125 24126 24127 24128 24129 24130 24131 24132 24133 24134 24135 24136 24137 24138 24139 24140 24141 24142 24143 24144 24145 24146 24147 24148 24149 24150 24151 24152 24153 24154 24155 24156 24157 24158 24159 24160 24161 24162 24163 24164 24165 24166 24167 24168 24169 24170 24171 24172 24173 24174 24175 24176 24177 24178 24179 24180 24181 24182 24183 24184 24185 24186 24187 24188 24189 24190 24191 24192 24193 24194 24195 24196 24197 24198 24199 24200 24201 24202 24203 24204 24205 24206 24207 24208 24209 24210 24211 24212 24213 24214 24215 24216 24217 24218 24219 24220 24221 24222 24223 24224 24225 24226 24227 24228 24229 24230 24231 24232 24233 24234 24235 24236 24237 24238 24239 24240 24241 24242 24243 24244 24245 24246 24247 24248 24249 24250 24251 24252 24253 24254 24255 24256 24257 24258 24259 24260 24261 24262 24263 24264 24265 24266 24267 24268 24269 24270 24271 24272 24273 24274 24275 24276 24277 24278 24279 24280 24281 24282 24283 24284 24285 24286 24287 24288 24289 24290 24291 24292 24293 24294 24295 24296 24297 24298 24299 24300 24301 24302 24303 24304 24305 24306 24307 24308 24309 24310 24311 24312 24313 24314 24315 24316 24317 24318 24319 24320 24321 24322 24323 24324 24325 24326 24327 24328 24329 24330 24331 24332 24333 24334 24335 24336 24337 24338 24339 24340 24341 24342 24343 24344 24345 24346 24347 24348 24349 24350 24351 24352 24353 24354 24355 24356 24357 24358 24359 24360 24361 24362 24363 24364 24365 24366 24367 24368 24369 24370 24371 24372 24373 24374 24375 24376 24377 24378 24379 24380 24381 24382 24383 24384 24385 24386 24387 24388 24389 24390 24391 24392 24393 24394 24395 24396 24397 24398 24399 24400 24401 24402 24403 24404 24405 24406 24407 24408 24409 24410 24411 24412 24413 24414 24415 24416 24417 24418 24419 24420 24421 24422 24423 24424 24425 24426 24427 24428 24429 24430 24431 24432 24433 24434 24435 24436 24437 24438 24439 24440 24441 24442 24443 24444 24445 24446 24447 24448 24449 24450 24451 24452 24453 24454 24455 24456 24457 24458 24459 24460 24461 24462 24463 24464 24465 24466 24467 24468 24469 24470 24471 24472 24473 24474 24475 24476 24477 24478 24479 24480 24481 24482 24483 24484 24485 24486 24487 24488 24489 24490 24491 24492 24493 24494 24495 24496 24497 24498 24499 24500 24501 24502 24503 24504 24505 24506 24507 24508 24509 24510 24511 24512 24513 24514 24515 24516 24517 24518 24519 24520 24521 24522 24523 24524 24525 24526 24527 24528 24529 24530 24531 24532 24533 24534 24535 24536 24537 24538 24539 24540 24541 24542 24543 24544 24545 24546 24547 24548 24549 24550 24551 24552 24553 24554 24555 24556 24557 24558 24559 24560 24561 24562 24563 24564 24565 24566 24567 24568 24569 24570 24571 24572 24573 24574 24575 24576 24577 24578 24579 24580 24581 24582 24583 24584 24585 24586 24587 24588 24589 24590 24591 24592 24593 24594 24595 24596 24597 24598 24599 24600 24601 24602 24603 24604 24605 24606 24607 24608 24609 24610 24611 24612 24613 24614 24615 24616 24617 24618 24619 24620 24621 24622 24623 24624 24625 24626 24627 24628 24629 24630 24631 24632 24633 24634 24635 24636 24637 24638 24639 24640 24641 24642 24643 24644 24645 24646 24647 24648 24649 24650 24651 24652 24653 24654 24655 24656 24657 24658 24659 24660 24661 24662 24663 24664 24665 24666 24667 24668 24669 24670 24671 24672 24673 24674 24675 24676 24677 24678 24679 24680 24681 24682 24683 24684 24685 24686 24687 24688 24689 24690 24691 24692 24693 24694 24695 24696 24697 24698 24699 24700 24701 24702 24703 24704 24705 24706 24707 24708 24709 24710 24711 24712 24713 24714 24715 24716 24717 24718 24719 24720 24721 24722 24723 24724 24725 24726 24727 24728 24729 24730 24731 24732 24733 24734 24735 24736 24737 24738 24739 24740 24741 24742 24743 24744 24745 24746 24747 24748 24749 24750 24751 24752 24753 24754 24755 24756 24757 24758 24759 24760 24761 24762 24763 24764 24765 24766 24767 24768 24769 24770 24771 24772 24773 24774 24775 24776 24777 24778 24779 24780 24781 24782 24783 24784 24785 24786 24787 24788 24789 24790 24791 24792 24793 24794 24795 24796 24797 24798 24799 24800 24801 24802 24803 24804 24805 24806 24807 24808 24809 24810 24811 24812 24813 24814 24815 24816 24817 24818 24819 24820 24821 24822 24823 24824 24825 24826 24827 24828 24829 24830 24831 24832 24833 24834 24835 24836 24837 24838 24839 24840 24841 24842 24843 24844 24845 24846 24847 24848 24849 24850 24851 24852 24853 24854 24855 24856 24857 24858 24859 24860 24861 24862 24863 24864 24865 24866 24867 24868 24869 24870 24871 24872 24873 24874 24875 24876 24877 24878 24879 24880 24881 24882 24883 24884 24885 24886 24887 24888 24889 24890 24891 24892 24893 24894 24895 24896 24897 24898 24899 24900 24901 24902 24903 24904 24905 24906 24907 24908 24909 24910 24911 24912 24913 24914 24915 24916 24917 24918 24919 24920 24921 24922 24923 24924 24925 24926 24927 24928 24929 24930 24931 24932 24933 24934 24935 24936 24937 24938 24939 24940 24941 24942 24943 24944 24945 24946 24947 24948 24949 24950 24951 24952 24953 24954 24955 24956 24957 24958 24959 24960 24961 24962 24963 24964 24965 24966 24967 24968 24969 24970 24971 24972 24973 24974 24975 24976 24977 24978 24979 24980 24981 24982 24983 24984 24985 24986 24987 24988 24989 24990 24991 24992 24993 24994 24995 24996 24997 24998 24999 25000 25001 25002 25003 25004 25005 25006 25007 25008 25009 25010 25011 25012 25013 25014 25015 25016 25017 25018 25019 25020 25021 25022 25023 25024 25025 25026 25027 25028 25029 25030 25031 25032 25033 25034 25035 25036 25037 25038 25039 25040 25041 25042 25043 25044 25045 25046 25047 25048 25049 25050 25051 25052 25053 25054 25055 25056 25057 25058 25059 25060 25061 25062 25063 25064 25065 25066 25067 25068 25069 25070 25071 25072 25073 25074 25075 25076 25077 25078 25079 25080 25081 25082 25083 25084 25085 25086 25087 25088 25089 25090 25091 25092 25093 25094 25095 25096 25097 25098 25099 25100 25101 25102 25103 25104 25105 25106 25107 25108 25109 25110 25111 25112 25113 25114 25115 25116 25117 25118 25119 25120 25121 25122 25123 25124 25125 25126 25127 25128 25129 25130 25131 25132 25133 25134 25135 25136 25137 25138 25139 25140 25141 25142 25143 25144 25145 25146 25147 25148 25149 25150 25151 25152 25153 25154 25155 25156 25157 25158 25159 25160 25161 25162 25163 25164 25165 25166 25167 25168 25169 25170 25171 25172 25173 25174 25175 25176 25177 25178 25179 25180 25181 25182 25183 25184 25185 25186 25187 25188 25189 25190 25191 25192 25193 25194 25195 25196 25197 25198 25199 25200 25201 25202 25203 25204 25205 25206 25207 25208 25209 25210 25211 25212 25213 25214 25215 25216 25217 25218 25219 25220 25221 25222 25223 25224 25225 25226 25227 25228 25229 25230 25231 25232 25233 25234 25235 25236 25237 25238 25239 25240 25241 25242 25243 25244 25245 25246 25247 25248 25249 25250 25251 25252 25253 25254 25255 25256 25257 25258 25259 25260 25261 25262 25263 25264 25265 25266 25267 25268 25269 25270 25271 25272 25273 25274 25275 25276 25277 25278 25279 25280 25281 25282 25283 25284 25285 25286 25287 25288 25289 25290 25291 25292 25293 25294 25295 25296 25297 25298 25299 25300 25301 25302 25303 25304 25305 25306 25307 25308 25309 25310 25311 25312 25313 25314 25315 25316 25317 25318 25319 25320 25321 25322 25323 25324 25325 25326 25327 25328 25329 25330 25331 25332 25333 25334 25335 25336 25337 25338 25339 25340 25341 25342 25343 25344 25345 25346 25347 25348 25349 25350 25351 25352 25353 25354 25355 25356 25357 25358 25359 25360 25361 25362 25363 25364 25365 25366 25367 25368 25369 25370 25371 25372 25373 25374 25375 25376 25377 25378 25379 25380 25381 25382 25383 25384 25385 25386 25387 25388 25389 25390 25391 25392 25393 25394 25395 25396 25397 25398 25399 25400 25401 25402 25403 25404 25405 25406 25407 25408 25409 25410 25411 25412 25413 25414 25415 25416 25417 25418 25419 25420 25421 25422 25423 25424 25425 25426 25427 25428 25429 25430 25431 25432 25433 25434 25435 25436 25437 25438 25439 25440 25441 25442 25443 25444 25445 25446 25447 25448 25449 25450 25451 25452 25453 25454 25455 25456 25457 25458 25459 25460 25461 25462 25463 25464 25465 25466 25467 25468 25469 25470 25471 25472 25473 25474 25475 25476 25477 25478 25479 25480 25481 25482 25483 25484 25485 25486 25487 25488 25489 25490 25491 25492 25493 25494 25495 25496 25497 25498 25499 25500 25501 25502 25503 25504 25505 25506 25507 25508 25509 25510 25511 25512 25513 25514 25515 25516 25517 25518 25519 25520 25521 25522 25523 25524 25525 25526 25527 25528 25529 25530 25531 25532 25533 25534 25535 25536 25537 25538 25539 25540 25541 25542 25543 25544 25545 25546 25547 25548 25549 25550 25551 25552 25553 25554 25555 25556 25557 25558 25559 25560 25561 25562 25563 25564 25565 25566 25567 25568 25569 25570 25571 25572 25573 25574 25575 25576 25577 25578 25579 25580 25581 25582 25583 25584 25585 25586 25587 25588 25589 25590 25591 25592 25593 25594 25595 25596 25597 25598 25599 25600 25601 25602 25603 25604 25605 25606 25607 25608 25609 25610 25611 25612 25613 25614 25615 25616 25617 25618 25619 25620 25621 25622 25623 25624 25625 25626 25627 25628 25629 25630 25631 25632 25633 25634 25635 25636 25637 25638 25639 25640 25641 25642 25643 25644 25645 25646 25647 25648 25649 25650 25651 25652 25653 25654 25655 25656 25657 25658 25659 25660 25661 25662 25663 25664 25665 25666 25667 25668 25669 25670 25671 25672 25673 25674 25675 25676 25677 25678 25679 25680 25681 25682 25683 25684 25685 25686 25687 25688 25689 25690 25691 25692 25693 25694 25695 25696 25697 25698 25699 25700 25701 25702 25703 25704 25705 25706 25707 25708 25709 25710 25711 25712 25713 25714 25715 25716 25717 25718 25719 25720 25721 25722 25723 25724 25725 25726 25727 25728 25729 25730 25731 25732 25733 25734 25735 25736 25737 25738 25739 25740 25741 25742 25743 25744 25745 25746 25747 25748 25749 25750 25751 25752 25753 25754 25755 25756 25757 25758 25759 25760 25761 25762 25763 25764 25765 25766 25767 25768 25769 25770 25771 25772 25773 25774 25775 25776 25777 25778 25779 25780 25781 25782 25783 25784 25785 25786 25787 25788 25789 25790 25791 25792 25793 25794 25795 25796 25797 25798 25799 25800 25801 25802 25803 25804 25805 25806 25807 25808 25809 25810 25811 25812 25813 25814 25815 25816 25817 25818 25819 25820 25821 25822 25823 25824 25825 25826 25827 25828 25829 25830 25831 25832 25833 25834 25835 25836 25837 25838 25839 25840 25841 25842 25843 25844 25845 25846 25847 25848 25849 25850 25851 25852 25853 25854 25855 25856 25857 25858 25859 25860 25861 25862 25863 25864 25865 25866 25867 25868 25869 25870 25871 25872 25873 25874 25875 25876 25877 25878 25879 25880 25881 25882 25883 25884 25885 25886 25887 25888 25889 25890 25891 25892 25893 25894 25895 25896 25897 25898 25899 25900 25901 25902 25903 25904 25905 25906 25907 25908 25909 25910 25911 25912 25913 25914 25915 25916 25917 25918 25919 25920 25921 25922 25923 25924 25925 25926 25927 25928 25929 25930 25931 25932 25933 25934 25935 25936 25937 25938 25939 25940 25941 25942 25943 25944 25945 25946 25947 25948 25949 25950 25951 25952 25953 25954 25955 25956 25957 25958 25959 25960 25961 25962 25963 25964 25965 25966 25967 25968 25969 25970 25971 25972 25973 25974 25975 25976 25977 25978 25979 25980 25981 25982 25983 25984 25985 25986 25987 25988 25989 25990 25991 25992 25993 25994 25995 25996 25997 25998 25999 26000 26001 26002 26003 26004 26005 26006 26007 26008 26009 26010 26011 26012 26013 26014 26015 26016 26017 26018 26019 26020 26021 26022 26023 26024 26025 26026 26027 26028 26029 26030 26031 26032 26033 26034 26035 26036 26037 26038 26039 26040 26041 26042 26043 26044 26045 26046 26047 26048 26049 26050 26051 26052 26053 26054 26055 26056 26057 26058 26059 26060 26061 26062 26063 26064 26065 26066 26067 26068 26069 26070 26071 26072 26073 26074 26075 26076 26077 26078 26079 26080 26081 26082 26083 26084 26085 26086 26087 26088 26089 26090 26091 26092 26093 26094 26095 26096 26097 26098 26099 26100 26101 26102 26103 26104 26105 26106 26107 26108 26109 26110 26111 26112 26113 26114 26115 26116 26117 26118 26119 26120 26121 26122 26123 26124 26125 26126 26127 26128 26129 26130 26131 26132 26133 26134 26135 26136 26137 26138 26139 26140 26141 26142 26143 26144 26145 26146 26147 26148 26149 26150 26151 26152 26153 26154 26155 26156 26157 26158 26159 26160 26161 26162 26163 26164 26165 26166 26167 26168 26169 26170 26171 26172 26173 26174 26175 26176 26177 26178 26179 26180 26181 26182 26183 26184 26185 26186 26187 26188 26189 26190 26191 26192 26193 26194 26195 26196 26197 26198 26199 26200 26201 26202 26203 26204 26205 26206 26207 26208 26209 26210 26211 26212 26213 26214 26215 26216 26217 26218 26219 26220 26221 26222 26223 26224 26225 26226 26227 26228 26229 26230 26231 26232 26233 26234 26235 26236 26237 26238 26239 26240 26241 26242 26243 26244 26245 26246 26247 26248 26249 26250 26251 26252 26253 26254 26255 26256 26257 26258 26259 26260 26261 26262 26263 26264 26265 26266 26267 26268 26269 26270 26271 26272 26273 26274 26275 26276 26277 26278 26279 26280 26281 26282 26283 26284 26285 26286 26287 26288 26289 26290 26291 26292 26293 26294 26295 26296 26297 26298 26299 26300 26301 26302 26303 26304 26305 26306 26307 26308 26309 26310 26311 26312 26313 26314 26315 26316 26317 26318 26319 26320 26321 26322 26323 26324 26325 26326 26327 26328 26329 26330 26331 26332 26333 26334 26335 26336 26337 26338 26339 26340 26341 26342 26343 26344 26345 26346 26347 26348 26349 26350 26351 26352 26353 26354 26355 26356 26357 26358 26359 26360 26361 26362 26363 26364 26365 26366 26367 26368 26369 26370 26371 26372 26373 26374 26375 26376 26377 26378 26379 26380 26381 26382 26383 26384 26385 26386 26387 26388 26389 26390 26391 26392 26393 26394 26395 26396 26397 26398 26399 26400 26401 26402 26403 26404 26405 26406 26407 26408 26409 26410 26411 26412 26413 26414 26415 26416 26417 26418 26419 26420 26421 26422 26423 26424 26425 26426 26427 26428 26429 26430 26431 26432 26433 26434 26435 26436 26437 26438 26439 26440 26441 26442 26443 26444 26445 26446 26447 26448 26449 26450 26451 26452 26453 26454 26455 26456 26457 26458 26459 26460 26461 26462 26463 26464 26465 26466 26467 26468 26469 26470 26471 26472 26473 26474 26475 26476 26477 26478 26479 26480 26481 26482 26483 26484 26485 26486 26487 26488 26489 26490 26491 26492 26493 26494 26495 26496 26497 26498 26499 26500 26501 26502 26503 26504 26505 26506 26507 26508 26509 26510 26511 26512 26513 26514 26515 26516 26517 26518 26519 26520 26521 26522 26523 26524 26525 26526 26527 26528 26529 26530 26531 26532 26533 26534 26535 26536 26537 26538 26539 26540 26541 26542 26543 26544 26545 26546 26547 26548 26549 26550 26551 26552 26553 26554 26555 26556 26557 26558 26559 26560 26561 26562 26563 26564 26565 26566 26567 26568 26569 26570 26571 26572 26573 26574 26575 26576 26577 26578 26579 26580 26581 26582 26583 26584 26585 26586 26587 26588 26589 26590 26591 26592 26593 26594 26595 26596 26597 26598 26599 26600 26601 26602 26603 26604 26605 26606 26607 26608 26609 26610 26611 26612 26613 26614 26615 26616 26617 26618 26619 26620 26621 26622 26623 26624 26625 26626 26627 26628 26629 26630 26631 26632 26633 26634 26635 26636 26637 26638 26639 26640 26641 26642 26643 26644 26645 26646 26647 26648 26649 26650 26651 26652 26653 26654 26655 26656 26657 26658 26659 26660 26661 26662 26663 26664 26665 26666 26667 26668 26669 26670 26671 26672 26673 26674 26675 26676 26677 26678 26679 26680 26681 26682 26683 26684 26685 26686 26687 26688 26689 26690 26691 26692 26693 26694 26695 26696 26697 26698 26699 26700 26701 26702 26703 26704 26705 26706 26707 26708 26709 26710 26711 26712 26713 26714 26715 26716 26717 26718 26719 26720 26721 26722 26723 26724 26725 26726 26727 26728 26729 26730 26731 26732 26733 26734 26735 26736 26737 26738 26739 26740 26741 26742 26743 26744 26745 26746 26747 26748 26749 26750 26751 26752 26753 26754 26755 26756 26757 26758 26759 26760 26761 26762 26763 26764 26765 26766 26767 26768 26769 26770 26771 26772 26773 26774 26775 26776 26777 26778 26779 26780 26781 26782 26783 26784 26785 26786 26787 26788 26789 26790 26791 26792 26793 26794 26795 26796 26797 26798 26799 26800 26801 26802 26803 26804 26805 26806 26807 26808 26809 26810 26811 26812 26813 26814 26815 26816 26817 26818 26819 26820 26821 26822 26823 26824 26825 26826 26827 26828 26829 26830 26831 26832 26833 26834 26835 26836 26837 26838 26839 26840 26841 26842 26843 26844 26845 26846 26847 26848 26849 26850 26851 26852 26853 26854 26855 26856 26857 26858 26859 26860 26861 26862 26863 26864 26865 26866 26867 26868 26869 26870 26871 26872 26873 26874 26875 26876 26877 26878 26879 26880 26881 26882 26883 26884 26885 26886 26887 26888 26889 26890 26891 26892 26893 26894 26895 26896 26897 26898 26899 26900 26901 26902 26903 26904 26905 26906 26907 26908 26909 26910 26911 26912 26913 26914 26915 26916 26917 26918 26919 26920 26921 26922 26923 26924 26925 26926 26927 26928 26929 26930 26931 26932 26933 26934 26935 26936 26937 26938 26939 26940 26941 26942 26943 26944 26945 26946 26947 26948 26949 26950 26951 26952 26953 26954 26955 26956 26957 26958 26959 26960 26961 26962 26963 26964 26965 26966 26967 26968 26969 26970 26971 26972 26973 26974 26975 26976 26977 26978 26979 26980 26981 26982 26983 26984 26985 26986 26987 26988 26989 26990 26991 26992 26993 26994 26995 26996 26997 26998 26999 27000 27001 27002 27003 27004 27005 27006 27007 27008 27009 27010 27011 27012 27013 27014 27015 27016 27017 27018 27019 27020 27021 27022 27023 27024 27025 27026 27027 27028 27029 27030 27031 27032 27033 27034 27035 27036 27037 27038 27039 27040 27041 27042 27043 27044 27045 27046 27047 27048 27049 27050 27051 27052 27053 27054 27055 27056 27057 27058 27059 27060 27061 27062 27063 27064 27065 27066 27067 27068 27069 27070 27071 27072 27073 27074 27075 27076 27077 27078 27079 27080 27081 27082 27083 27084 27085 27086 27087 27088 27089 27090 27091 27092 27093 27094 27095 27096 27097 27098 27099 27100 27101 27102 27103 27104 27105 27106 27107 27108 27109 27110 27111 27112 27113 27114 27115 27116 27117 27118 27119 27120 27121 27122 27123 27124 27125 27126 27127 27128 27129 27130 27131 27132 27133 27134 27135 27136 27137 27138 27139 27140 27141 27142 27143 27144 27145 27146 27147 27148 27149 27150 27151 27152 27153 27154 27155 27156 27157 27158 27159 27160 27161 27162 27163 27164 27165 27166 27167 27168 27169 27170 27171 27172 27173 27174 27175 27176 27177 27178 27179 27180 27181 27182 27183 27184 27185 27186 27187 27188 27189 27190 27191 27192 27193 27194 27195 27196 27197 27198 27199 27200 27201 27202 27203 27204 27205 27206 27207 27208 27209 27210 27211 27212 27213 27214 27215 27216 27217 27218 27219 27220 27221 27222 27223 27224 27225 27226 27227 27228 27229 27230 27231 27232 27233 27234 27235 27236 27237 27238 27239 27240 27241 27242 27243 27244 27245 27246 27247 27248 27249 27250 27251 27252 27253 27254 27255 27256 27257 27258 27259 27260 27261 27262 27263 27264 27265 27266 27267 27268 27269 27270 27271 27272 27273 27274 27275 27276 27277 27278 27279 27280 27281 27282 27283 27284 27285 27286 27287 27288 27289 27290 27291 27292 27293 27294 27295 27296 27297 27298 27299 27300 27301 27302 27303 27304 27305 27306 27307 27308 27309 27310 27311 27312 27313 27314 27315 27316 27317 27318 27319 27320 27321 27322 27323 27324 27325 27326 27327 27328 27329 27330 27331 27332 27333 27334 27335 27336 27337 27338 27339 27340 27341 27342 27343 27344 27345 27346 27347 27348 27349 27350 27351 27352 27353 27354 27355 27356 27357 27358 27359 27360 27361 27362 27363 27364 27365 27366 27367 27368 27369 27370 27371 27372 27373 27374 27375 27376 27377 27378 27379 27380 27381 27382 27383 27384 27385 27386 27387 27388 27389 27390 27391 27392 27393 27394 27395 27396 27397 27398 27399 27400 27401 27402 27403 27404 27405 27406 27407 27408 27409 27410 27411 27412 27413 27414 27415 27416 27417 27418 27419 27420 27421 27422 27423 27424 27425 27426 27427 27428 27429 27430 27431 27432 27433 27434 27435 27436 27437 27438 27439 27440 27441 27442 27443 27444 27445 27446 27447 27448 27449 27450 27451 27452 27453 27454 27455 27456 27457 27458 27459 27460 27461 27462 27463 27464 27465 27466 27467 27468 27469 27470 27471 27472 27473 27474 27475 27476 27477 27478 27479 27480 27481 27482 27483 27484 27485 27486 27487 27488 27489 27490 27491 27492 27493 27494 27495 27496 27497 27498 27499 27500 27501 27502 27503 27504 27505 27506 27507 27508 27509 27510 27511 27512 27513 27514 27515 27516 27517 27518 27519 27520 27521 27522 27523 27524 27525 27526 27527 27528 27529 27530 27531 27532 27533 27534 27535 27536 27537 27538 27539 27540 27541 27542 27543 27544 27545 27546 27547 27548 27549 27550 27551 27552 27553 27554 27555 27556 27557 27558 27559 27560 27561 27562 27563 27564 27565 27566 27567 27568 27569 27570 27571 27572 27573 27574 27575 27576 27577 27578 27579 27580 27581 27582 27583 27584 27585 27586 27587 27588 27589 27590 27591 27592 27593 27594 27595 27596 27597 27598 27599 27600 27601 27602 27603 27604 27605 27606 27607 27608 27609 27610 27611 27612 27613 27614 27615 27616 27617 27618 27619 27620 27621 27622 27623 27624 27625 27626 27627 27628 27629 27630 27631 27632 27633 27634 27635 27636 27637 27638 27639 27640 27641 27642 27643 27644 27645 27646 27647 27648 27649 27650 27651 27652 27653 27654 27655 27656 27657 27658 27659 27660 27661 27662 27663 27664 27665 27666 27667 27668 27669 27670 27671 27672 27673 27674 27675 27676 27677 27678 27679 27680 27681 27682 27683 27684 27685 27686 27687 27688 27689 27690 27691 27692 27693 27694 27695 27696 27697 27698 27699 27700 27701 27702 27703 27704 27705 27706 27707 27708 27709 27710 27711 27712 27713 27714 27715 27716 27717 27718 27719 27720 27721 27722 27723 27724 27725 27726 27727 27728 27729 27730 27731 27732 27733 27734 27735 27736 27737 27738 27739 27740 27741 27742 27743 27744 27745 27746 27747 27748 27749 27750 27751 27752 27753 27754 27755 27756 27757 27758 27759 27760 27761 27762 27763 27764 27765 27766 27767 27768 27769 27770 27771 27772 27773 27774 27775 27776 27777 27778 27779 27780 27781 27782 27783 27784 27785 27786 27787 27788 27789 27790 27791 27792 27793 27794 27795 27796 27797 27798 27799 27800 27801 27802 27803 27804 27805 27806 27807 27808 27809 27810 27811 27812 27813 27814 27815 27816 27817 27818 27819 27820 27821 27822 27823 27824 27825 27826 27827 27828 27829 27830 27831 27832 27833 27834 27835 27836 27837 27838 27839 27840 27841 27842 27843 27844 27845 27846 27847 27848 27849 27850 27851 27852 27853 27854 27855 27856 27857 27858 27859 27860 27861 27862 27863 27864 27865 27866 27867 27868 27869 27870 27871 27872 27873 27874 27875 27876 27877 27878 27879 27880 27881 27882 27883 27884 27885 27886 27887 27888 27889 27890 27891 27892 27893 27894 27895 27896 27897 27898 27899 27900 27901 27902 27903 27904 27905 27906 27907 27908 27909 27910 27911 27912 27913 27914 27915 27916 27917 27918 27919 27920 27921 27922 27923 27924 27925 27926 27927 27928 27929 27930 27931 27932 27933 27934 27935 27936 27937 27938 27939 27940 27941 27942 27943 27944 27945 27946 27947 27948 27949 27950 27951 27952 27953 27954 27955 27956 27957 27958 27959 27960 27961 27962 27963 27964 27965 27966 27967 27968 27969 27970 27971 27972 27973 27974 27975 27976 27977 27978 27979 27980 27981 27982 27983 27984 27985 27986 27987 27988 27989 27990 27991 27992 27993 27994 27995 27996 27997 27998 27999 28000 28001 28002 28003 28004 28005 28006 28007 28008 28009 28010 28011 28012 28013 28014 28015 28016 28017 28018 28019 28020 28021 28022 28023 28024 28025 28026 28027 28028 28029 28030 28031 28032 28033 28034 28035 28036 28037 28038 28039 28040 28041 28042 28043 28044 28045 28046 28047 28048 28049 28050 28051 28052 28053 28054 28055 28056 28057 28058 28059 28060 28061 28062 28063 28064 28065 28066 28067 28068 28069 28070 28071 28072 28073 28074 28075 28076 28077 28078 28079 28080 28081 28082 28083 28084 28085 28086 28087 28088 28089 28090 28091 28092 28093 28094 28095 28096 28097 28098 28099 28100 28101 28102 28103 28104 28105 28106 28107 28108 28109 28110 28111 28112 28113 28114 28115 28116 28117 28118 28119 28120 28121 28122 28123 28124 28125 28126 28127 28128 28129 28130 28131 28132 28133 28134 28135 28136 28137 28138 28139 28140 28141 28142 28143 28144 28145 28146 28147 28148 28149 28150 28151 28152 28153 28154 28155 28156 28157 28158 28159 28160 28161 28162 28163 28164 28165 28166 28167 28168 28169 28170 28171 28172 28173 28174 28175 28176 28177 28178 28179 28180 28181 28182 28183 28184 28185 28186 28187 28188 28189 28190 28191 28192 28193 28194 28195 28196 28197 28198 28199 28200 28201 28202 28203 28204 28205 28206 28207 28208 28209 28210 28211 28212 28213 28214 28215 28216 28217 28218 28219 28220 28221 28222 28223 28224 28225 28226 28227 28228 28229 28230 28231 28232 28233 28234 28235 28236 28237 28238 28239 28240 28241 28242 28243 28244 28245 28246 28247 28248 28249 28250 28251 28252 28253 28254 28255 28256 28257 28258 28259 28260 28261 28262 28263 28264 28265 28266 28267 28268 28269 28270 28271 28272 28273 28274 28275 28276 28277 28278 28279 28280 28281 28282 28283 28284 28285 28286 28287 28288 28289 28290 28291 28292 28293 28294 28295 28296 28297 28298 28299 28300 28301 28302 28303 28304 28305 28306 28307 28308 28309 28310 28311 28312 28313 28314 28315 28316 28317 28318 28319 28320 28321 28322 28323 28324 28325 28326 28327 28328 28329 28330 28331 28332 28333 28334 28335 28336 28337 28338 28339 28340 28341 28342 28343 28344 28345 28346 28347 28348 28349 28350 28351 28352 28353 28354 28355 28356 28357 28358 28359 28360 28361 28362 28363 28364 28365 28366 28367 28368 28369 28370 28371 28372 28373 28374 28375 28376 28377 28378 28379 28380 28381 28382 28383 28384 28385 28386 28387 28388 28389 28390 28391 28392 28393 28394 28395 28396 28397 28398 28399 28400 28401 28402 28403 28404 28405 28406 28407 28408 28409 28410 28411 28412 28413 28414 28415 28416 28417 28418 28419 28420 28421 28422 28423 28424 28425 28426 28427 28428 28429 28430 28431 28432 28433 28434 28435 28436 28437 28438 28439 28440 28441 28442 28443 28444 28445 28446 28447 28448 28449 28450 28451 28452 28453 28454 28455 28456 28457 28458 28459 28460 28461 28462 28463 28464 28465 28466 28467 28468 28469 28470 28471 28472 28473 28474 28475 28476 28477 28478 28479 28480 28481 28482 28483 28484 28485 28486 28487 28488 28489 28490 28491 28492 28493 28494 28495 28496 28497 28498 28499 28500 28501 28502 28503 28504 28505 28506 28507 28508 28509 28510 28511 28512 28513 28514 28515 28516 28517 28518 28519 28520 28521 28522 28523 28524 28525 28526 28527 28528 28529 28530 28531 28532 28533 28534 28535 28536 28537 28538 28539 28540 28541 28542 28543 28544 28545 28546 28547 28548 28549 28550 28551 28552 28553 28554 28555 28556 28557 28558 28559 28560 28561 28562 28563 28564 28565 28566 28567 28568 28569 28570 28571 28572 28573 28574 28575 28576 28577 28578 28579 28580 28581 28582 28583 28584 28585 28586 28587 28588 28589 28590 28591 28592 28593 28594 28595 28596 28597 28598 28599 28600 28601 28602 28603 28604 28605 28606 28607 28608 28609 28610 28611 28612 28613 28614 28615 28616 28617 28618 28619 28620 28621 28622 28623 28624 28625 28626 28627 28628 28629 28630 28631 28632 28633 28634 28635 28636 28637 28638 28639 28640 28641 28642 28643 28644 28645 28646 28647 28648 28649 28650 28651 28652 28653 28654 28655 28656 28657 28658 28659 28660 28661 28662 28663 28664 28665 28666 28667 28668 28669 28670 28671 28672 28673 28674 28675 28676 28677 28678 28679 28680 28681 28682 28683 28684 28685 28686 28687 28688 28689 28690 28691 28692 28693 28694 28695 28696 28697 28698 28699 28700 28701 28702 28703 28704 28705 28706 28707 28708 28709 28710 28711 28712 28713 28714 28715 28716 28717 28718 28719 28720 28721 28722 28723 28724 28725 28726 28727 28728 28729 28730 28731 28732 28733 28734 28735 28736 28737 28738 28739 28740 28741 28742 28743 28744 28745 28746 28747 28748 28749 28750 28751 28752 28753 28754 28755 28756 28757 28758 28759 28760 28761 28762 28763 28764 28765 28766 28767 28768 28769 28770 28771 28772 28773 28774 28775 28776 28777 28778 28779 28780 28781 28782 28783 28784 28785 28786 28787 28788 28789 28790 28791 28792 28793 28794 28795 28796 28797 28798 28799 28800 28801 28802 28803 28804 28805 28806 28807 28808 28809 28810 28811 28812 28813 28814 28815 28816 28817 28818 28819 28820 28821 28822 28823 28824 28825 28826 28827 28828 28829 28830 28831 28832 28833 28834 28835 28836 28837 28838 28839 28840 28841 28842 28843 28844 28845 28846 28847 28848 28849 28850 28851 28852 28853 28854 28855 28856 28857 28858 28859 28860 28861 28862 28863 28864 28865 28866 28867 28868 28869 28870 28871 28872 28873 28874 28875 28876 28877 28878 28879 28880 28881 28882 28883 28884 28885 28886 28887 28888 28889 28890 28891 28892 28893 28894 28895 28896 28897 28898 28899 28900 28901 28902 28903 28904 28905 28906 28907 28908 28909 28910 28911 28912 28913 28914 28915 28916 28917 28918 28919 28920 28921 28922 28923 28924 28925 28926 28927 28928 28929 28930 28931 28932 28933 28934 28935 28936 28937 28938 28939 28940 28941 28942 28943 28944 28945 28946 28947 28948 28949 28950 28951 28952 28953 28954 28955 28956 28957 28958 28959 28960 28961 28962 28963 28964 28965 28966 28967 28968 28969 28970 28971 28972 28973 28974 28975 28976 28977 28978 28979 28980 28981 28982 28983 28984 28985 28986 28987 28988 28989 28990 28991 28992 28993 28994 28995 28996 28997 28998 28999 29000 29001 29002 29003 29004 29005 29006 29007 29008 29009 29010 29011 29012 29013 29014 29015 29016 29017 29018 29019 29020 29021 29022 29023 29024 29025 29026 29027 29028 29029 29030 29031 29032 29033 29034 29035 29036 29037 29038 29039 29040 29041 29042 29043 29044 29045 29046 29047 29048 29049 29050 29051 29052 29053 29054 29055 29056 29057 29058 29059 29060 29061 29062 29063 29064 29065 29066 29067 29068 29069 29070 29071 29072 29073 29074 29075 29076 29077 29078 29079 29080 29081 29082 29083 29084 29085 29086 29087 29088 29089 29090 29091 29092 29093 29094 29095 29096 29097 29098 29099 29100 29101 29102 29103 29104 29105 29106 29107 29108 29109 29110 29111 29112 29113 29114 29115 29116 29117 29118 29119 29120 29121 29122 29123 29124 29125 29126 29127 29128 29129 29130 29131 29132 29133 29134 29135 29136 29137 29138 29139 29140 29141 29142 29143 29144 29145 29146 29147 29148 29149 29150 29151 29152 29153 29154 29155 29156 29157 29158 29159 29160 29161 29162 29163 29164 29165 29166 29167 29168 29169 29170 29171 29172 29173 29174 29175 29176 29177 29178 29179 29180 29181 29182 29183 29184 29185 29186 29187 29188 29189 29190 29191 29192 29193 29194 29195 29196 29197 29198 29199 29200 29201 29202 29203 29204 29205 29206 29207 29208 29209 29210 29211 29212 29213 29214 29215 29216 29217 29218 29219 29220 29221 29222 29223 29224 29225 29226 29227 29228 29229 29230 29231 29232 29233 29234 29235 29236 29237 29238 29239 29240 29241 29242 29243 29244 29245 29246 29247 29248 29249 29250 29251 29252 29253 29254 29255 29256 29257 29258 29259 29260 29261 29262 29263 29264 29265 29266 29267 29268 29269 29270 29271 29272 29273 29274 29275 29276 29277 29278 29279 29280 29281 29282 29283 29284 29285 29286 29287 29288 29289 29290 29291 29292 29293 29294 29295 29296 29297 29298 29299 29300 29301 29302 29303 29304 29305 29306 29307 29308 29309 29310 29311 29312 29313 29314 29315 29316 29317 29318 29319 29320 29321 29322 29323 29324 29325 29326 29327 29328 29329 29330 29331 29332 29333 29334 29335 29336 29337 29338 29339 29340 29341 29342 29343 29344 29345 29346 29347 29348 29349 29350 29351 29352 29353 29354 29355 29356 29357 29358 29359 29360 29361 29362 29363 29364 29365 29366 29367 29368 29369 29370 29371 29372 29373 29374 29375 29376 29377 29378 29379 29380 29381 29382 29383 29384 29385 29386 29387 29388 29389 29390 29391 29392 29393 29394 29395 29396 29397 29398 29399 29400 29401 29402 29403 29404 29405 29406 29407 29408 29409 29410 29411 29412 29413 29414 29415 29416 29417 29418 29419 29420 29421 29422 29423 29424 29425 29426 29427 29428 29429 29430 29431 29432 29433 29434 29435 29436 29437 29438 29439 29440 29441 29442 29443 29444 29445 29446 29447 29448 29449 29450 29451 29452 29453 29454 29455 29456 29457 29458 29459 29460 29461 29462 29463 29464 29465 29466 29467 29468 29469 29470 29471 29472 29473 29474 29475 29476 29477 29478 29479 29480 29481 29482 29483 29484 29485 29486 29487 29488 29489 29490 29491 29492 29493 29494 29495 29496 29497 29498 29499 29500 29501 29502 29503 29504 29505 29506 29507 29508 29509 29510 29511 29512 29513 29514 29515 29516 29517 29518 29519 29520 29521 29522 29523 29524 29525 29526 29527 29528 29529 29530 29531 29532 29533 29534 29535 29536 29537 29538 29539 29540 29541 29542 29543 29544 29545 29546 29547 29548 29549 29550 29551 29552 29553 29554 29555 29556 29557 29558 29559 29560 29561 29562 29563 29564 29565 29566 29567 29568 29569 29570 29571 29572 29573 29574 29575 29576 29577 29578 29579 29580 29581 29582 29583 29584 29585 29586 29587 29588 29589 29590 29591 29592 29593 29594 29595 29596 29597 29598 29599 29600 29601 29602 29603 29604 29605 29606 29607 29608 29609 29610 29611 29612 29613 29614 29615 29616 29617 29618 29619 29620 29621 29622 29623 29624 29625 29626 29627 29628 29629 29630 29631 29632 29633 29634 29635 29636 29637 29638 29639 29640 29641 29642 29643 29644 29645 29646 29647 29648 29649 29650 29651 29652 29653 29654 29655 29656 29657 29658 29659 29660 29661 29662 29663 29664 29665 29666 29667 29668 29669 29670 29671 29672 29673 29674 29675 29676 29677 29678 29679 29680 29681 29682 29683 29684 29685 29686 29687 29688 29689 29690 29691 29692 29693 29694 29695 29696 29697 29698 29699 29700 29701 29702 29703 29704 29705 29706 29707 29708 29709 29710 29711 29712 29713 29714 29715 29716 29717 29718 29719 29720 29721 29722 29723 29724 29725 29726 29727 29728 29729 29730 29731 29732 29733 29734 29735 29736 29737 29738 29739 29740 29741 29742 29743 29744 29745 29746 29747 29748 29749 29750 29751 29752 29753 29754 29755 29756 29757 29758 29759 29760 29761 29762 29763 29764 29765 29766 29767 29768 29769 29770 29771 29772 29773 29774 29775 29776 29777 29778 29779 29780 29781 29782 29783 29784 29785 29786 29787 29788 29789 29790 29791 29792 29793 29794 29795 29796 29797 29798 29799 29800 29801 29802 29803 29804 29805 29806 29807 29808 29809 29810 29811 29812 29813 29814 29815 29816 29817 29818 29819 29820 29821 29822 29823 29824 29825 29826 29827 29828 29829 29830 29831 29832 29833 29834 29835 29836 29837 29838 29839 29840 29841 29842 29843 29844 29845 29846 29847 29848 29849 29850 29851 29852 29853 29854 29855 29856 29857 29858 29859 29860 29861 29862 29863 29864 29865 29866 29867 29868 29869 29870 29871 29872 29873 29874 29875 29876 29877 29878 29879 29880 29881 29882 29883 
</DataArray>
<DataArray type="UInt32" Name="offsets" format="ascii">
3 6 9 12 14 17 20 22 25 28 30 33 36 38 40 42 45 48 51 54 56 58 61 63 66 69 72 75 78 81 84 87 90 93 95 98 101 104 106 109 112 115 117 120 123 126 129 132 134 137 140 142 144 147 149 152 155 158 161 164 167 169 172 175 178 181 183 186 189 192 195 198 201 203 206 209 212 215 217 220 223 226 229 232 235 238 241 244 247 250 253 256 259 262 265 268 271 274 277 280 282 285 288 291 293 296 299 302 305 308 311 314 317 320 323 326 329 332 335 338 341 344 346 349 352 355 358 361 364 367 370 373 376 378 381 384 387 390 393 395 398 401 403 406 409 412 415 418 421 424 427 430 432 434 437 440 443 446 449 452 455 457 460 463 466 469 472 475 478 481 484 487 490 493 496 499 502 505 508 511 514 517 520 523 525 528 531 534 537 540 543 546 549 552 555 558 561 564 567 570 573 576 579 582 585 587 590 593 596 599 602 604 607 610 613 615 618 621 624 626 629 632 634 637 640 642 644 647 650 653 656 659 662 665 668 670 673 676 679 681 684 687 690 692 695 698 700 703 706 709 712 715 718 721 724 727 730 733 736 739 742 745 748 750 753 756 758 761 764 767 770 773 775 778 781 783 786 789 791 794 797 800 803 806 809 811 814 817 820 822 825 828 831 834 837 840 843 845 848 851 854 857 860 863 866 869 872 874 876 879 882 884 887 890 893 895 898 901 904 907 910 912 915 917 920 923 926 929 932 934 937 940 942 945 948 950 952 954 957 960 963 966 969 972 975 977 980 983 986 989 992 995 998 1001 1004 1006 1009 1012 1015 1018 1021 1023 1026 1029 1032 1035 1038 1041 1044 1047 1049 1052 1055 1058 1060 1063 1066 1069 1072 1075 1078 1081 1083 1086 1088 1091 1094 1097 1099 1102 1105 1108 1111 1114 1117 1120 1123 1126 1128 1131 1134 1136 1138 1140 1143 1146 1149 1152 1154 1156 1159 1162 1165 1168 1171 1174 1177 1179 1181 1184 1187 1190 1193 1196 1199 1202 1204 1206 1209 1211 1213 1216 1219 1222 1224 1227 1230 1233 1236 1238 1241 1244 1247 1250 1253 1255 1258 1261 1264 1267 1270 1273 1276 1278 1280 1283 1286 1288 1291 1293 1296 1299 1301 1304 1307 1310 1313 1316 1319 1322 1325 1327 1330 1332 1335 1338 1341 1343 1345 1348 1350 1353 1355 1358 1360 1363 1366 1368 1370 1373 1376 1378 1381 1384 1387 1389 1392 1395 1398 1401 1404 1407 1410 1413 1416 1419 1422 1425 1428 1431 1434 1437 1439 1442 1444 1447 1450 1453 1456 1458 1461 1464 1467 1470 1473 1476 1479 1482 1485 1488 1491 1493 1495 1498 1501 1504 1507 1510 1513 1516 1519 1522 1524 1527 1530 1533 1536 1539 1542 1545 1548 1551 1554 1557 1560 1563 1566 1569 1572 1575 1577 1580 1583 1585 1588 1590 1593 1596 1599 1602 1605 1608 1610 1612 1615 1618 1621 1624 1627 1629 1631 1634 1637 1640 1643 1646 1649 1652 1654 1657 1660 1663 1666 1669 1672 1675 1677 1680 1682 1685 1688 1691 1694 1696 1699 1702 1705 1708 1710 1713 1716 1718 1721 1724 1726 1729 1732 1735 1738 1741 1744 1747 1750 1753 1755 1758 1761 1764 1767 1770 1773 1776 1779 1781 1784 1786 1789 1791 1794 1797 1800 1803 1806 1809 1812 1815 1818 1821 1824 1827 1830 1832 1835 1837 1839 1842 1845 1848 1851 1854 1857 1860 1863 1866 1869 1872 1875 1877 1880 1883 1886 1888 1891 1894 1897 1900 1903 1906 1909 1912 1915 1918 1921 1924 1927 1930 1933 1936 1939 1942 1945 1948 1951 1954 1957 1960 1963 1966 1969 1972 1975 1978 1980 1983 1985 1987 1990 1993 1996 1999 2002 2004 2007 2010 2013 2016 2019 2022 2025 2028 2031 2034 2037 2039 2042 2045 2048 2050 2053 2056 2059 2062 2064 2067 2070 2073 2076 2078 2081 2084 2087 2090 2093 2096 2099 2102 2105 2108 2111 2114 2117 2120 2122 2125 2128 2131 2134 2137 2140 2143 2146 2149 2152 2155 2157 2160 2162 2165 2168 2171 2174 2177 2180 2183 2186 2189 2192 2195 2197 2200 2203 2206 2208 2211 2214 2217 2220 2223 2226 2229 2232 2235 2238 2241 2244 2247 2250 2253 2255 2258 2261 2264 2267 2270 2273 2276 2279 2282 2285 2288 2291 2294 2297 2300 2303 2306 2309 2311 2314 2317 2320 2323 2326 2329 2332 2335 2338 2340 2342 2345 2348 2351 2354 2356 2359 2361 2363 2366 2369 2372 2375 2377 2380 2382 2385 2388 2390 2393 2396 2399 2402 2405 2408 2411 2414 2416 2419 2422 2424 2427 2429 2432 2434 2437 2440 2443 2446 2449 2452 2454 2456 2459 2462 2465 2468 2471 2474 2477 2479 2482 2485 2488 2491 2494 2496 2499 2501 2504 2507 2510 2513 2515 2517 2520 2523 2526 2529 2532 2534 2537 2540 2543 2546 2549 2552 2555 2557 2560 2563 2566 2569 2572 2575 2578 2581 2584 2586 2589 2592 2595 2598 2601 2603 2606 2609 2612 2615 2618 2621 2624 2627 2630 2633 2636 2639 2642 2645 2648 2651 2654 2657 2660 2663 2666 2669 2672 2675 2678 2681 2684 2687 2690 2693 2696 2699 2701 2704 2707 2709 2712 2714 2716 2719 2721 2724 2727 2730 2733 2736 2739 2742 2745 2748 2751 2754 2757 2760 2763 2766 2769 2772 2775 2778 2781 2784 2787 2790 2793 2796 2799 2802 2804 2807 2810 2813 2816 2819 2822 2825 2828 2831 2834 2837 2840 2843 2846 2849 2852 2855 2858 2861 2863 2865 2868 2871 2874 2877 2880 2883 2886 2889 2892 2895 2898 2901 2904 2906 2908 2911 2914 2917 2920 2923 2926 2929 2932 2935 2938 2941 2944 2947 2950 2953 2956 2959 2962 2965 2968 2971 2974 2977 2980 2983 2986 2989 2992 2995 2998 3001 3004 3007 3010 3013 3016 3019 3022 3025 3028 3031 3034 3037 3040 3043 3046 3049 3052 3055 3058 3061 3064 3067 3070 3073 3076 3079 3082 3085 3088 3091 3094 3097 3100 3103 3106 3109 3112 3115 3118 3121 3124 3127 3130 3133 3136 3139 3141 3144 3146 3149 3152 3155 3158 3161 3164 3167 3170 3173 3176 3179 3182 3185 3188 3191 3194 3197 3200 3203 3206 3209 3212 3215 3218 3221 3224 3227 3229 3232 3235 3238 3240 3243 3245 3248 3251 3254 3257 3260 3263 3266 3269 3272 3275 3278 3281 3284 3287 3289 3292 3295 3297 3300 3303 3306 3309 3312 3315 3318 3321 3324 3327 3330 3333 3336 3339 3342 3345 3348 3351 3354 3357 3360 3362 3365 3368 3371 3373 3376 3379 3382 3385 3388 3391 3394 3397 3400 3403 3406 3409 3412 3415 3418 3421 3423 3425 3428 3431 3434 3437 3440 3443 3446 3449 3452 3455 3458 3461 3464 3467 3470 3473 3476 3478 3481 3484 3486 3489 3492 3495 3498 3501 3504 3507 3510 3513 3516 3519 3522 3525 3528 3531 3534 3537 3539 3542 3545 3548 3551 3554 3557 3560 3563 3566 3569 3572 3574 3577 3580 3583 3586 3589 3592 3594 3597 3599 3602 3605 3608 3611 3614 3616 3619 3622 3625 3628 3631 3634 3637 3640 3643 3646 3649 3651 3654 3657 3660 3663 3666 3669 3672 3674 3677 3680 3683 3686 3689 3691 3693 3695 3698 3701 3704 3706 3709 3712 3715 3718 3721 3724 3727 3730 3733 3736 3739 3742 3745 3748 3751 3754 3757 3760 3763 3766 3769 3772 3775 3778 3781 3784 3786 3789 3792 3795 3798 3800 3803 3806 3809 3812 3815 3818 3820 3823 3826 3829 3832 3835 3838 3841 3843 3846 3849 3852 3855 3858 3861 3864 3867 3870 3873 3876 3879 3882 3885 3887 3889 3892 3894 3897 3900 3903 3906 3909 3912 3915 3918 3921 3923 3926 3929 3931 3934 3936 3939 3941 3944 3947 3950 3953 3956 3959 3962 3964 3967 3970 3973 3976 3979 3982 3985 3988 3991 3994 3997 4000 4003 4006 4009 4012 4015 4018 4021 4024 4027 4030 4033 4036 4039 4042 4045 4048 4051 4054 4057 4060 4063 4066 4069 4072 4075 4078 4081 4083 4086 4088 4091 4094 4097 4100 4103 4106 4109 4112 4115 4118 4121 4124 4127 4130 4133 4136 4139 4142 4145 4148 4151 4154 4157 4160 4163 4165 4168 4171 4174 4177 4180 4183 4186 4189 4192 4195 4198 4201 4204 4207 4209 4212 4215 4218 4221 4224 4227 4230 4233 4236 4239 4242 4244 4247 4250 4252 4255 4258 4261 4264 4267 4270 4273 4276 4279 4282 4285 4288 4291 4294 4297 4300 4303 4306 4309 4312 4315 4318 4321 4324 4327 4330 4333 4336 4339 4342 4345 4348 4351 4354 4357 4360 4363 4366 4369 4372 4375 4378 4381 4384 4387 4390 4392 4395 4398 4400 4403 4406 4409 4412 4415 4418 4421 4424 4427 4430 4433 4436 4439 4442 4445 4448 4451 4454 4457 4460 4463 4466 4469 4472 4475 4478 4481 4483 4486 4489 4491 4494 4497 4500 4503 4506 4509 4512 4515 4518 4521 4524 4527 4530 4533 4536 4539 4542 4545 4548 4551 4553 4556 4559 4562 4565 4568 4571 4574 4577 4580 4583 4586 4589 4592 4595 4598 4601 4604 4607 4610 4613 4616 4619 4622 4625 4628 4631 4634 4637 4640 4643 4646 4649 4652 4655 4658 4661 4664 4667 4670 4673 4676 4679 4682 4685 4688 4691 4694 4697 4700 4703 4706 4709 4712 4715 4718 4721 4724 4727 4730 4733 4736 4739 4742 4745 4748 4751 4754 4757 4760 4762 4765 4768 4771 4774 4777 4780 4783 4786 4788 4791 4793 4796 4799 4802 4805 4808 4811 4814 4817 4820 4823 4826 4829 4831 4834 4837 4840 4843 4846 4849 4852 4855 4858 4861 4863 4866 4868 4871 4874 4876 4879 4882 4884 4887 4889 4891 4894 4897 4899 4902 4905 4908 4911 4913 4916 4919 4922 4925 4928 4931 4934 4936 4939 4941 4944 4947 4950 4953 4955 4958 4961 4964 4967 4969 4972 4975 4977 4980 4983 4986 4989 4991 4994 4997 5000 5003 5006 5009 5011 5014 5017 5020 5023 5026 5029 5032 5034 5036 5038 5041 5044 5047 5049 5052 5055 5058 5061 5063 5066 5069 5072 5075 5078 5081 5084 5087 5090 5093 5096 5099 5102 5105 5108 5111 5114 5116 5119 5122 5124 5127 5130 5133 5136 5139 5142 5145 5148 5151 5154 5157 5160 5163 5166 5168 5171 5174 5177 5179 5182 5185 5187 5190 5193 5196 5199 5201 5204 5207 5209 5212 5214 5217 5219 5222 5225 5227 5229 5231 5234 5237 5240 5243 5246 5249 5252 5255 5257 5260 5262 5265 5268 5271 5274 5277 5280 5283 5285 5288 5291 5294 5297 5300 5302 5305 5308 5311 5314 5317 5320 5323 5326 5329 5332 5335 5338 5341 5344 5347 5350 5353 5356 5359 5362 5365 5368 5371 5374 5377 5380 5383 5386 5389 5392 5395 5398 5401 5404 5407 5410 5413 5416 5419 5422 5425 5428 5430 5433 5436 5438 5440 5442 5445 5448 5451 5454 5457 5460 5463 5466 5469 5472 5475 5478 5481 5484 5487 5490 5493 5496 5499 5502 5505 5508 5511 5514 5517 5520 5523 5525 5528 5530 5532 5535 5538 5541 5544 5547 5550 5553 5556 5558 5561 5563 5566 5569 5572 5575 5578 5581 5584 5587 5590 5593 5596 5599 5602 5605 5608 5611 5614 5617 5620 5623 5626 5629 5632 5635 5638 5641 5644 5647 5650 5653 5656 5659 5661 5664 5667 5669 5672 5675 5678 5681 5684 5687 5690 5693 5696 5699 5702 5705 5708 5711 5714 5716 5719 5722 5725 5728 5731 5734 5737 5740 5743 5746 5749 5751 5754 5757 5760 5763 5766 5769 5772 5775 5778 5780 5783 5786 5789 5792 5795 5798 5801 5804 5807 5810 5813 5816 5819 5822 5825 5828 5831 5834 5837 5840 5843 5846 5849 5852 5855 5858 5861 5864 5867 5870 5873 5876 5879 5882 5885 5888 5891 5894 5897 5900 5902 5905 5908 5911 5914 5917 5919 5921 5924 5927 5930 5933 5936 5939 5942 5945 5948 5951 5954 5957 5960 5962 5965 5968 5971 5974 5977 5980 5983 5985 5988 5991 5994 5997 5999 6002 6005 6007 6010 6013 6016 6019 6022 6024 6027 6030 6033 6036 6039 6042 6044 6046 6049 6052 6055 6058 6061 6064 6067 6070 6073 6076 6079 6082 6085 6088 6091 6094 6097 6099 6102 6105 6108 6111 6114 6117 6120 6123 6126 6129 6132 6135 6138 6141 6144 6147 6149 6152 6155 6158 6161 6164 6166 6169 6171 6174 6177 6180 6183 6186 6189 6192 6195 6198 6201 6204 6207 6210 6213 6216 6219 6222 6225 6228 6231 6234 6237 6239 6242 6245 6248 6251 6254 6257 6259 6262 6265 6267 6270 6273 6276 6279 6282 6285 6288 6291 6294 6297 6300 6303 6306 6309 6312 6315 6318 6321 6324 6327 6330 6333 6336 6339 6342 6345 6348 6351 6354 6357 6360 6363 6366 6369 6372 6375 6378 6381 6384 6387 6390 6393 6395 6398 6401 6404 6407 6410 6413 6416 6419 6422 6425 6428 6430 6433 6436 6439 6442 6445 6448 6451 6454 6457 6460 6463 6466 6469 6472 6475 6478 6481 6484 6487 6490 6493 6496 6499 6502 6505 6507 6509 6512 6515 6518 6520 6523 6526 6529 6532 6535 6537 6540 6543 6545 6547 6550 6553 6556 6559 6562 6565 6568 6571 6574 6577 6580 6583 6586 6589 6592 6595 6598 6601 6604 6607 6610 6613 6616 6619 6622 6625 6628 6631 6633 6636 6638 6641 6643 6646 6649 6651 6654 6657 6660 6663 6665 6668 6671 6674 6676 6679 6682 6685 6688 6691 6694 6697 6700 6703 6706 6708 6711 6714 6717 6720 6723 6726 6729 6732 6735 6738 6741 6744 6747 6750 6753 6756 6759 6762 6765 6768 6771 6774 6776 6779 6782 6785 6788 6791 6794 6797 6800 6803 6806 6809 6812 6815 6817 6820 6823 6826 6829 6832 6835 6838 6841 6844 6847 6850 6853 6856 6859 6862 6865 6868 6871 6874 6877 6880 6883 6886 6888 6891 6894 6897 6899 6902 6905 6908 6910 6912 6915 6918 6921 6924 6926 6929 6932 6934 6937 6940 6943 6946 6949 6952 6955 6958 6961 6964 6967 6970 6973 6976 6979 6982 6985 6988 6990 6993 6996 6999 7002 7005 7008 7011 7014 7017 7020 7023 7026 7029 7032 7035 7037 7040 7043 7046 7049 7052 7055 7058 7061 7064 7067 7070 7073 7076 7079 7082 7084 7087 7090 7093 7096 7099 7102 7105 7108 7111 7114 7117 7120 7123 7126 7129 7132 7135 7138 7141 7144 7147 7150 7153 7156 7159 7162 7164 7167 7170 7173 7176 7179 7181 7184 7187 7190 7193 7196 7199 7202 7205 7208 7210 7212 7215 7217 7220 7222 7225 7228 7231 7234 7237 7239 7242 7245 7248 7251 7253 7256 7259 7261 7263 7266 7269 7272 7275 7278 7281 7284 7287 7289 7291 7294 7297 7299 7302 7304 7306 7309 7312 7315 7318 7321 7323 7326 7329 7332 7335 7338 7340 7343 7346 7348 7351 7354 7357 7360 7362 7365 7368 7371 7374 7377 7380 7383 7386 7389 7392 7395 7397 7400 7403 7406 7409 7411 7414 7417 7420 7422 7425 7428 7431 7434 7437 7440 7443 7446 7449 7452 7455 7457 7460 7463 7466 7469 7471 7474 7477 7480 7483 7486 7489 7492 7495 7498 7501 7503 7506 7508 7511 7514 7517 7520 7523 7526 7528 7531 7534 7537 7540 7543 7545 7548 7551 7554 7556 7559 7562 7565 7568 7570 7573 7576 7579 7582 7585 7588 7591 7594 7597 7600 7603 7606 7609 7611 7614 7617 7620 7623 7626 7629 7632 7635 7638 7641 7644 7647 7649 7652 7655 7658 7661 7664 7667 7669 7672 7674 7677 7680 7683 7686 7689 7692 7695 7698 7701 7704 7707 7710 7713 7716 7719 7722 7725 7727 7730 7733 7736 7739 7741 7743 7745 7748 7751 7754 7757 7760 7763 7766 7769 7772 7775 7778 7781 7784 7787 7789 7792 7795 7798 7801 7803 7806 7809 7811 7814 7816 7819 7822 7825 7828 7831 7834 7836 7839 7842 7845 7848 7851 7854 7857 7860 7863 7865 7868 7871 7873 7876 7879 7881 7884 7887 7890 7893 7896 7899 7901 7904 7907 7910 7913 7916 7918 7921 7924 7927 7930 7933 7936 7939 7942 7945 7948 7951 7954 7956 7959 7962 7965 7968 7971 7974 7977 7980 7983 7986 7989 7992 7994 7997 8000 8003 8006 8009 8012 8015 8018 8021 8024 8026 8029 8032 8035 8038 8040 8043 8046 8048 8051 8054 8057 8059 8062 8064 8067 8070 8073 8076 8079 8082 8085 8088 8091 8094 8097 8100 8103 8106 8109 8112 8115 8118 8121 8124 8127 8130 8133 8136 8139 8142 8145 8148 8151 8154 8157 8160 8163 8166 8169 8172 8175 8178 8180 8182 8185 8188 8191 8194 8197 8200 8203 8206 8209 8211 8213 8216 8219 8222 8225 8228 8230 8232 8235 8238 8240 8242 8245 8248 8251 8254 8257 8260 8262 8265 8268 8271 8274 8277 8280 8283 8286 8289 8292 8295 8298 8301 8304 8307 8310 8313 8316 8319 8322 8325 8328 8330 8333 8336 8339 8342 8345 8348 8351 8353 8355 8358 8361 8364 8367 8370 8373 8376 8379 8382 8385 8388 8391 8394 8397 8400 8403 8406 8409 8412 8415 8418 8421 8424 8427 8430 8433 8436 8439 8442 8445 8448 8450 8453 8455 8458 8461 8464 8467 8470 8473 8476 8479 8482 8485 8488 8491 8494 8497 8500 8503 8506 8509 8512 8515 8518 8521 8524 8527 8530 8532 8535 8538 8540 8543 8545 8547 8550 8553 8556 8559 8562 8565 8568 8571 8574 8577 8580 8583 8586 8589 8592 8595 8598 8601 8604 8607 8610 8613 8616 8619 8622 8625 8628 8631 8634 8637 8640 8643 8646 8649 8652 8655 8658 8661 8664 8667 8670 8673 8676 8679 8682 8685 8688 8691 8694 8697 8700 8703 8706 8709 8712 8715 8718 8721 8724 8727 8729 8732 8735 8738 8741 8744 8747 8750 8753 8756 8759 8762 8765 8768 8771 8774 8777 8780 8783 8786 8789 8791 8794 8797 8800 8803 8806 8809 8812 8815 8818 8821 8823 8826 8829 8832 8835 8838 8841 8843 8846 8848 8851 8854 8857 8859 8861 8863 8866 8869 8872 8875 8878 8881 8883 8886 8888 8891 8894 8897 8900 8903 8906 8909 8912 8915 8918 8921 8924 8927 8930 8933 8936 8939 8942 8945 8947 8950 8953 8956 8959 8961 8963 8966 8969 8971 8974 8977 8980 8982 8984 8987 8990 8993 8996 8998 9000 9003 9006 9009 9012 9015 9018 9020 9023 9026 9029 9032 9035 9038 9041 9044 9047 9050 9052 9055 9057 9060 9063 9066 9069 9072 9075 9078 9081 9084 9086 9089 9092 9095 9098 9101 9104 9107 9110 9113 9116 9119 9122 9125 9128 9131 9134 9137 9139 9142 9145 9148 9151 9154 9157 9160 9163 9166 9169 9172 9174 9177 9180 9183 9186 9188 9191 9194 9197 9200 9202 9205 9208 9211 9213 9216 9219 9221 9224 9227 9230 9232 9235 9238 9241 9243 9246 9249 9252 9255 9258 9261 9264 9267 9269 9272 9275 9278 9281 9283 9286 9289 9292 9295 9298 9301 9304 9307 9310 9312 9315 9318 9321 9324 9327 9329 9332 9335 9338 9340 9342 9345 9348 9351 9354 9357 9360 9363 9366 9369 9371 9374 9377 9380 9383 9386 9388 9391 9394 9396 9399 9402 9405 9407 9410 9413 9415 9418 9421 9424 9427 9430 9432 9434 9437 9440 9443 9446 9449 9452 9455 9458 9461 9464 9467 9469 9472 9475 9478 9481 9484 9486 9489 9492 9495 9498 9501 9503 9505 9508 9511 9514 9517 9519 9522 9525 9528 9530 9533 9536 9539 9542 9545 9548 9551 9554 9557 9559 9562 9565 9568 9570 9572 9575 9578 9581 9584 9587 9590 9593 9596 9599 9601 9604 9607 9610 9613 9616 9619 9622 9625 9627 9630 9633 9636 9639 9642 9645 9648 9651 9654 9657 9660 9663 9666 9669 9672 9675 9678 9681 9684 9687 9690 9693 9696 9699 9702 9705 9708 9711 9714 9716 9719 9722 9725 9728 9731 9733 9736 9739 9741 9743 9746 9749 9752 9755 9758 9761 9764 9767 9770 9773 9776 9779 9782 9785 9788 9791 9794 9797 9800 9803 9806 9808 9811 9814 9817 9819 9822 9825 9828 9831 9833 9836 9839 9842 9845 9848 9851 9854 9857 9860 9863 9866 9869 9872 9875 9878 9880 9883 9885 9888 9891 9894 9897 9900 9903 9906 9909 9911 9914 9916 9919 9921 9924 9926 9929 9932 9935 9938 9941 9944 9947 9949 9952 9955 9958 9961 9963 9965 9968 9971 9974 9977 9980 9983 9986 9989 9992 9995 9998 10000 10003 10006 10009 10012 10015 10018 10021 10024 10027 10030 10033 10035 10038 10041 10044 10046 10049 10052 10055 10058 10061 10064 10067 10070 10073 10076 10079 10082 10085 10088 10091 10094 10097 10100 10103 10106 10109 10112 10115 10118 10121 10124 10127 10129 10132 10134 10137 10140 10142 10145 10148 10151 10154 10157 10160 10163 10165 10168 10171 10173 10176 10178 10181 10183 10186 10189 10191 10194 10196 10199 10202 10205 10207 10210 10213 10216 10219 10222 10225 10228 10231 10234 10236 10239 10242 10245 10247 10250 10252 10255 10258 10261 10264 10266 10269 10272 10275 10278 10281 10284 10287 10290 10293 10295 10298 10301 10304 10307 10310 10313 10316 10319 10321 10324 10327 10330 10333 10336 10339 10342 10345 10348 10351 10354 10357 10360 10363 10366 10369 10372 10375 10378 10381 10384 10387 10390 10393 10396 10398 10400 10403 10406 10408 10411 10414 10417 10420 10423 10426 10429 10431 10434 10437 10439 10442 10445 10448 10451 10454 10457 10460 10463 10466 10469 10472 10475 10478 10481 10484 10487 10490 10492 10495 10498 10501 10504 10507 10510 10513 10516 10519 10522 10525 10528 10531 10534 10537 10540 10543 10546 10549 10552 10555 10558 10561 10564 10567 10570 10573 10576 10579 10582 10585 10587 10589 10592 10595 10598 10601 10603 10606 10609 10612 10615 10618 10621 10624 10627 10630 10632 10635 10638 10641 10644 10647 10649 10652 10654 10657 10660 10662 10665 10668 10671 10674 10677 10680 10683 10685 10688 10691 10694 10697 10700 10702 10705 10708 10711 10714 10717 10720 10723 10726 10729 10731 10734 10737 10740 10743 10746 10749 10751 10754 10757 10760 10763 10766 10769 10772 10774 10777 10780 10783 10786 10789 10792 10795 10798 10801 10804 10807 10810 10813 10815 10818 10821 10824 10827 10830 10833 10835 10838 10841 10844 10847 10850 10852 10855 10858 10860 10863 10865 10868 10871 10874 10877 10880 10882 10885 10888 10891 10894 10897 10900 10903 10905 10908 10911 10914 10916 10919 10921 10924 10927 10929 10932 10935 10938 10941 10944 10947 10950 10953 10956 10959 10962 10965 10968 10971 10974 10976 10979 10981 10984 10987 10990 10993 10996 10999 11002 11005 11008 11011 11013 11016 11019 11022 11025 11028 11031 11034 11037 11040 11042 11045 11048 11051 11054 11057 11059 11062 11065 11068 11070 11073 11076 11079 11081 11084 11087 11090 11093 11096 11099 11102 11104 11107 11110 11113 11115 11118 11121 11124 11126 11129 11132 11135 11138 11141 11143 11146 11149 11152 11155 11157 11160 11163 11166 11168 11171 11174 11177 11180 11183 11186 11189 11192 11194 11197 11200 11203 11206 11209 11212 11215 11218 11221 11223 11226 11229 11232 11235 11238 11240 11243 11246 11249 11252 11255 11258 11261 11264 11267 11270 11273 11276 11279 11282 11285 11288 11291 11294 11297 11300 11303 11306 11309 11312 11315 11317 11320 11323 11326 11329 11332 11335 11338 11341 11343 11346 11349 11352 11355 11358 11361 11364 11367 11369 11372 11375 11378 11381 11384 11387 11390 11393 11395 11398 11401 11404 11406 11409 11412 11414 11417 11419 11421 11424 11426 11429 11432 11434 11437 11440 11443 11446 11449 11452 11455 11458 11461 11463 11466 11469 11472 11475 11477 11480 11483 11485 11488 11490 11493 11496 11499 11502 11505 11508 11511 11514 11517 11520 11523 11526 11529 11532 11535 11538 11541 11544 11547 11550 11553 11556 11559 11562 11565 11568 11571 11574 11577 11580 11583 11586 11589 11592 11595 11598 11601 11604 11607 11610 11613 11616 11619 11622 11625 11628 11631 11634 11637 11640 11643 11646 11649 11652 11655 11658 11661 11664 11667 11670 11673 11675 11678 11681 11684 11687 11690 11693 11696 11699 11702 11705 11708 11711 11714 11717 11720 11723 11726 11729 11732 11735 11738 11741 11744 11747 11749 11751 11754 11756 11759 11762 11765 11768 11770 11773 11776 11779 11782 11785 11787 11790 11793 11796 11798 11801 11804 11807 11810 11813 11815 11818 11821 11824 11827 11830 11833 11836 11839 11841 11844 11847 11850 11853 11856 11859 11862 11865 11868 11871 11874 11877 11880 11883 11886 11889 11892 11895 11898 11901 11904 11907 11910 11912 11915 11918 11921 11924 11927 11930 11933 11936 11939 11942 11945 11948 11951 11954 11957 11960 11962 11965 11968 11971 11974 11977 11980 11983 11985 11988 11991 11994 11997 12000 12003 12006 12009 12012 12015 12018 12021 12024 12027 12030 12032 12035 12038 12041 12044 12047 12050 12052 12055 12058 12060 12063 12065 12067 12070 12073 12076 12079 12082 12084 12087 12089 12092 12095 12098 12101 12104 12107 12110 12113 12116 12118 12121 12124 12127 12129 12132 12134 12137 12140 12142 12145 12148 12150 12153 12156 12158 12161 12164 12167 12169 12172 12175 12177 12180 12183 12185 12187 12190 12193 12196 12199 12201 12204 12207 12210 12213 12216 12219 12222 12225 12228 12231 12234 12237 12240 12243 12246 12248 12251 12254 12257 12259 12262 12265 12267 12270 12273 12276 12279 12281 12284 12287 12290 12293 12296 12299 12301 12304 12307 12310 12313 12316 12319 12321 12324 12327 12330 12333 12336 12339 12342 12345 12348 12350 12353 12356 12359 12362 12365 12368 12371 12374 12377 12380 12383 12386 12388 12391 12394 12397 12400 12403 12405 12407 12410 12413 12416 12419 12421 12423 12426 12429 12431 12434 12437 12439 12442 12444 12447 12449 12452 12455 12458 12460 12462 12465 12468 12471 12474 12477 12480 12483 12486 12488 12491 12494 12496 12499 12502 12505 12508 12511 12514 12517 12520 12522 12525 12528 12531 12534 12537 12540 12543 12546 12549 12552 12555 12558 12561 12564 12567 12570 12573 12576 12579 12582 12585 12588 12591 12594 12597 12600 12603 12606 12609 12612 12615 12618 12621 12624 12627 12630 12633 12635 12637 12640 12643 12645 12648 12651 12654 12656 12658 12661 12663 12666 12669 12672 12675 12678 12680 12683 12686 12688 12691 12694 12697 12700 12703 12706 12709 12711 12714 12717 12720 12722 12724 12727 12730 12733 12736 12739 12742 12745 12748 12751 12754 12757 12759 12762 12765 12768 12771 12774 12777 12780 12783 12786 12789 12792 12795 12798 12801 12804 12806 12809 12812 12815 12818 12821 12824 12827 12830 12833 12836 12839 12842 12845 12848 12851 12854 12856 12858 12861 12864 12866 12869 12872 12874 12877 12880 12883 12886 12888 12891 12894 12897 12900 12902 12904 12907 12910 12913 12916 12918 12921 12924 12927 12930 12932 12934 12937 12940 12943 12946 12949 12951 12953 12956 12959 12962 12964 12967 12969 12971 12974 12976 12978 12981 12983 12986 12989 12992 12995 12997 13000 13003 13006 13009 13012 13015 13018 13021 13024 13026 13028 13030 13032 13035 13038 13041 13044 13047 13050 13053 13055 13058 13061 13064 13067 13070 13073 13076 13079 13082 13085 13087 13090 13093 13096 13099 13102 13105 13107 13110 13113 13115 13118 13121 13124 13127 13130 13133 13136 13139 13141 13144 13147 13150 13153 13156 13158 13161 13163 13166 13169 13172 13175 13178 13181 13184 13187 13190 13193 13196 13199 13202 13205 13208 13211 13214 13217 13220 13223 13226 13229 13232 13235 13238 13241 13244 13247 13250 13253 13256 13259 13262 13265 13268 13271 13274 13277 13280 13282 13285 13287 13290 13292 13295 13298 13301 13303 13306 13308 13310 13313 13316 13318 13321 13323 13325 13327 13330 13333 13336 13339 13342 13345 13348 13351 13354 13357 13359 13362 13365 13367 13370 13372 13375 13378 13380 13383 13385 13387 13390 13393 13395 13398 13401 13404 13407 13409 13412 13415 13417 13419 13422 13425 13428 13431 13434 13437 13440 13443 13446 13449 13452 13455 13458 13461 13464 13467 13469 13471 13474 13477 13480 13482 13485 13488 13490 13493 13496 13498 13501 13504 13507 13509 13512 13515 13518 13521 13524 13527 13530 13533 13536 13539 13541 13544 13547 13550 13553 13556 13558 13561 13564 13567 13570 13573 13576 13579 13581 13584 13587 13590 13593 13596 13599 13602 13605 13608 13611 13614 13617 13620 13623 13626 13629 13631 13634 13637 13640 13643 13646 13649 13652 13655 13658 13661 13664 13667 13669 13672 13675 13678 13681 13684 13687 13690 13693 13696 13699 13702 13705 13708 13711 13714 13717 13720 13723 13726 13728 13731 13734 13737 13740 13743 13746 13748 13751 13754 13757 13760 13763 13765 13768 13771 13774 13777 13780 13783 13786 13789 13792 13795 13798 13801 13804 13807 13810 13813 13816 13819 13822 13825 13827 13829 13832 13835 13838 13841 13844 13847 13850 13853 13855 13858 13861 13864 13867 13870 13873 13876 13879 13881 13884 13887 13890 13893 13896 13898 13901 13904 13907 13910 13913 13916 13919 13922 13925 13928 13931 13934 13937 13940 13943 13945 13947 13950 13953 13956 13959 13962 13965 13968 13970 13973 13976 13979 13982 13985 13988 13991 13994 13997 14000 14003 14006 14009 14012 14014 14017 14020 14023 14026 14029 14031 14034 14037 14040 14043 14045 14048 14050 14053 14055 14058 14060 14062 14065 14067 14070 14073 14075 14078 14081 14084 14087 14090 14093 14096 14099 14101 14104 14107 14110 14113 14115 14117 14120 14122 14124 14127 14130 14133 14135 14137 14140 14142 14145 14147 14150 14153 14156 14158 14161 14164 14167 14169 14172 14174 14177 14180 14183 14185 14188 14191 14194 14197 14200 14202 14204 14207 14210 14213 14215 14218 14221 14224 14227 14230 14233 14236 14238 14241 14244 14246 14248 14251 14253 14256 14258 14261 14264 14267 14269 14272 14274 14277 14280 14282 14285 14288 14290 14292 14294 14297 14299 14302 14305 14308 14310 14312 14315 14318 14321 14324 14327 14330 14333 14336 14338 14341 14344 14347 14349 14352 14354 14357 14359 14362 14364 14366 14369 14372 14375 14377 14380 14382 14384 14387 14390 14393 14396 14399 14402 14405 14408 14411 14414 14416 14418 14421 14424 14426 14429 14432 14435 14438 14441 14444 14447 14450 14453 14456 14458 14461 14464 14467 14469 14472 14475 14478 14481 14484 14487 14490 14493 14495 14498 14501 14504 14507 14510 14513 14516 14518 14521 14524 14527 14530 14533 14535 14538 14541 14544 14547 14550 14553 14556 14559 14562 14565 14568 14571 14574 14577 14580 14582 14585 14588 14590 14592 14594 14596 14599 14601 14604 14607 14609 14612 14615 14618 14621 14623 14626 14629 14632 14634 14637 14640 14643 14646 14649 14652 14655 14658 14660 14663 14665 14668 14671 14673 14676 14679 14682 14684 14687 14690 14693 14695 14698 14701 14703 14706 14709 14712 14714 14717 14720 14723 14726 14729 14732 14735 14738 14741 14744 14747 14750 14753 14756 14758 14761 14764 14766 14769 14772 14774 14777 14780 14782 14785 14788 14791 14794 14797 14800 14802 14805 14807 14810 14813 14816 14819 14822 14825 14827 14830 14833 14836 14838 14841 14843 14846 14848 14850 14853 14856 14859 14862 14865 14868 14871 14873 14876 14878 14881 14883 14886 14888 14891 14893 14896 14899 14901 14904 14907 14910 14912 14915 14918 14921 14924 14927 14930 14933 14936 14938 14941 14944 14947 14950 14953 14956 14959 14962 14964 14967 14970 14972 14975 14978 14981 14984 14987 14990 14992 14995 14998 15001 15004 15006 15009 15012 15015 15018 15021 15023 15026 15028 15031 15034 15037 15040 15043 15046 15048 15051 15054 15057 15060 15062 15065 15068 15071 15073 15075 15078 15080 15083 15086 15089 15092 15095 15098 15101 15104 15107 15110 15113 15116 15118 15121 15124 15127 15129 15132 15135 15137 15140 15143 15146 15148 15151 15154 15157 15159 15162 15165 15168 15171 15173 15176 15179 15182 15185 15188 15191 15194 15197 15200 15203 15206 15209 15212 15214 15217 15219 15222 15224 15227 15229 15232 15235 15238 15241 15243 15246 15249 15252 15255 15258 15260 15263 15266 15269 15272 15275 15277 15279 15282 15285 15287 15290 15293 15296 15299 15302 15305 15307 15310 15312 15315 15318 15321 15324 15327 15330 15333 15335 15338 15340 15343 15346 15349 15352 15354 15357 15360 15363 15366 15368 15371 15373 15376 15378 15381 15384 15387 15390 15393 15396 15399 15402 15404 15407 15410 15413 15416 15419 15422 15425 15428 15431 15434 15437 15440 15443 15446 15448 15450 15453 15456 15458 15461 15464 15466 15469 15472 15474 15476 15479 15481 15484 15487 15490 15492 15494 15497 15500 15502 15505 15507 15510 15513 15516 15518 15521 15524 15527 15529 15532 15535 15538 15541 15544 15547 15550 15553 15555 15558 15561 15564 15567 15570 15573 15576 15579 15581 15584 15587 15590 15593 15596 15599 15602 15604 15607 15610 15612 15615 15618 15621 15624 15627 15629 15632 15635 15638 15640 15643 15646 15649 15652 15655 15658 15660 15663 15666 15669 15672 15675 15678 15680 15683 15686 15688 15691 15693 15696 15699 15702 15705 15708 15711 15713 15716 15719 15722 15724 15727 15730 15733 15736 15739 15742 15745 15748 15750 15753 15756 15759 15762 15765 15768 15770 15773 15776 15779 15781 15783 15786 15788 15790 15792 15795 15797 15800 15803 15806 15809 15811 15813 15815 15818 15821 15824 15827 15829 15832 15835 15838 15841 15844 15846 15849 15852 15855 15858 15861 15863 15866 15869 15872 15875 15878 15881 15883 15886 15889 15892 15895 15897 15899 15902 15905 15908 15911 15914 15917 15920 15923 15926 15928 15931 15934 15937 15939 15942 15945 15948 15951 15954 15956 15958 15961 15963 15966 15969 15971 15974 15977 15980 15983 15986 15989 15992 15995 15998 16000 16002 16005 16008 16011 16014 16017 16020 16023 16026 16029 16032 16035 16037 16039 16042 16044 16047 16050 16053 16056 16059 16062 16065 16067 16070 16073 16076 16078 16081 16084 16087 16089 16092 16095 16098 16101 16104 16107 16110 16112 16114 16117 16120 16123 16125 16128 16130 16133 16136 16139 16142 16145 16148 16151 16154 16157 16160 16163 16166 16169 16172 16175 16178 16181 16184 16187 16190 16193 16196 16199 16202 16204 16207 16210 16213 16216 16219 16222 16225 16228 16231 16234 16237 16240 16243 16246 16249 16251 16254 16257 16260 16263 16266 16269 16272 16275 16277 16280 16283 16286 16289 16292 16295 16297 16300 16302 16305 16308 16311 16313 16315 16318 16321 16324 16326 16329 16332 16335 16337 16340 16343 16346 16348 16351 16354 16357 16360 16363 16366 16369 16371 16374 16377 16380 16383 16385 16388 16391 16394 16397 16400 16403 16406 16408 16411 16414 16417 16420 16423 16425 16428 16431 16434 16436 16438 16441 16444 16447 16450 16453 16456 16459 16462 16465 16468 16471 16474 16477 16480 16483 16486 16489 16491 16494 16497 16499 16502 16505 16507 16509 16512 16515 16518 16521 16524 16527 16530 16533 16536 16539 16542 16545 16548 16551 16554 16556 16559 16562 16565 16567 16570 16573 16576 16579 16582 16585 16588 16591 16594 16597 16600 16603 16606 16609 16612 16615 16618 16620 16622 16625 16628 16631 16634 16637 16640 16643 16646 16649 16651 16654 16656 16659 16662 16665 16668 16671 16674 16677 16680 16682 16684 16687 16690 16693 16695 16698 16701 16704 16707 16710 16713 16716 16719 16722 16725 16728 16731 16733 16736 16739 16742 16745 16748 16751 16753 16756 16759 16762 16765 16768 16770 16773 16776 16779 16781 16784 16787 16790 16793 16795 16797 16800 16803 16806 16809 16812 16815 16818 16821 16824 16827 16829 16832 16834 16837 16840 16843 16846 16849 16851 16854 16857 16860 16863 16866 16869 16872 16875 16878 16881 16884 16887 16890 16893 16896 16899 16902 16905 16907 16910 16913 16916 16919 16921 16924 16927 16930 16933 16936 16939 16942 16944 16947 16950 16953 16956 16959 16962 16965 16968 16971 16973 16976 16979 16982 16985 16987 16989 16992 16995 16998 17001 17004 17006 17008 17011 17014 17017 17020 17023 17026 17029 17032 17034 17037 17040 17043 17045 17047 17050 17053 17056 17059 17062 17065 17068 17071 17074 17077 17080 17083 17086 17089 17092 17095 17098 17101 17104 17107 17110 17113 17116 17119 17122 17125 17128 17131 17134 17137 17140 17142 17145 17148 17151 17154 17156 17159 17162 17165 17167 17169 17172 17175 17178 17181 17184 17187 17189 17191 17194 17197 17200 17203 17206 17209 17211 17214 17216 17218 17221 17224 17227 17229 17232 17235 17237 17240 17242 17245 17247 17250 17253 17256 17259 17261 17264 17267 17270 17273 17275 17278 17281 17284 17287 17290 17293 17296 17299 17302 17305 17308 17311 17314 17317 17320 17323 17326 17329 17332 17335 17338 17341 17344 17347 17350 17353 17356 17359 17361 17364 17367 17370 17373 17376 17379 17382 17385 17388 17391 17394 17397 17400 17402 17405 17408 17411 17414 17417 17420 17423 17426 17429 17432 17435 17438 17441 17444 17447 17450 17453 17455 17457 17460 17463 17466 17469 17472 17474 17476 17479 17481 17484 17487 17489 17491 17494 17496 17499 17502 17505 17508 17510 17513 17516 17519 17521 17524 17526 17528 17531 17534 17537 17540 17543 17546 17549 17552 17555 17557 17559 17561 17563 17565 17568 17571 17574 17577 17580 17583 17586 17589 17592 17595 17598 17601 17604 17607 17610 17613 17616 17619 17622 17625 17628 17631 17634 17637 17640 17642 17645 17648 17651 17654 17657 17659 17661 17664 17667 17670 17673 17676 17679 17682 17685 17687 17690 17692 17695 17698 17701 17704 17707 17710 17712 17715 17718 17720 17723 17725 17728 17731 17734 17736 17739 17742 17745 17747 17750 17753 17756 17759 17762 17765 17768 17771 17774 17776 17779 17781 17784 17787 17789 17792 17795 17798 17801 17803 17806 17809 17812 17815 17818 17821 17824 17827 17830 17832 17835 17837 17839 17842 17844 17847 17850 17853 17856 17859 17861 17864 17866 17868 17871 17874 17877 17880 17883 17885 17888 17891 17894 17897 17900 17903 17906 17909 17912 17915 17918 17921 17924 17927 17930 17933 17936 17939 17942 17945 17948 17951 17954 17957 17960 17963 17966 17969 17972 17975 17978 17980 17983 17986 17989 17992 17995 17998 18001 18003 18006 18009 18012 18015 18017 18020 18023 18026 18029 18032 18035 18038 18041 18044 18047 18050 18053 18055 18058 18061 18064 18067 18070 18073 18076 18079 18082 18084 18087 18089 18092 18095 18097 18100 18103 18106 18108 18111 18114 18117 18120 18123 18126 18129 18132 18135 18138 18141 18144 18147 18150 18152 18155 18158 18161 18163 18166 18169 18172 18175 18177 18180 18183 18186 18189 18192 18195 18198 18201 18204 18207 18210 18213 18216 18219 18222 18225 18228 18231 18234 18237 18240 18243 18245 18248 18251 18254 18257 18260 18263 18266 18269 18272 18274 18276 18279 18282 18285 18288 18290 18293 18296 18299 18301 18303 18306 18308 18311 18314 18317 18320 18322 18325 18328 18331 18333 18336 18339 18342 18345 18348 18351 18354 18357 18360 18363 18366 18369 18372 18375 18377 18380 18382 18384 18387 18390 18392 18395 18397 18400 18403 18406 18409 18412 18415 18418 18421 18424 18427 18430 18432 18435 18437 18440 18443 18446 18449 18452 18455 18458 18461 18464 18467 18470 18473 18475 18478 18481 18484 18487 18489 18492 18495 18498 18501 18504 18507 18510 18513 18515 18518 18520 18523 18526 18528 18530 18533 18536 18539 18542 18544 18546 18548 18551 18554 18557 18559 18562 18565 18568 18571 18574 18577 18579 18582 18585 18587 18590 18593 18596 18599 18602 18605 18608 18611 18614 18617 18619 18622 18624 18627 18630 18632 18635 18638 18640 18643 18646 18649 18652 18655 18658 18661 18664 18667 18669 18672 18674 18677 18680 18683 18685 18688 18691 18694 18697 18700 18703 18706 18709 18712 18715 18717 18720 18723 18726 18729 18732 18735 18738 18741 18744 18747 18750 18753 18756 18759 18762 18764 18767 18770 18772 18775 18778 18781 18784 18787 18790 18793 18796 18798 18801 18804 18806 18809 18811 18814 18817 18820 18822 18825 18828 18831 18834 18837 18840 18843 18846 18849 18852 18855 18858 18861 18864 18867 18870 18872 18875 18878 18881 18884 18887 18890 18893 18895 18898 18901 18904 18906 18909 18912 18915 18918 18921 18924 18927 18930 18932 18935 18938 18941 18944 18947 18950 18953 18956 18959 18962 18965 18968 18971 18974 18977 18980 18983 18986 18989 18992 18995 18998 19001 19004 19007 19010 19013 19016 19019 19022 19025 19028 19031 19034 19037 19040 19043 19046 19049 19052 19055 19058 19061 19064 19067 19070 19073 19076 19079 19082 19085 19088 19091 19094 19097 19100 19103 19106 19109 19112 19115 19118 19121 19124 19127 19129 19132 19135 19138 19141 19144 19147 19150 19152 19155 19158 19161 19164 19167 19169 19172 19175 19178 19181 19184 19187 19190 19193 19196 19199 19202 19205 19208 19211 19214 19217 19220 19222 19225 19227 19230 19233 19236 19238 19241 19244 19246 19249 19252 19255 19257 19260 19262 19264 19266 19269 19272 19275 19278 19280 19283 19285 19288 19291 19293 19296 19299 19302 19305 19308 19310 19313 19316 19319 19322 19325 19328 19331 19334 19337 19340 19343 19346 19349 19352 19355 19358 19361 19364 19366 19369 19372 19375 19378 19381 19384 19386 19389 19392 19395 19398 19401 19404 19407 19410 19413 19416 19418 19421 19424 19426 19429 19432 19435 19437 19440 19443 19445 19448 19450 19453 19455 19458 19461 19463 19465 19468 19471 19474 19477 19480 19483 19486 19489 19492 19494 19497 19500 19503 19506 19509 19512 19515 19518 19520 19523 19526 19528 19531 19534 19536 19539 19542 19544 19546 19549 19552 19555 19557 19560 19562 19564 19567 19570 19572 19574 19577 19580 19582 19585 19587 19590 19593 19596 19598 19601 19604 19606 19609 19611 19614 19617 19619 19622 19625 19628 19631 19634 19637 19640 19643 19646 19649 19651 19654 19657 19660 19663 19666 19669 19672 19675 19678 19681 19684 19687 19690 19693 19696 19699 19702 19705 19708 19711 19713 19716 19719 19721 19724 19727 19730 19733 19736 19739 19742 19745 19748 19751 19754 19757 19760 19763 19766 19769 19772 19775 19777 19780 19783 19786 19789 19791 19794 19797 19800 19803 19806 19809 19811 19813 19816 19819 19822 19825 19828 19831 19834 19837 19840 19843 19846 19849 19852 19855 19858 19861 19864 19867 19869 19872 19875 19878 19880 19883 19886 19889 19891 19894 19897 19900 19902 19905 19908 19911 19913 19916 19919 19922 19925 19928 19931 19933 19936 19939 19942 19945 19948 19951 19954 19957 19960 19963 19966 19969 19972 19975 19978 19981 19984 19987 19990 19993 19996 19999 20002 20005 20008 20010 20012 20015 20018 20021 20024 20026 20029 20031 20034 20036 20039 20041 20044 20047 20050 20053 20056 20059 20062 20064 20067 20070 20073 20076 20079 20082 20085 20087 20090 20093 20096 20099 20102 20105 20107 20110 20113 20116 20119 20122 20125 20128 20131 20134 20137 20140 20142 20144 20147 20150 20153 20156 20159 20161 20164 20167 20170 20173 20176 20179 20182 20185 20188 20191 20194 20197 20200 20203 20206 20209 20212 20215 20218 20221 20224 20226 20228 20231 20234 20237 20239 20241 20243 20246 20249 20252 20255 20258 20261 20264 20266 20269 20272 20275 20278 20281 20284 20287 20290 20293 20296 20299 20302 20305 20308 20311 20314 20317 20320 20323 20326 20329 20332 20335 20338 20341 20344 20347 20350 20353 20356 20359 20362 20365 20368 20371 20374 20376 20379 20382 20385 20388 20391 20394 20397 20400 20403 20406 20409 20412 20415 20418 20420 20423 20425 20428 20431 20434 20437 20440 20443 20446 20449 20451 20454 20457 20459 20461 20464 20467 20470 20473 20476 20478 20480 20483 20486 20489 20492 20495 20498 20501 20504 20507 20510 20513 20516 20519 20521 20524 20527 20529 20532 20534 20537 20539 20542 20545 20548 20551 20554 20557 20560 20563 20566 20569 20572 20575 20578 20581 20584 20586 20589 20592 20595 20598 20601 20604 20607 20609 20611 20613 20616 20619 20621 20624 20626 20629 20632 20635 20637 20640 20642 20645 20647 20650 20652 20655 20657 20660 20663 20666 20669 20672 20675 20678 20680 20683 20685 20688 20691 20694 20696 20699 20702 20705 20708 20711 20713 20716 20719 20721 20724 20727 20729 20732 20735 20738 20740 20743 20746 20749 20752 20755 20758 20761 20764 20767 20769 20772 20775 20778 20781 20784 20787 20789 20792 20795 20798 20801 20804 20806 20809 20812 20815 20818 20821 20824 20826 20829 20832 20834 20837 20840 20843 20846 20849 20852 20855 20858 20861 20864 20867 20870 20873 20876 20879 20882 20884 20887 20890 20893 20896 20899 20902 20905 20908 20911 20914 20917 20920 20923 20926 20929 20932 20935 20938 20941 20944 20947 20950 20953 20956 20959 20961 20964 20966 20969 20972 20975 20978 20981 20984 20987 20990 20992 20995 20998 21001 21004 21006 21009 21012 21015 21018 21021 21024 21027 21030 21033 21036 21039 21042 21044 21047 21050 21053 21056 21059 21062 21065 21068 21070 21073 21076 21079 21082 21085 21088 21091 21094 21097 21100 21103 21106 21109 21112 21115 21118 21121 21124 21127 21130 21133 21136 21139 21142 21145 21147 21150 21153 21156 21159 21162 21165 21168 21171 21174 21177 21180 21183 21186 21189 21192 21195 21198 21201 21204 21206 21209 21212 21215 21218 21220 21223 21226 21228 21231 21233 21235 21238 21241 21244 21246 21249 21251 21254 21257 21259 21261 21264 21267 21270 21273 21275 21278 21281 21283 21286 21289 21292 21295 21298 21301 21304 21306 21309 21312 21315 21318 21320 21323 21326 21329 21332 21335 21337 21340 21343 21345 21348 21351 21354 21356 21359 21362 21365 21368 21370 21373 21376 21379 21382 21385 21387 21390 21393 21396 21399 21401 21404 21407 21410 21413 21416 21419 21422 21425 21428 21430 21433 21436 21439 21442 21444 21447 21450 21453 21456 21459 21461 21463 21466 21468 21471 21474 21476 21479 21481 21484 21486 21489 21492 21494 21496 21499 21502 21505 21508 21511 21513 21516 21519 21522 21524 21527 21530 21533 21536 21539 21541 21544 21547 21550 21552 21555 21557 21560 21562 21565 21567 21569 21572 21575 21578 21580 21583 21586 21589 21591 21593 21596 21598 21601 21604 21607 21609 21611 21614 21616 21619 21621 21624 21627 21630 21632 21635 21638 21641 21644 21646 21649 21652 21655 21658 21661 21664 21667 21669 21672 21674 21677 21679 21682 21685 21688 21690 21693 21695 21698 21701 21704 21706 21708 21711 21714 21716 21719 21722 21725 21728 21731 21734 21737 21740 21743 21746 21749 21752 21755 21758 21760 21763 21765 21767 21769 21771 21774 21777 21780 21783 21786 21789 21792 21795 21798 21801 21803 21806 21809 21812 21815 21818 21821 21824 21827 21830 21833 21836 21839 21842 21845 21848 21851 21854 21857 21860 21863 21866 21869 21872 21875 21878 21881 21884 21887 21890 21893 21896 21899 21902 21905 21908 21911 21914 21917 21920 21923 21926 21929 21932 21935 21938 21941 21944 21947 21950 21953 21955 21958 21961 21964 21967 21970 21972 21975 21978 21981 21984 21987 21990 21993 21996 21999 22001 22004 22007 22010 22013 22016 22019 22022 22025 22028 22030 22033 22036 22039 22041 22043 22046 22049 22052 22055 22058 22061 22064 22067 22070 22073 22076 22079 22082 22085 22088 22091 22094 22097 22100 22103 22106 22108 22111 22114 22117 22120 22123 22126 22129 22132 22135 22138 22141 22144 22147 22150 22153 22156 22159 22162 22165 22168 22171 22174 22177 22180 22183 22186 22189 22192 22195 22198 22200 22203 22206 22208 22211 22213 22215 22218 22221 22223 22225 22227 22230 22233 22236 22238 22240 22243 22246 22249 22252 22255 22257 22260 22263 22266 22268 22271 22273 22276 22279 22282 22285 22288 22291 22293 22296 22299 22301 22304 22307 22310 22313 22316 22319 22322 22325 22327 22330 22333 22336 22338 22341 22344 22347 22350 22353 22356 22359 22362 22365 22368 22371 22374 22376 22379 22382 22385 22388 22391 22394 22397 22400 22403 22406 22409 22412 22415 22418 22421 22424 22427 22430 22433 22436 22439 22442 22445 22448 22451 22454 22457 22460 22462 22465 22468 22471 22474 22477 22480 22483 22485 22488 22491 22493 22496 22498 22501 22504 22507 22510 22513 22516 22519 22522 22524 22527 22530 22532 22535 22538 22541 22544 22547 22550 22553 22556 22559 22562 22565 22568 22571 22574 22577 22580 22583 22586 22589 22592 22595 22598 22601 22604 22606 22608 22610 22613 22616 22619 22622 22625 22627 22630 22633 22636 22639 22642 22644 22647 22650 22653 22656 22658 22660 22663 22666 22669 22672 22675 22678 22680 22682 22685 22688 22690 22693 22696 22699 22702 22705 22708 22711 22714 22717 22720 22723 22725 22728 22731 22734 22737 22740 22743 22746 22749 22752 22755 22758 22761 22763 22766 22769 22772 22775 22777 22780 22782 22785 22788 22791 22794 22797 22800 22803 22806 22809 22812 22815 22818 22821 22824 22827 22830 22833 22836 22838 22841 22843 22846 22849 22852 22855 22858 22861 22864 22867 22870 22872 22875 22878 22881 22884 22886 22888 22891 22893 22896 22899 22902 22905 22908 22911 22914 22917 22920 22923 22926 22929 22932 22935 22938 22941 22944 22947 22950 22953 22956 22959 22962 22965 22968 22971 22974 22976 22978 22981 22984 22987 22990 22992 22994 22997 22999 23002 23004 23007 23010 23013 23016 23019 23022 23025 23028 23031 23034 23037 23040 23042 23045 23048 23051 23054 23056 23059 23062 23064 23067 23070 23073 23076 23079 23082 23085 23088 23091 23094 23097 23100 23103 23106 23109 23112 23115 23118 23121 23124 23127 23130 23132 23135 23138 23141 23144 23147 23150 23153 23156 23159 23162 23165 23167 23170 23173 23176 23179 23182 23185 23188 23191 23194 23197 23200 23203 23206 23209 23212 23215 23218 23221 23224 23227 23230 23232 23235 23238 23240 23242 23245 23248 23250 23253 23255 23258 23261 23264 23266 23269 23272 23275 23278 23281 23284 23287 23290 23293 23295 23298 23301 23304 23306 23309 23312 23315 23318 23321 23324 23327 23330 23333 23336 23339 23342 23345 23348 23351 23354 23357 23359 23362 23365 23368 23371 23374 23377 23379 23382 23385 23388 23391 23394 23396 23399 23402 23405 23408 23411 23414 23417 23420 23423 23426 23429 23431 23434 23436 23439 23442 23445 23448 23451 23454 23457 23460 23463 23466 23469 23472 23475 23478 23481 23484 23486 23489 23492 23495 23498 23501 23504 23507 23509 23512 23515 23518 23521 23524 23526 23529 23532 23535 23537 23540 23543 23546 23549 23552 23554 23557 23560 23563 23566 23569 23571 23574 23577 23580 23582 23585 23587 23589 23592 23594 23597 23600 23603 23606 23609 23612 23615 23618 23621 23623 23626 23629 23632 23635 23638 23641 23643 23646 23649 23651 23654 23656 23659 23661 23664 23667 23670 23673 23676 23679 23682 23685 23688 23690 23693 23696 23699 23702 23705 23708 23710 23713 23716 23719 23722 23725 23728 23731 23734 23737 23740 23743 23746 23749 23752 23755 23758 23760 23763 23766 23768 23771 23774 23777 23780 23783 23786 23788 23791 23794 23797 23800 23803 23806 23809 23812 23815 23818 23821 23824 23826 23828 23831 23833 23836 23839 23842 23845 23848 23851 23853 23856 23859 23862 23864 23867 23870 23873 23876 23879 23881 23884 23887 23890 23892 23895 23898 23901 23904 23907 23910 23913 23916 23919 23922 23925 23928 23931 23934 23937 23940 23943 23946 23949 23952 23955 23958 23961 23964 23967 23969 23972 23975 23978 23980 23983 23985 23988 23991 23994 23997 24000 24003 24006 24009 24012 24015 24018 24021 24024 24027 24030 24033 24036 24039 24042 24045 24048 24051 24053 24056 24059 24062 24064 24067 24070 24073 24076 24079 24081 24084 24086 24089 24092 24095 24098 24100 24103 24106 24109 24112 24115 24118 24121 24124 24127 24130 24132 24135 24137 24140 24143 24146 24148 24150 24153 24156 24159 24162 24165 24168 24170 24173 24176 24179 24182 24184 24187 24190 24192 24195 24197 24200 24202 24205 24208 24210 24213 24216 24219 24222 24225 24228 24231 24234 24237 24240 24243 24245 24248 24251 24254 24257 24260 24263 24266 24269 24271 24274 24277 24280 24283 24286 24289 24292 24295 24298 24301 24304 24306 24309 24312 24315 24318 24321 24324 24326 24329 24331 24334 24336 24339 24342 24344 24347 24350 24353 24356 24359 24362 24365 24368 24371 24374 24377 24380 24383 24386 24388 24391 24393 24396 24399 24402 24405 24408 24411 24414 24417 24420 24423 24426 24429 24431 24434 24436 24439 24442 24445 24448 24451 24454 24456 24459 24462 24464 24467 24470 24472 24475 24477 24480 24483 24485 24488 24491 24494 24497 24499 24502 24505 24508 24511 24514 24517 24520 24523 24526 24528 24531 24533 24536 24539 24542 24545 24548 24551 24554 24557 24560 24563 24566 24569 24572 24575 24578 24581 24584 24587 24590 24593 24596 24599 24602 24605 24608 24611 24614 24616 24619 24622 24624 24627 24630 24633 24636 24639 24642 24645 24648 24651 24654 24657 24660 24663 24666 24668 24671 24674 24676 24679 24682 24685 24688 24690 24693 24696 24699 24702 24705 24708 24710 24713 24716 24719 24722 24724 24727 24729 24732 24734 24737 24740 24743 24746 24749 24752 24755 24758 24761 24764 24767 24770 24772 24775 24778 24781 24784 24787 24790 24793 24796 24799 24802 24805 24808 24811 24814 24817 24820 24823 24825 24828 24831 24834 24837 24840 24843 24846 24849 24852 24855 24858 24861 24864 24867 24870 24873 24876 24879 24882 24885 24888 24891 24894 24897 24900 24902 24905 24907 24910 24912 24915 24918 24921 24924 24927 24929 24932 24935 24938 24941 24944 24947 24949 24952 24955 24958 24961 24964 24966 24969 24972 24975 24978 24981 24983 24986 24989 24992 24994 24997 25000 25003 25006 25009 25012 25015 25018 25020 25023 25026 25028 25031 25034 25037 25040 25043 25045 25047 25050 25053 25056 25059 25061 25063 25066 25069 25072 25075 25077 25080 25083 25086 25089 25092 25094 25097 25100 25103 25106 25109 25112 25114 25117 25120 25123 25126 25129 25132 25135 25138 25140 25143 25146 25149 25152 25155 25158 25160 25163 25166 25169 25172 25175 25178 25181 25184 25187 25190 25193 25196 25198 25201 25204 25207 25210 25213 25216 25219 25222 25225 25227 25230 25233 25236 25239 25242 25245 25248 25251 25254 25257 25260 25263 25266 25269 25272 25275 25278 25281 25284 25287 25290 25293 25296 25299 25302 25305 25308 25311 25314 25317 25320 25323 25326 25329 25332 25335 25338 25341 25344 25347 25350 25353 25356 25359 25362 25365 25368 25371 25374 25377 25380 25383 25386 25389 25392 25395 25398 25401 25404 25407 25410 25412 25415 25418 25421 25424 25427 25430 25433 25436 25439 25442 25445 25448 25451 25454 25457 25460 25463 25465 25468 25471 25474 25477 25480 25483 25486 25489 25492 25495 25498 25501 25504 25507 25510 25513 25516 25519 25521 25524 25527 25530 25533 25536 25539 25542 25545 25548 25551 25554 25557 25560 25563 25566 25569 25572 25575 25578 25581 25584 25587 25590 25593 25596 25599 25602 25605 25607 25610 25613 25616 25619 25622 25625 25628 25631 25634 25637 25640 25643 25646 25649 25652 25655 25657 25660 25663 25666 25669 25672 25675 25678 25680 25683 25686 25689 25692 25695 25698 25701 25704 25706 25709 25712 25715 25718 25721 25723 25726 25729 25732 25735 25738 25741 25744 25747 25750 25752 25755 25758 25761 25764 25767 25770 25773 25776 25779 25781 25784 25787 25790 25793 25796 25799 25802 25805 25808 25811 25814 25817 25820 25823 25825 25828 25830 25833 25836 25839 25842 25845 25848 25850 25853 25856 25858 25861 25864 25867 25869 25872 25875 25877 25880 25883 25886 25889 25891 25894 25897 25900 25903 25905 25908 25911 25914 25917 25920 25923 25925 25928 25931 25934 25937 25940 25942 25944 25947 25950 25953 25956 25959 25962 25965 25968 25971 25974 25977 25980 25983 25986 25989 25992 25995 25998 26000 26003 26006 26009 26012 26015 26018 26021 26024 26027 26029 26032 26035 26037 26040 26043 26046 26049 26052 26055 26058 26060 26063 26066 26069 26072 26075 26078 26081 26084 26087 26090 26093 26095 26098 26101 26104 26107 26110 26113 26115 26118 26121 26124 26127 26130 26133 26136 26138 26141 26144 26147 26149 26152 26154 26157 26160 26163 26166 26169 26172 26175 26178 26181 26184 26187 26190 26193 26196 26199 26202 26205 26208 26211 26213 26216 26219 26222 26224 26227 26230 26233 26236 26239 26241 26244 26247 26250 26253 26256 26259 26262 26265 26268 26271 26274 26277 26280 26283 26286 26289 26291 26294 26297 26300 26303 26306 26308 26310 26313 26316 26319 26322 26325 26328 26331 26334 26337 26340 26343 26346 26349 26352 26355 26358 26361 26364 26367 26370 26372 26375 26378 26381 26384 26387 26390 26393 26396 26399 26402 26405 26408 26410 26413 26416 26419 26422 26425 26427 26429 26431 26434 26436 26438 26441 26444 26447 26450 26453 26456 26459 26461 26463 26466 26469 26472 26475 26477 26480 26483 26486 26489 26491 26494 26497 26500 26503 26505 26508 26511 26514 26517 26520 26523 26526 26529 26532 26535 26538 26541 26543 26546 26549 26552 26555 26557 26560 26563 26565 26568 26571 26574 26577 26580 26583 26586 26589 26592 26595 26598 26601 26604 26607 26610 26612 26615 26618 26620 26623 26626 26629 26631 26633 26636 26639 26642 26644 26647 26650 26653 26656 26659 26662 26664 26667 26670 26673 26676 26679 26682 26685 26688 26691 26694 26697 26700 26702 26705 26708 26711 26714 26717 26720 26723 26726 26729 26732 26735 26738 26741 26744 26747 26750 26753 26756 26759 26762 26765 26768 26771 26774 26777 26780 26783 26785 26788 26791 26794 26797 26800 26802 26805 26808 26811 26813 26815 26818 26821 26824 26827 26830 26833 26836 26839 26842 26845 26848 26851 26854 26857 26860 26863 26866 26869 26872 26875 26878 26881 26883 26886 26889 26892 26895 26897 26899 26902 26905 26908 26911 26914 26917 26920 26923 26926 26929 26932 26935 26938 26941 26944 26946 26949 26952 26955 26958 26961 26964 26967 26970 26973 26976 26979 26982 26985 26988 26991 26994 26997 26999 27002 27004 27007 27010 27013 27015 27018 27021 27024 27027 27030 27032 27035 27038 27041 27044 27047 27050 27052 27055 27058 27061 27064 27067 27070 27072 27075 27077 27080 27083 27086 27088 27091 27094 27097 27100 27103 27106 27109 27112 27115 27118 27121 27124 27127 27130 27132 27134 27137 27140 27143 27146 27149 27151 27154 27156 27159 27162 27164 27167 27169 27172 27175 27178 27181 27183 27186 27189 27191 27194 27197 27200 27203 27206 27209 27211 27214 27217 27220 27223 27226 27229 27232 27235 27238 27241 27244 27247 27250 27252 27255 27258 27261 27264 27267 27270 27273 27276 27279 27282 27285 27288 27291 27293 27296 27299 27302 27304 27307 27310 27313 27316 27319 27322 27325 27328 27330 27333 27336 27339 27342 27344 27347 27350 27352 27354 27357 27360 27362 27364 27367 27370 27373 27376 27379 27382 27385 27388 27391 27394 27396 27398 27401 27404 27407 27410 27413 27416 27419 27422 27425 27427 27430 27433 27435 27438 27440 27443 27446 27449 27452 27455 27457 27460 27463 27466 27469 27472 27475 27478 27481 27483 27486 27489 27492 27495 27498 27501 27504 27506 27509 27512 27515 27517 27519 27522 27525 27528 27531 27534 27537 27540 27543 27546 27549 27552 27555 27558 27561 27564 27567 27570 27573 27576 27579 27582 27585 27588 27591 27594 27597 27600 27603 27606 27609 27612 27615 27617 27620 27623 27626 27628 27631 27634 27637 27640 27643 27646 27649 27652 27655 27658 27661 27664 27667 27670 27673 27676 27679 27681 27684 27687 27690 27693 27695 27698 27701 27704 27707 27710 27713 27716 27719 27722 27724 27727 27730 27732 27735 27738 27741 27744 27747 27750 27753 27755 27757 27760 27763 27766 27769 27772 27775 27777 27780 27783 27786 27789 27792 27795 27798 27801 27804 27807 27810 27813 27816 27819 27822 27825 27828 27831 27834 27837 27840 27843 27846 27849 27852 27855 27858 27861 27864 27867 27870 27873 27876 27879 27882 27885 27887 27890 27893 27896 27899 27901 27904 27907 27910 27913 27916 27919 27922 27925 27928 27931 27934 27937 27940 27943 27946 27949 27952 27955 27958 27961 27964 27967 27970 27973 27976 27979 27982 27985 27988 27991 27994 27997 28000 28003 28006 28009 28012 28015 28018 28021 28023 28026 28029 28032 28035 28037 28040 28043 28046 28049 28052 28055 28057 28060 28063 28066 28069 28072 28075 28078 28081 28084 28087 28089 28092 28095 28098 28101 28104 28107 28110 28113 28116 28119 28121 28124 28127 28130 28133 28136 28139 28142 28145 28148 28151 28154 28157 28160 28163 28166 28169 28172 28175 28178 28181 28184 28187 28190 28193 28196 28199 28202 28205 28208 28211 28214 28217 28219 28222 28225 28228 28231 28234 28237 28239 28242 28245 28248 28251 28254 28257 28260 28263 28266 28269 28272 28275 28278 28280 28283 28286 28289 28291 28293 28296 28299 28302 28304 28307 28310 28312 28315 28318 28321 28324 28326 28329 28332 28335 28338 28341 28343 28345 28348 28350 28353 28356 28359 28361 28363 28366 28369 28372 28375 28378 28381 28384 28387 28390 28392 28395 28398 28400 28403 28406 28409 28412 28415 28418 28421 28424 28427 28430 28433 28436 28439 28442 28445 28447 28450 28452 28454 28457 28460 28463 28466 28469 28472 28474 28477 28479 28482 28485 28488 28491 28494 28497 28500 28503 28506 28509 28512 28515 28518 28521 28523 28526 28529 28532 28534 28537 28540 28543 28546 28549 28552 28555 28558 28561 28564 28567 28570 28573 28576 28578 28581 28584 28587 28590 28593 28596 28598 28601 28604 28606 28609 28612 28615 28618 28621 28624 28626 28629 28632 28635 28638 28641 28644 28647 28650 28653 28656 28658 28661 28664 28667 28669 28672 28675 28678 28680 28683 28686 28689 28692 28695 28697 28700 28703 28706 28709 28711 28713 28716 28719 28722 28724 28727 28730 28733 28736 28739 28742 28745 28748 28751 28754 28756 28758 28761 28764 28766 28768 28771 28773 28776 28779 28781 28784 28787 28790 28793 28796 28799 28802 28804 28806 28809 28812 28815 28817 28820 28823 28825 28828 28831 28834 28837 28840 28842 28845 28848 28851 28854 28857 28859 28861 28863 28866 28869 28872 28875 28877 28880 28883 28885 28888 28890 28893 28896 28898 28901 28904 28906 28909 28911 28914 28917 28920 28923 28926 28928 28930 28933 28936 28939 28942 28945 28947 28950 28953 28955 28958 28961 28964 28967 28970 28972 28975 28978 28981 28984 28987 28990 28993 28996 28999 29002 29005 29008 29010 29013 29016 29018 29020 29023 29025 29027 29030 29032 29035 29037 29040 29043 29045 29047 29050 29053 29056 29059 29062 29065 29068 29071 29074 29077 29080 29083 29086 29089 29092 29095 29098 29100 29103 29106 29109 29112 29115 29118 29121 29124 29126 29129 29132 29134 29137 29139 29142 29145 29148 29151 29154 29156 29159 29162 29165 29168 29171 29174 29177 29180 29183 29186 29189 29192 29195 29198 29201 29204 29207 29210 29213 29216 29219 29222 29224 29227 29230 29233 29236 29239 29242 29245 29248 29251 29254 29257 29260 29263 29266 29269 29272 29275 29278 29281 29284 29287 29290 29293 29296 29299 29302 29305 29308 29311 29314 29317 29320 29322 29325 29328 29331 29334 29337 29340 29343 29345 29347 29350 29353 29356 29359 29362 29365 29368 29371 29374 29377 29380 29382 29384 29387 29390 29393 29396 29399 29402 29405 29408 29411 29413 29416 29419 29422 29425 29428 29431 29434 29437 29440 29443 29446 29449 29452 29455 29458 29461 29463 29466 29469 29472 29474 29477 29480 29483 29486 29488 29491 29494 29497 29500 29503 29506 29509 29512 29515 29518 29521 29524 29527 29530 29533 29535 29537 29540 29543 29546 29549 29552 29555 29558 29561 29564 29567 29570 29573 29576 29579 29582 29585 29588 29590 29593 29596 29599 29602 29605 29608 29611 29614 29617 29620 29623 29626 29629 29632 29635 29638 29640 29643 29646 29649 29651 29654 29657 29660 29663 29665 29668 29671 29674 29677 29680 29683 29686 29689 29692 29695 29698 29701 29703 29706 29709 29712 29715 29718 29720 29723 29726 29729 29732 29735 29738 29740 29743 29746 29749 29752 29755 29758 29761 29764 29767 29770 29772 29775 29777 29780 29783 29785 29788 29791 29794 29797 29800 29803 29806 29809 29812 29814 29817 29820 29823 29825 29828 29830 29833 29836 29839 29842 29844 29847 29850 29853 29856 29859 29862 29865 29868 29871 29873 29876 29879 29881 29884 
</DataArray>
<DataArray type="UInt32" Name="types" format="ascii">
5 5 5 5 3 5 5 3 5 5 3 5 5 3 3 3 5 5 5 5 3 3 5 3 5 5 5 5 5 5 5 5 5 5 3 5 5 5 3 5 5 5 3 5 5 5 5 5 3 5 5 3 3 5 3 5 5 5 5 5 5 3 5 5 5 5 3 5 5 5 5 5 5 3 5 5 5 5 3 5 5 5 5 5 5 5 5 5 5 5 5 5 5 5 5 5 5 5 5 5 3 5 5 5 3 5 5 5 5 5 5 5 5 5 5 5 5 5 5 5 5 5 3 5 5 5 5 5 5 5 5 5 5 3 5 5 5 5 5 3 5 5 3 5 5 5 5 5 5 5 5 5 3 3 5 5 5 5 5 5 5 3 5 5 5 5 5 5 5 5 5 5 5 5 5 5 5 5 5 5 5 5 5 5 3 5 5 5 5 5 5 5 5 5 5 5 5 5 5 5 5 5 5 5 5 3 5 5 5 5 5 3 5 5 5 3 5 5 5 3 5 5 3 5 5 3 3 5 5 5 5 5 5 5 5 3 5 5 5 3 5 5 5 3 5 5 3 5 5 5 5 5 5 5 5 5 5 5 5 5 5 5 5 3 5 5 3 5 5 5 5 5 3 5 5 3 5 5 3 5 5 5 5 5 5 3 5 5 5 3 5 5 5 5 5 5 5 3 5 5 5 5 5 5 5 5 5 3 3 5 5 3 5 5 5 3 5 5 5 5 5 3 5 3 5 5 5 5 5 3 5 5 3 5 5 3 3 3 5 5 5 5 5 5 5 3 5 5 5 5 5 5 5 5 5 3 5 5 5 5 5 3 5 5 5 5 5 5 5 5 3 5 5 5 3 5 5 5 5 5 5 5 3 5 3 5 5 5 3 5 5 5 5 5 5 5 5 5 3 5 5 3 3 3 5 5 5 5 3 3 5 5 5 5 5 5 5 3 3 5 5 5 5 5 5 5 3 3 5 3 3 5 5 5 3 5 5 5 5 3 5 5 5 5 5 3 5 5 5 5 5 5 5 3 3 5 5 3 5 3 5 5 3 5 5 5 5 5 5 5 5 3 5 3 5 5 5 3 3 5 3 5 3 5 3 5 5 3 3 5 5 3 5 5 5 3 5 5 5 5 5 5 5 5 5 5 5 5 5 5 5 5 3 5 3 5 5 5 5 3 5 5 5 5 5 5 5 5 5 5 5 3 3 5 5 5 5 5 5 5 5 5 3 5 5 5 5 5 5 5 5 5 5 5 5 5 5 5 5 5 3 5 5 3 5 3 5 5 5 5 5 5 3 3 5 5 5 5 5 3 3 5 5 5 5 5 5 5 3 5 5 5 5 5 5 5 3 5 3 5 5 5 5 3 5 5 5 5 3 5 5 3 5 5 3 5 5 5 5 5 5 5 5 5 3 5 5 5 5 5 5 5 5 3 5 3 5 3 5 5 5 5 5 5 5 5 5 5 5 5 5 3 5 3 3 5 5 5 5 5 5 5 5 5 5 5 5 3 5 5 5 3 5 5 5 5 5 5 5 5 5 5 5 5 5 5 5 5 5 5 5 5 5 5 5 5 5 5 5 5 5 5 3 5 3 3 5 5 5 5 5 3 5 5 5 5 5 5 5 5 5 5 5 3 5 5 5 3 5 5 5 5 3 5 5 5 5 3 5 5 5 5 5 5 5 5 5 5 5 5 5 5 3 5 5 5 5 5 5 5 5 5 5 5 3 5 3 5 5 5 5 5 5 5 5 5 5 5 3 5 5 5 3 5 5 5 5 5 5 5 5 5 5 5 5 5 5 5 3 5 5 5 5 5 5 5 5 5 5 5 5 5 5 5 5 5 5 3 5 5 5 5 5 5 5 5 5 3 3 5 5 5 5 3 5 3 3 5 5 5 5 3 5 3 5 5 3 5 5 5 5 5 5 5 5 3 5 5 3 5 3 5 3 5 5 5 5 5 5 3 3 5 5 5 5 5 5 5 3 5 5 5 5 5 3 5 3 5 5 5 5 3 3 5 5 5 5 5 3 5 5 5 5 5 5 5 3 5 5 5 5 5 5 5 5 5 3 5 5 5 5 5 3 5 5 5 5 5 5 5 5 5 5 5 5 5 5 5 5 5 5 5 5 5 5 5 5 5 5 5 5 5 5 5 5 3 5 5 3 5 3 3 5 3 5 5 5 5 5 5 5 5 5 5 5 5 5 5 5 5 5 5 5 5 5 5 5 5 5 5 5 3 5 5 5 5 5 5 5 5 5 5 5 5 5 5 5 5 5 5 5 3 3 5 5 5 5 5 5 5 5 5 5 5 5 5 3 3 5 5 5 5 5 5 5 5 5 5 5 5 5 5 5 5 5 5 5 5 5 5 5 5 5 5 5 5 5 5 5 5 5 5 5 5 5 5 5 5 5 5 5 5 5 5 5 5 5 5 5 5 5 5 5 5 5 5 5 5 5 5 5 5 5 5 5 5 5 5 5 5 5 5 5 5 5 3 5 3 5 5 5 5 5 5 5 5 5 5 5 5 5 5 5 5 5 5 5 5 5 5 5 5 5 5 5 3 5 5 5 3 5 3 5 5 5 5 5 5 5 5 5 5 5 5 5 5 3 5 5 3 5 5 5 5 5 5 5 5 5 5 5 5 5 5 5 5 5 5 5 5 5 3 5 5 5 3 5 5 5 5 5 5 5 5 5 5 5 5 5 5 5 5 3 3 5 5 5 5 5 5 5 5 5 5 5 5 5 5 5 5 5 3 5 5 3 5 5 5 5 5 5 5 5 5 5 5 5 5 5 5 5 5 3 5 5 5 5 5 5 5 5 5 5 5 3 5 5 5 5 5 5 3 5 3 5 5 5 5 5 3 5 5 5 5 5 5 5 5 5 5 5 3 5 5 5 5 5 5 5 3 5 5 5 5 5 3 3 3 5 5 5 3 5 5 5 5 5 5 5 5 5 5 5 5 5 5 5 5 5 5 5 5 5 5 5 5 5 5 3 5 5 5 5 3 5 5 5 5 5 5 3 5 5 5 5 5 5 5 3 5 5 5 5 5 5 5 5 5 5 5 5 5 5 3 3 5 3 5 5 5 5 5 5 5 5 5 3 5 5 3 5 3 5 3 5 5 5 5 5 5 5 3 5 5 5 5 5 5 5 5 5 5 5 5 5 5 5 5 5 5 5 5 5 5 5 5 5 5 5 5 5 5 5 5 5 5 5 5 5 5 5 3 5 3 5 5 5 5 5 5 5 5 5 5 5 5 5 5 5 5 5 5 5 5 5 5 5 5 5 3 5 5 5 5 5 5 5 5 5 5 5 5 5 5 3 5 5 5 5 5 5 5 5 5 5 5 3 5 5 3 5 5 5 5 5 5 5 5 5 5 5 5 5 5 5 5 5 5 5 5 5 5 5 5 5 5 5 5 5 5 5 5 5 5 5 5 5 5 5 5 5 5 5 5 5 5 3 5 5 3 5 5 5 5 5 5 5 5 5 5 5 5 5 5 5 5 5 5 5 5 5 5 5 5 5 5 5 3 5 5 3 5 5 5 5 5 5 5 5 5 5 5 5 5 5 5 5 5 5 5 5 3 5 5 5 5 5 5 5 5 5 5 5 5 5 5 5 5 5 5 5 5 5 5 5 5 5 5 5 5 5 5 5 5 5 5 5 5 5 5 5 5 5 5 5 5 5 5 5 5 5 5 5 5 5 5 5 5 5 5 5 5 5 5 5 5 5 5 5 5 5 3 5 5 5 5 5 5 5 5 3 5 3 5 5 5 5 5 5 5 5 5 5 5 5 3 5 5 5 5 5 5 5 5 5 5 3 5 3 5 5 3 5 5 3 5 3 3 5 5 3 5 5 5 5 3 5 5 5 5 5 5 5 3 5 3 5 5 5 5 3 5 5 5 5 3 5 5 3 5 5 5 5 3 5 5 5 5 5 5 3 5 5 5 5 5 5 5 3 3 3 5 5 5 3 5 5 5 5 3 5 5 5 5 5 5 5 5 5 5 5 5 5 5 5 5 5 3 5 5 3 5 5 5 5 5 5 5 5 5 5 5 5 5 5 3 5 5 5 3 5 5 3 5 5 5 5 3 5 5 3 5 3 5 3 5 5 3 3 3 5 5 5 5 5 5 5 5 3 5 3 5 5 5 5 5 5 5 3 5 5 5 5 5 3 5 5 5 5 5 5 5 5 5 5 5 5 5 5 5 5 5 5 5 5 5 5 5 5 5 5 5 5 5 5 5 5 5 5 5 5 5 5 5 5 5 5 3 5 5 3 3 3 5 5 5 5 5 5 5 5 5 5 5 5 5 5 5 5 5 5 5 5 5 5 5 5 5 5 5 3 5 3 3 5 5 5 5 5 5 5 5 3 5 3 5 5 5 5 5 5 5 5 5 5 5 5 5 5 5 5 5 5 5 5 5 5 5 5 5 5 5 5 5 5 5 5 3 5 5 3 5 5 5 5 5 5 5 5 5 5 5 5 5 5 5 3 5 5 5 5 5 5 5 5 5 5 5 3 5 5 5 5 5 5 5 5 5 3 5 5 5 5 5 5 5 5 5 5 5 5 5 5 5 5 5 5 5 5 5 5 5 5 5 5 5 5 5 5 5 5 5 5 5 5 5 5 5 5 3 5 5 5 5 5 3 3 5 5 5 5 5 5 5 5 5 5 5 5 5 3 5 5 5 5 5 5 5 3 5 5 5 5 3 5 5 3 5 5 5 5 5 3 5 5 5 5 5 5 3 3 5 5 5 5 5 5 5 5 5 5 5 5 5 5 5 5 5 3 5 5 5 5 5 5 5 5 5 5 5 5 5 5 5 5 3 5 5 5 5 5 3 5 3 5 5 5 5 5 5 5 5 5 5 5 5 5 5 5 5 5 5 5 5 5 5 3 5 5 5 5 5 5 3 5 5 3 5 5 5 5 5 5 5 5 5 5 5 5 5 5 5 5 5 5 5 5 5 5 5 5 5 5 5 5 5 5 5 5 5 5 5 5 5 5 5 5 5 5 3 5 5 5 5 5 5 5 5 5 5 5 3 5 5 5 5 5 5 5 5 5 5 5 5 5 5 5 5 5 5 5 5 5 5 5 5 5 3 3 5 5 5 3 5 5 5 5 5 3 5 5 3 3 5 5 5 5 5 5 5 5 5 5 5 5 5 5 5 5 5 5 5 5 5 5 5 5 5 5 5 5 3 5 3 5 3 5 5 3 5 5 5 5 3 5 5 5 3 5 5 5 5 5 5 5 5 5 5 3 5 5 5 5 5 5 5 5 5 5 5 5 5 5 5 5 5 5 5 5 5 5 3 5 5 5 5 5 5 5 5 5 5 5 5 5 3 5 5 5 5 5 5 5 5 5 5 5 5 5 5 5 5 5 5 5 5 5 5 5 3 5 5 5 3 5 5 5 3 3 5 5 5 5 3 5 5 3 5 5 5 5 5 5 5 5 5 5 5 5 5 5 5 5 5 5 3 5 5 5 5 5 5 5 5 5 5 5 5 5 5 5 3 5 5 5 5 5 5 5 5 5 5 5 5 5 5 5 3 5 5 5 5 5 5 5 5 5 5 5 5 5 5 5 5 5 5 5 5 5 5 5 5 5 5 3 5 5 5 5 5 3 5 5 5 5 5 5 5 5 5 3 3 5 3 5 3 5 5 5 5 5 3 5 5 5 5 3 5 5 3 3 5 5 5 5 5 5 5 5 3 3 5 5 3 5 3 3 5 5 5 5 5 3 5 5 5 5 5 3 5 5 3 5 5 5 5 3 5 5 5 5 5 5 5 5 5 5 5 3 5 5 5 5 3 5 5 5 3 5 5 5 5 5 5 5 5 5 5 5 3 5 5 5 5 3 5 5 5 5 5 5 5 5 5 5 3 5 3 5 5 5 5 5 5 3 5 5 5 5 5 3 5 5 5 3 5 5 5 5 3 5 5 5 5 5 5 5 5 5 5 5 5 5 3 5 5 5 5 5 5 5 5 5 5 5 5 3 5 5 5 5 5 5 3 5 3 5 5 5 5 5 5 5 5 5 5 5 5 5 5 5 5 5 3 5 5 5 5 3 3 3 5 5 5 5 5 5 5 5 5 5 5 5 5 5 3 5 5 5 5 3 5 5 3 5 3 5 5 5 5 5 5 3 5 5 5 5 5 5 5 5 5 3 5 5 3 5 5 3 5 5 5 5 5 5 3 5 5 5 5 5 3 5 5 5 5 5 5 5 5 5 5 5 5 3 5 5 5 5 5 5 5 5 5 5 5 5 3 5 5 5 5 5 5 5 5 5 5 3 5 5 5 5 3 5 5 3 5 5 5 3 5 3 5 5 5 5 5 5 5 5 5 5 5 5 5 5 5 5 5 5 5 5 5 5 5 5 5 5 5 5 5 5 5 5 5 5 5 5 5 5 3 3 5 5 5 5 5 5 5 5 5 3 3 5 5 5 5 5 3 3 5 5 3 3 5 5 5 5 5 5 3 5 5 5 5 5 5 5 5 5 5 5 5 5 5 5 5 5 5 5 5 5 5 3 5 5 5 5 5 5 5 3 3 5 5 5 5 5 5 5 5 5 5 5 5 5 5 5 5 5 5 5 5 5 5 5 5 5 5 5 5 5 5 5 3 5 3 5 5 5 5 5 5 5 5 5 5 5 5 5 5 5 5 5 5 5 5 5 5 5 5 5 3 5 5 3 5 3 3 5 5 5 5 5 5 5 5 5 5 5 5 5 5 5 5 5 5 5 5 5 5 5 5 5 5 5 5 5 5 5 5 5 5 5 5 5 5 5 5 5 5 5 5 5 5 5 5 5 5 5 5 5 5 5 5 5 5 5 5 3 5 5 5 5 5 5 5 5 5 5 5 5 5 5 5 5 5 5 5 5 3 5 5 5 5 5 5 5 5 5 5 3 5 5 5 5 5 5 3 5 3 5 5 5 3 3 3 5 5 5 5 5 5 3 5 3 5 5 5 5 5 5 5 5 5 5 5 5 5 5 5 5 5 5 5 3 5 5 5 5 3 3 5 5 3 5 5 5 3 3 5 5 5 5 3 3 5 5 5 5 5 5 3 5 5 5 5 5 5 5 5 5 5 3 5 3 5 5 5 5 5 5 5 5 5 3 5 5 5 5 5 5 5 5 5 5 5 5 5 5 5 5 5 3 5 5 5 5 5 5 5 5 5 5 5 3 5 5 5 5 3 5 5 5 5 3 5 5 5 3 5 5 3 5 5 5 3 5 5 5 3 5 5 5 5 5 5 5 5 3 5 5 5 5 3 5 5 5 5 5 5 5 5 5 3 5 5 5 5 5 3 5 5 5 3 3 5 5 5 5 5 5 5 5 5 3 5 5 5 5 5 3 5 5 3 5 5 5 3 5 5 3 5 5 5 5 5 3 3 5 5 5 5 5 5 5 5 5 5 5 3 5 5 5 5 5 3 5 5 5 5 5 3 3 5 5 5 5 3 5 5 5 3 5 5 5 5 5 5 5 5 5 3 5 5 5 3 3 5 5 5 5 5 5 5 5 5 3 5 5 5 5 5 5 5 5 3 5 5 5 5 5 5 5 5 5 5 5 5 5 5 5 5 5 5 5 5 5 5 5 5 5 5 5 5 5 3 5 5 5 5 5 3 5 5 3 3 5 5 5 5 5 5 5 5 5 5 5 5 5 5 5 5 5 5 5 5 5 3 5 5 5 3 5 5 5 5 3 5 5 5 5 5 5 5 5 5 5 5 5 5 5 5 3 5 3 5 5 5 5 5 5 5 5 3 5 3 5 3 5 3 5 5 5 5 5 5 5 3 5 5 5 5 3 3 5 5 5 5 5 5 5 5 5 5 5 3 5 5 5 5 5 5 5 5 5 5 5 3 5 5 5 3 5 5 5 5 5 5 5 5 5 5 5 5 5 5 5 5 5 5 5 5 5 5 5 5 5 5 5 3 5 3 5 5 3 5 5 5 5 5 5 5 3 5 5 3 5 3 5 3 5 5 3 5 3 5 5 5 3 5 5 5 5 5 5 5 5 5 3 5 5 5 3 5 3 5 5 5 5 3 5 5 5 5 5 5 5 5 5 3 5 5 5 5 5 5 5 5 3 5 5 5 5 5 5 5 5 5 5 5 5 5 5 5 5 5 5 5 5 5 5 5 5 5 3 3 5 5 3 5 5 5 5 5 5 5 3 5 5 3 5 5 5 5 5 5 5 5 5 5 5 5 5 5 5 5 5 3 5 5 5 5 5 5 5 5 5 5 5 5 5 5 5 5 5 5 5 5 5 5 5 5 5 5 5 5 5 5 5 3 3 5 5 5 5 3 5 5 5 5 5 5 5 5 5 3 5 5 5 5 5 3 5 3 5 5 3 5 5 5 5 5 5 5 3 5 5 5 5 5 3 5 5 5 5 5 5 5 5 5 3 5 5 5 5 5 5 3 5 5 5 5 5 5 5 3 5 5 5 5 5 5 5 5 5 5 5 5 5 3 5 5 5 5 5 5 3 5 5 5 5 5 3 5 5 3 5 3 5 5 5 5 5 3 5 5 5 5 5 5 5 3 5 5 5 3 5 3 5 5 3 5 5 5 5 5 5 5 5 5 5 5 5 5 5 5 3 5 3 5 5 5 5 5 5 5 5 5 5 3 5 5 5 5 5 5 5 5 5 3 5 5 5 5 5 3 5 5 5 3 5 5 5 3 5 5 5 5 5 5 5 3 5 5 5 3 5 5 5 3 5 5 5 5 5 3 5 5 5 5 3 5 5 5 3 5 5 5 5 5 5 5 5 3 5 5 5 5 5 5 5 5 5 3 5 5 5 5 5 3 5 5 5 5 5 5 5 5 5 5 5 5 5 5 5 5 5 5 5 5 5 5 5 5 5 3 5 5 5 5 5 5 5 5 3 5 5 5 5 5 5 5 5 3 5 5 5 5 5 5 5 5 3 5 5 5 3 5 5 3 5 3 3 5 3 5 5 3 5 5 5 5 5 5 5 5 5 3 5 5 5 5 3 5 5 3 5 3 5 5 5 5 5 5 5 5 5 5 5 5 5 5 5 5 5 5 5 5 5 5 5 5 5 5 5 5 5 5 5 5 5 5 5 5 5 5 5 5 5 5 5 5 5 5 5 5 5 5 5 5 5 5 5 5 5 5 5 5 5 3 5 5 5 5 5 5 5 5 5 5 5 5 5 5 5 5 5 5 5 5 5 5 5 5 3 3 5 3 5 5 5 5 3 5 5 5 5 5 3 5 5 5 3 5 5 5 5 5 3 5 5 5 5 5 5 5 5 3 5 5 5 5 5 5 5 5 5 5 5 5 5 5 5 5 5 5 5 5 5 5 5 3 5 5 5 5 5 5 5 5 5 5 5 5 5 5 5 5 3 5 5 5 5 5 5 5 3 5 5 5 5 5 5 5 5 5 5 5 5 5 5 5 3 5 5 5 5 5 5 3 5 5 3 5 3 3 5 5 5 5 5 3 5 3 5 5 5 5 5 5 5 5 5 3 5 5 5 3 5 3 5 5 3 5 5 3 5 5 3 5 5 5 3 5 5 3 5 5 3 3 5 5 5 5 3 5 5 5 5 5 5 5 5 5 5 5 5 5 5 5 3 5 5 5 3 5 5 3 5 5 5 5 3 5 5 5 5 5 5 3 5 5 5 5 5 5 3 5 5 5 5 5 5 5 5 5 3 5 5 5 5 5 5 5 5 5 5 5 5 3 5 5 5 5 5 3 3 5 5 5 5 3 3 5 5 3 5 5 3 5 3 5 3 5 5 5 3 3 5 5 5 5 5 5 5 5 3 5 5 3 5 5 5 5 5 5 5 5 3 5 5 5 5 5 5 5 5 5 5 5 5 5 5 5 5 5 5 5 5 5 5 5 5 5 5 5 5 5 5 5 5 5 5 5 5 5 3 3 5 5 3 5 5 5 3 3 5 3 5 5 5 5 5 3 5 5 3 5 5 5 5 5 5 5 3 5 5 5 3 3 5 5 5 5 5 5 5 5 5 5 5 3 5 5 5 5 5 5 5 5 5 5 5 5 5 5 5 3 5 5 5 5 5 5 5 5 5 5 5 5 5 5 5 5 3 3 5 5 3 5 5 3 5 5 5 5 3 5 5 5 5 3 3 5 5 5 5 3 5 5 5 5 3 3 5 5 5 5 5 3 3 5 5 5 3 5 3 3 5 3 3 5 3 5 5 5 5 3 5 5 5 5 5 5 5 5 5 3 3 3 3 5 5 5 5 5 5 5 3 5 5 5 5 5 5 5 5 5 5 3 5 5 5 5 5 5 3 5 5 3 5 5 5 5 5 5 5 5 3 5 5 5 5 5 3 5 3 5 5 5 5 5 5 5 5 5 5 5 5 5 5 5 5 5 5 5 5 5 5 5 5 5 5 5 5 5 5 5 5 5 5 5 5 5 5 5 3 5 3 5 3 5 5 5 3 5 3 3 5 5 3 5 3 3 3 5 5 5 5 5 5 5 5 5 5 3 5 5 3 5 3 5 5 3 5 3 3 5 5 3 5 5 5 5 3 5 5 3 3 5 5 5 5 5 5 5 5 5 5 5 5 5 5 5 5 3 3 5 5 5 3 5 5 3 5 5 3 5 5 5 3 5 5 5 5 5 5 5 5 5 5 3 5 5 5 5 5 3 5 5 5 5 5 5 5 3 5 5 5 5 5 5 5 5 5 5 5 5 5 5 5 5 3 5 5 5 5 5 5 5 5 5 5 5 5 3 5 5 5 5 5 5 5 5 5 5 5 5 5 5 5 5 5 5 5 3 5 5 5 5 5 5 3 5 5 5 5 5 3 5 5 5 5 5 5 5 5 5 5 5 5 5 5 5 5 5 5 5 5 3 3 5 5 5 5 5 5 5 5 3 5 5 5 5 5 5 5 5 3 5 5 5 5 5 3 5 5 5 5 5 5 5 5 5 5 5 5 5 5 5 3 3 5 5 5 5 5 5 5 3 5 5 5 5 5 5 5 5 5 5 5 5 5 5 3 5 5 5 5 5 3 5 5 5 5 3 5 3 5 3 5 3 3 5 3 5 5 3 5 5 5 5 5 5 5 5 3 5 5 5 5 3 3 5 3 3 5 5 5 3 3 5 3 5 3 5 5 5 3 5 5 5 3 5 3 5 5 5 3 5 5 5 5 5 3 3 5 5 5 3 5 5 5 5 5 5 5 3 5 5 3 3 5 3 5 3 5 5 5 3 5 3 5 5 3 5 5 3 3 3 5 3 5 5 5 3 3 5 5 5 5 5 5 5 5 3 5 5 5 3 5 3 5 3 5 3 3 5 5 5 3 5 3 3 5 5 5 5 5 5 5 5 5 5 3 3 5 5 3 5 5 5 5 5 5 5 5 5 5 3 5 5 5 3 5 5 5 5 5 5 5 5 3 5 5 5 5 5 5 5 3 5 5 5 5 5 3 5 5 5 5 5 5 5 5 5 5 5 5 5 5 5 3 5 5 3 3 3 3 5 3 5 5 3 5 5 5 5 3 5 5 5 3 5 5 5 5 5 5 5 5 3 5 3 5 5 3 5 5 5 3 5 5 5 3 5 5 3 5 5 5 3 5 5 5 5 5 5 5 5 5 5 5 5 5 5 3 5 5 3 5 5 3 5 5 3 5 5 5 5 5 5 3 5 3 5 5 5 5 5 5 3 5 5 5 3 5 3 5 3 3 5 5 5 5 5 5 5 3 5 3 5 3 5 3 5 3 5 5 3 5 5 5 3 5 5 5 5 5 5 5 5 3 5 5 5 5 5 5 5 5 3 5 5 3 5 5 5 5 5 5 3 5 5 5 5 3 5 5 5 5 5 3 5 3 5 5 5 5 5 5 3 5 5 5 5 3 5 5 5 3 3 5 3 5 5 5 5 5 5 5 5 5 5 5 5 3 5 5 5 3 5 5 3 5 5 5 3 5 5 5 3 5 5 5 5 3 5 5 5 5 5 5 5 5 5 5 5 5 5 3 5 3 5 3 5 3 5 5 5 5 3 5 5 5 5 5 3 5 5 5 5 5 3 3 5 5 3 5 5 5 5 5 5 3 5 3 5 5 5 5 5 5 5 3 5 3 5 5 5 5 3 5 5 5 5 3 5 3 5 3 5 5 5 5 5 5 5 5 3 5 5 5 5 5 5 5 5 5 5 5 5 5 5 3 3 5 5 3 5 5 3 5 5 3 3 5 3 5 5 5 3 3 5 5 3 5 3 5 5 5 3 5 5 5 3 5 5 5 5 5 5 5 5 3 5 5 5 5 5 5 5 5 3 5 5 5 5 5 5 5 3 5 5 3 5 5 5 5 5 3 5 5 5 3 5 5 5 5 5 5 3 5 5 5 5 5 5 3 5 5 3 5 3 5 5 5 5 5 5 3 5 5 5 3 5 5 5 5 5 5 5 5 3 5 5 5 5 5 5 3 5 5 5 3 3 5 3 3 3 5 3 5 5 5 5 3 3 3 5 5 5 5 3 5 5 5 5 5 3 5 5 5 5 5 3 5 5 5 5 5 5 3 5 5 5 5 3 3 5 5 5 5 5 5 5 5 5 3 5 5 5 3 5 5 5 5 5 3 3 5 3 5 5 3 5 5 5 5 5 5 5 5 5 3 3 5 5 5 5 5 5 5 5 5 5 5 3 3 5 3 5 5 5 5 5 5 5 3 5 5 5 3 5 5 5 3 5 5 5 5 5 5 5 3 3 5 5 5 3 5 3 5 5 5 5 5 5 5 5 5 5 5 5 5 5 5 5 5 5 5 5 5 5 5 5 3 5 5 5 5 5 5 5 5 5 5 5 5 5 5 5 3 5 5 5 5 5 5 5 5 3 5 5 5 5 5 5 3 5 3 5 5 5 3 3 5 5 5 3 5 5 5 3 5 5 5 3 5 5 5 5 5 5 5 3 5 5 5 5 3 5 5 5 5 5 5 5 3 5 5 5 5 5 3 5 5 5 3 3 5 5 5 5 5 5 5 5 5 5 5 5 5 5 5 5 5 3 5 5 3 5 5 3 3 5 5 5 5 5 5 5 5 5 5 5 5 5 5 5 3 5 5 5 3 5 5 5 5 5 5 5 5 5 5 5 5 5 5 5 5 5 3 3 5 5 5 5 5 5 5 5 5 3 5 3 5 5 5 5 5 5 5 5 3 3 5 5 5 3 5 5 5 5 5 5 5 5 5 5 5 5 3 5 5 5 5 5 5 3 5 5 5 5 5 3 5 5 5 3 5 5 5 5 3 3 5 5 5 5 5 5 5 5 5 5 3 5 3 5 5 5 5 5 3 5 5 5 5 5 5 5 5 5 5 5 5 5 5 5 5 5 5 3 5 5 5 5 3 5 5 5 5 5 5 5 3 5 5 5 5 5 5 5 5 5 3 5 5 5 5 3 3 5 5 5 5 5 3 3 5 5 5 5 5 5 5 5 3 5 5 5 3 3 5 5 5 5 5 5 5 5 5 5 5 5 5 5 5 5 5 5 5 5 5 5 5 5 5 5 5 5 5 5 5 3 5 5 5 5 3 5 5 5 3 3 5 5 5 5 5 5 3 3 5 5 5 5 5 5 3 5 3 3 5 5 5 3 5 5 3 5 3 5 3 5 5 5 5 3 5 5 5 5 3 5 5 5 5 5 5 5 5 5 5 5 5 5 5 5 5 5 5 5 5 5 5 5 5 5 5 5 5 3 5 5 5 5 5 5 5 5 5 5 5 5 5 3 5 5 5 5 5 5 5 5 5 5 5 5 5 5 5 5 5 3 3 5 5 5 5 5 3 3 5 3 5 5 3 3 5 3 5 5 5 5 3 5 5 5 3 5 3 3 5 5 5 5 5 5 5 5 5 3 3 3 3 3 5 5 5 5 5 5 5 5 5 5 5 5 5 5 5 5 5 5 5 5 5 5 5 5 5 3 5 5 5 5 5 3 3 5 5 5 5 5 5 5 5 3 5 3 5 5 5 5 5 5 3 5 5 3 5 3 5 5 5 3 5 5 5 3 5 5 5 5 5 5 5 5 5 3 5 3 5 5 3 5 5 5 5 3 5 5 5 5 5 5 5 5 5 3 5 3 3 5 3 5 5 5 5 5 3 5 3 3 5 5 5 5 5 3 5 5 5 5 5 5 5 5 5 5 5 5 5 5 5 5 5 5 5 5 5 5 5 5 5 5 5 5 5 5 5 3 5 5 5 5 5 5 5 3 5 5 5 5 3 5 5 5 5 5 5 5 5 5 5 5 5 3 5 5 5 5 5 5 5 5 5 3 5 3 5 5 3 5 5 5 3 5 5 5 5 5 5 5 5 5 5 5 5 5 5 3 5 5 5 3 5 5 5 5 3 5 5 5 5 5 5 5 5 5 5 5 5 5 5 5 5 5 5 5 5 5 5 3 5 5 5 5 5 5 5 5 5 3 3 5 5 5 5 3 5 5 5 3 3 5 3 5 5 5 5 3 5 5 5 3 5 5 5 5 5 5 5 5 5 5 5 5 5 5 3 5 3 3 5 5 3 5 3 5 5 5 5 5 5 5 5 5 5 5 3 5 3 5 5 5 5 5 5 5 5 5 5 5 5 3 5 5 5 5 3 5 5 5 5 5 5 5 5 3 5 3 5 5 3 3 5 5 5 5 3 3 3 5 5 5 3 5 5 5 5 5 5 3 5 5 3 5 5 5 5 5 5 5 5 5 5 3 5 3 5 5 3 5 5 3 5 5 5 5 5 5 5 5 5 3 5 3 5 5 5 3 5 5 5 5 5 5 5 5 5 5 3 5 5 5 5 5 5 5 5 5 5 5 5 5 5 5 3 5 5 3 5 5 5 5 5 5 5 5 3 5 5 3 5 3 5 5 5 3 5 5 5 5 5 5 5 5 5 5 5 5 5 5 5 5 3 5 5 5 5 5 5 5 3 5 5 5 3 5 5 5 5 5 5 5 5 3 5 5 5 5 5 5 5 5 5 5 5 5 5 5 5 5 5 5 5 5 5 5 5 5 5 5 5 5 5 5 5 5 5 5 5 5 5 5 5 5 5 5 5 5 5 5 5 5 5 5 5 5 5 5 5 5 5 5 5 5 5 5 5 5 5 3 5 5 5 5 5 5 5 3 5 5 5 5 5 3 5 5 5 5 5 5 5 5 5 5 5 5 5 5 5 5 5 3 5 3 5 5 5 3 5 5 3 5 5 5 3 5 3 3 3 5 5 5 5 3 5 3 5 5 3 5 5 5 5 5 3 5 5 5 5 5 5 5 5 5 5 5 5 5 5 5 5 5 5 3 5 5 5 5 5 5 3 5 5 5 5 5 5 5 5 5 5 3 5 5 3 5 5 5 3 5 5 3 5 3 5 3 5 5 3 3 5 5 5 5 5 5 5 5 5 3 5 5 5 5 5 5 5 5 3 5 5 3 5 5 3 5 5 3 3 5 5 5 3 5 3 3 5 5 3 3 5 5 3 5 3 5 5 5 3 5 5 3 5 3 5 5 3 5 5 5 5 5 5 5 5 5 5 3 5 5 5 5 5 5 5 5 5 5 5 5 5 5 5 5 5 5 5 5 3 5 5 3 5 5 5 5 5 5 5 5 5 5 5 5 5 5 5 5 5 5 3 5 5 5 5 3 5 5 5 5 5 5 3 3 5 5 5 5 5 5 5 5 5 5 5 5 5 5 5 5 5 5 3 5 5 5 3 5 5 5 3 5 5 5 3 5 5 5 3 5 5 5 5 5 5 3 5 5 5 5 5 5 5 5 5 5 5 5 5 5 5 5 5 5 5 5 5 5 5 5 5 3 3 5 5 5 5 3 5 3 5 3 5 3 5 5 5 5 5 5 5 3 5 5 5 5 5 5 5 3 5 5 5 5 5 5 3 5 5 5 5 5 5 5 5 5 5 5 3 3 5 5 5 5 5 3 5 5 5 5 5 5 5 5 5 5 5 5 5 5 5 5 5 5 5 5 5 3 3 5 5 5 3 3 3 5 5 5 5 5 5 5 3 5 5 5 5 5 5 5 5 5 5 5 5 5 5 5 5 5 5 5 5 5 5 5 5 5 5 5 5 5 5 5 5 5 5 5 5 3 5 5 5 5 5 5 5 5 5 5 5 5 5 5 3 5 3 5 5 5 5 5 5 5 5 3 5 5 3 3 5 5 5 5 5 3 3 5 5 5 5 5 5 5 5 5 5 5 5 5 3 5 5 3 5 3 5 3 5 5 5 5 5 5 5 5 5 5 5 5 5 5 5 3 5 5 5 5 5 5 5 3 3 3 5 5 3 5 3 5 5 5 3 5 3 5 3 5 3 5 3 5 5 5 5 5 5 5 3 5 3 5 5 5 3 5 5 5 5 5 3 5 5 3 5 5 3 5 5 5 3 5 5 5 5 5 5 5 5 5 3 5 5 5 5 5 5 3 5 5 5 5 5 3 5 5 5 5 5 5 3 5 5 3 5 5 5 5 5 5 5 5 5 5 5 5 5 5 5 5 3 5 5 5 5 5 5 5 5 5 5 5 5 5 5 5 5 5 5 5 5 5 5 5 5 5 3 5 3 5 5 5 5 5 5 5 5 3 5 5 5 5 3 5 5 5 5 5 5 5 5 5 5 5 5 3 5 5 5 5 5 5 5 5 3 5 5 5 5 5 5 5 5 5 5 5 5 5 5 5 5 5 5 5 5 5 5 5 5 5 3 5 5 5 5 5 5 5 5 5 5 5 5 5 5 5 5 5 5 5 3 5 5 5 5 3 5 5 3 5 3 3 5 5 5 3 5 3 5 5 3 3 5 5 5 5 3 5 5 3 5 5 5 5 5 5 5 3 5 5 5 5 3 5 5 5 5 5 3 5 5 3 5 5 5 3 5 5 5 5 3 5 5 5 5 5 3 5 5 5 5 3 5 5 5 5 5 5 5 5 5 3 5 5 5 5 3 5 5 5 5 5 3 3 5 3 5 5 3 5 3 5 3 5 5 3 3 5 5 5 5 5 3 5 5 5 3 5 5 5 5 5 3 5 5 5 3 5 3 5 3 5 3 3 5 5 5 3 5 5 5 3 3 5 3 5 5 5 3 3 5 3 5 3 5 5 5 3 5 5 5 5 3 5 5 5 5 5 5 5 3 5 3 5 3 5 5 5 3 5 3 5 5 5 3 3 5 5 3 5 5 5 5 5 5 5 5 5 5 5 5 5 5 3 5 3 3 3 3 5 5 5 5 5 5 5 5 5 5 3 5 5 5 5 5 5 5 5 5 5 5 5 5 5 5 5 5 5 5 5 5 5 5 5 5 5 5 5 5 5 5 5 5 5 5 5 5 5 5 5 5 5 5 5 5 5 5 5 5 5 3 5 5 5 5 5 3 5 5 5 5 5 5 5 5 5 3 5 5 5 5 5 5 5 5 5 3 5 5 5 3 3 5 5 5 5 5 5 5 5 5 5 5 5 5 5 5 5 5 5 5 5 5 3 5 5 5 5 5 5 5 5 5 5 5 5 5 5 5 5 5 5 5 5 5 5 5 5 5 5 5 5 5 5 3 5 5 3 5 3 3 5 5 3 3 3 5 5 5 3 3 5 5 5 5 5 3 5 5 5 3 5 3 5 5 5 5 5 5 3 5 5 3 5 5 5 5 5 5 5 5 3 5 5 5 3 5 5 5 5 5 5 5 5 5 5 5 5 3 5 5 5 5 5 5 5 5 5 5 5 5 5 5 5 5 5 5 5 5 5 5 5 5 5 5 5 5 3 5 5 5 5 5 5 5 3 5 5 3 5 3 5 5 5 5 5 5 5 5 3 5 5 3 5 5 5 5 5 5 5 5 5 5 5 5 5 5 5 5 5 5 5 5 5 5 5 5 3 3 3 5 5 5 5 5 3 5 5 5 5 5 3 5 5 5 5 3 3 5 5 5 5 5 5 3 3 5 5 3 5 5 5 5 5 5 5 5 5 5 5 3 5 5 5 5 5 5 5 5 5 5 5 5 3 5 5 5 5 3 5 3 5 5 5 5 5 5 5 5 5 5 5 5 5 5 5 5 5 5 3 5 3 5 5 5 5 5 5 5 5 5 3 5 5 5 5 3 3 5 3 5 5 5 5 5 5 5 5 5 5 5 5 5 5 5 5 5 5 5 5 5 5 5 5 5 5 5 3 3 5 5 5 5 3 3 5 3 5 3 5 5 5 5 5 5 5 5 5 5 5 5 3 5 5 5 5 3 5 5 3 5 5 5 5 5 5 5 5 5 5 5 5 5 5 5 5 5 5 5 5 5 5 3 5 5 5 5 5 5 5 5 5 5 5 3 5 5 5 5 5 5 5 5 5 5 5 5 5 5 5 5 5 5 5 5 5 3 5 5 3 3 5 5 3 5 3 5 5 5 3 5 5 5 5 5 5 5 5 5 3 5 5 5 3 5 5 5 5 5 5 5 5 5 5 5 5 5 5 5 5 5 3 5 5 5 5 5 5 3 5 5 5 5 5 3 5 5 5 5 5 5 5 5 5 5 5 3 5 3 5 5 5 5 5 5 5 5 5 5 5 5 5 5 5 5 3 5 5 5 5 5 5 5 3 5 5 5 5 5 3 5 5 5 3 5 5 5 5 5 3 5 5 5 5 5 3 5 5 5 3 5 3 3 5 3 5 5 5 5 5 5 5 5 5 3 5 5 5 5 5 5 3 5 5 3 5 3 5 3 5 5 5 5 5 5 5 5 5 3 5 5 5 5 5 5 3 5 5 5 5 5 5 5 5 5 5 5 5 5 5 5 5 3 5 5 3 5 5 5 5 5 5 3 5 5 5 5 5 5 5 5 5 5 5 5 3 3 5 3 5 5 5 5 5 5 3 5 5 5 3 5 5 5 5 5 3 5 5 5 3 5 5 5 5 5 5 5 5 5 5 5 5 5 5 5 5 5 5 5 5 5 5 5 5 5 3 5 5 5 3 5 3 5 5 5 5 5 5 5 5 5 5 5 5 5 5 5 5 5 5 5 5 5 5 3 5 5 5 3 5 5 5 5 5 3 5 3 5 5 5 5 3 5 5 5 5 5 5 5 5 5 5 3 5 3 5 5 5 3 3 5 5 5 5 5 5 3 5 5 5 5 3 5 5 3 5 3 5 3 5 5 3 5 5 5 5 5 5 5 5 5 5 5 3 5 5 5 5 5 5 5 5 3 5 5 5 5 5 5 5 5 5 5 5 3 5 5 5 5 5 5 3 5 3 5 3 5 5 3 5 5 5 5 5 5 5 5 5 5 5 5 5 5 3 5 3 5 5 5 5 5 5 5 5 5 5 5 5 3 5 3 5 5 5 5 5 5 3 5 5 3 5 5 3 5 3 5 5 3 5 5 5 5 3 5 5 5 5 5 5 5 5 5 3 5 3 5 5 5 5 5 5 5 5 5 5 5 5 5 5 5 5 5 5 5 5 5 5 5 5 5 5 5 3 5 5 3 5 5 5 5 5 5 5 5 5 5 5 5 5 5 3 5 5 3 5 5 5 5 3 5 5 5 5 5 5 3 5 5 5 5 3 5 3 5 3 5 5 5 5 5 5 5 5 5 5 5 5 3 5 5 5 5 5 5 5 5 5 5 5 5 5 5 5 5 5 3 5 5 5 5 5 5 5 5 5 5 5 5 5 5 5 5 5 5 5 5 5 5 5 5 5 3 5 3 5 3 5 5 5 5 5 3 5 5 5 5 5 5 3 5 5 5 5 5 3 5 5 5 5 5 3 5 5 5 3 5 5 5 5 5 5 5 5 3 5 5 3 5 5 5 5 5 3 3 5 5 5 5 3 3 5 5 5 5 3 5 5 5 5 5 3 5 5 5 5 5 5 3 5 5 5 5 5 5 5 5 3 5 5 5 5 5 5 3 5 5 5 5 5 5 5 5 5 5 5 5 3 5 5 5 5 5 5 5 5 5 3 5 5 5 5 5 5 5 5 5 5 5 5 5 5 5 5 5 5 5 5 5 5 5 5 5 5 5 5 5 5 5 5 5 5 5 5 5 5 5 5 5 5 5 5 5 5 5 5 5 5 5 5 5 5 5 5 5 5 5 5 5 3 5 5 5 5 5 5 5 5 5 5 5 5 5 5 5 5 5 3 5 5 5 5 5 5 5 5 5 5 5 5 5 5 5 5 5 5 3 5 5 5 5 5 5 5 5 5 5 5 5 5 5 5 5 5 5 5 5 5 5 5 5 5 5 5 5 3 5 5 5 5 5 5 5 5 5 5 5 5 5 5 5 5 3 5 5 5 5 5 5 5 3 5 5 5 5 5 5 5 5 3 5 5 5 5 5 3 5 5 5 5 5 5 5 5 5 3 5 5 5 5 5 5 5 5 5 3 5 5 5 5 5 5 5 5 5 5 5 5 5 5 3 5 3 5 5 5 5 5 5 3 5 5 3 5 5 5 3 5 5 3 5 5 5 5 3 5 5 5 5 3 5 5 5 5 5 5 3 5 5 5 5 5 3 3 5 5 5 5 5 5 5 5 5 5 5 5 5 5 5 5 5 5 3 5 5 5 5 5 5 5 5 5 3 5 5 3 5 5 5 5 5 5 5 3 5 5 5 5 5 5 5 5 5 5 5 3 5 5 5 5 5 5 3 5 5 5 5 5 5 5 3 5 5 5 3 5 3 5 5 5 5 5 5 5 5 5 5 5 5 5 5 5 5 5 5 5 3 5 5 5 3 5 5 5 5 5 3 5 5 5 5 5 5 5 5 5 5 5 5 5 5 5 5 3 5 5 5 5 5 3 3 5 5 5 5 5 5 5 5 5 5 5 5 5 5 5 5 5 5 5 5 3 5 5 5 5 5 5 5 5 5 5 5 5 3 5 5 5 5 5 3 3 3 5 3 3 5 5 5 5 5 5 5 3 3 5 5 5 5 3 5 5 5 5 3 5 5 5 5 3 5 5 5 5 5 5 5 5 5 5 5 5 3 5 5 5 5 3 5 5 3 5 5 5 5 5 5 5 5 5 5 5 5 5 5 5 3 5 5 3 5 5 5 3 3 5 5 5 3 5 5 5 5 5 5 3 5 5 5 5 5 5 5 5 5 5 5 5 3 5 5 5 5 5 5 5 5 5 5 5 5 5 5 5 5 5 5 5 5 5 5 5 5 5 5 5 3 5 5 5 5 5 3 5 5 5 3 3 5 5 5 5 5 5 5 5 5 5 5 5 5 5 5 5 5 5 5 5 5 5 3 5 5 5 5 3 3 5 5 5 5 5 5 5 5 5 5 5 5 5 5 5 3 5 5 5 5 5 5 5 5 5 5 5 5 5 5 5 5 5 3 5 3 5 5 5 3 5 5 5 5 5 3 5 5 5 5 5 5 3 5 5 5 5 5 5 3 5 3 5 5 5 3 5 5 5 5 5 5 5 5 5 5 5 5 5 5 3 3 5 5 5 5 5 3 5 3 5 5 3 5 3 5 5 5 5 3 5 5 3 5 5 5 5 5 5 3 5 5 5 5 5 5 5 5 5 5 5 5 5 3 5 5 5 5 5 5 5 5 5 5 5 5 5 3 5 5 5 3 5 5 5 5 5 5 5 5 3 5 5 5 5 3 5 5 3 3 5 5 3 3 5 5 5 5 5 5 5 5 5 5 3 3 5 5 5 5 5 5 5 5 5 3 5 5 3 5 3 5 5 5 5 5 3 5 5 5 5 5 5 5 5 3 5 5 5 5 5 5 5 3 5 5 5 3 3 5 5 5 5 5 5 5 5 5 5 5 5 5 5 5 5 5 5 5 5 5 5 5 5 5 5 5 5 5 5 5 5 3 5 5 5 3 5 5 5 5 5 5 5 5 5 5 5 5 5 5 5 5 5 3 5 5 5 5 3 5 5 5 5 5 5 5 5 5 3 5 5 3 5 5 5 5 5 5 5 3 3 5 5 5 5 5 5 3 5 5 5 5 5 5 5 5 5 5 5 5 5 5 5 5 5 5 5 5 5 5 5 5 5 5 5 5 5 5 5 5 5 5 5 5 3 5 5 5 5 3 5 5 5 5 5 5 5 5 5 5 5 5 5 5 5 5 5 5 5 5 5 5 5 5 5 5 5 5 5 5 5 5 5 5 5 5 5 5 5 5 3 5 5 5 5 3 5 5 5 5 5 5 3 5 5 5 5 5 5 5 5 5 5 3 5 5 5 5 5 5 5 5 5 5 3 5 5 5 5 5 5 5 5 5 5 5 5 5 5 5 5 5 5 5 5 5 5 5 5 5 5 5 5 5 5 5 5 3 5 5 5 5 5 5 3 5 5 5 5 5 5 5 5 5 5 5 5 5 3 5 5 5 3 3 5 5 5 3 5 5 3 5 5 5 5 3 5 5 5 5 5 3 3 5 3 5 5 5 3 3 5 5 5 5 5 5 5 5 5 3 5 5 3 5 5 5 5 5 5 5 5 5 5 5 5 5 5 5 3 5 3 3 5 5 5 5 5 5 3 5 3 5 5 5 5 5 5 5 5 5 5 5 5 5 5 3 5 5 5 3 5 5 5 5 5 5 5 5 5 5 5 5 5 5 3 5 5 5 5 5 5 3 5 5 3 5 5 5 5 5 5 3 5 5 5 5 5 5 5 5 5 5 3 5 5 5 3 5 5 5 3 5 5 5 5 5 3 5 5 5 5 3 3 5 5 5 3 5 5 5 5 5 5 5 5 5 5 3 3 5 5 3 3 5 3 5 5 3 5 5 5 5 5 5 5 3 3 5 5 5 3 5 5 3 5 5 5 5 5 3 5 5 5 5 5 3 3 3 5 5 5 5 3 5 5 3 5 3 5 5 3 5 5 3 5 3 5 5 5 5 5 3 3 5 5 5 5 5 3 5 5 3 5 5 5 5 5 3 5 5 5 5 5 5 5 5 5 5 5 5 3 5 5 3 3 5 3 3 5 3 5 3 5 5 3 3 5 5 5 5 5 5 5 5 5 5 5 5 5 5 5 5 5 3 5 5 5 5 5 5 5 5 3 5 5 3 5 3 5 5 5 5 5 3 5 5 5 5 5 5 5 5 5 5 5 5 5 5 5 5 5 5 5 5 5 5 3 5 5 5 5 5 5 5 5 5 5 5 5 5 5 5 5 5 5 5 5 5 5 5 5 5 5 5 5 5 5 5 5 3 5 5 5 5 5 5 5 3 3 5 5 5 5 5 5 5 5 5 5 5 3 3 5 5 5 5 5 5 5 5 5 3 5 5 5 5 5 5 5 5 5 5 5 5 5 5 5 5 3 5 5 5 3 5 5 5 5 3 5 5 5 5 5 5 5 5 5 5 5 5 5 5 5 3 3 5 5 5 5 5 5 5 5 5 5 5 5 5 5 5 5 5 3 5 5 5 5 5 5 5 5 5 5 5 5 5 5 5 5 3 5 5 5 3 5 5 5 5 3 5 5 5 5 5 5 5 5 5 5 5 5 3 5 5 5 5 5 3 5 5 5 5 5 5 3 5 5 5 5 5 5 5 5 5 5 3 5 3 5 5 3 5 5 5 5 5 5 5 5 5 3 5 5 5 3 5 3 5 5 5 5 3 5 5 5 5 5 5 5 5 5 3 5 5 3 5 
</DataArray>
</Cells>
<PointData Scalars="" Vectors="displacement," Tensors="">
<DataArray type="Float64" Name="displacement" NumberOfComponents="3" format="ascii">
0.043533941385208261 0.044737942850237931 0 0.043732946805334308 0.043717272138087605 0 0.043346213753823498 0.043666883915667705 0 0.043714275700133157 0.04499925414936562 0 0.044764997719063455 0.044505724899029986 0 0.045261653647129259 0.043906232572156742 0 0.044998544487086359 0.044999140807467662 0 0.044764997719063455 0.044505724899029986 0 0.044999364195784 0.043215441784904066 0 0.044998544487086359 0.044999140807467662 0 0.043714275700133157 0.04499925414936562 0 0.044764997719063455 0.044505724899029986 0 0.043666682267952429 0.04488327898720184 0 0.044923790862326521 0.043693122955313593 0 0.044764997719063455 0.044505724899029986 0 0.044999364195784 0.043215441784904066 0 0.045261653647129259 0.043906232572156742 0 0.04371068045244976 0.044999973742068364 0 0.042283573997909003 0.045737643534338381 0 0.043375149861397157 0.046551221042134203 0 0.043666682267952429 0.04488327898720184 0 0.041723662086170954 0.043970286430799289 0 0.042283573997909003 0.045737643534338381 0 0.043375149861397157 0.046551221042134203 0 0.040968345403696475 0.046260311022665652 0 0.04371068045244976 0.044999973742068364 0 0.042283573997909003 0.045737643534338381 0 0.041199253216300406 0.044999986242447873 0 0.041723662086170954 0.043970286430799289 0 0.037494695444972241 0.045543800354714468 0 0.044999988114997849 0.043212973693017534 0 0.045986850919162915 0.043340135882702649 0 0.045661212551280826 0.041466629437298071 0 0.046385326251477885 0.043582946311225237 0 0.045768988236058579 0.043501205392908054 0 0.045474935336090497 0.041562120444174518 0 0.044923790862326521 0.043693122955313593 0 0.045627051466100819 0.041486865853408966 0 0.045000287793394093 0.043213397646048625 0 0.044923790862326521 0.043693122955313593 0 0.041723662086170954 0.043970286430799289 0 0.044923790862326521 0.043693122955313593 0 0.044999988114997849 0.043212973693017534 0 0.044999998447848875 0.041380733602386588 0 0.045661212551280826 0.041466629437298071 0 0.044999998447848875 0.041380733602386588 0 0.045661212551280826 0.041466629437298071 0 0.045331089757355156 0.039591157995440704 0 0.035749476984859606 0.044550793324488622 0 0.035550472421134911 0.04533741615205631 0 0.035058482934635551 0.045044460795421376 0 0.046385326251477885 0.043582946311225237 0 0.045474935336090497 0.041562120444174518 0 0.046818024166979708 0.040975892597502596 0 0.041723662086170954 0.043970286430799289 0 0.041097957727184921 0.043166296677790761 0 0.041097957727184921 0.043166296677790761 0 0.041234710554155465 0.042264296950435855 0 0.046818024166979708 0.040975892597502596 0 0.045215133690804092 0.039623308840289098 0 0.047224848134615124 0.038396954179144398 0 0.045627051466100819 0.041486865853408966 0 0.04527367584737875 0.03961938881558693 0 0.045474935336090497 0.041562120444174518 0 0.046818024166979708 0.040975892597502596 0 0.045215133690804092 0.039623308840289098 0 0.044999998447848875 0.041380733602386588 0 0.044999997729316496 0.039548475317939154 0 0.045331089757355156 0.039591157995440704 0 0.034752407625775091 0.045785260221199865 0 0.034542557853450555 0.045204975729210645 0 0.033926642186955437 0.045748320351224635 0 0.035550472421134911 0.04533741615205631 0 0.034752407625775091 0.045785260221199865 0 0.035304830128328114 0.046046700603823792 0 0.035550472421134911 0.04533741615205631 0 0.034752407625775091 0.045785260221199865 0 0.035058482934635551 0.045044460795421376 0 0.034752407625775091 0.045785260221199865 0 0.035058482934635551 0.045044460795421376 0 0.034542557853450555 0.045204975729210645 0 0.034542557853450555 0.045204975729210645 0 0.034945341794977561 0.044478642933087523 0 0.034165737145380931 0.044911301263833234 0 0.035058482934635551 0.045044460795421376 0 0.034542557853450555 0.045204975729210645 0 0.034945341794977561 0.044478642933087523 0 0.035749476984859606 0.044550793324488622 0 0.035058482934635551 0.045044460795421376 0 0.034945341794977561 0.044478642933087523 0 0.042283573997909003 0.045737643534338381 0 0.040968345403696475 0.046260311022665652 0 0.041199253216300406 0.044999986242447873 0 0.037494695444972241 0.045543800354714468 0 0.036495734764655438 0.045150991220404842 0 0.040968345403696475 0.046260311022665652 0 0.041199253216300406 0.044999986242447873 0 0.038765019642828615 0.044999993778603586 0 0.040968345403696475 0.046260311022665652 0 0.038558963607931908 0.045956874603111771 0 0.038765019642828615 0.044999993778603586 0 0.034198867580240454 0.044420170462205769 0 0.033804533160490487 0.044618357353617986 0 0.033498975204120797 0.044351766575125642 0 0.036495734764655438 0.045150991220404842 0 0.034727005393065655 0.045176994290347841 0 0.038558963607931908 0.045956874603111771 0 0.036149104864956066 0.045649817943923254 0 0.036330803436339806 0.044999991455128993 0 0.038558963607931908 0.045956874603111771 0 0.038765019642828615 0.044999993778603586 0 0.036330803436339806 0.044999991455128993 0 0.033804533160490487 0.044618357353617986 0 0.033498975204120797 0.044351766575125642 0 0.03371775097189525 0.04504492420483204 0 0.034727005393065655 0.045176994290347841 0 0.033656775529244405 0.045520023482422442 0 0.033804533160490487 0.044618357353617986 0 0.034165737145380931 0.044911301263833234 0 0.03371775097189525 0.04504492420483204 0 0.034945341794977561 0.044478642933087523 0 0.034198867580240454 0.044420170462205769 0 0.034165737145380931 0.044911301263833234 0 0.034198867580240454 0.044420170462205769 0 0.033804533160490487 0.044618357353617986 0 0.034165737145380931 0.044911301263833234 0 0.035836479805744705 0.044999988092525776 0 0.033440100666045754 0.044999998653503383 0 0.033564079845017226 0.045321951021325427 0 0.032462711825755088 0.045328488364372851 0 0.033134253227059526 0.04499632607698948 0 0.03190292416256086 0.044907158584937212 0 0.034727005393065655 0.045176994290347841 0 0.032727382169616889 0.045140582683233295 0 0.035836479805744705 0.044999988092525776 0 0.036148470974675627 0.045649887960462536 0 0.033564079845017226 0.045321951021325427 0 0.035836517951239578 0.044999999033756795 0 0.036147866457431392 0.04564873273833521 0 0.036330802225179072 0.044999997830842214 0 0.035835732233460121 0.045000778853907214 0 0.034727005393065655 0.045176994290347841 0 0.034727005393065655 0.045176994290347841 0 0.036329143326803627 0.044999995477455444 0 0.033750983028243878 0.045560159130656842 0 0.03361106957359624 0.046050492987224662 0 0.033940768135356521 0.04616258248172448 0 0.034727005393065655 0.045176994290347841 0 0.03313825102519944 0.046015820968163201 0 0.032462711825755088 0.045328488364372851 0 0.033134253227059526 0.04499632607698948 0 0.032894029426313219 0.045862419831696082 0 0.032462711825755088 0.045328488364372851 0 0.032894029426313219 0.045862419831696082 0 0.032501429846479191 0.046144116767679717 0 0.032462711825755088 0.045328488364372851 0 0.032501429846479191 0.046144116767679717 0 0.031816774830785925 0.046024147702424197 0 0.032501429846479191 0.046144116767679717 0 0.032803259403342819 0.046612024992542613 0 0.032141082461859642 0.04662196719205991 0 0.032501429846479191 0.046144116767679717 0 0.031816774830785925 0.046024147702424197 0 0.032141082461859642 0.04662196719205991 0 0.032894029426313219 0.045862419831696082 0 0.032501429846479191 0.046144116767679717 0 0.032803259403342819 0.046612024992542613 0 0.03313825102519944 0.046015820968163201 0 0.033177481715753382 0.046562579104793077 0 0.03361106957359624 0.046050492987224662 0 0.03377918393507634 0.046517313573914178 0 0.033940768135356521 0.04616258248172448 0 0.03361106957359624 0.046050492987224662 0 0.03377918393507634 0.046517313573914178 0 0.033484745561521895 0.046463679503447437 0 0.03377918393507634 0.046517313573914178 0 0.033639247100265675 0.046898012227357191 0 0.033842517436672569 0.046806428110991921 0 0.03377918393507634 0.046517313573914178 0 0.033484745561521895 0.046463679503447437 0 0.033639247100265675 0.046898012227357191 0 0.033177481715753382 0.046562579104793077 0 0.033174469651831365 0.047195898321710276 0 0.032803259403342819 0.046612024992542613 0 0.03267531145869057 0.0469118514579192 0 0.032141082461859642 0.04662196719205991 0 0.033484745561521895 0.046463679503447437 0 0.033243199323033636 0.047217811231965882 0 0.033639247100265675 0.046898012227357191 0 0.032803259403342819 0.046612024992542613 0 0.03267531145869057 0.0469118514579192 0 0.033243199323033636 0.047217811231965882 0 0.03267531145869057 0.0469118514579192 0 0.032169637979657759 0.046986784462375766 0 0.032141082461859642 0.04662196719205991 0 0.03267531145869057 0.0469118514579192 0 0.03260034972670435 0.04714422096781231 0 0.032169637979657759 0.046986784462375766 0 0.034542557853450555 0.045204975729210645 0 0.034165737145380931 0.044911301263833234 0 0.033926642186955437 0.045748320351224635 0 0.033656775529244405 0.045520023482422442 0 0.034024598424644538 0.046234986520411601 0 0.034165737145380931 0.044911301263833234 0 0.03371775097189525 0.04504492420483204 0 0.033926642186955437 0.045748320351224635 0 0.03377918393507634 0.046517313573914178 0 0.033940768135356521 0.04616258248172448 0 0.034047398550623525 0.046678120919356435 0 0.03377918393507634 0.046517313573914178 0 0.034047398550623525 0.046678120919356435 0 0.033842517436672569 0.046806428110991921 0 0.034752407625775091 0.045785260221199865 0 0.033926642186955437 0.045748320351224635 0 0.034153495719301909 0.046537813045600319 0 0.034024598424644538 0.046234986520411601 0 0.034134992871319596 0.046526441966350557 0 0.034047398550623525 0.046678120919356435 0 0.033930987683379266 0.046801902740540163 0 0.034153495719301909 0.046537813045600319 0 0.034047398550623525 0.046678120919356435 0 0.033930987683379266 0.046801902740540163 0 0.033842517436672569 0.046806428110991921 0 0.033930987683379266 0.046801902740540163 0 0.033838271598680726 0.046909425483713671 0 0.034006750429755546 0.046736664102995637 0 0.033930987683379266 0.046801902740540163 0 0.034153495719301909 0.046537813045600319 0 0.034006750429755546 0.046736664102995637 0 0.032782914006544782 0.047340895631673707 0 0.033335039051440932 0.047415946572269815 0 0.032372158878314516 0.047900365559203933 0 0.032782914006544782 0.047340895631673707 0 0.033243199323033636 0.047217811231965882 0 0.033335039051440932 0.047415946572269815 0 0.032782914006544782 0.047340895631673707 0 0.03260034972670435 0.04714422096781231 0 0.032169248788433184 0.047443106433690804 0 0.03267531145869057 0.0469118514579192 0 0.03260034972670435 0.04714422096781231 0 0.033243199323033636 0.047217811231965882 0 0.032782914006544782 0.047340895631673707 0 0.03260034972670435 0.04714422096781231 0 0.033243199323033636 0.047217811231965882 0 0.033243199323033636 0.047217811231965882 0 0.033509153213297851 0.047191033770305077 0 0.033639247100265675 0.046898012227357191 0 0.033509153213297851 0.047191033770305077 0 0.033683255681819617 0.047055091024951562 0 0.03355634187995632 0.047180483789101883 0 0.033243199323033636 0.047217811231965882 0 0.033335039051440932 0.047415946572269815 0 0.033509153213297851 0.047191033770305077 0 0.033335039051440932 0.047415946572269815 0 0.033509153213297851 0.047191033770305077 0 0.03355634187995632 0.047180483789101883 0 0.033509153213297851 0.047191033770305077 0 0.033683255681819617 0.047055091024951562 0 0.033639247100265675 0.046898012227357191 0 0.033683255681819617 0.047055091024951562 0 0.033639247100265675 0.046898012227357191 0 0.033842517436672569 0.046806428110991921 0 0.033930987683379266 0.046801902740540163 0 0.033683255681819617 0.047055091024951562 0 0.033842517436672569 0.046806428110991921 0 0.033930987683379266 0.046801902740540163 0 0.033683255681819617 0.047055091024951562 0 0.033838271598680726 0.046909425483713671 0 0.033838271598680726 0.046909425483713671 0 0.033744247379162359 0.047010703841637087 0 0.0339138339695855 0.046864201003233776 0 0.033683255681819617 0.047055091024951562 0 0.033838271598680726 0.046909425483713671 0 0.033744247379162359 0.047010703841637087 0 0.033683255681819617 0.047055091024951562 0 0.03355634187995632 0.047180483789101883 0 0.033744247379162359 0.047010703841637087 0 0.033744247379162359 0.047010703841637087 0 0.033999453326402848 0.046848934761004511 0 0.034006341364355402 0.046987308521091682 0 0.033388273575372385 0.047457505896960808 0 0.033158459655309745 0.048005372634297556 0 0.03355634187995632 0.047180483789101883 0 0.033744247379162359 0.047010703841637087 0 0.034006341364355402 0.046987308521091682 0 0.033335039051440932 0.047415946572269815 0 0.032372158878314516 0.047900365559203933 0 0.032451590988984973 0.04893943369874524 0 0.033335039051440932 0.047415946572269815 0 0.03355634187995632 0.047180483789101883 0 0.034006341364355402 0.046987308521091682 0 0.034432447705920258 0.04658345836456592 0 0.033199227971486792 0.047906302528752193 0 0.033999453326402848 0.046848934761004511 0 0.0339138339695855 0.046864201003233776 0 0.034126456865664699 0.046707279504792615 0 0.033999453326402848 0.046848934761004511 0 0.034126456865664699 0.046707279504792615 0 0.034075826471067668 0.046843576905247222 0 0.033744247379162359 0.047010703841637087 0 0.033999453326402848 0.046848934761004511 0 0.0339138339695855 0.046864201003233776 0 0.033838271598680726 0.046909425483713671 0 0.033979609807530474 0.046772808887829156 0 0.0339138339695855 0.046864201003233776 0 0.033979609807530474 0.046772808887829156 0 0.0339138339695855 0.046864201003233776 0 0.034126456865664699 0.046707279504792615 0 0.034121399855771929 0.046566785981457415 0 0.034126456865664699 0.046707279504792615 0 0.034258814978071969 0.046363937592452803 0 0.033979609807530474 0.046772808887829156 0 0.034121399855771929 0.046566785981457415 0 0.034126456865664699 0.046707279504792615 0 0.034153495719301909 0.046537813045600319 0 0.034243911399782417 0.046686671051650447 0 0.034006750429755546 0.046736664102995637 0 0.034084072784358849 0.046720809902446772 0 0.034243911399782417 0.046686671051650447 0 0.034006750429755546 0.046736664102995637 0 0.034084072784358849 0.046720809902446772 0 0.034243911399782417 0.046686671051650447 0 0.03422701150800813 0.04674238329818494 0 0.033979609807530474 0.046772808887829156 0 0.034084072784358849 0.046720809902446772 0 0.034006750429755546 0.046736664102995637 0 0.033838271598680726 0.046909425483713671 0 0.033979609807530474 0.046772808887829156 0 0.034006750429755546 0.046736664102995637 0 0.033979609807530474 0.046772808887829156 0 0.034121399855771929 0.046566785981457415 0 0.034068340670524257 0.046661947232763276 0 0.034084072784358849 0.046720809902446772 0 0.034068340670524257 0.046661947232763276 0 0.034067209408401772 0.046625196049055025 0 0.033979609807530474 0.046772808887829156 0 0.034084072784358849 0.046720809902446772 0 0.034068340670524257 0.046661947232763276 0 0.034121399855771929 0.046566785981457415 0 0.034068340670524257 0.046661947232763276 0 0.034127948696092564 0.046484737747768387 0 0.034068340670524257 0.046661947232763276 0 0.034067209408401772 0.046625196049055025 0 0.034127948696092564 0.046484737747768387 0 0.03443635824720951 0.046633044813539269 0 0.033451860782555541 0.046913506897375196 0 0.034067209408401772 0.046625196049055025 0 0.03422701150800813 0.04674238329818494 0 0.034435541721709123 0.046975143623290173 0 0.034084072784358849 0.046720809902446772 0 0.034067209408401772 0.046625196049055025 0 0.03422701150800813 0.04674238329818494 0 0.03422701150800813 0.04674238329818494 0 0.034444448915343352 0.046738807108164339 0 0.034435541721709123 0.046975143623290173 0 0.034444448915343352 0.046738807108164339 0 0.034724911111654093 0.046795302913429371 0 0.034435541721709123 0.046975143623290173 0 0.034243911399782417 0.046686671051650447 0 0.03422701150800813 0.04674238329818494 0 0.034444448915343352 0.046738807108164339 0 0.034243911399782417 0.046686671051650447 0 0.034444448915343352 0.046738807108164339 0 0.034647358860100522 0.046531355028535323 0 0.034444448915343352 0.046738807108164339 0 0.034724911111654093 0.046795302913429371 0 0.034647358860100522 0.046531355028535323 0 0.034724911111654093 0.046795302913429371 0 0.03502386386937912 0.046609180706456449 0 0.034647358860100522 0.046531355028535323 0 0.034724911111654093 0.046795302913429371 0 0.03502386386937912 0.046609180706456449 0 0.034888854592043272 0.047027615689499029 0 0.034724911111654093 0.046795302913429371 0 0.034888854592043272 0.047027615689499029 0 0.034435541721709123 0.046975143623290173 0 0.041562625130755287 0.041006302347860776 0 0.039521422532949754 0.041258456571396249 0 0.046220231413554476 0.034657505967697753 0 0.047564188240808693 0.03590145239299835 0 0.047849423310733927 0.033518554398670797 0 0.046220231413554476 0.034657505967697753 0 0.045000019463885342 0.035575015221214014 0 0.044999932492115896 0.033434163206436593 0 0.046220231413554476 0.034657505967697753 0 0.045000019463885342 0.035575015221214014 0 0.046202720243815706 0.03666901224581888 0 0.046220231413554476 0.034657505967697753 0 0.047564188240808693 0.03590145239299835 0 0.046202720243815706 0.03666901224581888 0 0.047564188240808693 0.03590145239299835 0 0.046202720243815706 0.03666901224581888 0 0.047224848134615124 0.038396954179144398 0 0.041562625130755287 0.041006302347860776 0 0.041234710554155465 0.042264296950435855 0 0.046202720243815706 0.03666901224581888 0 0.044999660626703859 0.037716295364960968 0 0.047224848134615124 0.038396954179144398 0 0.045000019463885342 0.035575015221214014 0 0.046202720243815706 0.03666901224581888 0 0.044999660626703859 0.037716295364960968 0 0.04527367584737875 0.03961938881558693 0 0.045000053122247904 0.037716686552332603 0 0.045215133690804092 0.039623308840289098 0 0.044999660626703859 0.037716295364960968 0 0.047224848134615124 0.038396954179144398 0 0.044999997729316496 0.039548475317939154 0 0.045331089757355156 0.039591157995440704 0 0.044999998254803365 0.037716224067017336 0 0.034752407625775091 0.045785260221199865 0 0.034153495719301909 0.046537813045600319 0 0.034647358860100522 0.046531355028535323 0 0.034752407625775091 0.045785260221199865 0 0.035304830128328114 0.046046700603823792 0 0.034647358860100522 0.046531355028535323 0 0.034153495719301909 0.046537813045600319 0 0.034243911399782417 0.046686671051650447 0 0.034647358860100522 0.046531355028535323 0 0.03502386386937912 0.046609180706456449 0 0.035304830128328114 0.046046700603823792 0 0.034647358860100522 0.046531355028535323 0 0.023105860790353518 0.047520235847491148 0 0.021674006824698371 0.048179132634850561 0 0.020996916669394475 0.047645609897993241 0 0.023105860790353518 0.047520235847491148 0 0.02140083208368971 0.047028367974981042 0 0.020996916669394475 0.047645609897993241 0 0.02530063027256477 0.046291907441837879 0 0.025949684603878635 0.047467022070604777 0 0.023766932415824879 0.047047831927920003 0 0.02421108967931308 0.046884798976011284 0 0.022642917941679271 0.047661314524427775 0 0.02421108967931308 0.046884798976011284 0 0.025592598013867165 0.045999663039794227 0 0.023105860790353518 0.047520235847491148 0 0.022631152094141519 0.046280895682095605 0 0.02140083208368971 0.047028367974981042 0 0.022631152094141519 0.046280895682095605 0 0.024099355597871193 0.044999562418380566 0 0.021547389653511932 0.044999569218505044 0 0.022631152094141519 0.046280895682095605 0 0.024099355597871193 0.044999562418380566 0 0.024844306999002065 0.046476844810040198 0 0.023105860790353518 0.047520235847491148 0 0.022631152094141519 0.046280895682095605 0 0.024844306999002065 0.046476844810040198 0 0.026366332912909955 0.045632617719824714 0 0.027719321851297739 0.0456244212285968 0 0.026943508244672645 0.046101807998816337 0 0.024099355597871193 0.044999562418380566 0 0.024844306999002065 0.046476844810040198 0 0.026651329756545914 0.044999885810514693 0 0.026366332912909955 0.045632617719824714 0 0.026653720288116665 0.044999219435119239 0 0.027719321851297739 0.0456244212285968 0 0.025592598013867165 0.045999663039794227 0 0.026651992079836807 0.045000011602525619 0 0.026653720288116665 0.044999219435119239 0 0.027719321851297739 0.0456244212285968 0 0.028847930271361347 0.044999530364283939 0 0.027719321851297739 0.0456244212285968 0 0.026943508244672645 0.046101807998816337 0 0.028193553181128636 0.046227465662083862 0 0.026943508244672645 0.046101807998816337 0 0.02715244707223274 0.046891430329565317 0 0.028193553181128636 0.046227465662083862 0 0.02530063027256477 0.046291907441837879 0 0.026943508244672645 0.046101807998816337 0 0.02715244707223274 0.046891430329565317 0 0.02530063027256477 0.046291907441837879 0 0.026366332912909955 0.045632617719824714 0 0.026943508244672645 0.046101807998816337 0 0.02530063027256477 0.046291907441837879 0 0.02715244707223274 0.046891430329565317 0 0.025949684603878635 0.047467022070604777 0 0.02715244707223274 0.046891430329565317 0 0.028357023663636304 0.046981582244697777 0 0.027603819063656554 0.048005679663031306 0 0.02715244707223274 0.046891430329565317 0 0.028357023663636304 0.046981582244697777 0 0.028193553181128636 0.046227465662083862 0 0.028357023663636304 0.046981582244697777 0 0.029423325894211563 0.046521321282931967 0 0.029459475778322024 0.047481370933213647 0 0.030203833177294477 0.046889916604510112 0 0.029423325894211563 0.046521321282931967 0 0.029459475778322024 0.047481370933213647 0 0.030203833177294477 0.046889916604510112 0 0.030625825115948798 0.047589306252549465 0 0.029459475778322024 0.047481370933213647 0 0.030203833177294477 0.046889916604510112 0 0.029423325894211563 0.046521321282931967 0 0.030590623567414484 0.046096852768617649 0 0.029423325894211563 0.046521321282931967 0 0.029703129858651683 0.045728109691405297 0 0.030590623567414484 0.046096852768617649 0 0.029423325894211563 0.046521321282931967 0 0.028193553181128636 0.046227465662083862 0 0.029703129858651683 0.045728109691405297 0 0.028357023663636304 0.046981582244697777 0 0.029423325894211563 0.046521321282931967 0 0.028193553181128636 0.046227465662083862 0 0.027719321851297739 0.0456244212285968 0 0.028193553181128636 0.046227465662083862 0 0.029703129858651683 0.045728109691405297 0 0.027719321851297739 0.0456244212285968 0 0.028847930271361347 0.044999530364283939 0 0.029703129858651683 0.045728109691405297 0 0.028847930271361347 0.044999530364283939 0 0.029703129858651683 0.045728109691405297 0 0.031041335425378236 0.044998944291107838 0 0.031385587210738738 0.045443011115514832 0 0.031816774830785925 0.046024147702424197 0 0.030590623567414484 0.046096852768617649 0 0.029703129858651683 0.045728109691405297 0 0.031385587210738738 0.045443011115514832 0 0.030590623567414484 0.046096852768617649 0 0.029703129858651683 0.045728109691405297 0 0.031041335425378236 0.044998944291107838 0 0.031385587210738738 0.045443011115514832 0 0.031041335425378236 0.044998944291107838 0 0.03190292416256086 0.044907158584937212 0 0.031385587210738738 0.045443011115514832 0 0.031044045717220119 0.044999992687885099 0 0.032727382169616889 0.045140582683233295 0 0.031043691335154642 0.044999997601803628 0 0.033440100666045754 0.044999998653503383 0 0.033564079845017226 0.045321951021325427 0 0.032462711825755088 0.045328488364372851 0 0.03190292416256086 0.044907158584937212 0 0.031385587210738738 0.045443011115514832 0 0.032462711825755088 0.045328488364372851 0 0.031385587210738738 0.045443011115514832 0 0.031816774830785925 0.046024147702424197 0 0.031816774830785925 0.046024147702424197 0 0.031110940133498161 0.046643985090437587 0 0.032141082461859642 0.04662196719205991 0 0.031816774830785925 0.046024147702424197 0 0.030590623567414484 0.046096852768617649 0 0.031110940133498161 0.046643985090437587 0 0.030203833177294477 0.046889916604510112 0 0.030590623567414484 0.046096852768617649 0 0.031110940133498161 0.046643985090437587 0 0.030203833177294477 0.046889916604510112 0 0.031110940133498161 0.046643985090437587 0 0.030625825115948798 0.047589306252549465 0 0.031110940133498161 0.046643985090437587 0 0.03144042555382473 0.047318156206912362 0 0.030625825115948798 0.047589306252549465 0 0.031110940133498161 0.046643985090437587 0 0.03164206321098504 0.046871230734104527 0 0.03144042555382473 0.047318156206912362 0 0.031110940133498161 0.046643985090437587 0 0.03164206321098504 0.046871230734104527 0 0.032141082461859642 0.04662196719205991 0 0.03164206321098504 0.046871230734104527 0 0.032169637979657759 0.046986784462375766 0 0.03144042555382473 0.047318156206912362 0 0.03164206321098504 0.046871230734104527 0 0.032169637979657759 0.046986784462375766 0 0.032141082461859642 0.04662196719205991 0 0.032169248788433184 0.047443106433690804 0 0.03144042555382473 0.047318156206912362 0 0.031526183129880411 0.04817061872678062 0 0.032372158878314516 0.047900365559203933 0 0.032169248788433184 0.047443106433690804 0 0.031526183129880411 0.04817061872678062 0 0.032782914006544782 0.047340895631673707 0 0.032372158878314516 0.047900365559203933 0 0.032169248788433184 0.047443106433690804 0 0.032169637979657759 0.046986784462375766 0 0.032169248788433184 0.047443106433690804 0 0.03144042555382473 0.047318156206912362 0 0.03260034972670435 0.04714422096781231 0 0.032169637979657759 0.046986784462375766 0 0.032169248788433184 0.047443106433690804 0 0.030625825115948798 0.047589306252549465 0 0.030861403702530835 0.048560684506235872 0 0.031526183129880411 0.04817061872678062 0 0.03144042555382473 0.047318156206912362 0 0.030625825115948798 0.047589306252549465 0 0.031526183129880411 0.04817061872678062 0 0.030625825115948798 0.047589306252549465 0 0.030861403702530835 0.048560684506235872 0 0.030167126772063849 0.048352605408485835 0 0.030633732377044816 0.048906809220646386 0 0.030134997130066166 0.048563976322856681 0 0.030861403702530835 0.048560684506235872 0 0.031532001035144697 0.049100569949041536 0 0.031526183129880411 0.04817061872678062 0 0.030861403702530835 0.048560684506235872 0 0.030758146099603173 0.049373556985482694 0 0.030167126772063849 0.048352605408485835 0 0.030861403702530835 0.048560684506235872 0 0.031532001035144697 0.049100569949041536 0 0.030758146099603173 0.049373556985482694 0 0.031532001035144697 0.049100569949041536 0 0.031526183129880411 0.04817061872678062 0 0.032451590988984973 0.04893943369874524 0 0.032372158878314516 0.047900365559203933 0 0.031526183129880411 0.04817061872678062 0 0.032451590988984973 0.04893943369874524 0 0.033158459655309745 0.048005372634297556 0 0.033199227971486792 0.047906302528752193 0 0.031532001035144697 0.049100569949041536 0 0.032451590988984973 0.04893943369874524 0 0.031790081878282063 0.049947556910632754 0 0.033999453326402848 0.046848934761004511 0 0.034006341364355402 0.046987308521091682 0 0.034075826471067668 0.046843576905247222 0 0.031532001035144697 0.049100569949041536 0 0.031790081878282063 0.049947556910632754 0 0.030758146099603173 0.049373556985482694 0 0.033199227971486792 0.047906302528752193 0 0.033244134919886113 0.047976588963528632 0 0.034126456865664699 0.046707279504792615 0 0.034540142324228244 0.046960543459250118 0 0.034646866351541003 0.046790488562416646 0 0.034126456865664699 0.046707279504792615 0 0.034646866351541003 0.046790488562416646 0 0.034459837191546092 0.046415619365046332 0 0.035635405518254143 0.04688358030260309 0 0.03638509514846338 0.045664184748501598 0 0.034879959046083618 0.04546186781445747 0 0.033244134919886113 0.047976588963528632 0 0.034838786319545019 0.045868187206636678 0 0.029848952400693355 0.049713683165199689 0 0.029105093658999198 0.049587543880778351 0 0.029315495688703386 0.050580876681208593 0 0.029105093658999198 0.049587543880778351 0 0.028664088855749718 0.050147348003593224 0 0.029315495688703386 0.050580876681208593 0 0.033244134919886113 0.047976588963528632 0 0.032927656985414104 0.048115703501995802 0 0.032493173383545647 0.048293549967572236 0 0.032301879153653353 0.048607380718366643 0 0.031949960845399521 0.048010920314471531 0 0.029848952400693355 0.049713683165199689 0 0.029105093658999198 0.049587543880778351 0 0.029356745699825292 0.04890456421606653 0 0.033244134919886113 0.047976588963528632 0 0.030633732377044816 0.048906809220646386 0 0.033199227971486792 0.047906302528752193 0 0.030633732377044816 0.048906809220646386 0 0.029105093658999198 0.049587543880778351 0 0.029356745699825292 0.04890456421606653 0 0.028618746754892066 0.04906067494496081 0 0.029105093658999198 0.049587543880778351 0 0.028618746754892066 0.04906067494496081 0 0.028197431585590675 0.049501776963352874 0 0.028618746754892066 0.04906067494496081 0 0.028197431585590675 0.049501776963352874 0 0.028174320154049221 0.048987548683276871 0 0.029105093658999198 0.049587543880778351 0 0.028197431585590675 0.049501776963352874 0 0.028664088855749718 0.050147348003593224 0 0.028197431585590675 0.049501776963352874 0 0.028664088855749718 0.050147348003593224 0 0.028062181248068575 0.050097445072470499 0 0.028664088855749718 0.050147348003593224 0 0.028062181248068575 0.050097445072470499 0 0.027989753654474016 0.050714994522237072 0 0.028197431585590675 0.049501776963352874 0 0.028062181248068575 0.050097445072470499 0 0.02710624420735178 0.049938216138524956 0 0.028062181248068575 0.050097445072470499 0 0.02710624420735178 0.049938216138524956 0 0.027989753654474016 0.050714994522237072 0 0.027150014740615017 0.049922698853748143 0 0.027776015429795076 0.050967404483594547 0 0.028197431585590675 0.049501776963352874 0 0.027541038808489487 0.048974293671035937 0 0.02710624420735178 0.049938216138524956 0 0.028197431585590675 0.049501776963352874 0 0.028174320154049221 0.048987548683276871 0 0.027541038808489487 0.048974293671035937 0 0.028174320154049221 0.048987548683276871 0 0.027541038808489487 0.048974293671035937 0 0.028342814772182447 0.048423150558951647 0 0.028700259682042935 0.04869745648172364 0 0.027722690989309861 0.048074552164825604 0 0.027541038808489487 0.048974293671035937 0 0.028342814772182447 0.048423150558951647 0 0.027603819063656554 0.048005679663031306 0 0.03067815395907009 0.049733390811872752 0 0.030045272147794153 0.04861759429974262 0 0.029259977237967891 0.048987467809142766 0 0.029356745699825292 0.04890456421606653 0 0.028618746754892066 0.04906067494496081 0 0.028342814772182447 0.048423150558951647 0 0.030633732377044816 0.048906809220646386 0 0.028700259682042935 0.04869745648172364 0 0.028618746754892066 0.04906067494496081 0 0.028174320154049221 0.048987548683276871 0 0.028342814772182447 0.048423150558951647 0 0.030625825115948798 0.047589306252549465 0 0.030167126772063849 0.048352605408485835 0 0.029459475778322024 0.047481370933213647 0 0.030134997130066166 0.048563976322856681 0 0.029514194817379828 0.047532706791674831 0 0.030045272147794153 0.04861759429974262 0 0.029259977237967891 0.048987467809142766 0 0.029459475778322024 0.047481370933213647 0 0.029259977237967891 0.048987467809142766 0 0.029459475778322024 0.047481370933213647 0 0.027603819063656554 0.048005679663031306 0 0.028357023663636304 0.046981582244697777 0 0.029459475778322024 0.047481370933213647 0 0.027603819063656554 0.048005679663031306 0 0.02715244707223274 0.046891430329565317 0 0.027603819063656554 0.048005679663031306 0 0.025949684603878635 0.047467022070604777 0 0.027603819063656554 0.048005679663031306 0 0.025949684603878635 0.047467022070604777 0 0.026421819034801966 0.048732731907955858 0 0.025949684603878635 0.047467022070604777 0 0.025547060170457762 0.048329362894608874 0 0.026421819034801966 0.048732731907955858 0 0.027541038808489487 0.048974293671035937 0 0.027603819063656554 0.048005679663031306 0 0.026421819034801966 0.048732731907955858 0 0.027541038808489487 0.048974293671035937 0 0.02710624420735178 0.049938216138524956 0 0.026362369518530729 0.049615348762917545 0 0.027541038808489487 0.048974293671035937 0 0.026421819034801966 0.048732731907955858 0 0.026362369518530729 0.049615348762917545 0 0.02710624420735178 0.049938216138524956 0 0.026362369518530729 0.049615348762917545 0 0.025985558908520147 0.050562472124259648 0 0.026362369518530729 0.049615348762917545 0 0.025424053470919399 0.049547632724551781 0 0.025985558908520147 0.050562472124259648 0 0.026421819034801966 0.048732731907955858 0 0.026362369518530729 0.049615348762917545 0 0.025424053470919399 0.049547632724551781 0 0.025547060170457762 0.048329362894608874 0 0.026421819034801966 0.048732731907955858 0 0.025424053470919399 0.049547632724551781 0 0.025547060170457762 0.048329362894608874 0 0.025424053470919399 0.049547632724551781 0 0.024274772911443247 0.048822416670706505 0 0.024845811383139006 0.049523200171963447 0 0.025424053470919399 0.049547632724551781 0 0.024274772911443247 0.048822416670706505 0 0.024845811383139006 0.049523200171963447 0 0.024781928172115386 0.049651456388892595 0 0.024274772911443247 0.048822416670706505 0 0.024777215440327523 0.049681016440854237 0 0.025140036005836534 0.049748973007825589 0 0.025424053470919399 0.049547632724551781 0 0.024807337024941128 0.049668118794405344 0 0.025985558908520147 0.050562472124259648 0 0.024845811383139006 0.049523200171963447 0 0.025424053470919399 0.049547632724551781 0 0.024807337024941128 0.049668118794405344 0 0.023556246877030822 0.049783385267840208 0 0.021096727695548226 0.050141893842269546 0 0.021927793622565216 0.050173148109139004 0 0.019682491450723476 0.050009249400319443 0 0.020189782742359951 0.052254761603141318 0 0.024807337024941128 0.049668118794405344 0 0.024781928172115386 0.049651456388892595 0 0.02548528933256336 0.04935814293051137 0 0.024845811383139006 0.049523200171963447 0 0.024807337024941128 0.049668118794405344 0 0.024781928172115386 0.049651456388892595 0 0.020819701198126362 0.049549370336173175 0 0.021927793622565216 0.050173148109139004 0 0.024274772911443247 0.048822416670706505 0 0.020819701198126362 0.049549370336173175 0 0.021927793622565216 0.050173148109139004 0 0.019682491450723476 0.050009249400319443 0 0.023556246877030822 0.049783385267840208 0 0.024210902205528122 0.048804727626723679 0 0.020819701198126362 0.049549370336173175 0 0.024274772911443247 0.048822416670706505 0 0.020737183409488772 0.04879009464550467 0 0.024274772911443247 0.048822416670706505 0 0.023766932415824879 0.047047831927920003 0 0.020737183409488772 0.04879009464550467 0 0.022642917941679271 0.047661314524427775 0 0.020963174318797542 0.048857868036610075 0 0.025547060170457762 0.048329362894608874 0 0.024274772911443247 0.048822416670706505 0 0.023766932415824879 0.047047831927920003 0 0.025949684603878635 0.047467022070604777 0 0.025547060170457762 0.048329362894608874 0 0.023766932415824879 0.047047831927920003 0 0.022127255501592797 0.046343663319098879 0 0.022065887443000986 0.045996997278251156 0 0.018942934050409633 0.046337746350729535 0 0.018476274706640657 0.044336630635332379 0 0.020191741296943042 0.045638204573220965 0 0.025444739544751665 0.046825573555359351 0 0.024631036405630292 0.046933619850435475 0 0.025291926503863967 0.045491425504643301 0 0.024631036405630292 0.046933619850435475 0 0.024170694080761338 0.046316595927709467 0 0.025291926503863967 0.045491425504643301 0 0.025444739544751665 0.046825573555359351 0 0.024631036405630292 0.046933619850435475 0 0.024610327717277416 0.047633870203186837 0 0.024631036405630292 0.046933619850435475 0 0.024610327717277416 0.047633870203186837 0 0.02396089922392966 0.047107339191381756 0 0.018942934050409633 0.046337746350729535 0 0.019389707811913032 0.048249585649011578 0 0.020274299272167076 0.047456907580746756 0 0.022127255501592797 0.046343663319098879 0 0.022621500026701748 0.048161327843931255 0 0.025444739544751665 0.046825573555359351 0 0.024610327717277416 0.047633870203186837 0 0.025529308937621443 0.048109151166192826 0 0.025529308937621443 0.048109151166192826 0 0.025112669596479828 0.048932006256314886 0 0.024591251789495748 0.048582525380052179 0 0.024807337024941128 0.049668118794405344 0 0.025112669596479828 0.048932006256314886 0 0.02548528933256336 0.04935814293051137 0 0.022621500026701748 0.048161327843931255 0 0.021096727695548226 0.050141893842269546 0 0.025529308937621443 0.048109151166192826 0 0.025112669596479828 0.048932006256314886 0 0.02548528933256336 0.04935814293051137 0 0.024807337024941128 0.049668118794405344 0 0.024591251789495748 0.048582525380052179 0 0.023883828642660403 0.048940493258504456 0 0.024807337024941128 0.049668118794405344 0 0.025112669596479828 0.048932006256314886 0 0.024591251789495748 0.048582525380052179 0 0.024610327717277416 0.047633870203186837 0 0.025529308937621443 0.048109151166192826 0 0.024591251789495748 0.048582525380052179 0 0.024610327717277416 0.047633870203186837 0 0.024591251789495748 0.048582525380052179 0 0.023665052912811617 0.048093480759631935 0 0.024591251789495748 0.048582525380052179 0 0.023665052912811617 0.048093480759631935 0 0.023883828642660403 0.048940493258504456 0 0.023665052912811617 0.048093480759631935 0 0.023883828642660403 0.048940493258504456 0 0.023040604771580951 0.048317284816066425 0 0.025140036005836534 0.049748973007825589 0 0.02428404771955248 0.049888173210822076 0 0.02710624420735178 0.049938216138524956 0 0.025985558908520147 0.050562472124259648 0 0.02727434315314653 0.051021783594412999 0 0.023665052912811617 0.048093480759631935 0 0.023023552083241326 0.047851702852820817 0 0.023040604771580951 0.048317284816066425 0 0.023665052912811617 0.048093480759631935 0 0.023302111388162849 0.047286370790705717 0 0.023023552083241326 0.047851702852820817 0 0.023665052912811617 0.048093480759631935 0 0.023302111388162849 0.047286370790705717 0 0.02396089922392966 0.047107339191381756 0 0.024610327717277416 0.047633870203186837 0 0.023665052912811617 0.048093480759631935 0 0.02396089922392966 0.047107339191381756 0 0.02396089922392966 0.047107339191381756 0 0.024170694080761338 0.046316595927709467 0 0.023580704227247791 0.046280184333655612 0 0.024631036405630292 0.046933619850435475 0 0.02396089922392966 0.047107339191381756 0 0.024170694080761338 0.046316595927709467 0 0.023302111388162849 0.047286370790705717 0 0.023580704227247791 0.046280184333655612 0 0.022716841538956267 0.046199347480265787 0 0.023302111388162849 0.047286370790705717 0 0.02396089922392966 0.047107339191381756 0 0.023580704227247791 0.046280184333655612 0 0.022341245701128772 0.047563563729286516 0 0.029032095197294289 0.043507361560097192 0 0.029644275756293748 0.044659875355907618 0 0.036279539563546306 0.041263386410806915 0 0.03680947073653567 0.040597117613373888 0 0.035581483538050816 0.042582647375681133 0 0.034420263277431286 0.039938559035708067 0 0.023302111388162849 0.047286370790705717 0 0.02300002958980429 0.046477718246311452 0 0.022666244816962295 0.047000299926120558 0 0.029032095197294289 0.043507361560097192 0 0.029644275756293748 0.044659875355907618 0 0.036945349438734801 0.0420081649242703 0 0.036973505305575437 0.042863928488322593 0 0.037998063986401619 0.042505533197802814 0 0.036945349438734801 0.0420081649242703 0 0.037998063986401619 0.042505533197802814 0 0.037538601926491715 0.041348917469307744 0 0.036945349438734801 0.0420081649242703 0 0.036511711449561529 0.041194756078507158 0 0.037538601926491715 0.041348917469307744 0 0.029644275756293748 0.044659875355907618 0 0.030293614719725484 0.046620510387094874 0 0.036973505305575437 0.042863928488322593 0 0.037059021829665424 0.044010497424142099 0 0.0365577704501387 0.043256310533080759 0 0.036973505305575437 0.042863928488322593 0 0.037998063986401619 0.042505533197802814 0 0.037059021829665424 0.044010497424142099 0 0.036945349438734801 0.0420081649242703 0 0.036973505305575437 0.042863928488322593 0 0.036304243239079763 0.042573990823600645 0 0.022903973560420589 0.047405171500656734 0 0.023023552083241326 0.047851702852820817 0 0.022565808607785093 0.047926203048512604 0 0.023302111388162849 0.047286370790705717 0 0.022666244816962295 0.047000299926120558 0 0.023023552083241326 0.047851702852820817 0 0.029644275756293748 0.044659875355907618 0 0.02204929281403958 0.047980884098295998 0 0.023023552083241326 0.047851702852820817 0 0.023040604771580951 0.048317284816066425 0 0.022565808607785093 0.047926203048512604 0 0.02428404771955248 0.049888173210822076 0 0.030293614719725484 0.046620510387094874 0 0.02710624420735178 0.049938216138524956 0 0.02727434315314653 0.051021783594412999 0 0.027762203631296611 0.050638015808626924 0 0.02727434315314653 0.051021783594412999 0 0.027762203631296611 0.050638015808626924 0 0.028365783317545957 0.051371571042694131 0 0.028691771147848981 0.050739320807811912 0 0.0287890926595511 0.051431958010658467 0 0.029315495688703386 0.050580876681208593 0 0.028664088855749718 0.050147348003593224 0 0.028691771147848981 0.050739320807811912 0 0.029315495688703386 0.050580876681208593 0 0.028664088855749718 0.050147348003593224 0 0.027989753654474016 0.050714994522237072 0 0.028691771147848981 0.050739320807811912 0 0.027776015429795076 0.050967404483594547 0 0.031130673473428724 0.047766883789851847 0 0.027989753654474016 0.050714994522237072 0 0.028691771147848981 0.050739320807811912 0 0.0287890926595511 0.051431958010658467 0 0.027762203631296611 0.050638015808626924 0 0.028439676730562378 0.051250943457217639 0 0.028365783317545957 0.051371571042694131 0 0.031130673473428724 0.047766883789851847 0 0.030293614719725484 0.046620510387094874 0 0.032143356655290202 0.045398894572973109 0 0.031757044223277651 0.046028459799950426 0 0.033469168563625189 0.046716323464896695 0 0.037059021829665424 0.044010497424142099 0 0.036595886262045539 0.04380192981173528 0 0.0365577704501387 0.043256310533080759 0 0.030293614719725484 0.046620510387094874 0 0.035073867041926242 0.045495017758751699 0 0.031130673473428724 0.047766883789851847 0 0.035073867041926242 0.045495017758751699 0 0.035073867041926242 0.045495017758751699 0 0.036101124435166505 0.043961250609380755 0 0.036071460885953255 0.044234576923923775 0 0.035650182414012292 0.044163033606233998 0 0.03577985119313553 0.043609579606323765 0 0.036707810780299124 0.044054298733895603 0 0.036071460885953255 0.044234576923923775 0 0.03577985119313553 0.043609579606323765 0 0.036071460885953255 0.044234576923923775 0 0.035760254662029735 0.044714708952348151 0 0.036405749254214338 0.044625077033013015 0 0.036071460885953255 0.044234576923923775 0 0.035760254662029735 0.044714708952348151 0 0.035650182414012292 0.044163033606233998 0 0.036707810780299124 0.044054298733895603 0 0.036071460885953255 0.044234576923923775 0 0.036405749254214338 0.044625077033013015 0 0.037095098206457101 0.044467281839189875 0 0.036707810780299124 0.044054298733895603 0 0.036405749254214338 0.044625077033013015 0 0.037095098206457101 0.044467281839189875 0 0.036405749254214338 0.044625077033013015 0 0.03638509514846338 0.045664184748501598 0 0.031130673473428724 0.047766883789851847 0 0.032927656985414104 0.048115703501995802 0 0.035760254662029735 0.044714708952348151 0 0.036405749254214338 0.044625077033013015 0 0.03638509514846338 0.045664184748501598 0 0.035760254662029735 0.044714708952348151 0 0.03638509514846338 0.045664184748501598 0 0.034879959046083618 0.04546186781445747 0 0.035760254662029735 0.044714708952348151 0 0.034879959046083618 0.04546186781445747 0 0.035084572312742514 0.044130785615833862 0 0.034879959046083618 0.04546186781445747 0 0.035084572312742514 0.044130785615833862 0 0.034133534463080165 0.044023516917551575 0 0.035760254662029735 0.044714708952348151 0 0.035650182414012292 0.044163033606233998 0 0.035084572312742514 0.044130785615833862 0 0.035650182414012292 0.044163033606233998 0 0.035084572312742514 0.044130785615833862 0 0.03577985119313553 0.043609579606323765 0 0.035084572312742514 0.044130785615833862 0 0.035285566255866097 0.043275001809283183 0 0.03577985119313553 0.043609579606323765 0 0.035084572312742514 0.044130785615833862 0 0.035285566255866097 0.043275001809283183 0 0.034525606532942059 0.042996802935995941 0 0.035285566255866097 0.043275001809283183 0 0.035245619125521696 0.042383198081241184 0 0.034525606532942059 0.042996802935995941 0 0.035890568404664674 0.043194966547044307 0 0.035333842677460363 0.042496639746373417 0 0.035285566255866097 0.043275001809283183 0 0.036002860170776543 0.043221542017257766 0 0.035245619125521696 0.042383198081241184 0 0.035285566255866097 0.043275001809283183 0 0.03577985119313553 0.043609579606323765 0 0.036002860170776543 0.043221542017257766 0 0.036767536549737079 0.044036213182048957 0 0.03577985119313553 0.043609579606323765 0 0.036002860170776543 0.043221542017257766 0 0.035930136676785025 0.043078657545216753 0 0.036304243239079763 0.042573990823600645 0 0.035245619125521696 0.042383198081241184 0 0.036595886262045539 0.04380192981173528 0 0.035930136676785025 0.043078657545216753 0 0.0365577704501387 0.043256310533080759 0 0.035073867041926242 0.045495017758751699 0 0.035890568404664674 0.043194966547044307 0 0.036973505305575437 0.042863928488322593 0 0.0365577704501387 0.043256310533080759 0 0.036304243239079763 0.042573990823600645 0 0.035930136676785025 0.043078657545216753 0 0.0365577704501387 0.043256310533080759 0 0.036304243239079763 0.042573990823600645 0 0.036304243239079763 0.042573990823600645 0 0.036135106931327841 0.041914791980285686 0 0.035245619125521696 0.042383198081241184 0 0.036135106931327841 0.041914791980285686 0 0.035344236032271624 0.041455798109575989 0 0.036511711449561529 0.041194756078507158 0 0.036945349438734801 0.0420081649242703 0 0.036304243239079763 0.042573990823600645 0 0.036135106931327841 0.041914791980285686 0 0.036945349438734801 0.0420081649242703 0 0.036135106931327841 0.041914791980285686 0 0.036511711449561529 0.041194756078507158 0 0.036135106931327841 0.041914791980285686 0 0.035344236032271624 0.041455798109575989 0 0.035245619125521696 0.042383198081241184 0 0.035344236032271624 0.041455798109575989 0 0.035245619125521696 0.042383198081241184 0 0.034281610441227864 0.041899169958313415 0 0.040064852930536805 0.033921798414329095 0 0.039035189747629297 0.033890979402918187 0 0.035344236032271624 0.041455798109575989 0 0.035640589170671373 0.040510923973209378 0 0.034199303464381554 0.040836923035979703 0 0.035344236032271624 0.041455798109575989 0 0.035640589170671373 0.040510923973209378 0 0.036511711449561529 0.041194756078507158 0 0.035640589170671373 0.040510923973209378 0 0.036511711449561529 0.041194756078507158 0 0.037057470273059875 0.040168515658530669 0 0.040064852930536805 0.033921798414329095 0 0.040448823126337644 0.033244242809478887 0 0.044326780958464131 0.027261178514704252 0 0.044712006217907684 0.026784385489902363 0 0.044841235405959988 0.027176247528111021 0 0.044326780958464131 0.027261178514704252 0 0.044359330982396895 0.026714377945574023 0 0.044712006217907684 0.026784385489902363 0 0.044326780958464131 0.027261178514704252 0 0.044359330982396895 0.026714377945574023 0 0.043947866868289977 0.02674340472877472 0 0.044359330982396895 0.026714377945574023 0 0.044235651403532888 0.026361492250029192 0 0.043947866868289977 0.02674340472877472 0 0.044359330982396895 0.026714377945574023 0 0.044235651403532888 0.026361492250029192 0 0.04458785406439908 0.026368155789789127 0 0.044235651403532888 0.026361492250029192 0 0.044045618925871388 0.02599170500479106 0 0.044596997641680382 0.025531170180806726 0 0.04458785406439908 0.026368155789789127 0 0.045065247712549876 0.02646488491391474 0 0.044596997641680382 0.025531170180806726 0 0.045446165000873208 0.025239035512203047 0 0.044483190867971797 0.025881208871342799 0 0.044235651403532888 0.026361492250029192 0 0.04458785406439908 0.026368155789789127 0 0.044596997641680382 0.025531170180806726 0 0.044663401095937708 0.026612757292927083 0 0.044416368145645466 0.026440908166825639 0 0.04458785406439908 0.026368155789789127 0 0.044768414456652333 0.027040806416008558 0 0.045065247712549876 0.02646488491391474 0 0.044359330982396895 0.026714377945574023 0 0.04458785406439908 0.026368155789789127 0 0.044712006217907684 0.026784385489902363 0 0.044768414456652333 0.027040806416008558 0 0.045065247712549876 0.02646488491391474 0 0.045537108807560234 0.02763281853343235 0 0.045446165000873208 0.025239035512203047 0 0.039739412412674688 0.032007445026877267 0 0.044591906012167296 0.025800199366952575 0 0.044720046101096235 0.025898438881874718 0 0.044615629004712727 0.026115935352314538 0 0.044591906012167296 0.025800199366952575 0 0.044708668689515556 0.025742206501177384 0 0.044720046101096235 0.025898438881874718 0 0.044591906012167296 0.025800199366952575 0 0.044596997641680382 0.025531170180806726 0 0.044737898968902297 0.025587371511633355 0 0.044591906012167296 0.025800199366952575 0 0.044708668689515556 0.025742206501177384 0 0.044737898968902297 0.025587371511633355 0 0.044708668689515556 0.025742206501177384 0 0.044815289940766598 0.025745330394375831 0 0.044842976953214271 0.025535365340404383 0 0.044708668689515556 0.025742206501177384 0 0.044815289940766598 0.025745330394375831 0 0.044720046101096235 0.025898438881874718 0 0.044815289940766598 0.025745330394375831 0 0.044720046101096235 0.025898438881874718 0 0.044820627543560039 0.025918516673698551 0 0.044720046101096235 0.025898438881874718 0 0.044757272524780449 0.026074994094356152 0 0.044820627543560039 0.025918516673698551 0 0.03300697793571767 0.037154760427984414 0 0.035126951084644718 0.038031867325700026 0 0.034548996003211409 0.036808976815285006 0 0.039739412412674688 0.032007445026877267 0 0.040654140339553321 0.031278957357392542 0 0.044720046101096235 0.025898438881874718 0 0.044615629004712727 0.026115935352314538 0 0.044757272524780449 0.026074994094356152 0 0.044768414456652333 0.027040806416008558 0 0.045537108807560234 0.02763281853343235 0 0.045022598665238341 0.027750957839084628 0 0.044416368145645466 0.026440908166825639 0 0.040448823126337644 0.033244242809478887 0 0.039739412412674688 0.032007445026877267 0 0.040448823126337644 0.033244242809478887 0 0.040448823126337644 0.033244242809478887 0 0.036279539563546306 0.041263386410806915 0 0.035053955907640655 0.036878805521244326 0 0.033264626584828406 0.037295165518759443 0 0.034420263277431286 0.039938559035708067 0 0.036511711449561529 0.041194756078507158 0 0.037057470273059875 0.040168515658530669 0 0.037538601926491715 0.041348917469307744 0 0.034146147099025567 0.039630601821628135 0 0.03300697793571767 0.037154760427984414 0 0.035126951084644718 0.038031867325700026 0 0.03680947073653567 0.040597117613373888 0 0.035053955907640655 0.036878805521244326 0 0.034420263277431286 0.039938559035708067 0 0.029032095197294289 0.043507361560097192 0 0.039739412412674688 0.032007445026877267 0 0.029032095197294289 0.043507361560097192 0 0.028552194219314795 0.042632061058068507 0 0.023580704227247791 0.046280184333655612 0 0.022716841538956267 0.046199347480265787 0 0.023206271268059419 0.045332574733658308 0 0.023580704227247791 0.046280184333655612 0 0.023206271268059419 0.045332574733658308 0 0.024144887222197674 0.045371172042322029 0 0.024170694080761338 0.046316595927709467 0 0.023580704227247791 0.046280184333655612 0 0.024144887222197674 0.045371172042322029 0 0.024144887222197674 0.045371172042322029 0 0.02371292997410902 0.044454391779772333 0 0.025051816414574254 0.044115942119972378 0 0.023206271268059419 0.045332574733658308 0 0.024144887222197674 0.045371172042322029 0 0.02371292997410902 0.044454391779772333 0 0.044866523080618503 0.026059660739390308 0 0.044757272524780449 0.026074994094356152 0 0.044820627543560039 0.025918516673698551 0 0.035126951084644718 0.038031867325700026 0 0.036070279783788822 0.036442918656776395 0 0.034548996003211409 0.036808976815285006 0 0.033811786342265879 0.035047461879246358 0 0.040654140339553321 0.031278957357392542 0 0.028552194219314795 0.042632061058068507 0 0.033811786342265879 0.035047461879246358 0 0.044815289940766598 0.025745330394375831 0 0.044933669588650013 0.025752897853872418 0 0.044948234451804306 0.025551956411782335 0 0.044815289940766598 0.025745330394375831 0 0.044820627543560039 0.025918516673698551 0 0.044933669588650013 0.025752897853872418 0 0.044933669588650013 0.025752897853872418 0 0.044990418208399531 0.025866100243882171 0 0.045090612899119982 0.025693919082710268 0 0.044933669588650013 0.025752897853872418 0 0.045090612899119982 0.025693919082710268 0 0.044948234451804306 0.025551956411782335 0 0.030701731830690027 0.032524352162735415 0 0.030494157790616015 0.032799642721178052 0 0.030154544930343353 0.032643960034600031 0 0.044820627543560039 0.025918516673698551 0 0.044933669588650013 0.025752897853872418 0 0.044990418208399531 0.025866100243882171 0 0.044866523080618503 0.026059660739390308 0 0.044820627543560039 0.025918516673698551 0 0.044990418208399531 0.025866100243882171 0 0.033811786342265879 0.035047461879246358 0 0.020947454460093499 0.038112215591607962 0 0.033811786342265879 0.035047461879246358 0 0.039059393765176705 0.027628453653504869 0 0.030494157790616015 0.032799642721178052 0 0.030154544930343353 0.032643960034600031 0 0.03030878870909651 0.033063824512357752 0 0.039059393765176705 0.027628453653504869 0 0.030853147926629444 0.030612835644981105 0 0.020947454460093499 0.038112215591607962 0 0.030853147926629444 0.030612835644981105 0 0.01448783997559514 0.034171891180037779 0 0.014587874253136122 0.034702966694428579 0 0.014235080219046048 0.034468970614289302 0 0.014587874253136122 0.034702966694428579 0 0.014235080219046048 0.034468970614289302 0 0.013859134508341711 0.03472681622484642 0 0.014235080219046048 0.034468970614289302 0 0.013894395204600452 0.034288340806438264 0 0.013859134508341711 0.03472681622484642 0 0.020947454460093499 0.038112215591607962 0 0.014875331071365686 0.039878118595484208 0 0.01448783997559514 0.034171891180037779 0 0.014235080219046048 0.034468970614289302 0 0.013894395204600452 0.034288340806438264 0 0.018018448191915008 0.042271363201235597 0 0.020093277922757384 0.043744417734022788 0 0.019971288061079544 0.041817642185892047 0 0.018018448191915008 0.042271363201235597 0 0.018476274706640657 0.044336630635332379 0 0.020093277922757384 0.043744417734022788 0 0.024144887222197674 0.045371172042322029 0 0.025051816414574254 0.044115942119972378 0 0.025291926503863967 0.045491425504643301 0 0.020947454460093499 0.038112215591607962 0 0.022065887443000986 0.045996997278251156 0 0.024170694080761338 0.046316595927709467 0 0.024144887222197674 0.045371172042322029 0 0.025291926503863967 0.045491425504643301 0 0.018476274706640657 0.044336630635332379 0 0.020093277922757384 0.043744417734022788 0 0.020191741296943042 0.045638204573220965 0 0.034509602830908134 0.045686188082031058 0 0.034379113144016898 0.045797549313688173 0 0.034440693409882997 0.045913390035739687 0 0.034509602830908134 0.045686188082031058 0 0.034440693409882997 0.045913390035739687 0 0.035036302066273416 0.04576579425078918 0 0.034509602830908134 0.045686188082031058 0 0.035036302066273416 0.04576579425078918 0 0.034545033986044173 0.045510072025801748 0 0.036429011266953568 0.045381459274309512 0 0.03841273760263484 0.040714778193822833 0 0.034509602830908134 0.045686188082031058 0 0.034344670954185981 0.045773969892453852 0 0.034485179845223639 0.045695037861939208 0 0.034509602830908134 0.045686188082031058 0 0.034344670954185981 0.045773969892453852 0 0.034379113144016898 0.045797549313688173 0 0.034344670954185981 0.045773969892453852 0 0.034246701729642323 0.045854059146924656 0 0.034116854079736594 0.045960117276545281 0 0.034344670954185981 0.045773969892453852 0 0.034246701729642323 0.045854059146924656 0 0.034379113144016898 0.045797549313688173 0 0.034246701729642323 0.045854059146924656 0 0.034379113144016898 0.045797549313688173 0 0.034440693409882997 0.045913390035739687 0 0.044109601954851529 0.026844544956295343 0 0.043478318138062244 0.027003023657736734 0 0.043724984941567901 0.027080189677746131 0 0.034246701729642323 0.045854059146924656 0 0.034440693409882997 0.045913390035739687 0 0.03423694973843168 0.045838165810539573 0 0.038520556333445082 0.036755849293249702 0 0.039158017623537981 0.036345360253760207 0 0.038520556333445082 0.036755849293249702 0 0.04303890072777998 0.034004192744654584 0 0.044109601954851529 0.026844544956295343 0 0.044815986613562273 0.027018661542463636 0 0.044884539501039683 0.027234614400737971 0 0.046599921030724432 0.029467622445213806 0 0.044999932295280959 0.029821372304293402 0 0.044997676835640335 0.027937457598898416 0 0.04303890072777998 0.034004192744654584 0 0.044997410774116821 0.027933550572742036 0 0.044815986613562273 0.027018661542463636 0 0.044997099450997925 0.027931871242532682 0 0.044884539501039683 0.027234614400737971 0 0.04303890072777998 0.034004192744654584 0 0.04500455437572997 0.029820029189616844 0 0.045798614297926928 0.030636574148257691 0 0.044999935769604441 0.029821770496329933 0 0.044999946985893019 0.031323590231056672 0 0.046469049452171493 0.029660049629698093 0 0.045798614297926928 0.030636574148257691 0 0.044999935769604441 0.029821770496329933 0 0.04303890072777998 0.034004192744654584 0 0.03841273760263484 0.040714778193822833 0 0.046469049452171493 0.029660049629698093 0 0.045798614297926928 0.030636574148257691 0 0.046665534574522341 0.031485085798005401 0 0.046469049452171493 0.029660049629698093 0 0.046665534574522341 0.031485085798005401 0 0.048000428535041814 0.031221042011854064 0 0.046665534574522341 0.031485085798005401 0 0.046140274704389597 0.032937245576088216 0 0.047825513027100204 0.032387059436482221 0 0.045798614297926928 0.030636574148257691 0 0.046665534574522341 0.031485085798005401 0 0.045713872578089218 0.031987081529909055 0 0.044999946985893019 0.031323590231056672 0 0.045713872578089218 0.031987081529909055 0 0.044999959066830304 0.032825548601343665 0 0.045798614297926928 0.030636574148257691 0 0.044999946985893019 0.031323590231056672 0 0.045713872578089218 0.031987081529909055 0 0.046665534574522341 0.031485085798005401 0 0.045713872578089218 0.031987081529909055 0 0.046140274704389597 0.032937245576088216 0 0.046220231413554476 0.034657505967697753 0 0.046180333455493099 0.033166891666470924 0 0.044999932492115896 0.033434163206436593 0 0.044999917304848772 0.032825892059316866 0 0.046834244851078857 0.033984817060433686 0 0.045713872578089218 0.031987081529909055 0 0.044999959066830304 0.032825548601343665 0 0.046140274704389597 0.032937245576088216 0 0.046834244851078857 0.033984817060433686 0 0.045000266111484784 0.033433966013793601 0 0.045000004538939473 0.032825718187843522 0 0.046284851048761497 0.033034708610027753 0 0.044999999691297622 0.033433831781019496 0 0.045935766600716993 0.037325780435840707 0 0.040802860408031855 0.036553305145510688 0 0.040419808053421741 0.039118070817976892 0 0.046220231413554476 0.034657505967697753 0 0.046180333455493099 0.033166891666470924 0 0.047849423310733927 0.033518554398670797 0 0.046834244851078857 0.033984817060433686 0 0.040875021603106888 0.038667201339618117 0 0.046834244851078857 0.033984817060433686 0 0.039521422532949754 0.041258456571396249 0 0.034593484852833638 0.046257853167145896 0 0.034382609655891828 0.046404677683183133 0 0.034133299112217907 0.046339675214944274 0 0.039521422532949754 0.041258456571396249 0 0.033451860782555541 0.046913506897375196 0 0.034382609655891828 0.046404677683183133 0 0.034559100812372442 0.046470587221125507 0 0.034270452261854954 0.04654780963408281 0 0.039521422532949754 0.041258456571396249 0 0.040875021603106888 0.038667201339618117 0 0.034593484852833638 0.046257853167145896 0 0.034382609655891828 0.046404677683183133 0 0.034559100812372442 0.046470587221125507 0 0.040875021603106888 0.038667201339618117 0 0.03841273760263484 0.040714778193822833 0 0.046665534574522341 0.031485085798005401 0 0.047825513027100204 0.032387059436482221 0 0.048000428535041814 0.031221042011854064 0 0.038595880144515302 0.040637037296461599 0 0.038309003947880484 0.042508653174381454 0 0.036849573468705897 0.041207985791328519 0 0.040875021603106888 0.038667201339618117 0 0.034555388997175404 0.044727279857120855 0 0.03841273760263484 0.040714778193822833 0 0.034555388997175404 0.044727279857120855 0 0.034344670954185981 0.045773969892453852 0 0.034485179845223639 0.045695037861939208 0 0.034346717113145658 0.045672355934330375 0 0.034344670954185981 0.045773969892453852 0 0.034346717113145658 0.045672355934330375 0 0.034116854079736594 0.045960117276545281 0 0.034555388997175404 0.044727279857120855 0 0.033840507338214906 0.046080592733337554 0 0.033694231716127329 0.046087108761765444 0 0.034046825982112401 0.046441172074703552 0 0.034116854079736594 0.045960117276545281 0 0.034382609655891828 0.046404677683183133 0 0.034270452261854954 0.04654780963408281 0 0.034133299112217907 0.046339675214944274 0 0.034270452261854954 0.04654780963408281 0 0.034133299112217907 0.046339675214944274 0 0.034046825982112401 0.046441172074703552 0 0.034555388997175404 0.044727279857120855 0 0.034072315940364341 0.046772672725624589 0 0.034046825982112401 0.046441172074703552 0 0.034133796285960374 0.046283340248569442 0 0.034116854079736594 0.045960117276545281 0 0.034067209408401772 0.046625196049055025 0 0.034133299112217907 0.046339675214944274 0 0.034046825982112401 0.046441172074703552 0 0.034067209408401772 0.046625196049055025 0 0.034046825982112401 0.046441172074703552 0 0.034133796285960374 0.046283340248569442 0 0.034067209408401772 0.046625196049055025 0 0.034127948696092564 0.046484737747768387 0 0.034133796285960374 0.046283340248569442 0 0.034121399855771929 0.046566785981457415 0 0.034127948696092564 0.046484737747768387 0 0.034188099816596158 0.046304231964251985 0 0.034127948696092564 0.046484737747768387 0 0.034188099816596158 0.046304231964251985 0 0.034133796285960374 0.046283340248569442 0 0.034188099816596158 0.046304231964251985 0 0.034133796285960374 0.046283340248569442 0 0.034180230224517369 0.046096033278574249 0 0.034180230224517369 0.046096033278574249 0 0.034116854079736594 0.045960117276545281 0 0.0342082417033579 0.045934575718055863 0 0.034180230224517369 0.046096033278574249 0 0.034258905502558723 0.046115011331611201 0 0.0342082417033579 0.045934575718055863 0 0.034188099816596158 0.046304231964251985 0 0.034180230224517369 0.046096033278574249 0 0.034258905502558723 0.046115011331611201 0 0.034133796285960374 0.046283340248569442 0 0.034180230224517369 0.046096033278574249 0 0.034116854079736594 0.045960117276545281 0 0.034126456865664699 0.046707279504792615 0 0.034459837191546092 0.046415619365046332 0 0.034258814978071969 0.046363937592452803 0 0.034459837191546092 0.046415619365046332 0 0.034258814978071969 0.046363937592452803 0 0.034399980821330833 0.046149064493891397 0 0.034121399855771929 0.046566785981457415 0 0.034188099816596158 0.046304231964251985 0 0.034258814978071969 0.046363937592452803 0 0.034258814978071969 0.046363937592452803 0 0.034258905502558723 0.046115011331611201 0 0.034399980821330833 0.046149064493891397 0 0.034188099816596158 0.046304231964251985 0 0.034258814978071969 0.046363937592452803 0 0.034258905502558723 0.046115011331611201 0 0.034838786319545019 0.045868187206636678 0 0.034223210288143846 0.04493081563144375 0 0.035084572312742514 0.044130785615833862 0 0.034133534463080165 0.044023516917551575 0 0.034525606532942059 0.042996802935995941 0 0.034223210288143846 0.04493081563144375 0 0.033723688586207674 0.045216034939823055 0 0.034133534463080165 0.044023516917551575 0 0.034525606532942059 0.042996802935995941 0 0.033428328669813462 0.042575989315575428 0 0.034258905502558723 0.046115011331611201 0 0.034399980821330833 0.046149064493891397 0 0.034353124482088014 0.045905817588613354 0 0.034258905502558723 0.046115011331611201 0 0.034353124482088014 0.045905817588613354 0 0.0342082417033579 0.045934575718055863 0 0.033428328669813462 0.042575989315575428 0 0.034281610441227864 0.041899169958313415 0 0.032738431524614024 0.041164528573205336 0 0.033723688586207674 0.045216034939823055 0 0.038329859420556299 0.036530380609997914 0 0.034353124482088014 0.045905817588613354 0 0.0342082417033579 0.045934575718055863 0 0.034318731055503142 0.045738936689794382 0 0.034525606532942059 0.042996802935995941 0 0.033428328669813462 0.042575989315575428 0 0.034281610441227864 0.041899169958313415 0 0.035245619125521696 0.042383198081241184 0 0.034525606532942059 0.042996802935995941 0 0.034281610441227864 0.041899169958313415 0 0.034246701729642323 0.045854059146924656 0 0.034116854079736594 0.045960117276545281 0 0.0342082417033579 0.045934575718055863 0 0.0342082417033579 0.045934575718055863 0 0.03423694973843168 0.045838165810539573 0 0.034318731055503142 0.045738936689794382 0 0.034246701729642323 0.045854059146924656 0 0.0342082417033579 0.045934575718055863 0 0.03423694973843168 0.045838165810539573 0 0.043478318138062244 0.027003023657736734 0 0.043438816464709984 0.027130275717930651 0 0.043449643744909436 0.027128993423639166 0 0.043478318138062244 0.027003023657736734 0 0.043449643744909436 0.027128993423639166 0 0.043724984941567901 0.027080189677746131 0 0.043449643744909436 0.027128993423639166 0 0.04362218614080441 0.027170280475708797 0 0.043724984941567901 0.027080189677746131 0 0.043478318138062244 0.027003023657736734 0 0.043432714458943561 0.027207092117262157 0 0.043409641232409736 0.027208470184765566 0 0.043478318138062244 0.027003023657736734 0 0.043432714458943561 0.027207092117262157 0 0.043438816464709984 0.027130275717930651 0 0.039158017623537981 0.036345360253760207 0 0.038329859420556299 0.036530380609997914 0 0.038445878899734283 0.032239730178468352 0 0.038329859420556299 0.036530380609997914 0 0.043432714458943561 0.027207092117262157 0 0.043438816464709984 0.027130275717930651 0 0.043479001324509332 0.027111701956564767 0 0.043470549955513783 0.02701055692317899 0 0.043556246087614839 0.026776958118245684 0 0.043415438873649279 0.026979108724964007 0 0.043470549955513783 0.02701055692317899 0 0.043449643744909436 0.027128993423639166 0 0.043415438873649279 0.026979108724964007 0 0.043438816464709984 0.027130275717930651 0 0.043470549955513783 0.02701055692317899 0 0.043449643744909436 0.027128993423639166 0 0.043438816464709984 0.027130275717930651 0 0.043479001324509332 0.027111701956564767 0 0.043470549955513783 0.02701055692317899 0 0.043447405701202521 0.027129204051733448 0 0.043449643744909436 0.027128993423639166 0 0.043415438873649279 0.026979108724964007 0 0.043447405701202521 0.027129204051733448 0 0.043449643744909436 0.027128993423639166 0 0.04362218614080441 0.027170280475708797 0 0.035344236032271624 0.041455798109575989 0 0.034281610441227864 0.041899169958313415 0 0.034199303464381554 0.040836923035979703 0 0.034281610441227864 0.041899169958313415 0 0.034199303464381554 0.040836923035979703 0 0.032738431524614024 0.041164528573205336 0 0.039035189747629297 0.033890979402918187 0 0.038329859420556299 0.036530380609997914 0 0.043854989202374461 0.027324734055338626 0 0.043469105274954789 0.027317830922055805 0 0.04360434088688335 0.027083367789342356 0 0.043432714458943561 0.027207092117262157 0 0.043479001324509332 0.027111701956564767 0 0.04360434088688335 0.027083367789342356 0 0.043432714458943561 0.027207092117262157 0 0.043469105274954789 0.027317830922055805 0 0.04360434088688335 0.027083367789342356 0 0.04360434088688335 0.027083367789342356 0 0.043947866868289977 0.02674340472877472 0 0.043556246087614839 0.026776958118245684 0 0.043470549955513783 0.02701055692317899 0 0.04360434088688335 0.027083367789342356 0 0.043556246087614839 0.026776958118245684 0 0.043479001324509332 0.027111701956564767 0 0.043470549955513783 0.02701055692317899 0 0.04360434088688335 0.027083367789342356 0 0.043854989202374461 0.027324734055338626 0 0.04360434088688335 0.027083367789342356 0 0.043947866868289977 0.02674340472877472 0 0.044326780958464131 0.027261178514704252 0 0.043854989202374461 0.027324734055338626 0 0.043947866868289977 0.02674340472877472 0 0.043947866868289977 0.02674340472877472 0 0.043556246087614839 0.026776958118245684 0 0.043592879347523289 0.026306175129606691 0 0.043947866868289977 0.02674340472877472 0 0.043592879347523289 0.026306175129606691 0 0.044045618925871388 0.02599170500479106 0 0.044235651403532888 0.026361492250029192 0 0.043947866868289977 0.02674340472877472 0 0.044045618925871388 0.02599170500479106 0 0.043374741922878012 0.026660723506386801 0 0.043317968587928329 0.026980375290099477 0 0.043008804442520594 0.026735448337061068 0 0.043447405701202521 0.027129204051733448 0 0.043317968587928329 0.026980375290099477 0 0.043415438873649279 0.026979108724964007 0 0.043374741922878012 0.026660723506386801 0 0.043317968587928329 0.026980375290099477 0 0.043415438873649279 0.026979108724964007 0 0.043556246087614839 0.026776958118245684 0 0.043374741922878012 0.026660723506386801 0 0.043415438873649279 0.026979108724964007 0 0.043556246087614839 0.026776958118245684 0 0.043592879347523289 0.026306175129606691 0 0.043374741922878012 0.026660723506386801 0 0.043592879347523289 0.026306175129606691 0 0.043374741922878012 0.026660723506386801 0 0.043262014694574566 0.026277299291801625 0 0.044119263389366691 0.024617795802753868 0 0.04556568960862583 0.025008866255117179 0 0.043374741922878012 0.026660723506386801 0 0.043262014694574566 0.026277299291801625 0 0.043008804442520594 0.026735448337061068 0 0.045505084757067771 0.022897941649085703 0 0.04551935630928243 0.023052310026060042 0 0.045616150403067032 0.022988319383554556 0 0.04556568960862583 0.025008866255117179 0 0.046436515854901592 0.021671568853997018 0 0.048399478092198085 0.023766529183759978 0 0.049105108769391566 0.023979234937141002 0 0.048673514180127032 0.021943985598983189 0 0.048573311496187113 0.023977246774968146 0 0.04661127160740125 0.021519792948754436 0 0.048399478092198085 0.023766529183759978 0 0.047208787301076943 0.022355235781531809 0 0.048673514180127032 0.021943985598983189 0 0.048399478092198085 0.023766529183759978 0 0.047913032157353048 0.024536569549359243 0 0.046757782402042446 0.023946257980119894 0 0.047913032157353048 0.024536569549359243 0 0.049105108769391566 0.023979234937141002 0 0.049303396734173055 0.024994242089155141 0 0.047913032157353048 0.024536569549359243 0 0.049303396734173055 0.024994242089155141 0 0.047218683480520593 0.025636439177433645 0 0.048399478092198085 0.023766529183759978 0 0.047913032157353048 0.024536569549359243 0 0.049105108769391566 0.023979234937141002 0 0.043317968587928329 0.026980375290099477 0 0.043008804442520594 0.026735448337061068 0 0.043069939887236335 0.027033200821439941 0 0.04556568960862583 0.025008866255117179 0 0.045253025673072766 0.026100558771143104 0 0.042944359021283823 0.027032897004997974 0 0.045253025673072766 0.026100558771143104 0 0.043317968587928329 0.026980375290099477 0 0.043601388457261171 0.02724056818207881 0 0.043662346652894625 0.027299667861986655 0 0.043742044979748637 0.027500698751441795 0 0.043662346652894625 0.027299667861986655 0 0.044118460740845272 0.027203874232639876 0 0.043447405701202521 0.027129204051733448 0 0.04362218614080441 0.027170280475708797 0 0.043662346652894625 0.027299667861986655 0 0.043447405701202521 0.027129204051733448 0 0.043317968587928329 0.026980375290099477 0 0.043662346652894625 0.027299667861986655 0 0.04362218614080441 0.027170280475708797 0 0.043662346652894625 0.027299667861986655 0 0.044118460740845272 0.027203874232639876 0 0.045253025673072766 0.026100558771143104 0 0.04485534652766264 0.02683909150858586 0 0.045253025673072766 0.026100558771143104 0 0.046172036880592057 0.026476093035971791 0 0.043742044979748637 0.027500698751441795 0 0.044118460740845272 0.027203874232639876 0 0.044692607698762661 0.027387768390020027 0 0.044109601954851529 0.026844544956295343 0 0.044118460740845272 0.027203874232639876 0 0.044884539501039683 0.027234614400737971 0 0.044109601954851529 0.026844544956295343 0 0.044118460740845272 0.027203874232639876 0 0.043724984941567901 0.027080189677746131 0 0.04362218614080441 0.027170280475708797 0 0.044118460740845272 0.027203874232639876 0 0.043724984941567901 0.027080189677746131 0 0.044997099450997925 0.027931871242532682 0 0.044884539501039683 0.027234614400737971 0 0.044999734181929589 0.026398695806479307 0 0.044118460740845272 0.027203874232639876 0 0.044884539501039683 0.027234614400737971 0 0.044692607698762661 0.027387768390020027 0 0.044884539501039683 0.027234614400737971 0 0.044692607698762661 0.027387768390020027 0 0.044999734181929589 0.026398695806479307 0 0.046172036880592057 0.026476093035971791 0 0.044999589831692742 0.026393667779045105 0 0.047218683480520593 0.025636439177433645 0 0.044999947714204958 0.026393240967953532 0 0.044999963671975243 0.024617177083474447 0 0.047913032157353048 0.024536569549359243 0 0.047218683480520593 0.025636439177433645 0 0.046757782402042446 0.023946257980119894 0 0.047218683480520593 0.025636439177433645 0 0.044999963671975243 0.024617177083474447 0 0.046757782402042446 0.023946257980119894 0 0.048399478092198085 0.023766529183759978 0 0.046757782402042446 0.023946257980119894 0 0.047269699783027287 0.022305132074837506 0 0.046757782402042446 0.023946257980119894 0 0.04499996479899028 0.022841274980228976 0 0.047269699783027287 0.022305132074837506 0 0.044999963671975243 0.024617177083474447 0 0.046757782402042446 0.023946257980119894 0 0.04499996479899028 0.022841274980228976 0 0.044999996682309897 0.022840954770407016 0 0.044999985523973086 0.020992767687099984 0 0.046223022421889373 0.020639604221779666 0 0.045001394188186973 0.022841160497081577 0 0.04661127160740125 0.021519792948754436 0 0.044999996682309897 0.022840954770407016 0 0.047439587217087312 0.022121473654814573 0 0.046223022421889373 0.020639604221779666 0 0.04661127160740125 0.021519792948754436 0 0.045545139286999457 0.019758426654784826 0 0.044881647338443957 0.018892341433213541 0 0.044842800497657466 0.019198393535003581 0 0.045116896936260718 0.01924649571121597 0 0.044842800497657466 0.019198393535003581 0 0.04511067773651832 0.019318269112816464 0 0.044868382987491857 0.01945131967665761 0 0.044842800497657466 0.019198393535003581 0 0.045116896936260718 0.01924649571121597 0 0.04511067773651832 0.019318269112816464 0 0.044999985523973086 0.020992767687099984 0 0.046223022421889373 0.020639604221779666 0 0.045000000380275941 0.019144522385868012 0 0.045545139286999457 0.019758426654784826 0 0.045000315831442511 0.019144904100257411 0 0.045116896936260718 0.01924649571121597 0 0.045000015683171128 0.019143444486589049 0 0.04511067773651832 0.019318269112816464 0 0.04551935630928243 0.023052310026060042 0 0.045471107218149329 0.02305862335957207 0 0.045478162177207758 0.023057251034116332 0 0.04551935630928243 0.023052310026060042 0 0.045471107218149329 0.02305862335957207 0 0.045616150403067032 0.022988319383554556 0 0.045471107218149329 0.02305862335957207 0 0.045598619708678838 0.02289994038041086 0 0.045616150403067032 0.022988319383554556 0 0.045635789863672317 0.022177732999396099 0 0.046436515854901592 0.021671568853997018 0 0.045471107218149329 0.02305862335957207 0 0.045197675826866394 0.02320378792508913 0 0.045299737432791143 0.022699038877347692 0 0.044881647338443957 0.018892341433213541 0 0.044842800497657466 0.019198393535003581 0 0.044481112096865047 0.01897610371978576 0 0.04661127160740125 0.021519792948754436 0 0.046436515854901592 0.021671568853997018 0 0.044842800497657466 0.019198393535003581 0 0.044481112096865047 0.01897610371978576 0 0.044486365293819344 0.019314343065486676 0 0.045197675826866394 0.02320378792508913 0 0.044659659443605372 0.022227305923711586 0 0.045299737432791143 0.022699038877347692 0 0.046436515854901592 0.021671568853997018 0 0.044549378767471233 0.020589483422734998 0 0.044842800497657466 0.019198393535003581 0 0.044486365293819344 0.019314343065486676 0 0.044868382987491857 0.01945131967665761 0 0.045299737432791143 0.022699038877347692 0 0.0458546288867243 0.02271639502260334 0 0.045281419213331835 0.021234077789414121 0 0.044659659443605372 0.022227305923711586 0 0.045299737432791143 0.022699038877347692 0 0.045281419213331835 0.021234077789414121 0 0.045471107218149329 0.02305862335957207 0 0.045299737432791143 0.022699038877347692 0 0.045598619708678838 0.02289994038041086 0 0.045299737432791143 0.022699038877347692 0 0.0458546288867243 0.02271639502260334 0 0.045598619708678838 0.02289994038041086 0 0.0458546288867243 0.02271639502260334 0 0.045598619708678838 0.02289994038041086 0 0.045616150403067032 0.022988319383554556 0 0.0458546288867243 0.02271639502260334 0 0.045281419213331835 0.021234077789414121 0 0.046301740430172621 0.020694645988966292 0 0.045281419213331835 0.021234077789414121 0 0.04546400764764684 0.020138918259802432 0 0.046301740430172621 0.020694645988966292 0 0.045281419213331835 0.021234077789414121 0 0.044920570644953216 0.020401162962356598 0 0.04546400764764684 0.020138918259802432 0 0.044549378767471233 0.020589483422734998 0 0.044502215951891376 0.0204022806129368 0 0.044486365293819344 0.019314343065486676 0 0.04473878247382939 0.019773603824507512 0 0.044473292672244147 0.020247779586957559 0 0.044659659443605372 0.022227305923711586 0 0.045281419213331835 0.021234077789414121 0 0.044473292672244147 0.020247779586957559 0 0.044920570644953216 0.020401162962356598 0 0.044473292672244147 0.020247779586957559 0 0.044454146164711834 0.020121391508820214 0 0.045281419213331835 0.021234077789414121 0 0.044920570644953216 0.020401162962356598 0 0.044473292672244147 0.020247779586957559 0 0.044486365293819344 0.019314343065486676 0 0.04473878247382939 0.019773603824507512 0 0.044868382987491857 0.01945131967665761 0 0.04473878247382939 0.019773603824507512 0 0.044473292672244147 0.020247779586957559 0 0.044737241059479849 0.019966172350417911 0 0.044920570644953216 0.020401162962356598 0 0.044454146164711834 0.020121391508820214 0 0.04546400764764684 0.020138918259802432 0 0.046703409665826451 0.01686634726642141 0 0.046140553430907512 0.016411914242397543 0 0.047222389110757455 0.015355880491867167 0 0.045186500843736072 0.019191055607423551 0 0.045004264837738339 0.020165549806195813 0 0.044473292672244147 0.020247779586957559 0 0.044454146164711834 0.020121391508820214 0 0.044737241059479849 0.019966172350417911 0 0.045186500843736072 0.019191055607423551 0 0.044760824272772906 0.019508794197656391 0 0.044140765240502582 0.020192219287946334 0 0.04546400764764684 0.020138918259802432 0 0.046202813590188338 0.019625044172302687 0 0.045186500843736072 0.019191055607423551 0 0.047205559587943056 0.017461373086187188 0 0.046703409665826451 0.01686634726642141 0 0.047222389110757455 0.015355880491867167 0 0.04810719691748086 0.015518389936253971 0 0.04546400764764684 0.020138918259802432 0 0.046202813590188338 0.019625044172302687 0 0.046301740430172621 0.020694645988966292 0 0.04515383154265952 0.0191085208404074 0 0.045000015683171128 0.019143444486589049 0 0.04511067773651832 0.019318269112816464 0 0.04515383154265952 0.0191085208404074 0 0.044999846789975158 0.01834968903868291 0 0.045154644415571578 0.019523202298806913 0 0.04515383154265952 0.0191085208404074 0 0.044999846789975158 0.01834968903868291 0 0.045000015683171128 0.019143444486589049 0 0.04511067773651832 0.019318269112816464 0 0.044868382987491857 0.01945131967665761 0 0.045027200386812107 0.019517409594834369 0 0.04515383154265952 0.0191085208404074 0 0.04511067773651832 0.019318269112816464 0 0.045027200386812107 0.019517409594834369 0 0.04473878247382939 0.019773603824507512 0 0.044868382987491857 0.01945131967665761 0 0.045027200386812107 0.019517409594834369 0 0.04473878247382939 0.019773603824507512 0 0.045027200386812107 0.019517409594834369 0 0.044737241059479849 0.019966172350417911 0 0.045027200386812107 0.019517409594834369 0 0.045154644415571578 0.019523202298806913 0 0.044737241059479849 0.019966172350417911 0 0.04515383154265952 0.0191085208404074 0 0.045027200386812107 0.019517409594834369 0 0.045154644415571578 0.019523202298806913 0 0.044561392953978811 0.02021386100300394 0 0.045154644415571578 0.019523202298806913 0 0.044737241059479849 0.019966172350417911 0 0.046703409665826451 0.01686634726642141 0 0.045903649958509596 0.017458586358266387 0 0.046140553430907512 0.016411914242397543 0 0.045186500843736072 0.019191055607423551 0 0.045443808175008149 0.018472355832408787 0 0.044999773971299194 0.018346368057158124 0 0.045903649958509596 0.017458586358266387 0 0.044999965305181765 0.017444516341269149 0 0.044999734816151042 0.018347785678438689 0 0.045443808175008149 0.018472355832408787 0 0.046358631940397778 0.016253760882141154 0 0.045052927697649917 0.017252415812756883 0 0.04664634758173046 0.01604992154810643 0 0.044999934410636863 0.017443376445843085 0 0.045798003326291338 0.016008290799869616 0 0.045903649958509596 0.017458586358266387 0 0.046140553430907512 0.016411914242397543 0 0.044999965305181765 0.017444516341269149 0 0.044999777214837541 0.015735401360274237 0 0.045798003326291338 0.016008290799869616 0 0.046453862094128946 0.014864487465618321 0 0.044999934410636863 0.017443376445843085 0 0.044999777214837541 0.015735401360274237 0 0.045798003326291338 0.016008290799869616 0 0.044999777214837541 0.015735401360274237 0 0.045997516394167992 0.01371481293736419 0 0.046453862094128946 0.014864487465618321 0 0.044999777214837541 0.015735401360274237 0 0.045997516394167992 0.01371481293736419 0 0.044999731257831237 0.013124126730959815 0 0.046453862094128946 0.014864487465618321 0 0.047566451856241074 0.01395746180133592 0 0.04703563899582297 0.013251052649458412 0 0.045997516394167992 0.01371481293736419 0 0.046453862094128946 0.014864487465618321 0 0.04703563899582297 0.013251052649458412 0 0.04664634758173046 0.01604992154810643 0 0.046453862094128946 0.014864487465618321 0 0.047159867471271981 0.014905720268764938 0 0.04664634758173046 0.01604992154810643 0 0.045798003326291338 0.016008290799869616 0 0.046453862094128946 0.014864487465618321 0 0.04664634758173046 0.01604992154810643 0 0.047926644118246098 0.01475620055668404 0 0.047159867471271981 0.014905720268764938 0 0.046453862094128946 0.014864487465618321 0 0.047159867471271981 0.014905720268764938 0 0.047566451856241074 0.01395746180133592 0 0.046358631940397778 0.016253760882141154 0 0.047569289223007565 0.015057402222553622 0 0.047926644118246098 0.01475620055668404 0 0.047159867471271981 0.014905720268764938 0 0.047566451856241074 0.01395746180133592 0 0.047222389110757455 0.015355880491867167 0 0.048462296687827221 0.014169494280711866 0 0.04810719691748086 0.015518389936253971 0 0.047926644118246098 0.01475620055668404 0 0.048256937522765712 0.013670493080147103 0 0.048913792108996212 0.013651950645871479 0 0.047569289223007565 0.015057402222553622 0 0.048711873202993354 0.013904786614597901 0 0.047926644118246098 0.01475620055668404 0 0.048256937522765712 0.013670493080147103 0 0.047566451856241074 0.01395746180133592 0 0.048256937522765712 0.013670493080147103 0 0.048022663851092634 0.012895656198459426 0 0.047566451856241074 0.01395746180133592 0 0.048256937522765712 0.013670493080147103 0 0.048022663851092634 0.012895656198459426 0 0.048687507626213523 0.012842633325220074 0 0.048022663851092634 0.012895656198459426 0 0.047566451856241074 0.01395746180133592 0 0.04703563899582297 0.013251052649458412 0 0.047877550367828994 0.011351722792880258 0 0.046354215675705586 0.011712741068697598 0 0.04703563899582297 0.013251052649458412 0 0.048022663851092634 0.012895656198459426 0 0.047877550367828994 0.011351722792880258 0 0.04703563899582297 0.013251052649458412 0 0.048022663851092634 0.012895656198459426 0 0.048441489640024045 0.011825847000613527 0 0.048687507626213523 0.012842633325220074 0 0.048022663851092634 0.012895656198459426 0 0.048441489640024045 0.011825847000613527 0 0.047877550367828994 0.011351722792880258 0 0.048441489640024045 0.011825847000613527 0 0.047877550367828994 0.011351722792880258 0 0.048853911615384563 0.010155738645214837 0 0.047877550367828994 0.011351722792880258 0 0.046354215675705586 0.011712741068697598 0 0.04722029494634452 0.010177213315159533 0 0.046354215675705586 0.011712741068697598 0 0.044999731257831237 0.013124126730959815 0 0.044999776938228576 0.010513102540022204 0 0.045997516394167992 0.01371481293736419 0 0.046354215675705586 0.011712741068697598 0 0.044999731257831237 0.013124126730959815 0 0.045997516394167992 0.01371481293736419 0 0.046354215675705586 0.011712741068697598 0 0.04703563899582297 0.013251052649458412 0 0.050283235253326931 0.011718455486622006 0 0.050243972782448194 0.010695289058922705 0 0.049652697853527709 0.011753360637891955 0 0.050243972782448194 0.010695289058922705 0 0.049483280520636372 0.010507036138823655 0 0.049652697853527709 0.011753360637891955 0 0.050283235253326931 0.011718455486622006 0 0.050243972782448194 0.010695289058922705 0 0.050958590171458651 0.010907185593850866 0 0.050243972782448194 0.010695289058922705 0 0.050993397922674384 0.0096484198184268472 0 0.050046887073331721 0.0094923405392457159 0 0.050243972782448194 0.010695289058922705 0 0.050958590171458651 0.010907185593850866 0 0.050993397922674384 0.0096484198184268472 0 0.050243972782448194 0.010695289058922705 0 0.049483280520636372 0.010507036138823655 0 0.050046887073331721 0.0094923405392457159 0 0.048441489640024045 0.011825847000613527 0 0.049048748571559109 0.011692143264279866 0 0.048853911615384563 0.010155738645214837 0 0.049483280520636372 0.010507036138823655 0 0.049048748571559109 0.011692143264279866 0 0.048853911615384563 0.010155738645214837 0 0.048441489640024045 0.011825847000613527 0 0.049048748571559109 0.011692143264279866 0 0.048687507626213523 0.012842633325220074 0 0.049048748571559109 0.011692143264279866 0 0.049211783271325346 0.012631454195236563 0 0.048687507626213523 0.012842633325220074 0 0.049048748571559109 0.011692143264279866 0 0.049652697853527709 0.011753360637891955 0 0.049211783271325346 0.012631454195236563 0 0.049483280520636372 0.010507036138823655 0 0.049048748571559109 0.011692143264279866 0 0.049652697853527709 0.011753360637891955 0 0.049652697853527709 0.011753360637891955 0 0.04971918179034851 0.012919962079818588 0 0.049211783271325346 0.012631454195236563 0 0.04971918179034851 0.012919962079818588 0 0.049211783271325346 0.012631454195236563 0 0.048913792108996212 0.013651950645871479 0 0.048256937522765712 0.013670493080147103 0 0.048687507626213523 0.012842633325220074 0 0.048913792108996212 0.013651950645871479 0 0.049211783271325346 0.012631454195236563 0 0.048687507626213523 0.012842633325220074 0 0.048913792108996212 0.013651950645871479 0 0.048462296687827221 0.014169494280711866 0 0.049627481114001983 0.01383370130660432 0 0.04810719691748086 0.015518389936253971 0 0.048619067254286122 0.016633603069951625 0 0.047205559587943056 0.017461373086187188 0 0.04971918179034851 0.012919962079818588 0 0.048462296687827221 0.014169494280711866 0 0.049627481114001983 0.01383370130660432 0 0.049698573844075555 0.013079513197986623 0 0.048711873202993354 0.013904786614597901 0 0.048619067254286122 0.016633603069951625 0 0.050661364059388939 0.015162544236353298 0 0.04971918179034851 0.012919962079818588 0 0.049627481114001983 0.01383370130660432 0 0.050686353204522056 0.012402272121135156 0 0.048090526054107366 0.019182175021703555 0 0.049361526368247893 0.018825653205405239 0 0.048728010015419432 0.019876341615511991 0 0.050283235253326931 0.011718455486622006 0 0.049652697853527709 0.011753360637891955 0 0.04971918179034851 0.012919962079818588 0 0.050283235253326931 0.011718455486622006 0 0.04971918179034851 0.012919962079818588 0 0.050686353204522056 0.012402272121135156 0 0.050283235253326931 0.011718455486622006 0 0.050686353204522056 0.012402272121135156 0 0.050958590171458651 0.010907185593850866 0 0.046620992020445874 0.022324776079938668 0 0.046711768244368651 0.022125386498125781 0 0.049580890795413536 0.019081830250271221 0 0.049361526368247893 0.018825653205405239 0 0.048728010015419432 0.019876341615511991 0 0.044289004702139742 0.024507244852206476 0 0.044239656632892414 0.024559649228432859 0 0.044383140927377794 0.024486556552849707 0 0.044252899532565663 0.024386746311258395 0 0.044289004702139742 0.024507244852206476 0 0.044506103744585024 0.024609106970563129 0 0.044289004702139742 0.024507244852206476 0 0.044239656632892414 0.024559649228432859 0 0.044506103744585024 0.024609106970563129 0 0.044239656632892414 0.024559649228432859 0 0.044506103744585024 0.024609106970563129 0 0.044605016324446869 0.024188830558628981 0 0.044506103744585024 0.024609106970563129 0 0.044605016324446869 0.024188830558628981 0 0.045265973335939937 0.024109550766261652 0 0.044239656632892414 0.024559649228432859 0 0.044605016324446869 0.024188830558628981 0 0.044124938478173566 0.02465297571539489 0 0.048090526054107366 0.019182175021703555 0 0.046202813590188338 0.019625044172302687 0 0.047424680992949254 0.020026656735944844 0 0.046202813590188338 0.019625044172302687 0 0.047424680992949254 0.020026656735944844 0 0.046301740430172621 0.020694645988966292 0 0.048090526054107366 0.019182175021703555 0 0.048728010015419432 0.019876341615511991 0 0.047424680992949254 0.020026656735944844 0 0.048728010015419432 0.019876341615511991 0 0.047424680992949254 0.020026656735944844 0 0.047575695301637216 0.021044849305437645 0 0.046711768244368651 0.022125386498125781 0 0.046339504771132398 0.022594350388870151 0 0.044605016324446869 0.024188830558628981 0 0.045265973335939937 0.024109550766261652 0 0.045330997634393501 0.023280970175140345 0 0.0458546288867243 0.02271639502260334 0 0.047575695301637216 0.021044849305437645 0 0.046301740430172621 0.020694645988966292 0 0.047424680992949254 0.020026656735944844 0 0.047575695301637216 0.021044849305437645 0 0.046301740430172621 0.020694645988966292 0 0.045873445839940456 0.0227631084092835 0 0.046339504771132398 0.022594350388870151 0 0.0458546288867243 0.02271639502260334 0 0.045330997634393501 0.023280970175140345 0 0.045616150403067032 0.022988319383554556 0 0.0458546288867243 0.02271639502260334 0 0.045265973335939937 0.024109550766261652 0 0.045330997634393501 0.023280970175140345 0 0.044605016324446869 0.024188830558628981 0 0.045330997634393501 0.023280970175140345 0 0.044721891014278557 0.023327533565343145 0 0.045505084757067771 0.022897941649085703 0 0.045330997634393501 0.023280970175140345 0 0.044721891014278557 0.023327533565343145 0 0.044119263389366691 0.024617795802753868 0 0.044209863594988942 0.024461119344063368 0 0.043592879347523289 0.026306175129606691 0 0.043262014694574566 0.026277299291801625 0 0.043480988036622106 0.025608317046645866 0 0.045505084757067771 0.022897941649085703 0 0.045330997634393501 0.023280970175140345 0 0.045616150403067032 0.022988319383554556 0 0.044045618925871388 0.02599170500479106 0 0.043480988036622106 0.025608317046645866 0 0.044285942090634509 0.025367607401891732 0 0.044124938478173566 0.02465297571539489 0 0.043480988036622106 0.025608317046645866 0 0.044285942090634509 0.025367607401891732 0 0.04413470625502644 0.024597744610849598 0 0.044209863594988942 0.024461119344063368 0 0.044605016324446869 0.024188830558628981 0 0.044124938478173566 0.02465297571539489 0 0.044721891014278557 0.023327533565343145 0 0.043592879347523289 0.026306175129606691 0 0.044045618925871388 0.02599170500479106 0 0.043480988036622106 0.025608317046645866 0 0.044045618925871388 0.02599170500479106 0 0.044285942090634509 0.025367607401891732 0 0.044596997641680382 0.025531170180806726 0 0.044124938478173566 0.02465297571539489 0 0.044285942090634509 0.025367607401891732 0 0.044360704656756497 0.024705244092110942 0 0.044285942090634509 0.025367607401891732 0 0.044685117629493711 0.025111777676170115 0 0.044360704656756497 0.024705244092110942 0 0.044285942090634509 0.025367607401891732 0 0.044685117629493711 0.025111777676170115 0 0.044596997641680382 0.025531170180806726 0 0.044685117629493711 0.025111777676170115 0 0.044596997641680382 0.025531170180806726 0 0.044737898968902297 0.025587371511633355 0 0.044708668689515556 0.025742206501177384 0 0.044737898968902297 0.025587371511633355 0 0.044842976953214271 0.025535365340404383 0 0.044737898968902297 0.025587371511633355 0 0.044842976953214271 0.025535365340404383 0 0.044860381242541006 0.025304470526798142 0 0.044842976953214271 0.025535365340404383 0 0.044860381242541006 0.025304470526798142 0 0.044914339469422776 0.025317008666182382 0 0.044685117629493711 0.025111777676170115 0 0.044737898968902297 0.025587371511633355 0 0.044860381242541006 0.025304470526798142 0 0.044685117629493711 0.025111777676170115 0 0.044860381242541006 0.025304470526798142 0 0.044848388468278898 0.024838169293247524 0 0.044685117629493711 0.025111777676170115 0 0.044848388468278898 0.024838169293247524 0 0.044599234062424886 0.024589302700402695 0 0.044860381242541006 0.025304470526798142 0 0.044701143739585072 0.025042449996502004 0 0.044914339469422776 0.025317008666182382 0 0.04485022356991207 0.025346678241914472 0 0.045018771750335071 0.024666098993047815 0 0.044860381242541006 0.025304470526798142 0 0.044848388468278898 0.024838169293247524 0 0.045221508369571589 0.02470719470933164 0 0.044848388468278898 0.024838169293247524 0 0.044599234062424886 0.024589302700402695 0 0.044881209794003313 0.024259171375418876 0 0.044848388468278898 0.024838169293247524 0 0.045221508369571589 0.02470719470933164 0 0.044881209794003313 0.024259171375418876 0 0.044599234062424886 0.024589302700402695 0 0.044383140927377794 0.024486556552849707 0 0.044544228439602582 0.024303579855695954 0 0.044599234062424886 0.024589302700402695 0 0.044383140927377794 0.024486556552849707 0 0.044360704656756497 0.024705244092110942 0 0.044239656632892414 0.024559649228432859 0 0.044383140927377794 0.024486556552849707 0 0.044360704656756497 0.024705244092110942 0 0.044239656632892414 0.024559649228432859 0 0.044124938478173566 0.02465297571539489 0 0.044360704656756497 0.024705244092110942 0 0.044685117629493711 0.025111777676170115 0 0.044599234062424886 0.024589302700402695 0 0.044360704656756497 0.024705244092110942 0 0.014197972404216349 0.035048624665884945 0 0.013887278102839032 0.035249902789374156 0 0.0137156563369264 0.03503079182149095 0 0.014197972404216349 0.035048624665884945 0 0.0137156563369264 0.03503079182149095 0 0.013859134508341711 0.03472681622484642 0 0.014587874253136122 0.034702966694428579 0 0.014197972404216349 0.035048624665884945 0 0.013859134508341711 0.03472681622484642 0 0.030853147926629444 0.030612835644981105 0 0.040767446251746449 0.026811849085378248 0 0.034360592208992159 0.030596160574970301 0 0.0351988692915726 0.029265597507737186 0 0.034065680320088956 0.02889468498596658 0 0.030853147926629444 0.030612835644981105 0 0.023745393622834184 0.032831683460193981 0 0.0351988692915726 0.029265597507737186 0 0.034065680320088956 0.02889468498596658 0 0.034859264055189791 0.028517724039632375 0 0.034065680320088956 0.02889468498596658 0 0.034462614851725269 0.028340426811485957 0 0.034859264055189791 0.028517724039632375 0 0.034065680320088956 0.02889468498596658 0 0.034197241658161799 0.028623274054430835 0 0.034462614851725269 0.028340426811485957 0 0.045115546411585258 0.025360445180284717 0 0.044948234451804306 0.025551956411782335 0 0.044914339469422776 0.025317008666182382 0 0.045090612899119982 0.025693919082710268 0 0.045115546411585258 0.025360445180284717 0 0.044948234451804306 0.025551956411782335 0 0.044842976953214271 0.025535365340404383 0 0.044948234451804306 0.025551956411782335 0 0.044914339469422776 0.025317008666182382 0 0.044815289940766598 0.025745330394375831 0 0.044842976953214271 0.025535365340404383 0 0.044948234451804306 0.025551956411782335 0 0.044701143739585072 0.025042449996502004 0 0.044914339469422776 0.025317008666182382 0 0.045119237568189884 0.024994857778360535 0 0.044701143739585072 0.025042449996502004 0 0.045119237568189884 0.024994857778360535 0 0.044910276181491814 0.024743758840941189 0 0.033759397288634307 0.026961641903142416 0 0.034057108964528168 0.026646150219566889 0 0.03389388581520527 0.026143279037206306 0 0.033759397288634307 0.026961641903142416 0 0.034160486153011482 0.027060884629139942 0 0.034057108964528168 0.026646150219566889 0 0.034251592725073443 0.028557356606132706 0 0.034513081153723292 0.026471257188149119 0 0.045115546411585258 0.025360445180284717 0 0.044914339469422776 0.025317008666182382 0 0.045119237568189884 0.024994857778360535 0 0.034197241658161799 0.028623274054430835 0 0.034868302170914453 0.026883044767353724 0 0.035141442476218615 0.02660003971269043 0 0.034197241658161799 0.028623274054430835 0 0.033759397288634307 0.026961641903142416 0 0.034291509668525476 0.027650211867948939 0 0.040767446251746449 0.026811849085378248 0 0.039896142743914384 0.025876409467081161 0 0.034065680320088956 0.02889468498596658 0 0.034197241658161799 0.028623274054430835 0 0.034868302170914453 0.026883044767353724 0 0.034197241658161799 0.028623274054430835 0 0.034462614851725269 0.028340426811485957 0 0.034291509668525476 0.027650211867948939 0 0.034462614851725269 0.028340426811485957 0 0.034859264055189791 0.028517724039632375 0 0.034845369548463817 0.027690013321176536 0 0.034462614851725269 0.028340426811485957 0 0.034845369548463817 0.027690013321176536 0 0.034291509668525476 0.027650211867948939 0 0.033759397288634307 0.026961641903142416 0 0.034291509668525476 0.027650211867948939 0 0.034160486153011482 0.027060884629139942 0 0.034291509668525476 0.027650211867948939 0 0.034420069269054845 0.027220958329276908 0 0.034160486153011482 0.027060884629139942 0 0.034845369548463817 0.027690013321176536 0 0.034291509668525476 0.027650211867948939 0 0.034420069269054845 0.027220958329276908 0 0.034420069269054845 0.027220958329276908 0 0.034280723840014536 0.02679370076645142 0 0.034743788077139057 0.02668060170230829 0 0.034420069269054845 0.027220958329276908 0 0.034160486153011482 0.027060884629139942 0 0.034280723840014536 0.02679370076645142 0 0.034160486153011482 0.027060884629139942 0 0.034280723840014536 0.02679370076645142 0 0.034057108964528168 0.026646150219566889 0 0.034280723840014536 0.02679370076645142 0 0.034743788077139057 0.02668060170230829 0 0.034272075499334406 0.026311703734442176 0 0.034280723840014536 0.02679370076645142 0 0.034057108964528168 0.026646150219566889 0 0.034272075499334406 0.026311703734442176 0 0.034845369548463817 0.027690013321176536 0 0.034420069269054845 0.027220958329276908 0 0.034743788077139057 0.02668060170230829 0 0.034845369548463817 0.027690013321176536 0 0.035747798200408243 0.026715331608394868 0 0.03604890067639633 0.027923453010839219 0 0.034845369548463817 0.027690013321176536 0 0.034743788077139057 0.02668060170230829 0 0.035747798200408243 0.026715331608394868 0 0.023745393622834184 0.032831683460193981 0 0.025070322956958834 0.031444642700883957 0 0.0351988692915726 0.029265597507737186 0 0.034859264055189791 0.028517724039632375 0 0.03604890067639633 0.027923453010839219 0 0.034859264055189791 0.028517724039632375 0 0.034845369548463817 0.027690013321176536 0 0.03604890067639633 0.027923453010839219 0 0.035629173637190932 0.024802659844815344 0 0.035298975897521595 0.025791892153285582 0 0.036396731566186967 0.025477774790368772 0 0.035629173637190932 0.024802659844815344 0 0.035298975897521595 0.025791892153285582 0 0.034544602045890299 0.025113487515384097 0 0.035747798200408243 0.026715331608394868 0 0.035298975897521595 0.025791892153285582 0 0.036396731566186967 0.025477774790368772 0 0.034743788077139057 0.02668060170230829 0 0.035747798200408243 0.026715331608394868 0 0.035298975897521595 0.025791892153285582 0 0.035298975897521595 0.025791892153285582 0 0.034612769759371699 0.025900144056774769 0 0.034544602045890299 0.025113487515384097 0 0.034743788077139057 0.02668060170230829 0 0.035298975897521595 0.025791892153285582 0 0.034612769759371699 0.025900144056774769 0 0.034272075499334406 0.026311703734442176 0 0.034092404844990355 0.025652254064251829 0 0.03389388581520527 0.026143279037206306 0 0.034743788077139057 0.02668060170230829 0 0.034612769759371699 0.025900144056774769 0 0.034272075499334406 0.026311703734442176 0 0.034057108964528168 0.026646150219566889 0 0.034272075499334406 0.026311703734442176 0 0.03389388581520527 0.026143279037206306 0 0.034612769759371699 0.025900144056774769 0 0.034272075499334406 0.026311703734442176 0 0.034092404844990355 0.025652254064251829 0 0.034612769759371699 0.025900144056774769 0 0.034092404844990355 0.025652254064251829 0 0.034544602045890299 0.025113487515384097 0 0.034092404844990355 0.025652254064251829 0 0.034049090382744215 0.025123022752182547 0 0.034544602045890299 0.025113487515384097 0 0.034049090382744215 0.025123022752182547 0 0.034544602045890299 0.025113487515384097 0 0.03409434978891878 0.024670559416242362 0 0.035629173637190932 0.024802659844815344 0 0.034544602045890299 0.025113487515384097 0 0.034864061962785874 0.024164814668546218 0 0.03409434978891878 0.024670559416242362 0 0.033899603338556607 0.023950901470836231 0 0.034864061962785874 0.024164814668546218 0 0.034544602045890299 0.025113487515384097 0 0.03409434978891878 0.024670559416242362 0 0.034864061962785874 0.024164814668546218 0 0.03944747371494714 0.025089823146388864 0 0.044769073751482154 0.018264353983076326 0 0.03494082233601644 0.02428190189975583 0 0.035439449985774703 0.023975678686613468 0 0.034472182814028404 0.021071771019748487 0 0.03409434978891878 0.024670559416242362 0 0.033454956090076426 0.025051468366669535 0 0.033899603338556607 0.023950901470836231 0 0.034092404844990355 0.025652254064251829 0 0.034049090382744215 0.025123022752182547 0 0.033454956090076426 0.025051468366669535 0 0.034049090382744215 0.025123022752182547 0 0.03409434978891878 0.024670559416242362 0 0.033454956090076426 0.025051468366669535 0 0.034092404844990355 0.025652254064251829 0 0.033454956090076426 0.025051468366669535 0 0.03389388581520527 0.026143279037206306 0 0.033759397288634307 0.026961641903142416 0 0.033454956090076426 0.025051468366669535 0 0.03389388581520527 0.026143279037206306 0 0.034868302170914453 0.026883044767353724 0 0.035141442476218615 0.02660003971269043 0 0.03494082233601644 0.02428190189975583 0 0.035141442476218615 0.02660003971269043 0 0.03494082233601644 0.02428190189975583 0 0.035439449985774703 0.023975678686613468 0 0.045119237568189884 0.024994857778360535 0 0.04512795851044743 0.024354842742413202 0 0.044910276181491814 0.024743758840941189 0 0.034513081153723292 0.026471257188149119 0 0.033522709083211727 0.025727113186197158 0 0.039896142743914384 0.025876409467081161 0 0.03944747371494714 0.025089823146388864 0 0.04512795851044743 0.024354842742413202 0 0.044910276181491814 0.024743758840941189 0 0.044627540800354089 0.024432799282595931 0 0.044701143739585072 0.025042449996502004 0 0.044910276181491814 0.024743758840941189 0 0.044627540800354089 0.024432799282595931 0 0.04542886257853182 0.024112680805762156 0 0.045612327070721506 0.023410561224432483 0 0.0452872640595657 0.023804814624568828 0 0.04512795851044743 0.024354842742413202 0 0.044627540800354089 0.024432799282595931 0 0.044749608005770096 0.023500265187924235 0 0.044706327753648141 0.02506005837012433 0 0.047168544404286625 0.020025347986430866 0 0.04512795851044743 0.024354842742413202 0 0.044979804186210497 0.023406659691467675 0 0.044749608005770096 0.023500265187924235 0 0.044769073751482154 0.018264353983076326 0 0.047168544404286625 0.020025347986430866 0 0.047168544404286625 0.020025347986430866 0 0.050824783852089002 0.0084439949027885711 0 0.049923215174470577 0.017855593995440608 0 0.046357069992116057 0.019104926151067819 0 0.048221875910309964 0.010006276690548202 0 0.050518690882916641 0.014862288899427648 0 0.050884299822846507 0.013159827490669651 0 0.049191370574909764 0.014047055766815126 0 0.050884299822846507 0.013159827490669651 0 0.049191370574909764 0.014047055766815126 0 0.050802046799585138 0.012770402476261628 0 0.052538403598750609 0.0048189383661857996 0 0.052578099066452236 0.004782671369928276 0 0.052488924007133668 0.0047328683924507267 0 0.050824783852089002 0.0084439949027885711 0 0.051898331196730423 0.0081021582752527858 0 0.052538403598750609 0.0048189383661857996 0 0.052578099066452236 0.004782671369928276 0 0.052608399593581961 0.0048898780808033513 0 0.044769073751482154 0.018264353983076326 0 0.050824783852089002 0.0084439949027885711 0 0.052406566089019654 0.0046987791183759533 0 0.052578099066452236 0.004782671369928276 0 0.052488924007133668 0.0047328683924507267 0 0.052406566089019654 0.0046987791183759533 0 0.052488924007133668 0.0047328683924507267 0 0.052409291470078279 0.0046695290021969262 0 0.042364772202880804 0.015794454227891688 0 0.04516160087270784 0.0074919467980564189 0 0.052406566089019654 0.0046987791183759533 0 0.052391894417425332 0.0047043220718276761 0 0.052409291470078279 0.0046695290021969262 0 0.05236202941357207 0.0044732456473012975 0 0.052106921394523026 0.0046884185741763061 0 0.051467379286867974 0.004474014675992153 0 0.05236202941357207 0.0044732456473012975 0 0.052409291470078279 0.0046695290021969262 0 0.052106921394523026 0.0046884185741763061 0 0.052409291470078279 0.0046695290021969262 0 0.052440135006437988 0.0047985167543852575 0 0.052106921394523026 0.0046884185741763061 0 0.052440135006437988 0.0047985167543852575 0 0.052106921394523026 0.0046884185741763061 0 0.052342213090106983 0.0049256331739541883 0 0.052488924007133668 0.0047328683924507267 0 0.052409291470078279 0.0046695290021969262 0 0.052440135006437988 0.0047985167543852575 0 0.052538403598750609 0.0048189383661857996 0 0.052488924007133668 0.0047328683924507267 0 0.052440135006437988 0.0047985167543852575 0 0.033255404466004591 0.023035330152370134 0 0.033899603338556607 0.023950901470836231 0 0.035018636776820974 0.022402353406362787 0 0.033522709083211727 0.025727113186197158 0 0.042364772202880804 0.015794454227891688 0 0.035439449985774703 0.023975678686613468 0 0.034472182814028404 0.021071771019748487 0 0.035267274800086242 0.020787303217416744 0 0.033454956090076426 0.025051468366669535 0 0.033255404466004591 0.023035330152370134 0 0.033899603338556607 0.023950901470836231 0 0.044769073751482154 0.018264353983076326 0 0.042364772202880804 0.015794454227891688 0 0.033899603338556607 0.023950901470836231 0 0.034864061962785874 0.024164814668546218 0 0.035018636776820974 0.022402353406362787 0 0.042364772202880804 0.015794454227891688 0 0.043398925830326951 0.013311333588072526 0 0.052106921394523026 0.0046884185741763061 0 0.051467379286867974 0.004474014675992153 0 0.051903089479173485 0.0049262040404497703 0 0.043398925830326951 0.013311333588072526 0 0.043441380594360098 0.011967981562542626 0 0.035018636776820974 0.022402353406362787 0 0.035753880567550557 0.02382804442409938 0 0.036328597012248949 0.022946858461366848 0 0.035018636776820974 0.022402353406362787 0 0.03688389416610563 0.021659005096102135 0 0.036328597012248949 0.022946858461366848 0 0.035753880567550557 0.02382804442409938 0 0.036578339042562601 0.024302683615343459 0 0.036328597012248949 0.022946858461366848 0 0.034864061962785874 0.024164814668546218 0 0.035018636776820974 0.022402353406362787 0 0.035753880567550557 0.02382804442409938 0 0.035629173637190932 0.024802659844815344 0 0.034864061962785874 0.024164814668546218 0 0.035753880567550557 0.02382804442409938 0 0.035629173637190932 0.024802659844815344 0 0.035753880567550557 0.02382804442409938 0 0.036578339042562601 0.024302683615343459 0 0.050661364059388939 0.015162544236353298 0 0.048112635752222237 0.017652517892992756 0 0.046620992020445874 0.022324776079938668 0 0.048112635752222237 0.017652517892992756 0 0.050686353204522056 0.012402272121135156 0 0.051460005879606315 0.011429035544922818 0 0.050958590171458651 0.010907185593850866 0 0.049580890795413536 0.019081830250271221 0 0.049361526368247893 0.018825653205405239 0 0.050245934472555556 0.018502477421394763 0 0.044252899532565663 0.024386746311258395 0 0.044533132157856758 0.023939747565349907 0 0.044544228439602582 0.024303579855695954 0 0.044252899532565663 0.024386746311258395 0 0.044383140927377794 0.024486556552849707 0 0.044544228439602582 0.024303579855695954 0 0.044252899532565663 0.024386746311258395 0 0.044289004702139742 0.024507244852206476 0 0.044383140927377794 0.024486556552849707 0 0.044533132157856758 0.023939747565349907 0 0.044544228439602582 0.024303579855695954 0 0.044881209794003313 0.024259171375418876 0 0.044599234062424886 0.024589302700402695 0 0.044544228439602582 0.024303579855695954 0 0.044881209794003313 0.024259171375418876 0 0.045018771750335071 0.024666098993047815 0 0.044706327753648141 0.02506005837012433 0 0.04542886257853182 0.024112680805762156 0 0.044881209794003313 0.024259171375418876 0 0.045126774537809118 0.023993442407004826 0 0.045221508369571589 0.02470719470933164 0 0.04542886257853182 0.024112680805762156 0 0.044881209794003313 0.024259171375418876 0 0.04542886257853182 0.024112680805762156 0 0.045126774537809118 0.023993442407004826 0 0.0452872640595657 0.023804814624568828 0 0.045126774537809118 0.023993442407004826 0 0.0452872640595657 0.023804814624568828 0 0.045004392888843961 0.023678897830714977 0 0.044533132157856758 0.023939747565349907 0 0.044881209794003313 0.024259171375418876 0 0.045004392888843961 0.023678897830714977 0 0.048112635752222237 0.017652517892992756 0 0.046253101143109217 0.019914448792341995 0 0.044881209794003313 0.024259171375418876 0 0.045126774537809118 0.023993442407004826 0 0.045004392888843961 0.023678897830714977 0 0.050217521890984766 0.012398487011099808 0 0.050789159798592581 0.012161731548775406 0 0.046289975145282602 0.016375311186237921 0 0.047696212215029642 0.015258620591599766 0 0.04830552254553435 0.015634026814217456 0 0.047696212215029642 0.015258620591599766 0 0.04830552254553435 0.015634026814217456 0 0.049191370574909764 0.014047055766815126 0 0.050518690882916641 0.014862288899427648 0 0.04830552254553435 0.015634026814217456 0 0.049191370574909764 0.014047055766815126 0 0.045612327070721506 0.023410561224432483 0 0.0452872640595657 0.023804814624568828 0 0.045004392888843961 0.023678897830714977 0 0.047168544404286625 0.020025347986430866 0 0.046253101143109217 0.019914448792341995 0 0.050789159798592581 0.012161731548775406 0 0.051898331196730423 0.0081021582752527858 0 0.052744032104625485 0.0095581991102430316 0 0.052502645543192686 0.0079928635259839172 0 0.053828009597586803 0.0084724767611256101 0 0.052744032104625485 0.0095581991102430316 0 0.051949417277225664 0.0090431202894486959 0 0.052502645543192686 0.0079928635259839172 0 0.051990344707761302 0.010575027212714286 0 0.051949417277225664 0.0090431202894486959 0 0.051469747994203091 0.0098685416046604708 0 0.051990344707761302 0.010575027212714286 0 0.052744032104625485 0.0095581991102430316 0 0.051949417277225664 0.0090431202894486959 0 0.051990344707761302 0.010575027212714286 0 0.051469747994203091 0.0098685416046604708 0 0.051500581801765012 0.01068948259742368 0 0.048112635752222237 0.017652517892992756 0 0.050217521890984766 0.012398487011099808 0 0.051469747994203091 0.0098685416046604708 0 0.051500581801765012 0.01068948259742368 0 0.050958590171458651 0.010907185593850866 0 0.051460005879606315 0.011429035544922818 0 0.051990344707761302 0.010575027212714286 0 0.051500581801765012 0.01068948259742368 0 0.051460005879606315 0.011429035544922818 0 0.051500581801765012 0.01068948259742368 0 0.050958590171458651 0.010907185593850866 0 0.051469747994203091 0.0098685416046604708 0 0.050958590171458651 0.010907185593850866 0 0.050993397922674384 0.0096484198184268472 0 0.051909437114837365 0.0087254848999053468 0 0.051110317810119529 0.0073790475526645683 0 0.050583328829575058 0.008532285048872516 0 0.050993397922674384 0.0096484198184268472 0 0.051909437114837365 0.0087254848999053468 0 0.050583328829575058 0.008532285048872516 0 0.051909437114837365 0.0087254848999053468 0 0.05203272732383666 0.0071665696725676555 0 0.051110317810119529 0.0073790475526645683 0 0.051443245498945779 0.009696651825025434 0 0.051570742408044372 0.0082378607300471231 0 0.051469747994203091 0.0098685416046604708 0 0.050993397922674384 0.0096484198184268472 0 0.051909437114837365 0.0087254848999053468 0 0.051949417277225664 0.0090431202894486959 0 0.051187985376829517 0.0077400000361430698 0 0.052502645543192686 0.0079928635259839172 0 0.051949417277225664 0.0090431202894486959 0 0.051469747994203091 0.0098685416046604708 0 0.051187985376829517 0.0077400000361430698 0 0.052502645543192686 0.0079928635259839172 0 0.052985951028840031 0.0075159291926761174 0 0.053828009597586803 0.0084724767611256101 0 0.052502645543192686 0.0079928635259839172 0 0.052985951028840031 0.0075159291926761174 0 0.052693689864869803 0.0069452577868967516 0 0.052502645543192686 0.0079928635259839172 0 0.052693689864869803 0.0069452577868967516 0 0.05218809425290831 0.006757035191864681 0 0.052985951028840031 0.0075159291926761174 0 0.052693689864869803 0.0069452577868967516 0 0.053033356415659469 0.0065384028368287396 0 0.052693689864869803 0.0069452577868967516 0 0.05218809425290831 0.006757035191864681 0 0.052687676544064192 0.006328117349453345 0 0.052693689864869803 0.0069452577868967516 0 0.052687676544064192 0.006328117349453345 0 0.053033356415659469 0.0065384028368287396 0 0.051570742408044372 0.0082378607300471231 0 0.051726363191357948 0.0067118374090161768 0 0.051187985376829517 0.0077400000361430698 0 0.052502645543192686 0.0079928635259839172 0 0.05218809425290831 0.006757035191864681 0 0.051187985376829517 0.0077400000361430698 0 0.05218809425290831 0.006757035191864681 0 0.051471834515101254 0.0061983297783244073 0 0.05218809425290831 0.006757035191864681 0 0.052687676544064192 0.006328117349453345 0 0.052388574801092019 0.0058589558653673671 0 0.05218809425290831 0.006757035191864681 0 0.051471834515101254 0.0061983297783244073 0 0.052388574801092019 0.0058589558653673671 0 0.052388574801092019 0.0058589558653673671 0 0.051571681135736916 0.0052064198247786641 0 0.052339045225143876 0.0049253225345334169 0 0.051726363191357948 0.0067118374090161768 0 0.051696886049144686 0.0054281375485809528 0 0.05203272732383666 0.0071665696725676555 0 0.05183365053466734 0.0056893806157070036 0 0.050934445698737216 0.0060294811284568855 0 0.051471834515101254 0.0061983297783244073 0 0.052388574801092019 0.0058589558653673671 0 0.051571681135736916 0.0052064198247786641 0 0.050934445698737216 0.0060294811284568855 0 0.050362211257300595 0.0051400592728460806 0 0.050224867677175988 0.0064767724820114668 0 0.050934445698737216 0.0060294811284568855 0 0.051110317810119529 0.0073790475526645683 0 0.050224867677175988 0.0064767724820114668 0 0.051110317810119529 0.0073790475526645683 0 0.050583328829575058 0.008532285048872516 0 0.050224867677175988 0.0064767724820114668 0 0.05203272732383666 0.0071665696725676555 0 0.050934445698737216 0.0060294811284568855 0 0.051110317810119529 0.0073790475526645683 0 0.051313486539125534 0.0052211948117572406 0 0.051305837009574494 0.0057784445526946546 0 0.050379858544340204 0.0057469225422568564 0 0.051313486539125534 0.0052211948117572406 0 0.050692010098908252 0.0048447860829269737 0 0.050379858544340204 0.0057469225422568564 0 0.051271391877638663 0.0048652458456545922 0 0.050517638392963853 0.0045953127625515825 0 0.050692010098908252 0.0048447860829269737 0 0.051467379286867974 0.004474014675992153 0 0.051271391877638663 0.0048652458456545922 0 0.050517638392963853 0.0045953127625515825 0 0.051313486539125534 0.0052211948117572406 0 0.051271391877638663 0.0048652458456545922 0 0.050692010098908252 0.0048447860829269737 0 0.051313486539125534 0.0052211948117572406 0 0.051271391877638663 0.0048652458456545922 0 0.051913715922456694 0.0053289412167998899 0 0.051467379286867974 0.004474014675992153 0 0.051271391877638663 0.0048652458456545922 0 0.051903089479173485 0.0049262040404497703 0 0.051271391877638663 0.0048652458456545922 0 0.051903089479173485 0.0049262040404497703 0 0.051913715922456694 0.0053289412167998899 0 0.051903089479173485 0.0049262040404497703 0 0.051913715922456694 0.0053289412167998899 0 0.052327823718978199 0.0053407103013072338 0 0.051313486539125534 0.0052211948117572406 0 0.051913715922456694 0.0053289412167998899 0 0.05191025015679733 0.0057150189565960399 0 0.051313486539125534 0.0052211948117572406 0 0.05191025015679733 0.0057150189565960399 0 0.051305837009574494 0.0057784445526946546 0 0.051913715922456694 0.0053289412167998899 0 0.05191025015679733 0.0057150189565960399 0 0.05243167061842624 0.0057958699394229244 0 0.05191025015679733 0.0057150189565960399 0 0.05243167061842624 0.0057958699394229244 0 0.052433410312435834 0.0059705704712964443 0 0.05243167061842624 0.0057958699394229244 0 0.052883800529830341 0.0061551288543162707 0 0.052782991373287659 0.0060930431617878325 0 0.05243167061842624 0.0057958699394229244 0 0.052327823718978199 0.0053407103013072338 0 0.052618737981092976 0.0054879239421099504 0 0.05243167061842624 0.0057958699394229244 0 0.052618737981092976 0.0054879239421099504 0 0.052883800529830341 0.0061551288543162707 0 0.051913715922456694 0.0053289412167998899 0 0.05243167061842624 0.0057958699394229244 0 0.052327823718978199 0.0053407103013072338 0 0.051903089479173485 0.0049262040404497703 0 0.052327823718978199 0.0053407103013072338 0 0.052342213090106983 0.0049256331739541883 0 0.052106921394523026 0.0046884185741763061 0 0.051903089479173485 0.0049262040404497703 0 0.052342213090106983 0.0049256331739541883 0 0.052538403598750609 0.0048189383661857996 0 0.052440135006437988 0.0047985167543852575 0 0.052548837305614673 0.0048967335909410681 0 0.052440135006437988 0.0047985167543852575 0 0.052548837305614673 0.0048967335909410681 0 0.052342213090106983 0.0049256331739541883 0 0.052548837305614673 0.0048967335909410681 0 0.052342213090106983 0.0049256331739541883 0 0.05262133562183989 0.0050306950458115637 0 0.052327823718978199 0.0053407103013072338 0 0.052342213090106983 0.0049256331739541883 0 0.05262133562183989 0.0050306950458115637 0 0.052327823718978199 0.0053407103013072338 0 0.05262133562183989 0.0050306950458115637 0 0.052618737981092976 0.0054879239421099504 0 0.05262133562183989 0.0050306950458115637 0 0.052618737981092976 0.0054879239421099504 0 0.05298834268114002 0.0047254498545789203 0 0.052618737981092976 0.0054879239421099504 0 0.05298834268114002 0.0047254498545789203 0 0.052883800529830341 0.0061551288543162707 0 0.051898331196730423 0.0081021582752527858 0 0.053275340421249033 0.0064386164753271408 0 0.052985951028840031 0.0075159291926761174 0 0.053828009597586803 0.0084724767611256101 0 0.053033356415659469 0.0065384028368287396 0 0.052958970638679687 0.0063256382274104314 0 0.05298018790905823 0.0063103369967696631 0 0.053033356415659469 0.0065384028368287396 0 0.052415575635125666 0.0065121165092101758 0 0.053012780646733738 0.0057274525349395476 0 0.052548837305614673 0.0048967335909410681 0 0.05262133562183989 0.0050306950458115637 0 0.052608399593581961 0.0048898780808033513 0 0.052967376839292361 0.0055277335989436845 0 0.052415575635125666 0.0065121165092101758 0 0.050824783852089002 0.0084439949027885711 0 0.052415575635125666 0.0065121165092101758 0 0.051323831936548402 0.0080945719420926193 0 0.051437479525675303 0.0075592949474092485 0 0.051242105006870951 0.0077054433456448263 0 0.052415575635125666 0.0065121165092101758 0 0.051898331196730423 0.0081021582752527858 0 0.052538403598750609 0.0048189383661857996 0 0.052548837305614673 0.0048967335909410681 0 0.052608399593581961 0.0048898780808033513 0 0.052958970638679687 0.0063256382274104314 0 0.053033356415659469 0.0065384028368287396 0 0.052883800529830341 0.0061551288543162707 0 0.052883800529830341 0.0061551288543162707 0 0.052902136312122289 0.0062766321032613377 0 0.052782991373287659 0.0060930431617878325 0 0.053033356415659469 0.0065384028368287396 0 0.052883800529830341 0.0061551288543162707 0 0.052902136312122289 0.0062766321032613377 0 0.052687676544064192 0.006328117349453345 0 0.053033356415659469 0.0065384028368287396 0 0.052902136312122289 0.0062766321032613377 0 0.052687676544064192 0.006328117349453345 0 0.052902136312122289 0.0062766321032613377 0 0.052832718076764359 0.0061021486310337087 0 0.052902136312122289 0.0062766321032613377 0 0.052832718076764359 0.0061021486310337087 0 0.052782991373287659 0.0060930431617878325 0 0.052832718076764359 0.0061021486310337087 0 0.052752342827236468 0.005838481520958505 0 0.052866508824912999 0.0058999043029219784 0 0.052687676544064192 0.006328117349453345 0 0.052388574801092019 0.0058589558653673671 0 0.052832718076764359 0.0061021486310337087 0 0.052388574801092019 0.0058589558653673671 0 0.052832718076764359 0.0061021486310337087 0 0.052752342827236468 0.005838481520958505 0 0.052388574801092019 0.0058589558653673671 0 0.052793278948899153 0.0054661740458881924 0 0.052752342827236468 0.005838481520958505 0 0.052388574801092019 0.0058589558653673671 0 0.052793278948899153 0.0054661740458881924 0 0.052339045225143876 0.0049253225345334169 0 0.052793278948899153 0.0054661740458881924 0 0.052752342827236468 0.005838481520958505 0 0.052866508824912999 0.0058999043029219784 0 0.052793278948899153 0.0054661740458881924 0 0.053005511749669117 0.0056382451227168038 0 0.053110068004842144 0.0053176243762743875 0 0.052793278948899153 0.0054661740458881924 0 0.052866508824912999 0.0058999043029219784 0 0.053005511749669117 0.0056382451227168038 0 0.053005511749669117 0.0056382451227168038 0 0.052892120057913029 0.0058890253975475131 0 0.053195859509183173 0.0055058586893283953 0 0.052866508824912999 0.0058999043029219784 0 0.053005511749669117 0.0056382451227168038 0 0.052892120057913029 0.0058890253975475131 0 0.052866508824912999 0.0058999043029219784 0 0.052650611243964397 0.0060763553942549337 0 0.052892120057913029 0.0058890253975475131 0 0.052832718076764359 0.0061021486310337087 0 0.052866508824912999 0.0058999043029219784 0 0.052782991373287659 0.0060930431617878325 0 0.052866508824912999 0.0058999043029219784 0 0.052650611243964397 0.0060763553942549337 0 0.052782991373287659 0.0060930431617878325 0 0.05243167061842624 0.0057958699394229244 0 0.052782991373287659 0.0060930431617878325 0 0.052433410312435834 0.0059705704712964443 0 0.052650611243964397 0.0060763553942549337 0 0.052782991373287659 0.0060930431617878325 0 0.052433410312435834 0.0059705704712964443 0 0.05191025015679733 0.0057150189565960399 0 0.051805641380769291 0.0063990529900204924 0 0.051305837009574494 0.0057784445526946546 0 0.05191025015679733 0.0057150189565960399 0 0.052433410312435834 0.0059705704712964443 0 0.051805641380769291 0.0063990529900204924 0 0.052650611243964397 0.0060763553942549337 0 0.052433410312435834 0.0059705704712964443 0 0.051805641380769291 0.0063990529900204924 0 0.051805641380769291 0.0063990529900204924 0 0.050865374831120365 0.0061280743655189821 0 0.050173919531006299 0.0058388957692530261 0 0.052650611243964397 0.0060763553942549337 0 0.051805641380769291 0.0063990529900204924 0 0.052892120057913029 0.0058890253975475131 0 0.051808499733413005 0.0061930746282646927 0 0.051831485386019539 0.0053788467082678103 0 0.051805641380769291 0.0063990529900204924 0 0.052892120057913029 0.0058890253975475131 0 0.053625333019473309 0.0053642269748484144 0 0.051805641380769291 0.0063990529900204924 0 0.050865374831120365 0.0061280743655189821 0 0.051152954679290999 0.0065028811664413514 0 0.051805641380769291 0.0063990529900204924 0 0.051152954679290999 0.0065028811664413514 0 0.050668962855160822 0.0066239827297314277 0 0.051152954679290999 0.0065028811664413514 0 0.050668962855160822 0.0066239827297314277 0 0.050863578837453773 0.0070981462388948072 0 0.050865374831120365 0.0061280743655189821 0 0.051152954679290999 0.0065028811664413514 0 0.050863578837453773 0.0070981462388948072 0 0.050668962855160822 0.0066239827297314277 0 0.050809090503843878 0.0061841704385063659 0 0.050004444732439479 0.0064975226674207224 0 0.051805641380769291 0.0063990529900204924 0 0.050809090503843878 0.0061841704385063659 0 0.051305837009574494 0.0057784445526946546 0 0.051805641380769291 0.0063990529900204924 0 0.050668962855160822 0.0066239827297314277 0 0.050809090503843878 0.0061841704385063659 0 0.050809090503843878 0.0061841704385063659 0 0.051305837009574494 0.0057784445526946546 0 0.050379858544340204 0.0057469225422568564 0 0.053024209231748262 0.002425020575427434 0 0.051970123295216428 0.0019421620413876376 0 0.052510010307491209 0.0011942440904590666 0 0.051970123295216428 0.0019421620413876376 0 0.051210835533985796 0.0025999384427108259 0 0.050951303109787828 0.0015503848830328577 0 0.051970123295216428 0.0019421620413876376 0 0.052148220456420938 0.002904860476616511 0 0.051210835533985796 0.0025999384427108259 0 0.053024209231748262 0.002425020575427434 0 0.051970123295216428 0.0019421620413876376 0 0.052148220456420938 0.002904860476616511 0 0.052148220456420938 0.002904860476616511 0 0.0515496568655779 0.0034751892857507669 0 0.052495625749157469 0.0038360261508472502 0 0.052148220456420938 0.002904860476616511 0 0.0515496568655779 0.0034751892857507669 0 0.051210835533985796 0.0025999384427108259 0 0.0515496568655779 0.0034751892857507669 0 0.052495625749157469 0.0038360261508472502 0 0.05145996896562309 0.004633041315351593 0 0.053024209231748262 0.002425020575427434 0 0.052148220456420938 0.002904860476616511 0 0.052495625749157469 0.0038360261508472502 0 0.053024209231748262 0.002425020575427434 0 0.052495625749157469 0.0038360261508472502 0 0.054584438814675056 0.0038545291874515666 0 0.052495625749157469 0.0038360261508472502 0 0.052296628410468067 0.0054125944075971502 0 0.054584438814675056 0.0038545291874515666 0 0.05241737358820913 0.0056028654923190686 0 0.044872135034474764 0.0053431042882599354 0 0.050667390834572723 0.0064674281908177061 0 0.05241737358820913 0.0056028654923190686 0 0.052495625749157469 0.0038360261508472502 0 0.052296628410468067 0.0054125944075971502 0 0.05145996896562309 0.004633041315351593 0 0.052296628410468067 0.0054125944075971502 0 0.05145996896562309 0.004633041315351593 0 0.050838968928994199 0.0055014049422473701 0 0.05145996896562309 0.004633041315351593 0 0.050639468631406219 0.0047433469745953166 0 0.050888637257101937 0.0040134999733509487 0 0.050173919531006299 0.0058388957692530261 0 0.050183277363388901 0.0053881276427747149 0 0.048996981056655869 0.0025566152154927932 0 0.050639468631406219 0.0047433469745953166 0 0.049975404132621172 0.0043643411357578233 0 0.050330403060264713 0.004061574430985016 0 0.050639468631406219 0.0047433469745953166 0 0.050838968928994199 0.0055014049422473701 0 0.050183277363388901 0.0053881276427747149 0 0.05145996896562309 0.004633041315351593 0 0.050639468631406219 0.0047433469745953166 0 0.050838968928994199 0.0055014049422473701 0 0.050865374831120365 0.0061280743655189821 0 0.050838968928994199 0.0055014049422473701 0 0.050173919531006299 0.0058388957692530261 0 0.050865374831120365 0.0061280743655189821 0 0.052296628410468067 0.0054125944075971502 0 0.050838968928994199 0.0055014049422473701 0 0.052892120057913029 0.0058890253975475131 0 0.053625333019473309 0.0053642269748484144 0 0.053195859509183173 0.0055058586893283953 0 0.050838968928994199 0.0055014049422473701 0 0.050173919531006299 0.0058388957692530261 0 0.050183277363388901 0.0053881276427747149 0 0.050183277363388901 0.0053881276427747149 0 0.049975404132621172 0.0043643411357578233 0 0.049643405634720542 0.0038206936330018025 0 0.050639468631406219 0.0047433469745953166 0 0.050183277363388901 0.0053881276427747149 0 0.049975404132621172 0.0043643411357578233 0 0.051831485386019539 0.0053788467082678103 0 0.051827063839607231 0.0031568543638999533 0 0.050052484384691252 0.0052473625392641292 0 0.048326890970127309 0.0017596994625844683 0 0.050183277363388901 0.0053881276427747149 0 0.048996981056655869 0.0025566152154927932 0 0.049040390880381236 0.0023431425420915343 0 0.050183277363388901 0.0053881276427747149 0 0.04905766707177818 0.002964383468534787 0 0.048002555904632344 0.0017051999735432416 0 0.050183277363388901 0.0053881276427747149 0 0.049643405634720542 0.0038206936330018025 0 0.04905766707177818 0.002964383468534787 0 0.049454148545033744 0.0031402879660339849 0 0.049643405634720542 0.0038206936330018025 0 0.04905766707177818 0.002964383468534787 0 0.049454148545033744 0.0031402879660339849 0 0.049729832609447827 0.0033439759971322981 0 0.049643405634720542 0.0038206936330018025 0 0.049729832609447827 0.0033439759971322981 0 0.050086081701578355 0.003642156644088151 0 0.050405599707501657 0.0033969724882842098 0 0.049729832609447827 0.0033439759971322981 0 0.050108850549415114 0.002808463472203788 0 0.049626315747074774 0.0028531948579534122 0 0.049454148545033744 0.0031402879660339849 0 0.049729832609447827 0.0033439759971322981 0 0.049626315747074774 0.0028531948579534122 0 0.049729832609447827 0.0033439759971322981 0 0.050086081701578355 0.003642156644088151 0 0.049643405634720542 0.0038206936330018025 0 0.049975404132621172 0.0043643411357578233 0 0.050086081701578355 0.003642156644088151 0 0.050330403060264713 0.004061574430985016 0 0.049975404132621172 0.0043643411357578233 0 0.050086081701578355 0.003642156644088151 0 0.049643405634720542 0.0038206936330018025 0 0.050639468631406219 0.0047433469745953166 0 0.050330403060264713 0.004061574430985016 0 0.050888637257101937 0.0040134999733509487 0 0.050330403060264713 0.004061574430985016 0 0.050888637257101937 0.0040134999733509487 0 0.050405599707501657 0.0033969724882842098 0 0.050086081701578355 0.003642156644088151 0 0.050330403060264713 0.004061574430985016 0 0.050405599707501657 0.0033969724882842098 0 0.0515496568655779 0.0034751892857507669 0 0.05145996896562309 0.004633041315351593 0 0.050888637257101937 0.0040134999733509487 0 0.050888637257101937 0.0040134999733509487 0 0.050959298505174729 0.0032246464269892069 0 0.050405599707501657 0.0033969724882842098 0 0.0515496568655779 0.0034751892857507669 0 0.050888637257101937 0.0040134999733509487 0 0.050959298505174729 0.0032246464269892069 0 0.0515496568655779 0.0034751892857507669 0 0.050959298505174729 0.0032246464269892069 0 0.051210835533985796 0.0025999384427108259 0 0.050959298505174729 0.0032246464269892069 0 0.050405599707501657 0.0033969724882842098 0 0.050669416191216253 0.0027960581058031229 0 0.049729832609447827 0.0033439759971322981 0 0.050405599707501657 0.0033969724882842098 0 0.050108850549415114 0.002808463472203788 0 0.050405599707501657 0.0033969724882842098 0 0.050108850549415114 0.002808463472203788 0 0.050669416191216253 0.0027960581058031229 0 0.050108850549415114 0.002808463472203788 0 0.050468636229960812 0.0021996792857446618 0 0.049672237371101387 0.0023540437387240373 0 0.050108850549415114 0.002808463472203788 0 0.050669416191216253 0.0027960581058031229 0 0.050468636229960812 0.0021996792857446618 0 0.050669416191216253 0.0027960581058031229 0 0.051210835533985796 0.0025999384427108259 0 0.050468636229960812 0.0021996792857446618 0 0.050959298505174729 0.0032246464269892069 0 0.050669416191216253 0.0027960581058031229 0 0.051210835533985796 0.0025999384427108259 0 0.051210835533985796 0.0025999384427108259 0 0.050468636229960812 0.0021996792857446618 0 0.050951303109787828 0.0015503848830328577 0 0.050468636229960812 0.0021996792857446618 0 0.050386873865612573 0.0015756788302412543 0 0.050951303109787828 0.0015503848830328577 0 0.050468636229960812 0.0021996792857446618 0 0.049672237371101387 0.0023540437387240373 0 0.049816728336559209 0.0016156521921926277 0 0.050468636229960812 0.0021996792857446618 0 0.049816728336559209 0.0016156521921926277 0 0.050386873865612573 0.0015756788302412543 0 0.04927142088693412 0.0019243465865092847 0 0.049672237371101387 0.0023540437387240373 0 0.049816728336559209 0.0016156521921926277 0 0.04927142088693412 0.0019243465865092847 0 0.049084404860486666 0.0023614168496200413 0 0.049672237371101387 0.0023540437387240373 0 0.04927142088693412 0.0019243465865092847 0 0.048717513028112017 0.0019460164909628189 0 0.049048351869239837 0.001338752574322857 0 0.048717513028112017 0.0019460164909628189 0 0.04905766707177818 0.002964383468534787 0 0.048002555904632344 0.0017051999735432416 0 0.04927142088693412 0.0019243465865092847 0 0.048717513028112017 0.0019460164909628189 0 0.049084404860486666 0.0023614168496200413 0 0.048717513028112017 0.0019460164909628189 0 0.049084404860486666 0.0023614168496200413 0 0.04905766707177818 0.002964383468534787 0 0.049084404860486666 0.0023614168496200413 0 0.04905766707177818 0.002964383468534787 0 0.049301897031090572 0.0027234321828648947 0 0.049454148545033744 0.0031402879660339849 0 0.04905766707177818 0.002964383468534787 0 0.049301897031090572 0.0027234321828648947 0 0.049454148545033744 0.0031402879660339849 0 0.049301897031090572 0.0027234321828648947 0 0.049626315747074774 0.0028531948579534122 0 0.050108850549415114 0.002808463472203788 0 0.049626315747074774 0.0028531948579534122 0 0.049672237371101387 0.0023540437387240373 0 0.049084404860486666 0.0023614168496200413 0 0.049301897031090572 0.0027234321828648947 0 0.049672237371101387 0.0023540437387240373 0 0.049301897031090572 0.0027234321828648947 0 0.049626315747074774 0.0028531948579534122 0 0.049672237371101387 0.0023540437387240373 0 0.053625333019473309 0.0053642269748484144 0 0.05428450420698526 0.0034029304650937142 0 0.053606863802630064 0.0045177450375610689 0 0.05428450420698526 0.0034029304650937142 0 0.05372403136223259 0.0033385547875788061 0 0.0536385564261656 0.0038235339332736338 0 0.05372403136223259 0.0033385547875788061 0 0.053327906244886154 0.003525634013371296 0 0.053671279513061512 0.0025716338345210393 0 0.05372403136223259 0.0033385547875788061 0 0.0536385564261656 0.0038235339332736338 0 0.053327906244886154 0.003525634013371296 0 0.0536385564261656 0.0038235339332736338 0 0.053245012046186001 0.0042795445060524262 0 0.053606863802630064 0.0045177450375610689 0 0.0536385564261656 0.0038235339332736338 0 0.053245012046186001 0.0042795445060524262 0 0.053327906244886154 0.003525634013371296 0 0.05428450420698526 0.0034029304650937142 0 0.0536385564261656 0.0038235339332736338 0 0.053606863802630064 0.0045177450375610689 0 0.053625333019473309 0.0053642269748484144 0 0.053606863802630064 0.0045177450375610689 0 0.053362496489749278 0.005142805500562753 0 0.053606863802630064 0.0045177450375610689 0 0.053362496489749278 0.005142805500562753 0 0.053225434043361886 0.0048721399905321044 0 0.053625333019473309 0.0053642269748484144 0 0.053362496489749278 0.005142805500562753 0 0.053195859509183173 0.0055058586893283953 0 0.053005511749669117 0.0056382451227168038 0 0.053195859509183173 0.0055058586893283953 0 0.053110068004842144 0.0053176243762743875 0 0.053362496489749278 0.005142805500562753 0 0.053195859509183173 0.0055058586893283953 0 0.053110068004842144 0.0053176243762743875 0 0.052793278948899153 0.0054661740458881924 0 0.053110068004842144 0.0053176243762743875 0 0.052977577361826227 0.0050963100152114802 0 0.053362496489749278 0.005142805500562753 0 0.053110068004842144 0.0053176243762743875 0 0.053225434043361886 0.0048721399905321044 0 0.053110068004842144 0.0053176243762743875 0 0.053225434043361886 0.0048721399905321044 0 0.052977577361826227 0.0050963100152114802 0 0.053245012046186001 0.0042795445060524262 0 0.053606863802630064 0.0045177450375610689 0 0.053225434043361886 0.0048721399905321044 0 0.053245012046186001 0.0042795445060524262 0 0.053225434043361886 0.0048721399905321044 0 0.052822973123092899 0.0047467367057792368 0 0.053225434043361886 0.0048721399905321044 0 0.052822973123092899 0.0047467367057792368 0 0.052977577361826227 0.0050963100152114802 0 0.052793278948899153 0.0054661740458881924 0 0.052822973123092899 0.0047467367057792368 0 0.052977577361826227 0.0050963100152114802 0 0.052793278948899153 0.0054661740458881924 0 0.052822973123092899 0.0047467367057792368 0 0.052339045225143876 0.0049253225345334169 0 0.052822973123092899 0.0047467367057792368 0 0.052671829092493683 0.0040804009769819785 0 0.052339045225143876 0.0049253225345334169 0 0.053245012046186001 0.0042795445060524262 0 0.052671829092493683 0.0040804009769819785 0 0.053327906244886154 0.003525634013371296 0 0.053245012046186001 0.0042795445060524262 0 0.052822973123092899 0.0047467367057792368 0 0.052671829092493683 0.0040804009769819785 0 0.052671829092493683 0.0040804009769819785 0 0.053327906244886154 0.003525634013371296 0 0.052685690522512686 0.00295402558285392 0 0.053327906244886154 0.003525634013371296 0 0.052685690522512686 0.00295402558285392 0 0.053671279513061512 0.0025716338345210393 0 0.052685690522512686 0.00295402558285392 0 0.052859218287457287 0.0015770665692587586 0 0.053671279513061512 0.0025716338345210393 0 0.052859218287457287 0.0015770665692587586 0 0.054250606387538459 0.00098790044283958087 0 0.053671279513061512 0.0025716338345210393 0 0.052859218287457287 0.0015770665692587586 0 0.052844874744506574 0.00031383686613930666 0 0.054250606387538459 0.00098790044283958087 0 0.052844874744506574 0.00031383686613930666 0 0.054250606387538459 0.00098790044283958087 0 0.053829593277970135 -0.0012707196773313937 0 0.052859218287457287 0.0015770665692587586 0 0.052844874744506574 0.00031383686613930666 0 0.051901893688939396 0.00021262019617086111 0 0.052844874744506574 0.00031383686613930666 0 0.051901893688939396 0.00021262019617086111 0 0.052590396305282075 -0.00085133507653646547 0 0.046518914908893039 -0.0021740884037218721 0 0.048607038588997155 0.00017685428071230951 0 0.049358782074494727 -0.0019806543064803395 0 0.046518914908893039 -0.0021740884037218721 0 0.049358782074494727 -0.0019806543064803395 0 0.048484498806881576 -0.0036875950430543983 0 0.046518914908893039 -0.0021740884037218721 0 0.048484498806881576 -0.0036875950430543983 0 0.047235102957355758 -0.0051774443330602311 0 0.048002555904632344 0.0017051999735432416 0 0.046518914908893039 -0.0021740884037218721 0 0.048607038588997155 0.00017685428071230951 0 0.048996981056655869 0.0025566152154927932 0 0.049040390880381236 0.0023431425420915343 0 0.048267366575579465 -0.00059515809217625549 0 0.051827063839607231 0.0031568543638999533 0 0.049650077307001966 -0.00054375198721384071 0 0.05428450420698526 0.0034029304650937142 0 0.054250606387538459 0.00098790044283958087 0 0.053671279513061512 0.0025716338345210393 0 0.048326890970127309 0.0017596994625844683 0 0.049650077307001966 -0.00054375198721384071 0 0.05428450420698526 0.0034029304650937142 0 0.05372403136223259 0.0033385547875788061 0 0.053671279513061512 0.0025716338345210393 0 0.048002555904632344 0.0017051999735432416 0 0.048592104735799647 0.001293109417778797 0 0.048607038588997155 0.00017685428071230951 0 0.048717513028112017 0.0019460164909628189 0 0.048002555904632344 0.0017051999735432416 0 0.048592104735799647 0.001293109417778797 0 0.04957411764597202 0.00078143744653372455 0 0.05008578385265644 -0.0001625770057715732 0 0.048607038588997155 0.00017685428071230951 0 0.048592104735799647 0.001293109417778797 0 0.049048351869239837 0.001338752574322857 0 0.048607038588997155 0.00017685428071230951 0 0.04957411764597202 0.00078143744653372455 0 0.049048351869239837 0.001338752574322857 0 0.048607038588997155 0.00017685428071230951 0 0.048717513028112017 0.0019460164909628189 0 0.048592104735799647 0.001293109417778797 0 0.049048351869239837 0.001338752574322857 0 0.04957411764597202 0.00078143744653372455 0 0.049048351869239837 0.001338752574322857 0 0.049816728336559209 0.0016156521921926277 0 0.04927142088693412 0.0019243465865092847 0 0.049048351869239837 0.001338752574322857 0 0.049816728336559209 0.0016156521921926277 0 0.049816728336559209 0.0016156521921926277 0 0.050386873865612573 0.0015756788302412543 0 0.050304203536504534 0.00093561190315889179 0 0.04957411764597202 0.00078143744653372455 0 0.049816728336559209 0.0016156521921926277 0 0.050304203536504534 0.00093561190315889179 0 0.050951303109787828 0.0015503848830328577 0 0.050955863919275715 0.00050869401589980281 0 0.050304203536504534 0.00093561190315889179 0 0.050386873865612573 0.0015756788302412543 0 0.050951303109787828 0.0015503848830328577 0 0.050304203536504534 0.00093561190315889179 0 0.04957411764597202 0.00078143744653372455 0 0.050304203536504534 0.00093561190315889179 0 0.05008578385265644 -0.0001625770057715732 0 0.050955863919275715 0.00050869401589980281 0 0.050304203536504534 0.00093561190315889179 0 0.05008578385265644 -0.0001625770057715732 0 0.050955863919275715 0.00050869401589980281 0 0.05008578385265644 -0.0001625770057715732 0 0.051529904970019594 -0.00042022839210640255 0 0.05008578385265644 -0.0001625770057715732 0 0.050636350221226971 -0.0013095482075127399 0 0.051529904970019594 -0.00042022839210640255 0 0.05008578385265644 -0.0001625770057715732 0 0.048607038588997155 0.00017685428071230951 0 0.049358782074494727 -0.0019806543064803395 0 0.049358782074494727 -0.0019806543064803395 0 0.048484498806881576 -0.0036875950430543983 0 0.04974807546348041 -0.003770675656534488 0 0.04974807546348041 -0.003770675656534488 0 0.051060680465031254 -0.002482413343562534 0 0.050636830715161993 -0.0050932857088880276 0 0.049358782074494727 -0.0019806543064803395 0 0.04974807546348041 -0.003770675656534488 0 0.051060680465031254 -0.002482413343562534 0 0.049358782074494727 -0.0019806543064803395 0 0.050636350221226971 -0.0013095482075127399 0 0.051060680465031254 -0.002482413343562534 0 0.05008578385265644 -0.0001625770057715732 0 0.049358782074494727 -0.0019806543064803395 0 0.050636350221226971 -0.0013095482075127399 0 0.050636350221226971 -0.0013095482075127399 0 0.051541204613897329 -0.0012148205513649347 0 0.051060680465031254 -0.002482413343562534 0 0.030048279000745508 -0.003347192614740392 0 0.031338919099380379 -0.00076012169611466428 0 0.028675106897180669 -0.0051570431063821644 0 0.051060680465031254 -0.002482413343562534 0 0.052970998110608361 -0.00065925259735926127 0 0.050636830715161993 -0.0050932857088880276 0 0.051541204613897329 -0.0012148205513649347 0 0.051060680465031254 -0.002482413343562534 0 0.052970998110608361 -0.00065925259735926127 0 0.038294839308141426 -0.0010361996201411459 0 0.040452041982053745 -0.0047244525869578509 0 0.029507798798750227 -0.0040162552956730666 0 0.031261376531499317 -0.0034616573404279653 0 0.031164913885737992 -0.0049022812953219358 0 0.029507798798750227 -0.0040162552956730666 0 0.030423316019291016 -0.001909538937554054 0 0.031076746019219618 -0.0024527746216537532 0 0.029507798798750227 -0.0040162552956730666 0 0.031076746019219618 -0.0024527746216537532 0 0.031261376531499317 -0.0034616573404279653 0 0.029799532161168051 -0.0042120500325280447 0 0.038294839308141426 -0.0010361996201411459 0 0.030423316019291016 -0.001909538937554054 0 0.030830677598802789 -0.00098087559453732646 0 0.031076746019219618 -0.0024527746216537532 0 0.038294839308141426 -0.0010361996201411459 0 0.040785854480921167 -0.00061527893042139003 0 0.052970998110608361 -0.00065925259735926127 0 0.053350265460546872 0.00044060467273705398 0 0.052447781012780803 0.00028983452909407486 0 0.052970998110608361 -0.00065925259735926127 0 0.051529904970019594 -0.00042022839210640255 0 0.052447781012780803 0.00028983452909407486 0 0.051541204613897329 -0.0012148205513649347 0 0.052970998110608361 -0.00065925259735926127 0 0.051529904970019594 -0.00042022839210640255 0 0.050636350221226971 -0.0013095482075127399 0 0.051541204613897329 -0.0012148205513649347 0 0.051529904970019594 -0.00042022839210640255 0 0.051529904970019594 -0.00042022839210640255 0 0.051730601903073541 0.00083991830008620365 0 0.052447781012780803 0.00028983452909407486 0 0.051730601903073541 0.00083991830008620365 0 0.052510010307491209 0.0011942440904590666 0 0.052447781012780803 0.00028983452909407486 0 0.050955863919275715 0.00050869401589980281 0 0.051529904970019594 -0.00042022839210640255 0 0.051730601903073541 0.00083991830008620365 0 0.050951303109787828 0.0015503848830328577 0 0.050955863919275715 0.00050869401589980281 0 0.051730601903073541 0.00083991830008620365 0 0.051970123295216428 0.0019421620413876376 0 0.050951303109787828 0.0015503848830328577 0 0.051730601903073541 0.00083991830008620365 0 0.051970123295216428 0.0019421620413876376 0 0.051730601903073541 0.00083991830008620365 0 0.052510010307491209 0.0011942440904590666 0 0.053024209231748262 0.002425020575427434 0 0.052510010307491209 0.0011942440904590666 0 0.053350265460546872 0.00044060467273705398 0 0.052510010307491209 0.0011942440904590666 0 0.053350265460546872 0.00044060467273705398 0 0.052447781012780803 0.00028983452909407486 0 0.050422781983692613 0.0045322268775103477 0 0.049489089886077045 0.0024552734556621998 0 0.047505880164943927 0.0022928818222766496 0 0.050422781983692613 0.0045322268775103477 0 0.050362211257300595 0.0051400592728460806 0 0.050348962886873877 0.0044235969127855426 0 0.050335170497435765 0.0044644289656938004 0 0.048980461110251068 0.0033497387777838925 0 0.05183365053466734 0.0056893806157070036 0 0.050934445698737216 0.0060294811284568855 0 0.050422781983692613 0.0045322268775103477 0 0.050934445698737216 0.0060294811284568855 0 0.050422781983692613 0.0045322268775103477 0 0.050362211257300595 0.0051400592728460806 0 0.051696886049144686 0.0054281375485809528 0 0.05175727644476364 0.0039393859366778864 0 0.05183365053466734 0.0056893806157070036 0 0.050422781983692613 0.0045322268775103477 0 0.051711441245591322 0.0037969827049052171 0 0.051571681135736916 0.0052064198247786641 0 0.052339045225143876 0.0049253225345334169 0 0.051711441245591322 0.0037969827049052171 0 0.052671829092493683 0.0040804009769819785 0 0.052685690522512686 0.00295402558285392 0 0.051711441245591322 0.0037969827049052171 0 0.052671829092493683 0.0040804009769819785 0 0.052339045225143876 0.0049253225345334169 0 0.051711441245591322 0.0037969827049052171 0 0.050422781983692613 0.0045322268775103477 0 0.051711441245591322 0.0037969827049052171 0 0.049489089886077045 0.0024552734556621998 0 0.051711441245591322 0.0037969827049052171 0 0.050109254769864275 0.0011579277444593722 0 0.051640097856500131 0.0016678644169955683 0 0.051711441245591322 0.0037969827049052171 0 0.050109254769864275 0.0011579277444593722 0 0.049489089886077045 0.0024552734556621998 0 0.052685690522512686 0.00295402558285392 0 0.051711441245591322 0.0037969827049052171 0 0.051640097856500131 0.0016678644169955683 0 0.052685690522512686 0.00295402558285392 0 0.052859218287457287 0.0015770665692587586 0 0.051640097856500131 0.0016678644169955683 0 0.052859218287457287 0.0015770665692587586 0 0.051640097856500131 0.0016678644169955683 0 0.051901893688939396 0.00021262019617086111 0 0.051640097856500131 0.0016678644169955683 0 0.051901893688939396 0.00021262019617086111 0 0.050305231849949929 -0.00026193399514350699 0 0.050109254769864275 0.0011579277444593722 0 0.051640097856500131 0.0016678644169955683 0 0.050305231849949929 -0.00026193399514350699 0 0.050305231849949929 -0.00026193399514350699 0 0.048825647844144331 0.00053416408411143337 0 0.048314010746495231 -0.0014036070871367736 0 0.050109254769864275 0.0011579277444593722 0 0.050305231849949929 -0.00026193399514350699 0 0.048825647844144331 0.00053416408411143337 0 0.050109254769864275 0.0011579277444593722 0 0.048825647844144331 0.00053416408411143337 0 0.049489089886077045 0.0024552734556621998 0 0.048825647844144331 0.00053416408411143337 0 0.049489089886077045 0.0024552734556621998 0 0.047505880164943927 0.0022928818222766496 0 0.048825647844144331 0.00053416408411143337 0 0.047027261615128643 -0.0005800219575355076 0 0.048314010746495231 -0.0014036070871367736 0 0.048825647844144331 0.00053416408411143337 0 0.047505880164943927 0.0022928818222766496 0 0.047027261615128643 -0.0005800219575355076 0 0.047027261615128643 -0.0005800219575355076 0 0.045862072714688958 8.8168920370827118e-05 0 0.045920351614693329 -0.0016319302835363977 0 0.049686400975791314 0.003707353971887649 0 0.048924074595000047 0.0038588585747679478 0 0.048963628458056241 0.003069904549719068 0 0.045862072714688958 8.8168920370827118e-05 0 0.045920351614693329 -0.0016319302835363977 0 0.045119134627848043 -0.001767583982865559 0 0.047817118855253637 0.0019274201064967344 0 0.047068714702378667 0.00066102308949303164 0 0.049686400975791314 0.003707353971887649 0 0.049509154178996734 0.004387097738603297 0 0.048924074595000047 0.0038588585747679478 0 0.050348962886873877 0.0044235969127855426 0 0.049686400975791314 0.003707353971887649 0 0.049509154178996734 0.004387097738603297 0 0.047505880164943927 0.0022928818222766496 0 0.047027261615128643 -0.0005800219575355076 0 0.045862072714688958 8.8168920370827118e-05 0 0.048980461110251068 0.0033497387777838925 0 0.047817118855253637 0.0019274201064967344 0 0.050362211257300595 0.0051400592728460806 0 0.050348962886873877 0.0044235969127855426 0 0.049793595465650577 0.00511412777746241 0 0.050348962886873877 0.0044235969127855426 0 0.049509154178996734 0.004387097738603297 0 0.049793595465650577 0.00511412777746241 0 0.049509154178996734 0.004387097738603297 0 0.049793595465650577 0.00511412777746241 0 0.048881193734256409 0.004743627429331326 0 0.049793595465650577 0.00511412777746241 0 0.048881193734256409 0.004743627429331326 0 0.049250149703439307 0.0060143805413546327 0 0.050362211257300595 0.0051400592728460806 0 0.049793595465650577 0.00511412777746241 0 0.050224867677175988 0.0064767724820114668 0 0.048110220889924067 0.0047511599563134135 0 0.047742609521964796 0.0060487301310820658 0 0.048444872147726567 0.0055885799119749918 0 0.048881193734256409 0.004743627429331326 0 0.048110220889924067 0.0047511599563134135 0 0.048444872147726567 0.0055885799119749918 0 0.048881193734256409 0.004743627429331326 0 0.049250149703439307 0.0060143805413546327 0 0.048444872147726567 0.0055885799119749918 0 0.049509154178996734 0.004387097738603297 0 0.048881193734256409 0.004743627429331326 0 0.048924074595000047 0.0038588585747679478 0 0.048881193734256409 0.004743627429331326 0 0.048221464494026325 0.003952359613267899 0 0.048110220889924067 0.0047511599563134135 0 0.048221464494026325 0.003952359613267899 0 0.048924074595000047 0.0038588585747679478 0 0.048264390371489892 0.0032893384155779901 0 0.048881193734256409 0.004743627429331326 0 0.048221464494026325 0.003952359613267899 0 0.048924074595000047 0.0038588585747679478 0 0.048924074595000047 0.0038588585747679478 0 0.048264390371489892 0.0032893384155779901 0 0.048963628458056241 0.003069904549719068 0 0.048264390371489892 0.0032893384155779901 0 0.04766149475445948 0.0035160393717050677 0 0.047551969088803991 0.0027357709492921117 0 0.048221464494026325 0.003952359613267899 0 0.048264390371489892 0.0032893384155779901 0 0.04766149475445948 0.0035160393717050677 0 0.048512982479180539 0.0014943469797188836 0 0.048636060865629153 -0.00073034732785148924 0 0.047048939630944746 7.0240993382739557e-05 0 0.048042847101322061 0.0024167190967054153 0 0.048225678265465477 0.0013499634853495479 0 0.048042847101322061 0.0024167190967054153 0 0.047891044416283259 0.003783923611872552 0 0.048512982479180539 0.0014943469797188836 0 0.047456894116387281 0.0026646269767843993 0 0.047825273135705997 0.0039102214778094111 0 0.048512982479180539 0.0014943469797188836 0 0.047456894116387281 0.0026646269767843993 0 0.04655544536350615 0.0016923814360863315 0 0.048221464494026325 0.003952359613267899 0 0.04766149475445948 0.0035160393717050677 0 0.047825273135705997 0.0039102214778094111 0 0.044999763407905125 6.7855619595771858e-05 0 0.04655544536350615 0.0016923814360863315 0 0.044999717039001026 0.0026792808941588741 0 0.044999763407905125 6.7855619595771858e-05 0 0.04655544536350615 0.0016923814360863315 0 0.047048939630944746 7.0240993382739557e-05 0 0.048512982479180539 0.0014943469797188836 0 0.04655544536350615 0.0016923814360863315 0 0.047048939630944746 7.0240993382739557e-05 0 0.04655544536350615 0.0016923814360863315 0 0.044999717039001026 0.0026792808941588741 0 0.046930190898464418 0.0037000242149356397 0 0.047456894116387281 0.0026646269767843993 0 0.04655544536350615 0.0016923814360863315 0 0.046930190898464418 0.0037000242149356397 0 0.044999717039001026 0.0026792808941588741 0 0.046337933057692682 0.0048232956308112904 0 0.044999767025203218 0.0052907304709675683 0 0.044999717039001026 0.0026792808941588741 0 0.046930190898464418 0.0037000242149356397 0 0.046337933057692682 0.0048232956308112904 0 0.046337933057692682 0.0048232956308112904 0 0.048046865761620705 0.0054037223079130038 0 0.046667978105542796 0.006970583748524624 0 0.046930190898464418 0.0037000242149356397 0 0.046337933057692682 0.0048232956308112904 0 0.048046865761620705 0.0054037223079130038 0 0.046337933057692682 0.0048232956308112904 0 0.044999767025203218 0.0052907304709675683 0 0.046667978105542796 0.006970583748524624 0 0.047825273135705997 0.0039102214778094111 0 0.047473467885921009 0.0049750515907356812 0 0.048110220889924067 0.0047511599563134135 0 0.048221464494026325 0.003952359613267899 0 0.047825273135705997 0.0039102214778094111 0 0.048110220889924067 0.0047511599563134135 0 0.046930190898464418 0.0037000242149356397 0 0.047825273135705997 0.0039102214778094111 0 0.047473467885921009 0.0049750515907356812 0 0.047456894116387281 0.0026646269767843993 0 0.046930190898464418 0.0037000242149356397 0 0.047825273135705997 0.0039102214778094111 0 0.046957072464744294 0.0038457083517768375 0 0.047734797487014938 0.0051728236514759635 0 0.047473467885921009 0.0049750515907356812 0 0.048110220889924067 0.0047511599563134135 0 0.047742609521964796 0.0060487301310820658 0 0.048046865761620705 0.0054037223079130038 0 0.048839324603380752 0.0070625511710006037 0 0.047823007719460672 0.0076476346919394462 0 0.047734797487014938 0.0051728236514759635 0 0.048290811008041688 0.0065542239575452068 0 0.048046865761620705 0.0054037223079130038 0 0.047823007719460672 0.0076476346919394462 0 0.046667978105542796 0.006970583748524624 0 0.047823007719460672 0.0076476346919394462 0 0.046667978105542796 0.006970583748524624 0 0.047304616986249645 0.0088832106750054655 0 0.048839324603380752 0.0070625511710006037 0 0.047823007719460672 0.0076476346919394462 0 0.048233122708043266 0.0091481795786400189 0 0.048839324603380752 0.0070625511710006037 0 0.048233122708043266 0.0091481795786400189 0 0.049310958288263082 0.0084027512441769581 0 0.044999767025203218 0.0052907304709675683 0 0.046667978105542796 0.006970583748524624 0 0.044999759618053227 0.0079019598404626596 0 0.046667978105542796 0.006970583748524624 0 0.046077896364538948 0.0092347185492621438 0 0.047304616986249645 0.0088832106750054655 0 0.046667978105542796 0.006970583748524624 0 0.044999759618053227 0.0079019598404626596 0 0.046077896364538948 0.0092347185492621438 0 0.044999759618053227 0.0079019598404626596 0 0.046077896364538948 0.0092347185492621438 0 0.044999776938228576 0.010513102540022204 0 0.046077896364538948 0.0092347185492621438 0 0.047304616986249645 0.0088832106750054655 0 0.04722029494634452 0.010177213315159533 0 0.046354215675705586 0.011712741068697598 0 0.046077896364538948 0.0092347185492621438 0 0.04722029494634452 0.010177213315159533 0 0.046354215675705586 0.011712741068697598 0 0.046077896364538948 0.0092347185492621438 0 0.044999776938228576 0.010513102540022204 0 0.047877550367828994 0.011351722792880258 0 0.048233122708043266 0.0091481795786400189 0 0.048853911615384563 0.010155738645214837 0 0.047877550367828994 0.011351722792880258 0 0.048233122708043266 0.0091481795786400189 0 0.04722029494634452 0.010177213315159533 0 0.047823007719460672 0.0076476346919394462 0 0.048233122708043266 0.0091481795786400189 0 0.047304616986249645 0.0088832106750054655 0 0.048233122708043266 0.0091481795786400189 0 0.047304616986249645 0.0088832106750054655 0 0.04722029494634452 0.010177213315159533 0 0.048233122708043266 0.0091481795786400189 0 0.048853911615384563 0.010155738645214837 0 0.049310958288263082 0.0084027512441769581 0 0.048853911615384563 0.010155738645214837 0 0.049346630875201941 0.0090241228001738324 0 0.049310958288263082 0.0084027512441769581 0 0.049342212732697038 0.0089106171667723867 0 0.048794855965224197 0.0078638259693211143 0 0.049346630875201941 0.0090241228001738324 0 0.049695432492271457 0.0076294202397059682 0 0.048250166283186229 0.0073211192152160291 0 0.049483280520636372 0.010507036138823655 0 0.048853911615384563 0.010155738645214837 0 0.049346630875201941 0.0090241228001738324 0 0.049483280520636372 0.010507036138823655 0 0.049346630875201941 0.0090241228001738324 0 0.050046887073331721 0.0094923405392457159 0 0.050993397922674384 0.0096484198184268472 0 0.050046887073331721 0.0094923405392457159 0 0.050583328829575058 0.008532285048872516 0 0.050046887073331721 0.0094923405392457159 0 0.050583328829575058 0.008532285048872516 0 0.049695432492271457 0.0076294202397059682 0 0.049346630875201941 0.0090241228001738324 0 0.050046887073331721 0.0094923405392457159 0 0.049695432492271457 0.0076294202397059682 0 0.049695432492271457 0.0076294202397059682 0 0.050224867677175988 0.0064767724820114668 0 0.049250149703439307 0.0060143805413546327 0 0.050583328829575058 0.008532285048872516 0 0.049695432492271457 0.0076294202397059682 0 0.050224867677175988 0.0064767724820114668 0 0.049793595465650577 0.00511412777746241 0 0.050224867677175988 0.0064767724820114668 0 0.049250149703439307 0.0060143805413546327 0 0.049250149703439307 0.0060143805413546327 0 0.048444872147726567 0.0055885799119749918 0 0.048250166283186229 0.0073211192152160291 0 0.047742609521964796 0.0060487301310820658 0 0.048444872147726567 0.0055885799119749918 0 0.048250166283186229 0.0073211192152160291 0 0.048290811008041688 0.0065542239575452068 0 0.048794855965224197 0.0078638259693211143 0 0.049695432492271457 0.0076294202397059682 0 0.049250149703439307 0.0060143805413546327 0 0.048250166283186229 0.0073211192152160291 0 0.01475651958508423 0.028537915133641512 0 0.014391560840669145 0.028746464705518785 0 0.014619684308745167 0.029298969705022642 0 0.01437232488122971 0.029155782902985043 0 0.014391560840669145 0.028746464705518785 0 0.014619684308745167 0.029298969705022642 0 0.01437232488122971 0.029155782902985043 0 0.014391560840669145 0.028746464705518785 0 0.014214546403486272 0.029151923823138935 0 0.01437232488122971 0.029155782902985043 0 0.014214546403486272 0.029151923823138935 0 0.014311879998209797 0.029387781385121405 0 0.01388239555048853 0.028821528797996262 0 0.013463878754639795 0.029845498460807422 0 0.014579114656017276 0.029488112218713742 0 0.014307072849020129 0.028710822986671179 0 0.014013585147295652 0.029458893529382267 0 0.01475651958508423 0.028537915133641512 0 0.014391560840669145 0.028746464705518785 0 0.01445680345260875 0.028010382485228386 0 0.014307072849020129 0.028710822986671179 0 0.0145378133865274 0.027911349213809063 0 0.014391560840669145 0.028746464705518785 0 0.01445680345260875 0.028010382485228386 0 0.014121396963680253 0.028192006936286221 0 0.014391560840669145 0.028746464705518785 0 0.014020869250094475 0.028704585173882025 0 0.014121396963680253 0.028192006936286221 0 0.014020869250094475 0.028704585173882025 0 0.013701191644675075 0.028247109439614879 0 0.014121396963680253 0.028192006936286221 0 0.013701191644675075 0.028247109439614879 0 0.013476138400959712 0.028748657377380783 0 0.013224927107439815 0.027990649918929762 0 0.014020869250094475 0.028704585173882025 0 0.013701191644675075 0.028247109439614879 0 0.013476138400959712 0.028748657377380783 0 0.014282304026858423 0.028667478757656694 0 0.012972912076503937 0.029204074860803269 0 0.01392406652320081 0.029200550630889735 0 0.014074430485136997 0.029206365824633814 0 0.014152463601343838 0.029550337488308306 0 0.01392406652320081 0.029200550630889735 0 0.013812564583683204 0.029595713604667229 0 0.014152463601343838 0.029550337488308306 0 0.013812564583683204 0.029595713604667229 0 0.014152463601343838 0.029550337488308306 0 0.013771832324941453 0.029956865054981085 0 0.014391560840669145 0.028746464705518785 0 0.014020869250094475 0.028704585173882025 0 0.014214546403486272 0.029151923823138935 0 0.014020869250094475 0.028704585173882025 0 0.01392406652320081 0.029200550630889735 0 0.014074430485136997 0.029206365824633814 0 0.014020869250094475 0.028704585173882025 0 0.014074430485136997 0.029206365824633814 0 0.014214546403486272 0.029151923823138935 0 0.014074430485136997 0.029206365824633814 0 0.014174427693043017 0.029463480839352275 0 0.014152463601343838 0.029550337488308306 0 0.014074430485136997 0.029206365824633814 0 0.014214546403486272 0.029151923823138935 0 0.014174427693043017 0.029463480839352275 0 0.014214546403486272 0.029151923823138935 0 0.014174427693043017 0.029463480839352275 0 0.014311879998209797 0.029387781385121405 0 0.014174427693043017 0.029463480839352275 0 0.014200384399655031 0.029503786703132143 0 0.014311879998209797 0.029387781385121405 0 0.014174427693043017 0.029463480839352275 0 0.014200384399655031 0.029503786703132143 0 0.014152463601343838 0.029550337488308306 0 0.014430385065477376 0.030316868578351686 0 0.014195671764983575 0.029530374555659964 0 0.015107623129228708 0.030213654075049865 0 0.014152463601343838 0.029550337488308306 0 0.014227141999029982 0.030307932896649931 0 0.014152463601343838 0.029550337488308306 0 0.014227141999029982 0.030307932896649931 0 0.013771832324941453 0.029956865054981085 0 0.014227141999029982 0.030307932896649931 0 0.013771832324941453 0.029956865054981085 0 0.013838362087548592 0.030496333924283418 0 0.01411529254250631 0.030902648289435265 0 0.013838362087548592 0.030496333924283418 0 0.013683114478847635 0.030834583429861093 0 0.014227141999029982 0.030307932896649931 0 0.01411529254250631 0.030902648289435265 0 0.013838362087548592 0.030496333924283418 0 0.014227141999029982 0.030307932896649931 0 0.01411529254250631 0.030902648289435265 0 0.014571518419030632 0.030804926077852051 0 0.01411529254250631 0.030902648289435265 0 0.014571518419030632 0.030804926077852051 0 0.014524463749754562 0.03137180428832833 0 0.014430385065477376 0.030316868578351686 0 0.014701683521535188 0.031892809217062022 0 0.015107623129228708 0.030213654075049865 0 0.014811728189956347 0.031024570763252171 0 0.015070157794985689 0.031682245254915059 0 0.014336073678190236 0.030910071597078582 0 0.014846824448995828 0.031349376478821488 0 0.01428719612739628 0.031997170003415315 0 0.015107623129228708 0.030213654075049865 0 0.014571518419030632 0.030804926077852051 0 0.014811728189956347 0.031024570763252171 0 0.015107623129228708 0.030213654075049865 0 0.014227141999029982 0.030307932896649931 0 0.014571518419030632 0.030804926077852051 0 0.014571518419030632 0.030804926077852051 0 0.014811728189956347 0.031024570763252171 0 0.014524463749754562 0.03137180428832833 0 0.014265208642551508 0.03098844254927937 0 0.014477806408920024 0.032364267792389059 0 0.014265208642551508 0.03098844254927937 0 0.014325324090462761 0.032018861413321609 0 0.014430385065477376 0.030316868578351686 0 0.014265208642551508 0.03098844254927937 0 0.014420974466993912 0.029741236852593906 0 0.014619684308745167 0.029298969705022642 0 0.014311879998209797 0.029387781385121405 0 0.014200384399655031 0.029503786703132143 0 0.014420974466993912 0.029741236852593906 0 0.014311879998209797 0.029387781385121405 0 0.013062680919483809 0.030859128178908044 0 0.013463878754639795 0.029845498460807422 0 0.013839149104849605 0.030760277328535306 0 0.014265208642551508 0.03098844254927937 0 0.014013585147295652 0.029458893529382267 0 0.01437232488122971 0.029155782902985043 0 0.014619684308745167 0.029298969705022642 0 0.014311879998209797 0.029387781385121405 0 0.013463878754639795 0.029845498460807422 0 0.014567223628729453 0.03050348809531598 0 0.014579114656017276 0.029488112218713742 0 0.013463878754639795 0.029845498460807422 0 0.013839149104849605 0.030760277328535306 0 0.014567223628729453 0.03050348809531598 0 0.013839149104849605 0.030760277328535306 0 0.014555445765612145 0.031295297724985301 0 0.013868690080256681 0.03157051356612009 0 0.013062680919483809 0.030859128178908044 0 0.013839149104849605 0.030760277328535306 0 0.013868690080256681 0.03157051356612009 0 0.014555445765612145 0.031295297724985301 0 0.014567223628729453 0.03050348809531598 0 0.015313170296485306 0.031426931757552609 0 0.013839149104849605 0.030760277328535306 0 0.014555445765612145 0.031295297724985301 0 0.014567223628729453 0.03050348809531598 0 0.014567223628729453 0.03050348809531598 0 0.015591483759262543 0.030450952022533263 0 0.015313170296485306 0.031426931757552609 0 0.014567223628729453 0.03050348809531598 0 0.015591483759262543 0.030450952022533263 0 0.014579114656017276 0.029488112218713742 0 0.016254409017863666 0.031116398921421394 0 0.016344317736547723 0.030423301800601033 0 0.01682925347293111 0.031198703785618283 0 0.016254409017863666 0.031116398921421394 0 0.015591483759262543 0.030450952022533263 0 0.016344317736547723 0.030423301800601033 0 0.015591483759262543 0.030450952022533263 0 0.015909454506542131 0.03167326856199789 0 0.015313170296485306 0.031426931757552609 0 0.016254409017863666 0.031116398921421394 0 0.015591483759262543 0.030450952022533263 0 0.015909454506542131 0.03167326856199789 0 0.015591483759262543 0.030450952022533263 0 0.016344317736547723 0.030423301800601033 0 0.016054475359907141 0.02957955047537382 0 0.016344317736547723 0.030423301800601033 0 0.016054475359907141 0.02957955047537382 0 0.016979441180546371 0.029723128775994936 0 0.015591483759262543 0.030450952022533263 0 0.016054475359907141 0.02957955047537382 0 0.015281334406948606 0.028880320264105318 0 0.016514108271742035 0.02875750911700338 0 0.015281334406948606 0.028880320264105318 0 0.015863395009617177 0.027631742166948095 0 0.016054475359907141 0.02957955047537382 0 0.016514108271742035 0.02875750911700338 0 0.015281334406948606 0.028880320264105318 0 0.016054475359907141 0.02957955047537382 0 0.016514108271742035 0.02875750911700338 0 0.016979441180546371 0.029723128775994936 0 0.015591483759262543 0.030450952022533263 0 0.014579114656017276 0.029488112218713742 0 0.015281334406948606 0.028880320264105318 0 0.015281334406948606 0.028880320264105318 0 0.014656096167613852 0.028524101425939415 0 0.014980690314899184 0.027779129546445729 0 0.01388239555048853 0.028821528797996262 0 0.014579114656017276 0.029488112218713742 0 0.014656096167613852 0.028524101425939415 0 0.014579114656017276 0.029488112218713742 0 0.015281334406948606 0.028880320264105318 0 0.014656096167613852 0.028524101425939415 0 0.01388239555048853 0.028821528797996262 0 0.014656096167613852 0.028524101425939415 0 0.014554350163458064 0.027806710949247967 0 0.014656096167613852 0.028524101425939415 0 0.014554350163458064 0.027806710949247967 0 0.014980690314899184 0.027779129546445729 0 0.015281334406948606 0.028880320264105318 0 0.014980690314899184 0.027779129546445729 0 0.015863395009617177 0.027631742166948095 0 0.014690361385305665 0.026230269313896749 0 0.014799695805431709 0.02647177285440391 0 0.014980690314899184 0.027779129546445729 0 0.015863395009617177 0.027631742166948095 0 0.014785451094979193 0.02648835323477218 0 0.014980690314899184 0.027779129546445729 0 0.014664524085246107 0.027126933294103716 0 0.014785451094979193 0.02648835323477218 0 0.014554350163458064 0.027806710949247967 0 0.014980690314899184 0.027779129546445729 0 0.014664524085246107 0.027126933294103716 0 0.012384406697366955 0.023659150727895491 0 0.013558459712275973 0.024818026560416429 0 0.012042433858118271 0.024621920808073929 0 0.014448567691606989 0.026284156393414786 0 0.014690361385305665 0.026230269313896749 0 0.013558459712275973 0.024818026560416429 0 0.012337951047177753 0.025732665696004312 0 0.012042433858118271 0.024621920808073929 0 0.013558459712275973 0.024818026560416429 0 0.012337951047177753 0.025732665696004312 0 0.013569105843291913 0.026592167258447531 0 0.013558459712275973 0.024818026560416429 0 0.013569105843291913 0.026592167258447531 0 0.014785451094979193 0.02648835323477218 0 0.012337951047177753 0.025732665696004312 0 0.013569105843291913 0.026592167258447531 0 0.012330186902775221 0.02693346003906253 0 0.013569105843291913 0.026592167258447531 0 0.014268939201662497 0.027035162905225906 0 0.013292224279292738 0.027397967171765149 0 0.013569105843291913 0.026592167258447531 0 0.012330186902775221 0.02693346003906253 0 0.013292224279292738 0.027397967171765149 0 0.012289418937055393 0.026853269472317219 0 0.013404109263832063 0.027723340465794073 0 0.014664524085246107 0.027126933294103716 0 0.014785451094979193 0.02648835323477218 0 0.0147244370635027 0.026681090256818692 0 0.014785451094979193 0.02648835323477218 0 0.014268939201662497 0.027035162905225906 0 0.014773985460594587 0.026808843246307598 0 0.013569105843291913 0.026592167258447531 0 0.014785451094979193 0.02648835323477218 0 0.014268939201662497 0.027035162905225906 0 0.014785451094979193 0.02648835323477218 0 0.014773985460594587 0.026808843246307598 0 0.0147244370635027 0.026681090256818692 0 0.014773985460594587 0.026808843246307598 0 0.014891792872221629 0.02675574529437676 0 0.0147244370635027 0.026681090256818692 0 0.014891792872221629 0.02675574529437676 0 0.015132869637614786 0.026343442346498325 0 0.015168536267064976 0.026628815474114238 0 0.014891792872221629 0.02675574529437676 0 0.015132869637614786 0.026343442346498325 0 0.0147244370635027 0.026681090256818692 0 0.013154188987041085 0.027178190800162927 0 0.015346085172230784 0.02647717737609168 0 0.014060755395731568 0.026950666381495653 0 0.0147244370635027 0.026681090256818692 0 0.014482758354308286 0.027300817630331702 0 0.014664524085246107 0.027126933294103716 0 0.0147244370635027 0.026681090256818692 0 0.014482758354308286 0.027300817630331702 0 0.014554350163458064 0.027806710949247967 0 0.014664524085246107 0.027126933294103716 0 0.014482758354308286 0.027300817630331702 0 0.014060755395731568 0.026950666381495653 0 0.014482758354308286 0.027300817630331702 0 0.014191635112905325 0.027646689721060078 0 0.014482758354308286 0.027300817630331702 0 0.014191635112905325 0.027646689721060078 0 0.01445680345260875 0.028010382485228386 0 0.014191635112905325 0.027646689721060078 0 0.01445680345260875 0.028010382485228386 0 0.014121396963680253 0.028192006936286221 0 0.01475651958508423 0.028537915133641512 0 0.014554350163458064 0.027806710949247967 0 0.01445680345260875 0.028010382485228386 0 0.014554350163458064 0.027806710949247967 0 0.014482758354308286 0.027300817630331702 0 0.01445680345260875 0.028010382485228386 0 0.013701191644675075 0.028247109439614879 0 0.013699325616720277 0.027648871061442943 0 0.013224927107439815 0.027990649918929762 0 0.014191635112905325 0.027646689721060078 0 0.014121396963680253 0.028192006936286221 0 0.013699325616720277 0.027648871061442943 0 0.013701191644675075 0.028247109439614879 0 0.014121396963680253 0.028192006936286221 0 0.013699325616720277 0.027648871061442943 0 0.014060755395731568 0.026950666381495653 0 0.013699325616720277 0.027648871061442943 0 0.013473560432658368 0.027115252162314321 0 0.014060755395731568 0.026950666381495653 0 0.014191635112905325 0.027646689721060078 0 0.013699325616720277 0.027648871061442943 0 0.013699325616720277 0.027648871061442943 0 0.013473560432658368 0.027115252162314321 0 0.013224927107439815 0.027990649918929762 0 0.020791133236570176 0.023523085951790704 0 0.017256743561753191 0.02536444179286379 0 0.020791133236570176 0.023523085951790704 0 0.02453634554710268 0.021641130151377592 0 0.032841302882077872 0.018744759715309423 0 0.032585023057841563 0.017980074688028331 0 0.033053041932635641 0.017514890516019281 0 0.013154188987041085 0.027178190800162927 0 0.020791133236570176 0.023523085951790704 0 0.015132869637614786 0.026343442346498325 0 0.015670443887634892 0.026117031521329562 0 0.015508083971233991 0.026506264226970371 0 0.015132869637614786 0.026343442346498325 0 0.015168536267064976 0.026628815474114238 0 0.015508083971233991 0.026506264226970371 0 0.032585023057841563 0.017980074688028331 0 0.033053041932635641 0.017514890516019281 0 0.032585649976041013 0.017336953527790917 0 0.033053041932635641 0.017514890516019281 0 0.032585649976041013 0.017336953527790917 0 0.03278947392862936 0.017142032968002843 0 0.032585649976041013 0.017336953527790917 0 0.032552967657994591 0.017329986565255869 0 0.032589308603483053 0.017138345271786423 0 0.032552967657994591 0.017329986565255869 0 0.032480150769681561 0.017196421821844114 0 0.032589308603483053 0.017138345271786423 0 0.032552967657994591 0.017329986565255869 0 0.032650846226123513 0.017494601462236952 0 0.032448458343340883 0.01745739571879781 0 0.032585023057841563 0.017980074688028331 0 0.032585649976041013 0.017336953527790917 0 0.031788460640882567 0.018220047296109022 0 0.032585649976041013 0.017336953527790917 0 0.032552967657994591 0.017329986565255869 0 0.032650846226123513 0.017494601462236952 0 0.032459429083688207 0.017517050265812656 0 0.032411203100557902 0.017574571793465693 0 0.032650846226123513 0.017494601462236952 0 0.032448458343340883 0.01745739571879781 0 0.032522281939610799 0.018114034212932451 0 0.032841302882077872 0.018744759715309423 0 0.032585023057841563 0.017980074688028331 0 0.031788460640882567 0.018220047296109022 0 0.020791133236570176 0.023523085951790704 0 0.029660273646564348 0.019820961408482683 0 0.032841302882077872 0.018744759715309423 0 0.031788460640882567 0.018220047296109022 0 0.031155169291940184 0.019212442971260554 0 0.032411203100557902 0.017574571793465693 0 0.029660273646564348 0.019820961408482683 0 0.032448458343340883 0.01745739571879781 0 0.032390432086400606 0.01735159893810417 0 0.032372692536842891 0.017266345901656953 0 0.032673828453736009 0.017251562940558775 0 0.031911724360844669 0.018332088084537637 0 0.032448458343340883 0.01745739571879781 0 0.032366479765889647 0.018304419003538012 0 0.032522281939610799 0.018114034212932451 0 0.032448458343340883 0.01745739571879781 0 0.032393467939930025 0.017294473703096426 0 0.032390432086400606 0.01735159893810417 0 0.032448458343340883 0.01745739571879781 0 0.032393467939930025 0.017294473703096426 0 0.032463437359936162 0.017325104691821178 0 0.032552967657994591 0.017329986565255869 0 0.032448458343340883 0.01745739571879781 0 0.032463437359936162 0.017325104691821178 0 0.032393467939930025 0.017294473703096426 0 0.032463437359936162 0.017325104691821178 0 0.032480150769681561 0.017196421821844114 0 0.032552967657994591 0.017329986565255869 0 0.032463437359936162 0.017325104691821178 0 0.032480150769681561 0.017196421821844114 0 0.032393467939930025 0.017294473703096426 0 0.032480150769681561 0.017196421821844114 0 0.032388202000873875 0.017150826115089904 0 0.037255992645050251 0.016163075529988052 0 0.037641174175963445 0.013686037942037507 0 0.032393467939930025 0.017294473703096426 0 0.032257268015603087 0.017216858596694112 0 0.032388202000873875 0.017150826115089904 0 0.042392932429507507 0.012579569095731052 0 0.042987568929952778 0.012495296831650371 0 0.042781099914764274 0.012951767659182557 0 0.032393467939930025 0.017294473703096426 0 0.032257268015603087 0.017216858596694112 0 0.032390432086400606 0.01735159893810417 0 0.042392932429507507 0.012579569095731052 0 0.043161655053037658 0.012051784314498349 0 0.042944939556450658 0.011486904222596451 0 0.043593977980917055 0.01254085280081265 0 0.04404256543149658 0.012266577326443416 0 0.04343954396311446 0.012950834863326793 0 0.043728306406279997 0.012305923005090924 0 0.043894713621780962 0.012142967590196835 0 0.04404256543149658 0.012266577326443416 0 0.043728306406279997 0.012305923005090924 0 0.043593977980917055 0.01254085280081265 0 0.04404256543149658 0.012266577326443416 0 0.043593977980917055 0.01254085280081265 0 0.043358532372173797 0.012731087957314972 0 0.04343954396311446 0.012950834863326793 0 0.043593977980917055 0.01254085280081265 0 0.043358532372173797 0.012731087957314972 0 0.043365216305486856 0.012418204813605487 0 0.043728306406279997 0.012305923005090924 0 0.043593977980917055 0.01254085280081265 0 0.043365216305486856 0.012418204813605487 0 0.043728306406279997 0.012305923005090924 0 0.043365216305486856 0.012418204813605487 0 0.043594351331037909 0.012080515910058237 0 0.042392932429507507 0.012579569095731052 0 0.042987568929952778 0.012495296831650371 0 0.043161655053037658 0.012051784314498349 0 0.043365216305486856 0.012418204813605487 0 0.042987568929952778 0.012495296831650371 0 0.043161655053037658 0.012051784314498349 0 0.043365216305486856 0.012418204813605487 0 0.043188240316206675 0.012700426145362667 0 0.042987568929952778 0.012495296831650371 0 0.043358532372173797 0.012731087957314972 0 0.043365216305486856 0.012418204813605487 0 0.043188240316206675 0.012700426145362667 0 0.043188240316206675 0.012700426145362667 0 0.042987568929952778 0.012495296831650371 0 0.042781099914764274 0.012951767659182557 0 0.043161655053037658 0.012051784314498349 0 0.043550803009228464 0.011764194653019438 0 0.043334464401782659 0.011516612467215678 0 0.043365216305486856 0.012418204813605487 0 0.043161655053037658 0.012051784314498349 0 0.043594351331037909 0.012080515910058237 0 0.043161655053037658 0.012051784314498349 0 0.043594351331037909 0.012080515910058237 0 0.043550803009228464 0.011764194653019438 0 0.043594351331037909 0.012080515910058237 0 0.043550803009228464 0.011764194653019438 0 0.043909766901671858 0.011940374555260843 0 0.043550803009228464 0.011764194653019438 0 0.043909766901671858 0.011940374555260843 0 0.043980992277278093 0.011637779402692842 0 0.043594351331037909 0.012080515910058237 0 0.043909766901671858 0.011940374555260843 0 0.043894713621780962 0.012142967590196835 0 0.043728306406279997 0.012305923005090924 0 0.043594351331037909 0.012080515910058237 0 0.043894713621780962 0.012142967590196835 0 0.043769409714602164 0.011367343794289896 0 0.043860750261165773 0.010934118906022821 0 0.044124690589013596 0.011317733382616744 0 0.043550803009228464 0.011764194653019438 0 0.043769409714602164 0.011367343794289896 0 0.043980992277278093 0.011637779402692842 0 0.043550803009228464 0.011764194653019438 0 0.043769409714602164 0.011367343794289896 0 0.043334464401782659 0.011516612467215678 0 0.043769409714602164 0.011367343794289896 0 0.043334464401782659 0.011516612467215678 0 0.043353511573085479 0.011030401901177043 0 0.043161655053037658 0.012051784314498349 0 0.043334464401782659 0.011516612467215678 0 0.042944939556450658 0.011486904222596451 0 0.043334464401782659 0.011516612467215678 0 0.042944939556450658 0.011486904222596451 0 0.043353511573085479 0.011030401901177043 0 0.043353511573085479 0.011030401901177043 0 0.042534795107214224 0.011012221612363517 0 0.043101038954111014 0.010597544679017131 0 0.042944939556450658 0.011486904222596451 0 0.043353511573085479 0.011030401901177043 0 0.042534795107214224 0.011012221612363517 0 0.043353511573085479 0.011030401901177043 0 0.043494170285980481 0.010583499071127258 0 0.043101038954111014 0.010597544679017131 0 0.043769409714602164 0.011367343794289896 0 0.043353511573085479 0.011030401901177043 0 0.043860750261165773 0.010934118906022821 0 0.043353511573085479 0.011030401901177043 0 0.043860750261165773 0.010934118906022821 0 0.043494170285980481 0.010583499071127258 0 0.043860750261165773 0.010934118906022821 0 0.043909722947226407 0.010490507530038475 0 0.043494170285980481 0.010583499071127258 0 0.043860750261165773 0.010934118906022821 0 0.043909722947226407 0.010490507530038475 0 0.04414129475497798 0.010727756312510637 0 0.032390432086400606 0.01735159893810417 0 0.032463582753730583 0.017334709162518825 0 0.032372692536842891 0.017266345901656953 0 0.032257268015603087 0.017216858596694112 0 0.032390432086400606 0.01735159893810417 0 0.032463582753730583 0.017334709162518825 0 0.042392932429507507 0.012579569095731052 0 0.042944939556450658 0.011486904222596451 0 0.042534795107214224 0.011012221612363517 0 0.037641174175963445 0.013686037942037507 0 0.036365610746658637 0.014118485742543995 0 0.032463582753730583 0.017334709162518825 0 0.032372692536842891 0.017266345901656953 0 0.032603876155461259 0.016993514348308144 0 0.031911724360844669 0.018332088084537637 0 0.036365610746658637 0.014118485742543995 0 0.042534795107214224 0.011012221612363517 0 0.042879585847439845 0.010172074017378931 0 0.042660055918744062 0.0093167739701838382 0 0.032366479765889647 0.018304419003538012 0 0.033245839640529566 0.01738539659866651 0 0.032382823989832173 0.018162053435383147 0 0.032366479765889647 0.018304419003538012 0 0.033245839640529566 0.01738539659866651 0 0.034358595200182369 0.017043461095761846 0 0.033245839640529566 0.01738539659866651 0 0.032944766205699631 0.017195299766697075 0 0.032382823989832173 0.018162053435383147 0 0.043674973646947154 0.010221228241728206 0 0.043841350737277351 0.009903689268736679 0 0.044078227928842736 0.010183663760679706 0 0.043909722947226407 0.010490507530038475 0 0.043674973646947154 0.010221228241728206 0 0.044078227928842736 0.010183663760679706 0 0.043909722947226407 0.010490507530038475 0 0.043494170285980481 0.010583499071127258 0 0.043674973646947154 0.010221228241728206 0 0.043494170285980481 0.010583499071127258 0 0.043674973646947154 0.010221228241728206 0 0.043245524222756203 0.010178002963102398 0 0.043674973646947154 0.010221228241728206 0 0.043245524222756203 0.010178002963102398 0 0.043460514528507681 0.0098769673977766315 0 0.042534795107214224 0.011012221612363517 0 0.043101038954111014 0.010597544679017131 0 0.042879585847439845 0.010172074017378931 0 0.043494170285980481 0.010583499071127258 0 0.043245524222756203 0.010178002963102398 0 0.043101038954111014 0.010597544679017131 0 0.043245524222756203 0.010178002963102398 0 0.043101038954111014 0.010597544679017131 0 0.042879585847439845 0.010172074017378931 0 0.042879585847439845 0.010172074017378931 0 0.043033732992098651 0.0097198854640634207 0 0.042660055918744062 0.0093167739701838382 0 0.043245524222756203 0.010178002963102398 0 0.042879585847439845 0.010172074017378931 0 0.043033732992098651 0.0097198854640634207 0 0.043033732992098651 0.0097198854640634207 0 0.043305743006426103 0.0096195493258124896 0 0.043460514528507681 0.0098769673977766315 0 0.043033732992098651 0.0097198854640634207 0 0.043305743006426103 0.0096195493258124896 0 0.043017319207552002 0.0094441060089670847 0 0.043245524222756203 0.010178002963102398 0 0.043033732992098651 0.0097198854640634207 0 0.043460514528507681 0.0098769673977766315 0 0.043674973646947154 0.010221228241728206 0 0.043460514528507681 0.0098769673977766315 0 0.043841350737277351 0.009903689268736679 0 0.043460514528507681 0.0098769673977766315 0 0.043659146188641258 0.0096132825159703002 0 0.043841350737277351 0.009903689268736679 0 0.043305743006426103 0.0096195493258124896 0 0.043460514528507681 0.0098769673977766315 0 0.043659146188641258 0.0096132825159703002 0 0.043305743006426103 0.0096195493258124896 0 0.043659146188641258 0.0096132825159703002 0 0.043446865471894677 0.0094049192623805559 0 0.043659146188641258 0.0096132825159703002 0 0.043841350737277351 0.009903689268736679 0 0.044255391177693192 0.009516104244470627 0 0.043497581921590339 0.009033395569555432 0 0.044266575222524772 0.0088629203715959552 0 0.04397004811951772 0.0078022016317549235 0 0.034442917651611393 0.017140606978371612 0 0.034509055811823793 0.016800637631077628 0 0.038118645856020185 0.013888389449952342 0 0.035192627912492155 0.015247516424679322 0 0.034509055811823793 0.016800637631077628 0 0.038118645856020185 0.013888389449952342 0 0.036365610746658637 0.014118485742543995 0 0.041461922694126192 0.010541499219159334 0 0.043497581921590339 0.009033395569555432 0 0.042660055918744062 0.0093167739701838382 0 0.04397004811951772 0.0078022016317549235 0 0.04375304464830386 0.0093117012639584371 0 0.043497581921590339 0.009033395569555432 0 0.044266575222524772 0.0088629203715959552 0 0.043659146188641258 0.0096132825159703002 0 0.04375304464830386 0.0093117012639584371 0 0.044255391177693192 0.009516104244470627 0 0.043659146188641258 0.0096132825159703002 0 0.04375304464830386 0.0093117012639584371 0 0.043446865471894677 0.0094049192623805559 0 0.04375304464830386 0.0093117012639584371 0 0.043446865471894677 0.0094049192623805559 0 0.043497581921590339 0.009033395569555432 0 0.043497581921590339 0.009033395569555432 0 0.043017319207552002 0.0094441060089670847 0 0.042660055918744062 0.0093167739701838382 0 0.043305743006426103 0.0096195493258124896 0 0.043446865471894677 0.0094049192623805559 0 0.043017319207552002 0.0094441060089670847 0 0.043446865471894677 0.0094049192623805559 0 0.043497581921590339 0.009033395569555432 0 0.043017319207552002 0.0094441060089670847 0 0.043033732992098651 0.0097198854640634207 0 0.043017319207552002 0.0094441060089670847 0 0.042660055918744062 0.0093167739701838382 0 0.032944766205699631 0.017195299766697075 0 0.033522517797440463 0.016593549344771481 0 0.032574502752202757 0.01599986099428468 0 0.033245839640529566 0.01738539659866651 0 0.032944766205699631 0.017195299766697075 0 0.033522517797440463 0.016593549344771481 0 0.033245839640529566 0.01738539659866651 0 0.034358595200182369 0.017043461095761846 0 0.033949886022950397 0.01682325259622933 0 0.033245839640529566 0.01738539659866651 0 0.033522517797440463 0.016593549344771481 0 0.033949886022950397 0.01682325259622933 0 0.034509055811823793 0.016800637631077628 0 0.033949886022950397 0.01682325259622933 0 0.034174026860259756 0.016236739570261807 0 0.036365610746658637 0.014118485742543995 0 0.036265541531520173 0.014517130094487646 0 0.034358595200182369 0.017043461095761846 0 0.034509055811823793 0.016800637631077628 0 0.033949886022950397 0.01682325259622933 0 0.033522517797440463 0.016593549344771481 0 0.033949886022950397 0.01682325259622933 0 0.034174026860259756 0.016236739570261807 0 0.035192627912492155 0.015247516424679322 0 0.034509055811823793 0.016800637631077628 0 0.034174026860259756 0.016236739570261807 0 0.033919149325381939 0.015791489857924165 0 0.032574502752202757 0.01599986099428468 0 0.034481795638937683 0.014600365286474746 0 0.033522517797440463 0.016593549344771481 0 0.033919149325381939 0.015791489857924165 0 0.034174026860259756 0.016236739570261807 0 0.035192627912492155 0.015247516424679322 0 0.033919149325381939 0.015791489857924165 0 0.034174026860259756 0.016236739570261807 0 0.035192627912492155 0.015247516424679322 0 0.033919149325381939 0.015791489857924165 0 0.034481795638937683 0.014600365286474746 0 0.033522517797440463 0.016593549344771481 0 0.033919149325381939 0.015791489857924165 0 0.032574502752202757 0.01599986099428468 0 0.022728082542029918 0.022137750977403378 0 0.022048531443156279 0.022189323086250656 0 0.022466043223043103 0.02261621297958466 0 0.021904932752407121 0.022773776867622844 0 0.022048531443156279 0.022189323086250656 0 0.022466043223043103 0.02261621297958466 0 0.032944766205699631 0.017195299766697075 0 0.031080601241463248 0.018533054101300833 0 0.032382823989832173 0.018162053435383147 0 0.027155666735597845 0.019322310159337365 0 0.029660273646564348 0.019820961408482683 0 0.032944766205699631 0.017195299766697075 0 0.032574502752202757 0.01599986099428468 0 0.031080601241463248 0.018533054101300833 0 0.032366479765889647 0.018304419003538012 0 0.032522281939610799 0.018114034212932451 0 0.032382823989832173 0.018162053435383147 0 0.029660273646564348 0.019820961408482683 0 0.032789902034092232 0.018310675668668373 0 0.030830677598802789 -0.00098087559453732646 0 0.03215222579656301 -0.00024503341930148857 0 0.031963956507185386 -0.0013588765132891581 0 0.03215222579656301 -0.00024503341930148857 0 0.03287379788768089 -0.00067354098320601479 0 0.032988132122277095 0.00031205965268934311 0 0.03287379788768089 -0.00067354098320601479 0 0.033732690634967678 -0.00042581855730616395 0 0.032988132122277095 0.00031205965268934311 0 0.03287379788768089 -0.00067354098320601479 0 0.033010469317318381 -0.0015220883700205056 0 0.033723127978913373 -0.0011750592828501773 0 0.03215222579656301 -0.00024503341930148857 0 0.03287379788768089 -0.00067354098320601479 0 0.031963956507185386 -0.0013588765132891581 0 0.033010469317318381 -0.0015220883700205056 0 0.032702564051427997 -0.0023136915445003702 0 0.033882367195119882 -0.0022546983530513168 0 0.03287379788768089 -0.00067354098320601479 0 0.033010469317318381 -0.0015220883700205056 0 0.031963956507185386 -0.0013588765132891581 0 0.033010469317318381 -0.0015220883700205056 0 0.031963956507185386 -0.0013588765132891581 0 0.032702564051427997 -0.0023136915445003702 0 0.031963956507185386 -0.0013588765132891581 0 0.031076746019219618 -0.0024527746216537532 0 0.031804099584207247 -0.002433282145277312 0 0.031963956507185386 -0.0013588765132891581 0 0.031804099584207247 -0.002433282145277312 0 0.032702564051427997 -0.0023136915445003702 0 0.030830677598802789 -0.00098087559453732646 0 0.031963956507185386 -0.0013588765132891581 0 0.031076746019219618 -0.0024527746216537532 0 0.031076746019219618 -0.0024527746216537532 0 0.031804099584207247 -0.002433282145277312 0 0.031261376531499317 -0.0034616573404279653 0 0.031804099584207247 -0.002433282145277312 0 0.031261376531499317 -0.0034616573404279653 0 0.03230773047199325 -0.0031183648034764063 0 0.031261376531499317 -0.0034616573404279653 0 0.032346842391838736 -0.0040873924668607172 0 0.031164913885737992 -0.0049022812953219358 0 0.031261376531499317 -0.0034616573404279653 0 0.032346842391838736 -0.0040873924668607172 0 0.03230773047199325 -0.0031183648034764063 0 0.032346842391838736 -0.0040873924668607172 0 0.033164170964117945 -0.0031542282899562927 0 0.033847861542729916 -0.0041359766333603125 0 0.032346842391838736 -0.0040873924668607172 0 0.033164170964117945 -0.0031542282899562927 0 0.03230773047199325 -0.0031183648034764063 0 0.033164170964117945 -0.0031542282899562927 0 0.03230773047199325 -0.0031183648034764063 0 0.032702564051427997 -0.0023136915445003702 0 0.031804099584207247 -0.002433282145277312 0 0.03230773047199325 -0.0031183648034764063 0 0.032702564051427997 -0.0023136915445003702 0 0.033164170964117945 -0.0031542282899562927 0 0.033887941272731807 -0.0031669259635640061 0 0.033882367195119882 -0.0022546983530513168 0 0.033164170964117945 -0.0031542282899562927 0 0.032702564051427997 -0.0023136915445003702 0 0.033882367195119882 -0.0022546983530513168 0 0.033887941272731807 -0.0031669259635640061 0 0.034652410536827147 -0.0031131078540020127 0 0.033882367195119882 -0.0022546983530513168 0 0.033164170964117945 -0.0031542282899562927 0 0.033887941272731807 -0.0031669259635640061 0 0.033847861542729916 -0.0041359766333603125 0 0.033887941272731807 -0.0031669259635640061 0 0.033847861542729916 -0.0041359766333603125 0 0.034652410536827147 -0.0031131078540020127 0 0.034993121594715772 -0.004330622172002899 0 0.034652410536827147 -0.0031131078540020127 0 0.035502371431287386 -0.0033644518806694793 0 0.033847861542729916 -0.0041359766333603125 0 0.034993121594715772 -0.004330622172002899 0 0.034652410536827147 -0.0031131078540020127 0 0.034652410536827147 -0.0031131078540020127 0 0.035525917094443082 -0.0023899690455763179 0 0.035502371431287386 -0.0033644518806694793 0 0.034652410536827147 -0.0031131078540020127 0 0.03482942468217614 -0.0020794387977080796 0 0.033882367195119882 -0.0022546983530513168 0 0.034652410536827147 -0.0031131078540020127 0 0.03482942468217614 -0.0020794387977080796 0 0.035525917094443082 -0.0023899690455763179 0 0.03482942468217614 -0.0020794387977080796 0 0.035416801557067355 -0.0017337401400854815 0 0.035525917094443082 -0.0023899690455763179 0 0.034940921784069746 -0.0015905986451668285 0 0.035066417128066976 -0.0011227102258125304 0 0.035416801557067355 -0.0017337401400854815 0 0.03482942468217614 -0.0020794387977080796 0 0.034940921784069746 -0.0015905986451668285 0 0.035416801557067355 -0.0017337401400854815 0 0.03482942468217614 -0.0020794387977080796 0 0.034940921784069746 -0.0015905986451668285 0 0.034448400814963663 -0.0014226326688199953 0 0.034940921784069746 -0.0015905986451668285 0 0.034448400814963663 -0.0014226326688199953 0 0.035066417128066976 -0.0011227102258125304 0 0.03482942468217614 -0.0020794387977080796 0 0.034448400814963663 -0.0014226326688199953 0 0.033882367195119882 -0.0022546983530513168 0 0.033010469317318381 -0.0015220883700205056 0 0.033882367195119882 -0.0022546983530513168 0 0.033723127978913373 -0.0011750592828501773 0 0.034448400814963663 -0.0014226326688199953 0 0.033882367195119882 -0.0022546983530513168 0 0.033723127978913373 -0.0011750592828501773 0 0.033723127978913373 -0.0011750592828501773 0 0.033732690634967678 -0.00042581855730616395 0 0.034393854009983828 -0.00075454382043485752 0 0.034448400814963663 -0.0014226326688199953 0 0.033723127978913373 -0.0011750592828501773 0 0.034393854009983828 -0.00075454382043485752 0 0.03287379788768089 -0.00067354098320601479 0 0.033723127978913373 -0.0011750592828501773 0 0.033732690634967678 -0.00042581855730616395 0 0.033732690634967678 -0.00042581855730616395 0 0.034393854009983828 -0.00075454382043485752 0 0.034743141005151593 -3.8501997585047293e-05 0 0.035066417128066976 -0.0011227102258125304 0 0.034393854009983828 -0.00075454382043485752 0 0.034743141005151593 -3.8501997585047293e-05 0 0.035066417128066976 -0.0011227102258125304 0 0.035834675159575981 -0.0018148111869300981 0 0.034743141005151593 -3.8501997585047293e-05 0 0.034448400814963663 -0.0014226326688199953 0 0.035066417128066976 -0.0011227102258125304 0 0.034393854009983828 -0.00075454382043485752 0 0.045214692060671073 0.011519912044653004 0 0.045013477356015089 0.011465751194297326 0 0.046291427988514981 0.010541448218675508 0 0.045223112037399406 0.011074467676956431 0 0.045013477356015089 0.011465751194297326 0 0.046291427988514981 0.010541448218675508 0 0.042834662055598598 0.0070890442237927743 0 0.039757173022988548 0.0053174973456362011 0 0.037177481818290316 -0.0021252431848378444 0 0.035834675159575981 -0.0018148111869300981 0 0.034743141005151593 -3.8501997585047293e-05 0 0.045227455791371961 0.01134418992398816 0 0.046291427988514981 0.010541448218675508 0 0.046723565279162244 0.010544576790412246 0 0.042834662055598598 0.0070890442237927743 0 0.046024814536945041 0.01113025216563716 0 0.0452844100814856 0.010858119898457584 0 0.045223112037399406 0.011074467676956431 0 0.046291427988514981 0.010541448218675508 0 0.0452844100814856 0.010858119898457584 0 0.0455666781744569 0.010469901092162741 0 0.046291427988514981 0.010541448218675508 0 0.0452844100814856 0.010858119898457584 0 0.04514947493907101 0.010491506398808692 0 0.0455666781744569 0.010469901092162741 0 0.0452844100814856 0.010858119898457584 0 0.045223112037399406 0.011074467676956431 0 0.044940672703122034 0.010966861383653867 0 0.037177481818290316 -0.0021252431848378444 0 0.035834675159575981 -0.0018148111869300981 0 0.036729777135798544 -0.0025135729462623601 0 0.037177481818290316 -0.0021252431848378444 0 0.036729777135798544 -0.0025135729462623601 0 0.037261963174358606 -0.0026660411072706456 0 0.035834675159575981 -0.0018148111869300981 0 0.03617534416308358 -0.0026574677188498795 0 0.036729777135798544 -0.0025135729462623601 0 0.035834675159575981 -0.0018148111869300981 0 0.035525917094443082 -0.0023899690455763179 0 0.03617534416308358 -0.0026574677188498795 0 0.035066417128066976 -0.0011227102258125304 0 0.035834675159575981 -0.0018148111869300981 0 0.035416801557067355 -0.0017337401400854815 0 0.035834675159575981 -0.0018148111869300981 0 0.035416801557067355 -0.0017337401400854815 0 0.035525917094443082 -0.0023899690455763179 0 0.035525917094443082 -0.0023899690455763179 0 0.03617534416308358 -0.0026574677188498795 0 0.035502371431287386 -0.0033644518806694793 0 0.03617534416308358 -0.0026574677188498795 0 0.036143692516826392 -0.0034029787803627645 0 0.035502371431287386 -0.0033644518806694793 0 0.034993121594715772 -0.004330622172002899 0 0.035502371431287386 -0.0033644518806694793 0 0.035939885785148076 -0.0041711308664777657 0 0.036143692516826392 -0.0034029787803627645 0 0.035939885785148076 -0.0041711308664777657 0 0.036485092226334767 -0.0039217956202569166 0 0.036143692516826392 -0.0034029787803627645 0 0.035502371431287386 -0.0033644518806694793 0 0.035939885785148076 -0.0041711308664777657 0 0.03693917474220236 -0.0039960121092878021 0 0.036673138947769968 -0.0032191434030943555 0 0.037541519671791333 -0.0040161929247103916 0 0.03693917474220236 -0.0039960121092878021 0 0.037616548655430723 -0.0048231544120293035 0 0.036729454735711278 -0.0047952116863165832 0 0.036485092226334767 -0.0039217956202569166 0 0.03693917474220236 -0.0039960121092878021 0 0.036729454735711278 -0.0047952116863165832 0 0.035939885785148076 -0.0041711308664777657 0 0.036485092226334767 -0.0039217956202569166 0 0.036729454735711278 -0.0047952116863165832 0 0.036485092226334767 -0.0039217956202569166 0 0.03693917474220236 -0.0039960121092878021 0 0.036673138947769968 -0.0032191434030943555 0 0.036143692516826392 -0.0034029787803627645 0 0.036485092226334767 -0.0039217956202569166 0 0.036673138947769968 -0.0032191434030943555 0 0.036673138947769968 -0.0032191434030943555 0 0.037261963174358606 -0.0026660411072706456 0 0.037541519671791333 -0.0040161929247103916 0 0.03617534416308358 -0.0026574677188498795 0 0.036143692516826392 -0.0034029787803627645 0 0.036673138947769968 -0.0032191434030943555 0 0.03617534416308358 -0.0026574677188498795 0 0.036673138947769968 -0.0032191434030943555 0 0.036729777135798544 -0.0025135729462623601 0 0.036673138947769968 -0.0032191434030943555 0 0.036729777135798544 -0.0025135729462623601 0 0.037261963174358606 -0.0026660411072706456 0 0.044836253893018194 0.011825117705633558 0 0.04404256543149658 0.012266577326443416 0 0.04343954396311446 0.012950834863326793 0 0.037211748466318181 -0.0026145067099056815 0 0.036930361091029609 -0.0012497604893597744 0 0.036828183964453962 -0.0013431950198612877 0 0.041579748150887781 0.0055460476070253173 0 0.040494828717708806 0.0051946529573977896 0 0.037261963174358606 -0.0026660411072706456 0 0.037211748466318181 -0.0026145067099056815 0 0.036930361091029609 -0.0012497604893597744 0 0.037177481818290316 -0.0021252431848378444 0 0.037261963174358606 -0.0026660411072706456 0 0.037211748466318181 -0.0026145067099056815 0 0.03721326129779174 -0.0025238384966341505 0 0.037948905808725938 -0.0036546164274075133 0 0.037261963174358606 -0.0026660411072706456 0 0.037541519671791333 -0.0040161929247103916 0 0.039080693899393511 -0.005417269552985304 0 0.044836253893018194 0.011825117705633558 0 0.044386890530749165 0.011963115095581371 0 0.044477604934051236 0.011762886065957516 0 0.03693917474220236 -0.0039960121092878021 0 0.037541519671791333 -0.0040161929247103916 0 0.037616548655430723 -0.0048231544120293035 0 0.044836253893018194 0.011825117705633558 0 0.04404256543149658 0.012266577326443416 0 0.044386890530749165 0.011963115095581371 0 0.043894713621780962 0.012142967590196835 0 0.04404256543149658 0.012266577326443416 0 0.044089454157956433 0.012030073929016274 0 0.04404256543149658 0.012266577326443416 0 0.044089454157956433 0.012030073929016274 0 0.044386890530749165 0.011963115095581371 0 0.043909766901671858 0.011940374555260843 0 0.043894713621780962 0.012142967590196835 0 0.044089454157956433 0.012030073929016274 0 0.044089454157956433 0.012030073929016274 0 0.044386890530749165 0.011963115095581371 0 0.044214606263439343 0.011835644356910336 0 0.044386890530749165 0.011963115095581371 0 0.044477604934051236 0.011762886065957516 0 0.044214606263439343 0.011835644356910336 0 0.044477604934051236 0.011762886065957516 0 0.044214606263439343 0.011835644356910336 0 0.044322884112768274 0.011595268983193388 0 0.043909766901671858 0.011940374555260843 0 0.044089454157956433 0.012030073929016274 0 0.044214606263439343 0.011835644356910336 0 0.043909766901671858 0.011940374555260843 0 0.044214606263439343 0.011835644356910336 0 0.043980992277278093 0.011637779402692842 0 0.043980992277278093 0.011637779402692842 0 0.044124690589013596 0.011317733382616744 0 0.044322884112768274 0.011595268983193388 0 0.044214606263439343 0.011835644356910336 0 0.043980992277278093 0.011637779402692842 0 0.044322884112768274 0.011595268983193388 0 0.043769409714602164 0.011367343794289896 0 0.043980992277278093 0.011637779402692842 0 0.044124690589013596 0.011317733382616744 0 0.044124690589013596 0.011317733382616744 0 0.044441749097010028 0.011291378753671829 0 0.044322884112768274 0.011595268983193388 0 0.044124690589013596 0.011317733382616744 0 0.044441749097010028 0.011291378753671829 0 0.044254872906910457 0.01099007154443632 0 0.044477604934051236 0.011762886065957516 0 0.044322884112768274 0.011595268983193388 0 0.044633258304691746 0.011564062269061105 0 0.044441749097010028 0.011291378753671829 0 0.044322884112768274 0.011595268983193388 0 0.044633258304691746 0.011564062269061105 0 0.044836253893018194 0.011825117705633558 0 0.044477604934051236 0.011762886065957516 0 0.044633258304691746 0.011564062269061105 0 0.042834662055598598 0.0070890442237927743 0 0.041579748150887781 0.0055460476070253173 0 0.044836253893018194 0.011825117705633558 0 0.044633258304691746 0.011564062269061105 0 0.045013477356015089 0.011465751194297326 0 0.045214692060671073 0.011519912044653004 0 0.044836253893018194 0.011825117705633558 0 0.045013477356015089 0.011465751194297326 0 0.045223112037399406 0.011074467676956431 0 0.045013477356015089 0.011465751194297326 0 0.044777692862867008 0.01125591988434574 0 0.044441749097010028 0.011291378753671829 0 0.044633258304691746 0.011564062269061105 0 0.044777692862867008 0.01125591988434574 0 0.044633258304691746 0.011564062269061105 0 0.045013477356015089 0.011465751194297326 0 0.044777692862867008 0.01125591988434574 0 0.044441749097010028 0.011291378753671829 0 0.044777692862867008 0.01125591988434574 0 0.044634093518488203 0.010935909991864402 0 0.044777692862867008 0.01125591988434574 0 0.044634093518488203 0.010935909991864402 0 0.044940672703122034 0.010966861383653867 0 0.045223112037399406 0.011074467676956431 0 0.044777692862867008 0.01125591988434574 0 0.044940672703122034 0.010966861383653867 0 0.0452844100814856 0.010858119898457584 0 0.044940672703122034 0.010966861383653867 0 0.044946182487205971 0.010708874562531757 0 0.0452844100814856 0.010858119898457584 0 0.044946182487205971 0.010708874562531757 0 0.04514947493907101 0.010491506398808692 0 0.044634093518488203 0.010935909991864402 0 0.044946182487205971 0.010708874562531757 0 0.044673891813204789 0.010595303622101662 0 0.044634093518488203 0.010935909991864402 0 0.044940672703122034 0.010966861383653867 0 0.044946182487205971 0.010708874562531757 0 0.044634093518488203 0.010935909991864402 0 0.044413884341495222 0.010735243465594091 0 0.044673891813204789 0.010595303622101662 0 0.044413884341495222 0.010735243465594091 0 0.04414129475497798 0.010727756312510637 0 0.044330376856762124 0.010445590353235062 0 0.044634093518488203 0.010935909991864402 0 0.044413884341495222 0.010735243465594091 0 0.044254872906910457 0.01099007154443632 0 0.044413884341495222 0.010735243465594091 0 0.04414129475497798 0.010727756312510637 0 0.044254872906910457 0.01099007154443632 0 0.043860750261165773 0.010934118906022821 0 0.04414129475497798 0.010727756312510637 0 0.044254872906910457 0.01099007154443632 0 0.043860750261165773 0.010934118906022821 0 0.044124690589013596 0.011317733382616744 0 0.044254872906910457 0.01099007154443632 0 0.044441749097010028 0.011291378753671829 0 0.044634093518488203 0.010935909991864402 0 0.044254872906910457 0.01099007154443632 0 0.044405316032938416 0.010101841140392072 0 0.044330376856762124 0.010445590353235062 0 0.044670222544077369 0.010289777046977026 0 0.044405316032938416 0.010101841140392072 0 0.044078227928842736 0.010183663760679706 0 0.044330376856762124 0.010445590353235062 0 0.043909722947226407 0.010490507530038475 0 0.04414129475497798 0.010727756312510637 0 0.044330376856762124 0.010445590353235062 0 0.043909722947226407 0.010490507530038475 0 0.044078227928842736 0.010183663760679706 0 0.044330376856762124 0.010445590353235062 0 0.044330376856762124 0.010445590353235062 0 0.044673891813204789 0.010595303622101662 0 0.044670222544077369 0.010289777046977026 0 0.044413884341495222 0.010735243465594091 0 0.044330376856762124 0.010445590353235062 0 0.044673891813204789 0.010595303622101662 0 0.044673891813204789 0.010595303622101662 0 0.044890425011210822 0.010421580185263537 0 0.044670222544077369 0.010289777046977026 0 0.044946182487205971 0.010708874562531757 0 0.044673891813204789 0.010595303622101662 0 0.044890425011210822 0.010421580185263537 0 0.044890425011210822 0.010421580185263537 0 0.04514947493907101 0.010491506398808692 0 0.044989590027584736 0.01016686368942301 0 0.044946182487205971 0.010708874562531757 0 0.044890425011210822 0.010421580185263537 0 0.04514947493907101 0.010491506398808692 0 0.044989590027584736 0.01016686368942301 0 0.045147171556112697 0.0098792875110402124 0 0.045349097798761388 0.010206717393567113 0 0.04514947493907101 0.010491506398808692 0 0.044989590027584736 0.01016686368942301 0 0.045349097798761388 0.010206717393567113 0 0.044405316032938416 0.010101841140392072 0 0.044670222544077369 0.010289777046977026 0 0.044749327399295713 0.0099498816291122231 0 0.044890425011210822 0.010421580185263537 0 0.044989590027584736 0.01016686368942301 0 0.044670222544077369 0.010289777046977026 0 0.044989590027584736 0.01016686368942301 0 0.044670222544077369 0.010289777046977026 0 0.044749327399295713 0.0099498816291122231 0 0.044749327399295713 0.0099498816291122231 0 0.044814314168430278 0.009592679871772692 0 0.044486443918403035 0.0098111421860985169 0 0.044749327399295713 0.0099498816291122231 0 0.045147171556112697 0.0098792875110402124 0 0.044814314168430278 0.009592679871772692 0 0.044989590027584736 0.01016686368942301 0 0.044749327399295713 0.0099498816291122231 0 0.045147171556112697 0.0098792875110402124 0 0.045147171556112697 0.0098792875110402124 0 0.044814314168430278 0.009592679871772692 0 0.045379835521271387 0.0094681364942296002 0 0.044486443918403035 0.0098111421860985169 0 0.044208245179096745 0.0098924738022999163 0 0.044255391177693192 0.009516104244470627 0 0.044814314168430278 0.009592679871772692 0 0.044486443918403035 0.0098111421860985169 0 0.044255391177693192 0.009516104244470627 0 0.044405316032938416 0.010101841140392072 0 0.044486443918403035 0.0098111421860985169 0 0.044208245179096745 0.0098924738022999163 0 0.044405316032938416 0.010101841140392072 0 0.044749327399295713 0.0099498816291122231 0 0.044486443918403035 0.0098111421860985169 0 0.044405316032938416 0.010101841140392072 0 0.044078227928842736 0.010183663760679706 0 0.044208245179096745 0.0098924738022999163 0 0.043841350737277351 0.009903689268736679 0 0.044078227928842736 0.010183663760679706 0 0.044208245179096745 0.0098924738022999163 0 0.043841350737277351 0.009903689268736679 0 0.044208245179096745 0.0098924738022999163 0 0.044255391177693192 0.009516104244470627 0 0.044255391177693192 0.009516104244470627 0 0.044266575222524772 0.0088629203715959552 0 0.044942593811042937 0.0090843047375255507 0 0.04375304464830386 0.0093117012639584371 0 0.044255391177693192 0.009516104244470627 0 0.044266575222524772 0.0088629203715959552 0 0.044266575222524772 0.0088629203715959552 0 0.044942593811042937 0.0090843047375255507 0 0.045164955252957224 0.0080066266997011141 0 0.044814314168430278 0.009592679871772692 0 0.044255391177693192 0.009516104244470627 0 0.044942593811042937 0.0090843047375255507 0 0.044814314168430278 0.009592679871772692 0 0.044942593811042937 0.0090843047375255507 0 0.045379835521271387 0.0094681364942296002 0 0.044942593811042937 0.0090843047375255507 0 0.045379835521271387 0.0094681364942296002 0 0.045827678790883369 0.0089206569368584301 0 0.045379835521271387 0.0094681364942296002 0 0.045827678790883369 0.0089206569368584301 0 0.045859477605725292 0.0095346397327714799 0 0.044942593811042937 0.0090843047375255507 0 0.045827678790883369 0.0089206569368584301 0 0.045164955252957224 0.0080066266997011141 0 0.045827678790883369 0.0089206569368584301 0 0.046613448409974709 0.0087713697075049914 0 0.046435879098349224 0.0079494529473434338 0 0.045827678790883369 0.0089206569368584301 0 0.046403258098443638 0.0094251289391751522 0 0.046613448409974709 0.0087713697075049914 0 0.045827678790883369 0.0089206569368584301 0 0.045859477605725292 0.0095346397327714799 0 0.046403258098443638 0.0094251289391751522 0 0.046084024591001652 0.0099687172997596392 0 0.045859477605725292 0.0095346397327714799 0 0.046403258098443638 0.0094251289391751522 0 0.046084024591001652 0.0099687172997596392 0 0.046578376076121621 0.0099079347895909935 0 0.046403258098443638 0.0094251289391751522 0 0.046084024591001652 0.0099687172997596392 0 0.045859477605725292 0.0095346397327714799 0 0.045599480790574111 0.0098889883828022634 0 0.045379835521271387 0.0094681364942296002 0 0.045859477605725292 0.0095346397327714799 0 0.045599480790574111 0.0098889883828022634 0 0.045147171556112697 0.0098792875110402124 0 0.045379835521271387 0.0094681364942296002 0 0.045599480790574111 0.0098889883828022634 0 0.045147171556112697 0.0098792875110402124 0 0.045599480790574111 0.0098889883828022634 0 0.045349097798761388 0.010206717393567113 0 0.045599480790574111 0.0098889883828022634 0 0.045758208367437304 0.010251353160494964 0 0.045349097798761388 0.010206717393567113 0 0.045758208367437304 0.010251353160494964 0 0.045349097798761388 0.010206717393567113 0 0.0455666781744569 0.010469901092162741 0 0.04514947493907101 0.010491506398808692 0 0.045349097798761388 0.010206717393567113 0 0.0455666781744569 0.010469901092162741 0 0.046084024591001652 0.0099687172997596392 0 0.045758208367437304 0.010251353160494964 0 0.046291427988514981 0.010541448218675508 0 0.046084024591001652 0.0099687172997596392 0 0.046291427988514981 0.010541448218675508 0 0.046578376076121621 0.0099079347895909935 0 0.045758208367437304 0.010251353160494964 0 0.0455666781744569 0.010469901092162741 0 0.046291427988514981 0.010541448218675508 0 0.046084024591001652 0.0099687172997596392 0 0.045599480790574111 0.0098889883828022634 0 0.045758208367437304 0.010251353160494964 0 0.039757173022988548 0.0053174973456362011 0 0.044872135034474764 0.0053431042882599354 0 0.046723565279162244 0.010544576790412246 0 0.047030931195871234 0.0093814631205996288 0 0.048188713720428919 0.009541371306745065 0 0.046723565279162244 0.010544576790412246 0 0.046578376076121621 0.0099079347895909935 0 0.047030931195871234 0.0093814631205996288 0 0.046291427988514981 0.010541448218675508 0 0.046723565279162244 0.010544576790412246 0 0.046578376076121621 0.0099079347895909935 0 0.033732690634967678 -0.00042581855730616395 0 0.034743141005151593 -3.8501997585047293e-05 0 0.032988132122277095 0.00031205965268934311 0 0.046578376076121621 0.0099079347895909935 0 0.046403258098443638 0.0094251289391751522 0 0.047030931195871234 0.0093814631205996288 0 0.046613448409974709 0.0087713697075049914 0 0.047030931195871234 0.0093814631205996288 0 0.047669825407714125 0.0081182419455994477 0 0.046403258098443638 0.0094251289391751522 0 0.046613448409974709 0.0087713697075049914 0 0.047030931195871234 0.0093814631205996288 0 0.047030931195871234 0.0093814631205996288 0 0.048188713720428919 0.009541371306745065 0 0.047669825407714125 0.0081182419455994477 0 0.044872135034474764 0.0053431042882599354 0 0.049218215304048886 0.0083474576816797274 0 0.050863578837453773 0.0070981462388948072 0 0.050188735043290945 0.0076132068051920215 0 0.049789098493779764 0.0070085504823569076 0 0.040785854480921167 -0.00061527893042139003 0 0.044872135034474764 0.0053431042882599354 0 0.030830677598802789 -0.00098087559453732646 0 0.03215222579656301 -0.00024503341930148857 0 0.03216617368415662 0.00205345728865891 0 0.053024209231748262 0.002425020575427434 0 0.053350265460546872 0.00044060467273705398 0 0.054584438814675056 0.0038545291874515666 0 0.034743141005151593 -3.8501997585047293e-05 0 0.03216617368415662 0.00205345728865891 0 0.032988132122277095 0.00031205965268934311 0 0.03215222579656301 -0.00024503341930148857 0 0.03216617368415662 0.00205345728865891 0 0.032988132122277095 0.00031205965268934311 0 0.048822796388907734 0.0064440657718455221 0 0.049261168111082623 0.0052191631078164586 0 0.050379858544340204 0.0057469225422568564 0 0.050004444732439479 0.0064975226674207224 0 0.048822796388907734 0.0064440657718455221 0 0.050379858544340204 0.0057469225422568564 0 0.050809090503843878 0.0061841704385063659 0 0.050004444732439479 0.0064975226674207224 0 0.050379858544340204 0.0057469225422568564 0 0.050668962855160822 0.0066239827297314277 0 0.050004444732439479 0.0064975226674207224 0 0.049789098493779764 0.0070085504823569076 0 0.050668962855160822 0.0066239827297314277 0 0.050863578837453773 0.0070981462388948072 0 0.049789098493779764 0.0070085504823569076 0 0.050004444732439479 0.0064975226674207224 0 0.049789098493779764 0.0070085504823569076 0 0.048822796388907734 0.0064440657718455221 0 0.047669825407714125 0.0081182419455994477 0 0.04723788608273622 0.0066420767938273695 0 0.046435879098349224 0.0079494529473434338 0 0.046613448409974709 0.0087713697075049914 0 0.047669825407714125 0.0081182419455994477 0 0.046435879098349224 0.0079494529473434338 0 0.049218215304048886 0.0083474576816797274 0 0.047881607755684598 0.0062584421915768459 0 0.04723788608273622 0.0066420767938273695 0 0.046089330994740267 0.0071161224372365333 0 0.046435879098349224 0.0079494529473434338 0 0.045388167382449725 0.0062826322794555314 0 0.046089330994740267 0.0071161224372365333 0 0.045164955252957224 0.0080066266997011141 0 0.046546524750426255 0.0060710379238023745 0 0.045388167382449725 0.0062826322794555314 0 0.046089330994740267 0.0071161224372365333 0 0.04723788608273622 0.0066420767938273695 0 0.046546524750426255 0.0060710379238023745 0 0.046089330994740267 0.0071161224372365333 0 0.045827678790883369 0.0089206569368584301 0 0.046435879098349224 0.0079494529473434338 0 0.045164955252957224 0.0080066266997011141 0 0.046089330994740267 0.0071161224372365333 0 0.046435879098349224 0.0079494529473434338 0 0.045164955252957224 0.0080066266997011141 0 0.045388167382449725 0.0062826322794555314 0 0.045164955252957224 0.0080066266997011141 0 0.04397004811951772 0.0078022016317549235 0 0.044266575222524772 0.0088629203715959552 0 0.045164955252957224 0.0080066266997011141 0 0.04397004811951772 0.0078022016317549235 0 0.042481783127208086 0.0096279788355803902 0 0.038118645856020185 0.013888389449952342 0 0.037679963745162068 0.011509732808165462 0 0.042481783127208086 0.0096279788355803902 0 0.039257521356567099 0.00911238704257788 0 0.037679963745162068 0.011509732808165462 0 0.043910546490020595 0.0079682586966608581 0 0.041461922694126192 0.010541499219159334 0 0.042481783127208086 0.0096279788355803902 0 0.039257521356567099 0.00911238704257788 0 0.040689079467603514 0.0052226175709646321 0 0.035121987662599011 0.015118919987924006 0 0.021589452188951308 0.0237956533146821 0 0.026883895571712092 0.023186513323413135 0 0.026951989486032554 0.021510021401031133 0 0.025618731383421266 0.023609944291272895 0 0.026883895571712092 0.023186513323413135 0 0.026951989486032554 0.021510021401031133 0 0.029085812576572303 0.021088509714110831 0 0.018892471406234332 0.028457980115840407 0 0.021589452188951308 0.0237956533146821 0 0.012378138613394657 0.031825332960613885 0 0.012840135384038996 0.031739831901124234 0 0.012669667682206917 0.032121042050281781 0 0.037392062077714776 0.01721235396286256 0 0.037176367939218483 0.017363302526718513 0 0.037218764467808918 0.017498896121874427 0 0.018892471406234332 0.028457980115840407 0 0.031690654344601984 0.021533572674941697 0 0.040689079467603514 0.0052226175709646321 0 0.047138263094243307 0.0046539368771886368 0 0.047037492129090967 0.0034229120360601589 0 0.035121987662599011 0.015118919987924006 0 0.031690654344601984 0.021533572674941697 0 0.035121987662599011 0.015118919987924006 0 0.042997536979269231 0.0096567520902857574 0 0.045388167382449725 0.0062826322794555314 0 0.047013655235936647 0.0050366995433815398 0 0.047138263094243307 0.0046539368771886368 0 0.042481783127208086 0.0096279788355803902 0 0.040689079467603514 0.0052226175709646321 0 0.047138263094243307 0.0046539368771886368 0 0.043910546490020595 0.0079682586966608581 0 0.046948932897760018 0.004794238044602734 0 0.046546524750426255 0.0060710379238023745 0 0.045388167382449725 0.0062826322794555314 0 0.047013655235936647 0.0050366995433815398 0 0.048822796388907734 0.0064440657718455221 0 0.048169473458664111 0.0050044742687313003 0 0.049261168111082623 0.0052191631078164586 0 0.048822796388907734 0.0064440657718455221 0 0.048169473458664111 0.0050044742687313003 0 0.047013655235936647 0.0050366995433815398 0 0.04723788608273622 0.0066420767938273695 0 0.046546524750426255 0.0060710379238023745 0 0.047013655235936647 0.0050366995433815398 0 0.047881607755684598 0.0062584421915768459 0 0.047152252683484455 0.0051240292038800756 0 0.048169473458664111 0.0050044742687313003 0 0.048773004734038138 0.0042576101977753796 0 0.049261168111082623 0.0052191631078164586 0 0.048169473458664111 0.0050044742687313003 0 0.047138263094243307 0.0046539368771886368 0 0.048773004734038138 0.0042576101977753796 0 0.048169473458664111 0.0050044742687313003 0 0.047013655235936647 0.0050366995433815398 0 0.047138263094243307 0.0046539368771886368 0 0.037176367939218483 0.017363302526718513 0 0.036971811935493842 0.017542165651070474 0 0.037017354866495107 0.017592428484902584 0 0.047138263094243307 0.0046539368771886368 0 0.047037492129090967 0.0034229120360601589 0 0.048773004734038138 0.0042576101977753796 0 0.047037492129090967 0.0034229120360601589 0 0.048773004734038138 0.0042576101977753796 0 0.050057259095481664 0.0029976595110690596 0 0.037176367939218483 0.017363302526718513 0 0.037017354866495107 0.017592428484902584 0 0.037218764467808918 0.017498896121874427 0 0.042997536979269231 0.0096567520902857574 0 0.043441380594360098 0.011967981562542626 0 0.048773004734038138 0.0042576101977753796 0 0.050057259095481664 0.0029976595110690596 0 0.050692010098908252 0.0048447860829269737 0 0.043441380594360098 0.011967981562542626 0 0.049526341347378912 0.0036876522193206598 0 0.048773004734038138 0.0042576101977753796 0 0.050692010098908252 0.0048447860829269737 0 0.049261168111082623 0.0052191631078164586 0 0.050692010098908252 0.0048447860829269737 0 0.049261168111082623 0.0052191631078164586 0 0.050379858544340204 0.0057469225422568564 0 0.022728082542029918 0.022137750977403378 0 0.022048531443156279 0.022189323086250656 0 0.022531007518012916 0.021809522451674439 0 0.01357791717712553 0.029602768420223247 0 0.013089069759190363 0.030277033009553478 0 0.013350143691169243 0.03012902915668219 0 0.016968355097250483 0.025618129710092731 0 0.01738266970172371 0.026188255434395343 0 0.022170116758976722 0.021629309308832737 0 0.022531007518012916 0.021809522451674439 0 0.02271720175522806 0.021427244339914511 0 0.01357791717712553 0.029602768420223247 0 0.013350143691169243 0.03012902915668219 0 0.013560759187453232 0.029984811990755422 0 0.01392406652320081 0.029200550630889735 0 0.013812564583683204 0.029595713604667229 0 0.01357791717712553 0.029602768420223247 0 0.013656548757367291 0.029753719042003864 0 0.01357791717712553 0.029602768420223247 0 0.013560759187453232 0.029984811990755422 0 0.012972912076503937 0.029204074860803269 0 0.016968355097250483 0.025618129710092731 0 0.013812564583683204 0.029595713604667229 0 0.013656548757367291 0.029753719042003864 0 0.01357791717712553 0.029602768420223247 0 0.013812564583683204 0.029595713604667229 0 0.013656548757367291 0.029753719042003864 0 0.013771832324941453 0.029956865054981085 0 0.017256743561753191 0.02536444179286379 0 0.016968355097250483 0.025618129710092731 0 0.022048531443156279 0.022189323086250656 0 0.022170116758976722 0.021629309308832737 0 0.022531007518012916 0.021809522451674439 0 0.013476138400959712 0.028748657377380783 0 0.013224927107439815 0.027990649918929762 0 0.013028940625324682 0.028884400876133445 0 0.032574502752202757 0.01599986099428468 0 0.034481795638937683 0.014600365286474746 0 0.034868767175938432 0.011682511168823682 0 0.022728082542029918 0.022137750977403378 0 0.022531007518012916 0.021809522451674439 0 0.022985977996797823 0.021667439215164275 0 0.027155666735597845 0.019322310159337365 0 0.029249631066611239 0.016596205579856232 0 0.035192627912492155 0.015247516424679322 0 0.038118645856020185 0.013888389449952342 0 0.036088293661336181 0.013659795022463062 0 0.035192627912492155 0.015247516424679322 0 0.034481795638937683 0.014600365286474746 0 0.036088293661336181 0.013659795022463062 0 0.034481795638937683 0.014600365286474746 0 0.036088293661336181 0.013659795022463062 0 0.034868767175938432 0.011682511168823682 0 0.036088293661336181 0.013659795022463062 0 0.037679963745162068 0.011509732808165462 0 0.034868767175938432 0.011682511168823682 0 0.038118645856020185 0.013888389449952342 0 0.036088293661336181 0.013659795022463062 0 0.037679963745162068 0.011509732808165462 0 0.037679963745162068 0.011509732808165462 0 0.035634200128918755 0.01025967439352384 0 0.034868767175938432 0.011682511168823682 0 0.030813011511468438 0.014851263792549727 0 0.029249631066611239 0.016596205579856232 0 0.039257521356567099 0.00911238704257788 0 0.037679963745162068 0.011509732808165462 0 0.035634200128918755 0.01025967439352384 0 0.022531007518012916 0.021809522451674439 0 0.022985977996797823 0.021667439215164275 0 0.02271720175522806 0.021427244339914511 0 0.023049546575723927 0.021552721868218168 0 0.022985977996797823 0.021667439215164275 0 0.02271720175522806 0.021427244339914511 0 0.013089069759190363 0.030277033009553478 0 0.01314479609652913 0.030479907533682595 0 0.013329523617197707 0.03053225094790956 0 0.013089069759190363 0.030277033009553478 0 0.01314479609652913 0.030479907533682595 0 0.013128656816144056 0.030715203064081844 0 0.023049546575723927 0.021552721868218168 0 0.02271720175522806 0.021427244339914511 0 0.023225490346111845 0.02127725338417023 0 0.01314479609652913 0.030479907533682595 0 0.013329523617197707 0.03053225094790956 0 0.013201111208353216 0.030354354047395334 0 0.035121987662599011 0.015118919987924006 0 0.030813011511468438 0.014851263792549727 0 0.01738266970172371 0.026188255434395343 0 0.021589452188951308 0.0237956533146821 0 0.030813011511468438 0.014851263792549727 0 0.021589452188951308 0.0237956533146821 0 0.039257521356567099 0.00911238704257788 0 0.040689079467603514 0.0052226175709646321 0 0.035634200128918755 0.01025967439352384 0 0.029736879555279743 0.017538876572322566 0 0.029738462061146085 0.017377017343169442 0 0.029741414145729415 0.01750409955343981 0 0.012378138613394657 0.031825332960613885 0 0.012909977156330374 0.031459229246199621 0 0.012840135384038996 0.031739831901124234 0 0.018892471406234332 0.028457980115840407 0 0.011871985669943819 0.03120598703959403 0 0.0136283910795231 0.030211260561006297 0 0.013329523617197707 0.03053225094790956 0 0.013201111208353216 0.030354354047395334 0 0.012909977156330374 0.031459229246199621 0 0.012840135384038996 0.031739831901124234 0 0.013131609753792056 0.031124458625678204 0 0.012909977156330374 0.031459229246199621 0 0.013128656816144056 0.030715203064081844 0 0.013131609753792056 0.031124458625678204 0 0.01314479609652913 0.030479907533682595 0 0.013201111208353216 0.030354354047395334 0 0.013128656816144056 0.030715203064081844 0 0.011871985669943819 0.03120598703959403 0 0.013660184564517971 0.030646972695198876 0 0.013128656816144056 0.030715203064081844 0 0.01335402930422281 0.030870987202863256 0 0.013131609753792056 0.031124458625678204 0 0.01335402930422281 0.030870987202863256 0 0.013270937712375665 0.030465517119563537 0 0.013519096772796597 0.030407432385520898 0 0.013128656816144056 0.030715203064081844 0 0.01335402930422281 0.030870987202863256 0 0.013270937712375665 0.030465517119563537 0 0.013089069759190363 0.030277033009553478 0 0.013128656816144056 0.030715203064081844 0 0.013270937712375665 0.030465517119563537 0 0.013270937712375665 0.030465517119563537 0 0.013350143691169243 0.03012902915668219 0 0.013519096772796597 0.030407432385520898 0 0.013089069759190363 0.030277033009553478 0 0.013270937712375665 0.030465517119563537 0 0.013350143691169243 0.03012902915668219 0 0.013771832324941453 0.029956865054981085 0 0.013560759187453232 0.029984811990755422 0 0.013519096772796597 0.030407432385520898 0 0.013656548757367291 0.029753719042003864 0 0.013771832324941453 0.029956865054981085 0 0.013560759187453232 0.029984811990755422 0 0.013350143691169243 0.03012902915668219 0 0.013560759187453232 0.029984811990755422 0 0.013519096772796597 0.030407432385520898 0 0.013771832324941453 0.029956865054981085 0 0.013519096772796597 0.030407432385520898 0 0.013838362087548592 0.030496333924283418 0 0.01335402930422281 0.030870987202863256 0 0.013683114478847635 0.030834583429861093 0 0.013686457026628698 0.031499987343536755 0 0.013519096772796597 0.030407432385520898 0 0.013838362087548592 0.030496333924283418 0 0.013683114478847635 0.030834583429861093 0 0.01411529254250631 0.030902648289435265 0 0.013683114478847635 0.030834583429861093 0 0.013686457026628698 0.031499987343536755 0 0.01335402930422281 0.030870987202863256 0 0.013519096772796597 0.030407432385520898 0 0.013683114478847635 0.030834583429861093 0 0.014000854173381195 0.032499967320564184 0 0.013671945754584863 0.032927668031706547 0 0.01400797051617169 0.033152017403646136 0 0.01335402930422281 0.030870987202863256 0 0.013686457026628698 0.031499987343536755 0 0.013131609753792056 0.031124458625678204 0 0.013671945754584863 0.032927668031706547 0 0.013580255747854205 0.032384034641675885 0 0.013399770804940448 0.032726040484012009 0 0.0139076593695882 0.03200088873721272 0 0.013316112713201647 0.031770240532541266 0 0.014000854173381195 0.032499967320564184 0 0.013671945754584863 0.032927668031706547 0 0.013580255747854205 0.032384034641675885 0 0.012840135384038996 0.031739831901124234 0 0.013580255747854205 0.032384034641675885 0 0.013192358081936655 0.032415201804979303 0 0.012810758444980351 0.031710341037585563 0 0.013316112713201647 0.031770240532541266 0 0.013192358081936655 0.032415201804979303 0 0.013088486377940016 0.032749198749740076 0 0.013399770804940448 0.032726040484012009 0 0.013580255747854205 0.032384034641675885 0 0.013192358081936655 0.032415201804979303 0 0.013399770804940448 0.032726040484012009 0 0.012840135384038996 0.031739831901124234 0 0.012669667682206917 0.032121042050281781 0 0.012880957626793694 0.032345440398964115 0 0.012840135384038996 0.031739831901124234 0 0.013192358081936655 0.032415201804979303 0 0.012880957626793694 0.032345440398964115 0 0.013192358081936655 0.032415201804979303 0 0.012880957626793694 0.032345440398964115 0 0.013088486377940016 0.032749198749740076 0 0.012669667682206917 0.032121042050281781 0 0.012880957626793694 0.032345440398964115 0 0.012626532760771723 0.032554609412425876 0 0.012880957626793694 0.032345440398964115 0 0.013088486377940016 0.032749198749740076 0 0.012626532760771723 0.032554609412425876 0 0.013088486377940016 0.032749198749740076 0 0.012865101934009214 0.033197098360646105 0 0.013347414567814252 0.033147408022487945 0 0.013088486377940016 0.032749198749740076 0 0.012865101934009214 0.033197098360646105 0 0.012626532760771723 0.032554609412425876 0 0.013671945754584863 0.032927668031706547 0 0.013399770804940448 0.032726040484012009 0 0.013347414567814252 0.033147408022487945 0 0.013088486377940016 0.032749198749740076 0 0.013399770804940448 0.032726040484012009 0 0.013347414567814252 0.033147408022487945 0 0.013347414567814252 0.033147408022487945 0 0.013206662880951115 0.033591838407557868 0 0.013640692709728829 0.033673410334239512 0 0.012865101934009214 0.033197098360646105 0 0.013347414567814252 0.033147408022487945 0 0.013206662880951115 0.033591838407557868 0 0.012865101934009214 0.033197098360646105 0 0.013206662880951115 0.033591838407557868 0 0.012637872138154062 0.033855229038138805 0 0.013168336146882379 0.033994257019953227 0 0.012629546819864319 0.03386603324960382 0 0.013213807344930224 0.034415549705919535 0 0.012839673455590641 0.034737732115257561 0 0.013051296767920334 0.034998864427924423 0 0.013213807344930224 0.034415549705919535 0 0.012637872138154062 0.033855229038138805 0 0.012839673455590641 0.034737732115257561 0 0.013213807344930224 0.034415549705919535 0 0.013449923731138473 0.034496539638797542 0 0.013289262778128228 0.034928080238509469 0 0.013168336146882379 0.033994257019953227 0 0.013588717513021435 0.034081745436279967 0 0.013449923731138473 0.034496539638797542 0 0.013590238015456528 0.034942766603946039 0 0.01416157868946792 0.034114639110584474 0 0.013640692709728829 0.033673410334239512 0 0.01416157868946792 0.034114639110584474 0 0.014105364101211482 0.033580398733455898 0 0.013588717513021435 0.034081745436279967 0 0.014166883354698661 0.034129168073167564 0 0.013640692709728829 0.033673410334239512 0 0.01400797051617169 0.033152017403646136 0 0.014105364101211482 0.033580398733455898 0 0.013671945754584863 0.032927668031706547 0 0.013640692709728829 0.033673410334239512 0 0.01400797051617169 0.033152017403646136 0 0.013671945754584863 0.032927668031706547 0 0.013347414567814252 0.033147408022487945 0 0.013640692709728829 0.033673410334239512 0 0.036578339042562601 0.024302683615343459 0 0.036328597012248949 0.022946858461366848 0 0.037599741129027919 0.023351023204831515 0 0.037147799845822851 0.023642236469356384 0 0.034733520860210143 0.024142312020957419 0 0.036971811935493842 0.017542165651070474 0 0.037017354866495107 0.017592428484902584 0 0.037016572864112904 0.017632663741898529 0 0.03688389416610563 0.021659005096102135 0 0.036328597012248949 0.022946858461366848 0 0.037599741129027919 0.023351023204831515 0 0.043441380594360098 0.011967981562542626 0 0.034733520860210143 0.024142312020957419 0 0.037017354866495107 0.017592428484902584 0 0.037016572864112904 0.017632663741898529 0 0.036894266386170251 0.01764599861838605 0 0.034733520860210143 0.024142312020957419 0 0.031690654344601984 0.021533572674941697 0 0.026273942081048933 0.027012114880260542 0 0.024994404276810003 0.027053462555964303 0 0.025257882395291403 0.027996811076799841 0 0.039104867170682109 0.016992148008942422 0 0.031690654344601984 0.021533572674941697 0 0.026273942081048933 0.027012114880260542 0 0.024994404276810003 0.027053462555964303 0 0.025696151435808119 0.025959526217534112 0 0.036578339042562601 0.024302683615343459 0 0.037197531468133878 0.023686673523074915 0 0.03777133458432904 0.02501099829015303 0 0.034733520860210143 0.024142312020957419 0 0.021755178924482244 0.029871197194405265 0 0.017935132703004911 0.030333181852362195 0 0.021755178924482244 0.029871197194405265 0 0.018892471406234332 0.028457980115840407 0 0.017935132703004911 0.030333181852362195 0 0.024216278564779023 0.028206840664445152 0 0.024994404276810003 0.027053462555964303 0 0.025257882395291403 0.027996811076799841 0 0.012378138613394657 0.031825332960613885 0 0.012669667682206917 0.032121042050281781 0 0.012626532760771723 0.032554609412425876 0 0.012378138613394657 0.031825332960613885 0 0.012014819757378349 0.032749208305403558 0 0.012626532760771723 0.032554609412425876 0 0.012865101934009214 0.033197098360646105 0 0.012014819757378349 0.032749208305403558 0 0.012626532760771723 0.032554609412425876 0 0.012865101934009214 0.033197098360646105 0 0.012014819757378349 0.032749208305403558 0 0.012637872138154062 0.033855229038138805 0 0.012637872138154062 0.033855229038138805 0 0.012839673455590641 0.034737732115257561 0 0.012059622126817262 0.034476347677434876 0 0.012637872138154062 0.033855229038138805 0 0.012059622126817262 0.034476347677434876 0 0.011642290409051036 0.033698192170737898 0 0.012014819757378349 0.032749208305403558 0 0.012637872138154062 0.033855229038138805 0 0.011642290409051036 0.033698192170737898 0 0.012367114344862202 0.035236233232531083 0 0.021755178924482244 0.029871197194405265 0 0.013198376538637912 0.035587426811133201 0 0.013432489142232286 0.035809817098637328 0 0.013637513472554817 0.035512820667228683 0 0.021755178924482244 0.029871197194405265 0 0.025762758069250973 0.03094104219526074 0 0.035747798200408243 0.026715331608394868 0 0.036956497678639691 0.026469815921267775 0 0.036396731566186967 0.025477774790368772 0 0.03777133458432904 0.02501099829015303 0 0.036956497678639691 0.026469815921267775 0 0.036396731566186967 0.025477774790368772 0 0.035629173637190932 0.024802659844815344 0 0.036578339042562601 0.024302683615343459 0 0.036396731566186967 0.025477774790368772 0 0.036578339042562601 0.024302683615343459 0 0.03777133458432904 0.02501099829015303 0 0.036396731566186967 0.025477774790368772 0 0.013887278102839032 0.035249902789374156 0 0.013423457108756396 0.035222496451602345 0 0.0137156563369264 0.03503079182149095 0 0.013637513472554817 0.035512820667228683 0 0.013887278102839032 0.035249902789374156 0 0.013423457108756396 0.035222496451602345 0 0.035747798200408243 0.026715331608394868 0 0.036956497678639691 0.026469815921267775 0 0.03604890067639633 0.027923453010839219 0 0.025762758069250973 0.03094104219526074 0 0.025070322956958834 0.031444642700883957 0 0.013198376538637912 0.035587426811133201 0 0.013637513472554817 0.035512820667228683 0 0.013423457108756396 0.035222496451602345 0 0.013423457108756396 0.035222496451602345 0 0.013102435172593374 0.035165996347687724 0 0.013315182880906147 0.035072434236915452 0 0.013423457108756396 0.035222496451602345 0 0.013102435172593374 0.035165996347687724 0 0.012809592915282724 0.035188473973285006 0 0.013102435172593374 0.035165996347687724 0 0.012809592915282724 0.035188473973285006 0 0.012911559675822982 0.035191907191075525 0 0.013198376538637912 0.035587426811133201 0 0.013423457108756396 0.035222496451602345 0 0.012809592915282724 0.035188473973285006 0 0.012367114344862202 0.035236233232531083 0 0.012762522495152771 0.035103973821470458 0 0.012839673455590641 0.034737732115257561 0 0.012059622126817262 0.034476347677434876 0 0.012809592915282724 0.035188473973285006 0 0.012839673455590641 0.034737732115257561 0 0.012911559675822982 0.035191907191075525 0 0.013051296767920334 0.034998864427924423 0 0.012839673455590641 0.034737732115257561 0 0.012809592915282724 0.035188473973285006 0 0.012911559675822982 0.035191907191075525 0 0.012911559675822982 0.035191907191075525 0 0.013025875530487646 0.035201790422351303 0 0.013004780502107413 0.035304262165495134 0 0.013102435172593374 0.035165996347687724 0 0.012911559675822982 0.035191907191075525 0 0.013025875530487646 0.035201790422351303 0 0.013025875530487646 0.035201790422351303 0 0.0131739683017035 0.035035054751339743 0 0.01297784340536344 0.035308562348039724 0 0.0131739683017035 0.035035054751339743 0 0.01297784340536344 0.035308562348039724 0 0.013026030744386874 0.034982407316970186 0 0.013102435172593374 0.035165996347687724 0 0.013025875530487646 0.035201790422351303 0 0.013315182880906147 0.035072434236915452 0 0.013025875530487646 0.035201790422351303 0 0.0131739683017035 0.035035054751339743 0 0.013315182880906147 0.035072434236915452 0 0.013423457108756396 0.035222496451602345 0 0.013315182880906147 0.035072434236915452 0 0.0137156563369264 0.03503079182149095 0 0.013315182880906147 0.035072434236915452 0 0.013530321960278193 0.034843930420821435 0 0.0137156563369264 0.03503079182149095 0 0.0131739683017035 0.035035054751339743 0 0.013315182880906147 0.035072434236915452 0 0.013530321960278193 0.034843930420821435 0 0.013530321960278193 0.034843930420821435 0 0.0137156563369264 0.03503079182149095 0 0.013859134508341711 0.03472681622484642 0 0.013456471983010112 0.035230185684584331 0 0.013303606969265474 0.035324637826873992 0 0.013480137388013113 0.035493794826371557 0 0.013303606969265474 0.035324637826873992 0 0.013183011157441027 0.035427651046294591 0 0.013362887914725971 0.035603067775877219 0 0.013303606969265474 0.035324637826873992 0 0.013480137388013113 0.035493794826371557 0 0.013362887914725971 0.035603067775877219 0 0.013480137388013113 0.035493794826371557 0 0.013362887914725971 0.035603067775877219 0 0.013549091566614206 0.035747695557557219 0 0.013480137388013113 0.035493794826371557 0 0.013631224073283401 0.035657492814263801 0 0.013739476749020983 0.03550874822550084 0 0.013480137388013113 0.035493794826371557 0 0.013631224073283401 0.035657492814263801 0 0.013549091566614206 0.035747695557557219 0 0.013739476749020983 0.03550874822550084 0 0.013749473770827535 0.035888890241100639 0 0.013977740490915668 0.035857525469893556 0 0.013631224073283401 0.035657492814263801 0 0.013739476749020983 0.03550874822550084 0 0.013749473770827535 0.035888890241100639 0 0.013456471983010112 0.035230185684584331 0 0.013480137388013113 0.035493794826371557 0 0.013739476749020983 0.03550874822550084 0 0.013456471983010112 0.035230185684584331 0 0.013739476749020983 0.03550874822550084 0 0.013590238015456528 0.034942766603946039 0 0.013739476749020983 0.03550874822550084 0 0.013590238015456528 0.034942766603946039 0 0.014125798392339363 0.035342791176185814 0 0.013456471983010112 0.035230185684584331 0 0.013590238015456528 0.034942766603946039 0 0.013289262778128228 0.034928080238509469 0 0.013449923731138473 0.034496539638797542 0 0.013590238015456528 0.034942766603946039 0 0.013289262778128228 0.034928080238509469 0 0.013456471983010112 0.035230185684584331 0 0.013303606969265474 0.035324637826873992 0 0.013289262778128228 0.034928080238509469 0 0.013289262778128228 0.034928080238509469 0 0.013051296767920334 0.034998864427924423 0 0.013148159361519609 0.035197299245141075 0 0.013213807344930224 0.034415549705919535 0 0.013289262778128228 0.034928080238509469 0 0.013051296767920334 0.034998864427924423 0 0.012911559675822982 0.035191907191075525 0 0.013051296767920334 0.034998864427924423 0 0.013004780502107413 0.035304262165495134 0 0.013051296767920334 0.034998864427924423 0 0.013004780502107413 0.035304262165495134 0 0.013148159361519609 0.035197299245141075 0 0.013004780502107413 0.035304262165495134 0 0.013148159361519609 0.035197299245141075 0 0.013183011157441027 0.035427651046294591 0 0.013303606969265474 0.035324637826873992 0 0.013289262778128228 0.034928080238509469 0 0.013148159361519609 0.035197299245141075 0 0.013303606969265474 0.035324637826873992 0 0.013148159361519609 0.035197299245141075 0 0.013183011157441027 0.035427651046294591 0 0.013112655863387716 0.035520182686588714 0 0.01297784340536344 0.035308562348039724 0 0.013202617158581205 0.035807405465170146 0 0.013183011157441027 0.035427651046294591 0 0.013248226034886429 0.035608944991961662 0 0.013112655863387716 0.035520182686588714 0 0.013004780502107413 0.035304262165495134 0 0.013183011157441027 0.035427651046294591 0 0.013112655863387716 0.035520182686588714 0 0.013112655863387716 0.035520182686588714 0 0.013202617158581205 0.035807405465170146 0 0.013253705652689804 0.035714206388921782 0 0.013248226034886429 0.035608944991961662 0 0.013112655863387716 0.035520182686588714 0 0.013253705652689804 0.035714206388921782 0 0.013025875530487646 0.035201790422351303 0 0.013004780502107413 0.035304262165495134 0 0.01297784340536344 0.035308562348039724 0 0.013004780502107413 0.035304262165495134 0 0.013112655863387716 0.035520182686588714 0 0.01297784340536344 0.035308562348039724 0 0.01297784340536344 0.035308562348039724 0 0.012904858399144436 0.035227544550881805 0 0.013026030744386874 0.034982407316970186 0 0.013107491074297019 0.03529761896670823 0 0.012742707482148969 0.035973403624600428 0 0.01297784340536344 0.035308562348039724 0 0.012844367149580158 0.035274446493739134 0 0.012904858399144436 0.035227544550881805 0 0.012844367149580158 0.035274446493739134 0 0.012904858399144436 0.035227544550881805 0 0.012846906759131681 0.035236950062321963 0 0.013655301767616715 0.040512610528463326 0 0.014390077534476997 0.040519246961867553 0 0.012742707482148969 0.035973403624600428 0 0.01366388897000677 0.037048014620516087 0 0.012742707482148969 0.035973403624600428 0 0.013655301767616715 0.040512610528463326 0 0.012707487452638168 0.037901492082183755 0 0.013393316636611537 0.037995600188506999 0 0.01350113868104752 0.038211973262091303 0 0.012844367149580158 0.035274446493739134 0 0.01284618187746403 0.035359836108522349 0 0.012846906759131681 0.035236950062321963 0 0.013202617158581205 0.035807405465170146 0 0.013482249492905156 0.035970223475315831 0 0.013669954095412993 0.036239540333141917 0 0.013202617158581205 0.035807405465170146 0 0.013253705652689804 0.035714206388921782 0 0.013362934505939257 0.035835239304226905 0 0.013202617158581205 0.035807405465170146 0 0.013362934505939257 0.035835239304226905 0 0.013482249492905156 0.035970223475315831 0 0.013253705652689804 0.035714206388921782 0 0.013336735273143538 0.035720024915166813 0 0.013362934505939257 0.035835239304226905 0 0.013248226034886429 0.035608944991961662 0 0.013253705652689804 0.035714206388921782 0 0.013336735273143538 0.035720024915166813 0 0.013336735273143538 0.035720024915166813 0 0.013362934505939257 0.035835239304226905 0 0.013466674254517027 0.035838037023891191 0 0.013362934505939257 0.035835239304226905 0 0.013482249492905156 0.035970223475315831 0 0.013466674254517027 0.035838037023891191 0 0.013482249492905156 0.035970223475315831 0 0.013466674254517027 0.035838037023891191 0 0.013623913392967556 0.035998474969949144 0 0.013466674254517027 0.035838037023891191 0 0.013362887914725971 0.035603067775877219 0 0.013549091566614206 0.035747695557557219 0 0.013466674254517027 0.035838037023891191 0 0.013549091566614206 0.035747695557557219 0 0.013623913392967556 0.035998474969949144 0 0.013183011157441027 0.035427651046294591 0 0.013248226034886429 0.035608944991961662 0 0.013362887914725971 0.035603067775877219 0 0.013248226034886429 0.035608944991961662 0 0.013336735273143538 0.035720024915166813 0 0.013362887914725971 0.035603067775877219 0 0.013336735273143538 0.035720024915166813 0 0.013466674254517027 0.035838037023891191 0 0.013362887914725971 0.035603067775877219 0 0.013749473770827535 0.035888890241100639 0 0.013774453661755092 0.036109129311688089 0 0.013910321771303271 0.036111604523081139 0 0.013749473770827535 0.035888890241100639 0 0.013910321771303271 0.036111604523081139 0 0.013977740490915668 0.035857525469893556 0 0.013749473770827535 0.035888890241100639 0 0.013549091566614206 0.035747695557557219 0 0.013623913392967556 0.035998474969949144 0 0.013631224073283401 0.035657492814263801 0 0.013749473770827535 0.035888890241100639 0 0.013549091566614206 0.035747695557557219 0 0.013482249492905156 0.035970223475315831 0 0.013623913392967556 0.035998474969949144 0 0.013669954095412993 0.036239540333141917 0 0.013623913392967556 0.035998474969949144 0 0.013774453661755092 0.036109129311688089 0 0.013669954095412993 0.036239540333141917 0 0.013749473770827535 0.035888890241100639 0 0.013623913392967556 0.035998474969949144 0 0.013774453661755092 0.036109129311688089 0 0.013774453661755092 0.036109129311688089 0 0.013669954095412993 0.036239540333141917 0 0.013911378124238557 0.036302236358789486 0 0.013774453661755092 0.036109129311688089 0 0.013910321771303271 0.036111604523081139 0 0.013911378124238557 0.036302236358789486 0 0.013393316636611537 0.037995600188506999 0 0.01350113868104752 0.038211973262091303 0 0.014057466186753935 0.038103064678492463 0 0.013669954095412993 0.036239540333141917 0 0.013992582014710471 0.036433557101765886 0 0.013911378124238557 0.036302236358789486 0 0.012642063659324652 0.043559948776057227 0 0.013207493656408368 0.043463584859172427 0 0.013313865624942743 0.043858257606005306 0 0.013655301767616715 0.040512610528463326 0 0.014421343378936047 0.045154803392570331 0 0.013669954095412993 0.036239540333141917 0 0.013992582014710471 0.036433557101765886 0 0.014107034210842778 0.036605647999398618 0 0.013655301767616715 0.040512610528463326 0 0.013677102243416528 0.039018363253140585 0 0.01366388897000677 0.037048014620516087 0 0.013677102243416528 0.039018363253140585 0 0.013992582014710471 0.036433557101765886 0 0.013911378124238557 0.036302236358789486 0 0.01403186287011605 0.036398613580904279 0 0.014098327122442756 0.036495231822549594 0 0.014099085799079224 0.036542335133949513 0 0.014136316685977479 0.036555809481247162 0 0.014098327122442756 0.036495231822549594 0 0.014136316685977479 0.036555809481247162 0 0.014138374738764165 0.036498822811360299 0 0.013992582014710471 0.036433557101765886 0 0.014098327122442756 0.036495231822549594 0 0.014099085799079224 0.036542335133949513 0 0.013992582014710471 0.036433557101765886 0 0.014098327122442756 0.036495231822549594 0 0.01403186287011605 0.036398613580904279 0 0.013992582014710471 0.036433557101765886 0 0.014107034210842778 0.036605647999398618 0 0.014099085799079224 0.036542335133949513 0 0.014099085799079224 0.036542335133949513 0 0.014138580502348135 0.036617433636399806 0 0.014136316685977479 0.036555809481247162 0 0.014107034210842778 0.036605647999398618 0 0.014099085799079224 0.036542335133949513 0 0.014138580502348135 0.036617433636399806 0 0.013677102243416528 0.039018363253140585 0 0.013854143097938146 0.03883693783899457 0 0.013207493656408368 0.043463584859172427 0 0.013412262443439337 0.043642650815062148 0 0.013313865624942743 0.043858257606005306 0 0.013677102243416528 0.039018363253140585 0 0.01415079054565827 0.0401959505242869 0 0.014121894633842964 0.036594546183364891 0 0.014138580502348135 0.036617433636399806 0 0.014251991144336491 0.036858912058080381 0 0.013207493656408368 0.043463584859172427 0 0.013412262443439337 0.043642650815062148 0 0.013836487385028306 0.043518324547713157 0 0.014215297495073973 0.036697094731069094 0 0.014138580502348135 0.036617433636399806 0 0.014251991144336491 0.036858912058080381 0 0.013412262443439337 0.043642650815062148 0 0.013550164282536154 0.043740319755041376 0 0.013313865624942743 0.043858257606005306 0 0.013412262443439337 0.043642650815062148 0 0.013550164282536154 0.043740319755041376 0 0.013836487385028306 0.043518324547713157 0 0.014215297495073973 0.036697094731069094 0 0.014251991144336491 0.036858912058080381 0 0.014248987327187372 0.036752983231732768 0 0.014215297495073973 0.036697094731069094 0 0.014176987943702929 0.036597121745003465 0 0.014226617716064739 0.036628195535699001 0 0.014215297495073973 0.036697094731069094 0 0.014138580502348135 0.036617433636399806 0 0.014176987943702929 0.036597121745003465 0 0.014138580502348135 0.036617433636399806 0 0.014176987943702929 0.036597121745003465 0 0.014136316685977479 0.036555809481247162 0 0.014176987943702929 0.036597121745003465 0 0.014136316685977479 0.036555809481247162 0 0.014138374738764165 0.036498822811360299 0 0.014179559394435243 0.036445807224375362 0 0.014226617716064739 0.036628195535699001 0 0.014233257952694237 0.036479028308995305 0 0.014176987943702929 0.036597121745003465 0 0.014179559394435243 0.036445807224375362 0 0.014226617716064739 0.036628195535699001 0 0.014138374738764165 0.036498822811360299 0 0.014179559394435243 0.036445807224375362 0 0.014091605687299995 0.036398346746904987 0 0.014176987943702929 0.036597121745003465 0 0.014138374738764165 0.036498822811360299 0 0.014179559394435243 0.036445807224375362 0 0.014226617716064739 0.036628195535699001 0 0.014233257952694237 0.036479028308995305 0 0.014257066609808544 0.036668790230334439 0 0.014215297495073973 0.036697094731069094 0 0.014226617716064739 0.036628195535699001 0 0.014248987327187372 0.036752983231732768 0 0.014226617716064739 0.036628195535699001 0 0.014248987327187372 0.036752983231732768 0 0.014257066609808544 0.036668790230334439 0 0.014233257952694237 0.036479028308995305 0 0.014207813155807995 0.036189308585063723 0 0.014272510438771693 0.036449543814563126 0 0.014233257952694237 0.036479028308995305 0 0.014257066609808544 0.036668790230334439 0 0.014272510438771693 0.036449543814563126 0 0.014179559394435243 0.036445807224375362 0 0.014233257952694237 0.036479028308995305 0 0.014207813155807995 0.036189308585063723 0 0.014179559394435243 0.036445807224375362 0 0.014077418955080899 0.036224370306658996 0 0.014207813155807995 0.036189308585063723 0 0.014077418955080899 0.036224370306658996 0 0.013910321771303271 0.036111604523081139 0 0.013977740490915668 0.035857525469893556 0 0.014077418955080899 0.036224370306658996 0 0.013910321771303271 0.036111604523081139 0 0.014001944779240931 0.036284395935695248 0 0.013910321771303271 0.036111604523081139 0 0.014001944779240931 0.036284395935695248 0 0.013911378124238557 0.036302236358789486 0 0.014001944779240931 0.036284395935695248 0 0.013911378124238557 0.036302236358789486 0 0.01403186287011605 0.036398613580904279 0 0.014179559394435243 0.036445807224375362 0 0.014077418955080899 0.036224370306658996 0 0.014091605687299995 0.036398346746904987 0 0.014001944779240931 0.036284395935695248 0 0.01403186287011605 0.036398613580904279 0 0.014091605687299995 0.036398346746904987 0 0.014098327122442756 0.036495231822549594 0 0.01403186287011605 0.036398613580904279 0 0.014091605687299995 0.036398346746904987 0 0.014098327122442756 0.036495231822549594 0 0.014138374738764165 0.036498822811360299 0 0.014091605687299995 0.036398346746904987 0 0.014077418955080899 0.036224370306658996 0 0.014001944779240931 0.036284395935695248 0 0.014091605687299995 0.036398346746904987 0 0.014265637771556565 0.037204267007818516 0 0.01424859113043743 0.037165495722384576 0 0.014260930280891768 0.037497727073916083 0 0.014265637771556565 0.037204267007818516 0 0.014264680109044497 0.036899431737547568 0 0.01424859113043743 0.037165495722384576 0 0.013740792702708593 0.044216743292249269 0 0.013899019944816078 0.041494661689845919 0 0.014265637771556565 0.037204267007818516 0 0.014251991144336491 0.036858912058080381 0 0.014264680109044497 0.036899431737547568 0 0.013550164282536154 0.043740319755041376 0 0.014458464291896825 0.043517843360689965 0 0.013836487385028306 0.043518324547713157 0 0.013899019944816078 0.041494661689845919 0 0.01415079054565827 0.0401959505242869 0 0.014251991144336491 0.036858912058080381 0 0.014248987327187372 0.036752983231732768 0 0.014264680109044497 0.036899431737547568 0 0.014248987327187372 0.036752983231732768 0 0.014257066609808544 0.036668790230334439 0 0.014264680109044497 0.036899431737547568 0 0.014257066609808544 0.036668790230334439 0 0.014269384470681047 0.036672512036533066 0 0.014272510438771693 0.036449543814563126 0 0.014257066609808544 0.036668790230334439 0 0.014269384470681047 0.036672512036533066 0 0.014264680109044497 0.036899431737547568 0 0.014269384470681047 0.036672512036533066 0 0.014264680109044497 0.036899431737547568 0 0.014245989101376977 0.036841014910070913 0 0.01424859113043743 0.037165495722384576 0 0.014224611252828773 0.037024663725843746 0 0.014245989101376977 0.036841014910070913 0 0.014264680109044497 0.036899431737547568 0 0.01424859113043743 0.037165495722384576 0 0.014245989101376977 0.036841014910070913 0 0.01424859113043743 0.037165495722384576 0 0.014224611252828773 0.037024663725843746 0 0.014252427731452627 0.037364659580377664 0 0.014224611252828773 0.037024663725843746 0 0.014237323470552333 0.036740229555453162 0 0.014188100623071279 0.036732273262402464 0 0.014224611252828773 0.037024663725843746 0 0.014188100623071279 0.036732273262402464 0 0.014260569540178666 0.037264509869698134 0 0.014224611252828773 0.037024663725843746 0 0.014245989101376977 0.036841014910070913 0 0.014237323470552333 0.036740229555453162 0 0.014237323470552333 0.036740229555453162 0 0.014293834472807002 0.036524927146241414 0 0.014299900057909022 0.036713792742944985 0 0.014245989101376977 0.036841014910070913 0 0.014237323470552333 0.036740229555453162 0 0.014293834472807002 0.036524927146241414 0 0.014269384470681047 0.036672512036533066 0 0.014245989101376977 0.036841014910070913 0 0.014293834472807002 0.036524927146241414 0 0.014269384470681047 0.036672512036533066 0 0.014293834472807002 0.036524927146241414 0 0.014272510438771693 0.036449543814563126 0 0.014473191472439841 0.035332036477529701 0 0.014544161927494246 0.035420990101795669 0 0.014369035217314594 0.03645574191145929 0 0.014299900057909022 0.036713792742944985 0 0.014264315796619072 0.03725620929299768 0 0.014293834472807002 0.036524927146241414 0 0.014369035217314594 0.03645574191145929 0 0.014299900057909022 0.036713792742944985 0 0.014299900057909022 0.036713792742944985 0 0.014188100623071279 0.036732273262402464 0 0.014264315796619072 0.03725620929299768 0 0.014237323470552333 0.036740229555453162 0 0.014299900057909022 0.036713792742944985 0 0.014188100623071279 0.036732273262402464 0 0.013977740490915668 0.035857525469893556 0 0.014207813155807995 0.036189308585063723 0 0.014125798392339363 0.035342791176185814 0 0.014207813155807995 0.036189308585063723 0 0.014301590847502894 0.036143503919777303 0 0.014125798392339363 0.035342791176185814 0 0.013739476749020983 0.03550874822550084 0 0.013977740490915668 0.035857525469893556 0 0.014125798392339363 0.035342791176185814 0 0.014077418955080899 0.036224370306658996 0 0.013977740490915668 0.035857525469893556 0 0.014207813155807995 0.036189308585063723 0 0.014207813155807995 0.036189308585063723 0 0.014272510438771693 0.036449543814563126 0 0.014301590847502894 0.036143503919777303 0 0.014293834472807002 0.036524927146241414 0 0.014272510438771693 0.036449543814563126 0 0.014301590847502894 0.036143503919777303 0 0.014765639554318153 0.034158414628130289 0 0.014424621461592088 0.034412717502175831 0 0.014125798392339363 0.035342791176185814 0 0.014473191472439841 0.035332036477529701 0 0.014055826096977928 0.035381299691445919 0 0.014369035217314594 0.03645574191145929 0 0.014301590847502894 0.036143503919777303 0 0.014125798392339363 0.035342791176185814 0 0.014293834472807002 0.036524927146241414 0 0.014369035217314594 0.03645574191145929 0 0.014301590847502894 0.036143503919777303 0 0.014424621461592088 0.034412717502175831 0 0.014125798392339363 0.035342791176185814 0 0.01416157868946792 0.034114639110584474 0 0.013590238015456528 0.034942766603946039 0 0.014125798392339363 0.035342791176185814 0 0.01416157868946792 0.034114639110584474 0 0.01416157868946792 0.034114639110584474 0 0.014467409938190168 0.03363012634148628 0 0.014554262953156809 0.034006662206768283 0 0.014424621461592088 0.034412717502175831 0 0.01416157868946792 0.034114639110584474 0 0.014554262953156809 0.034006662206768283 0 0.01416157868946792 0.034114639110584474 0 0.014105364101211482 0.033580398733455898 0 0.014467409938190168 0.03363012634148628 0 0.014105364101211482 0.033580398733455898 0 0.014467409938190168 0.03363012634148628 0 0.014442659174458257 0.03326755349376586 0 0.01400797051617169 0.033152017403646136 0 0.014105364101211482 0.033580398733455898 0 0.014442659174458257 0.03326755349376586 0 0.014576196601578877 0.033054699486374108 0 0.014551294876431045 0.03391767044659403 0 0.014221397979441155 0.032976412395618049 0 0.014554262953156809 0.034006662206768283 0 0.014552472212869871 0.033310639734779206 0 0.014467409938190168 0.03363012634148628 0 0.014917338392298531 0.033188194232272858 0 0.014554262953156809 0.034006662206768283 0 0.014221397979441155 0.032976412395618049 0 0.014552472212869871 0.033310639734779206 0 0.014411637751551932 0.032942282141513402 0 0.014467409938190168 0.03363012634148628 0 0.014442659174458257 0.03326755349376586 0 0.014917338392298531 0.033188194232272858 0 0.014554262953156809 0.034006662206768283 0 0.014678926217518651 0.033760095435909458 0 0.014552472212869871 0.033310639734779206 0 0.014765639554318153 0.034158414628130289 0 0.014424621461592088 0.034412717502175831 0 0.014554262953156809 0.034006662206768283 0 0.014765639554318153 0.034158414628130289 0 0.014554262953156809 0.034006662206768283 0 0.014678926217518651 0.033760095435909458 0 0.014765639554318153 0.034158414628130289 0 0.014794800878827065 0.033650300748624379 0 0.014678926217518651 0.033760095435909458 0 0.014765639554318153 0.034158414628130289 0 0.014794800878827065 0.033650300748624379 0 0.014925239199465113 0.033536481014496369 0 0.014794800878827065 0.033650300748624379 0 0.014841144531804207 0.03331019379839905 0 0.014717809291043393 0.033440558947203824 0 0.014678926217518651 0.033760095435909458 0 0.014552472212869871 0.033310639734779206 0 0.014717809291043393 0.033440558947203824 0 0.014794800878827065 0.033650300748624379 0 0.014678926217518651 0.033760095435909458 0 0.014717809291043393 0.033440558947203824 0 0.014925239199465113 0.033536481014496369 0 0.014841144531804207 0.03331019379839905 0 0.014992231180428313 0.033088933461445931 0 0.014794800878827065 0.033650300748624379 0 0.014925239199465113 0.033536481014496369 0 0.014841144531804207 0.03331019379839905 0 0.014841144531804207 0.03331019379839905 0 0.014813604808759432 0.032917879591470155 0 0.014992231180428313 0.033088933461445931 0 0.014841144531804207 0.03331019379839905 0 0.014813604808759432 0.032917879591470155 0 0.014692954755126967 0.03310459917145437 0 0.014813604808759432 0.032917879591470155 0 0.014919236687626914 0.032672279781993191 0 0.014992231180428313 0.033088933461445931 0 0.014552472212869871 0.033310639734779206 0 0.014717809291043393 0.033440558947203824 0 0.014692954755126967 0.03310459917145437 0 0.014841144531804207 0.03331019379839905 0 0.014717809291043393 0.033440558947203824 0 0.014692954755126967 0.03310459917145437 0 0.014813604808759432 0.032917879591470155 0 0.014692954755126967 0.03310459917145437 0 0.014628713879104792 0.032731536613124425 0 0.014552472212869871 0.033310639734779206 0 0.014692954755126967 0.03310459917145437 0 0.014538901792931358 0.032930766496367794 0 0.014552472212869871 0.033310639734779206 0 0.014538901792931358 0.032930766496367794 0 0.014411637751551932 0.032942282141513402 0 0.014692954755126967 0.03310459917145437 0 0.014538901792931358 0.032930766496367794 0 0.014628713879104792 0.032731536613124425 0 0.014538901792931358 0.032930766496367794 0 0.014467697890407669 0.032775076201442772 0 0.014411637751551932 0.032942282141513402 0 0.014538901792931358 0.032930766496367794 0 0.014467697890407669 0.032775076201442772 0 0.014628713879104792 0.032731536613124425 0 0.014628713879104792 0.032731536613124425 0 0.014805482356885566 0.032581158519810235 0 0.014644626611464569 0.032482486714249137 0 0.014628713879104792 0.032731536613124425 0 0.014485443493553688 0.032632678437753464 0 0.014644626611464569 0.032482486714249137 0 0.014467697890407669 0.032775076201442772 0 0.014628713879104792 0.032731536613124425 0 0.014485443493553688 0.032632678437753464 0 0.014813604808759432 0.032917879591470155 0 0.014805482356885566 0.032581158519810235 0 0.014919236687626914 0.032672279781993191 0 0.014813604808759432 0.032917879591470155 0 0.014628713879104792 0.032731536613124425 0 0.014805482356885566 0.032581158519810235 0 0.014805482356885566 0.032581158519810235 0 0.01481533743608553 0.032404033571545268 0 0.01489856775752991 0.032337188380794794 0 0.014805482356885566 0.032581158519810235 0 0.01481533743608553 0.032404033571545268 0 0.014644626611464569 0.032482486714249137 0 0.014846824448995828 0.031349376478821488 0 0.014557540771381749 0.032079775733660602 0 0.01428719612739628 0.031997170003415315 0 0.014576141187328489 0.032163705959273411 0 0.014465552154763688 0.032427180348201939 0 0.014644626611464569 0.032482486714249137 0 0.014576141187328489 0.032163705959273411 0 0.01481533743608553 0.032404033571545268 0 0.014644626611464569 0.032482486714249137 0 0.014485443493553688 0.032632678437753464 0 0.014465552154763688 0.032427180348201939 0 0.014644626611464569 0.032482486714249137 0 0.014557540771381749 0.032079775733660602 0 0.01428719612739628 0.031997170003415315 0 0.014276573567111886 0.032746168447541711 0 0.014811728189956347 0.031024570763252171 0 0.015070157794985689 0.031682245254915059 0 0.014524463749754562 0.03137180428832833 0 0.015070157794985689 0.031682245254915059 0 0.014890413997386373 0.03224994793140986 0 0.014524463749754562 0.03137180428832833 0 0.013686457026628698 0.031499987343536755 0 0.014890413997386373 0.03224994793140986 0 0.014524463749754562 0.03137180428832833 0 0.0139076593695882 0.03200088873721272 0 0.014871423472521482 0.032245628186895615 0 0.01411529254250631 0.030902648289435265 0 0.013686457026628698 0.031499987343536755 0 0.014524463749754562 0.03137180428832833 0 0.014000854173381195 0.032499967320564184 0 0.014890413997386373 0.03224994793140986 0 0.014412596135038648 0.03283974563323195 0 0.014000854173381195 0.032499967320564184 0 0.01400797051617169 0.033152017403646136 0 0.014412596135038648 0.03283974563323195 0 0.01400797051617169 0.033152017403646136 0 0.014442659174458257 0.03326755349376586 0 0.014412596135038648 0.03283974563323195 0 0.014442659174458257 0.03326755349376586 0 0.014917338392298531 0.033188194232272858 0 0.014412596135038648 0.03283974563323195 0 0.014477806408920024 0.032364267792389059 0 0.014320434613599725 0.032665872027972852 0 0.014576196601578877 0.033054699486374108 0 0.014701683521535188 0.031892809217062022 0 0.014485443493553688 0.032632678437753464 0 0.014465552154763688 0.032427180348201939 0 0.014276573567111886 0.032746168447541711 0 0.014221397979441155 0.032976412395618049 0 0.01428719612739628 0.031997170003415315 0 0.014276573567111886 0.032746168447541711 0 0.014917338392298531 0.033188194232272858 0 0.014890413997386373 0.03224994793140986 0 0.014412596135038648 0.03283974563323195 0 0.014917338392298531 0.033188194232272858 0 0.015070157794985689 0.031682245254915059 0 0.014890413997386373 0.03224994793140986 0 0.014221397979441155 0.032976412395618049 0 0.014411637751551932 0.032942282141513402 0 0.014276573567111886 0.032746168447541711 0 0.014467697890407669 0.032775076201442772 0 0.014411637751551932 0.032942282141513402 0 0.014276573567111886 0.032746168447541711 0 0.014467697890407669 0.032775076201442772 0 0.014485443493553688 0.032632678437753464 0 0.014276573567111886 0.032746168447541711 0 0.016083665135284472 0.032252983426825338 0 0.015909454506542131 0.03167326856199789 0 0.015356960894257197 0.032518566551320481 0 0.016083665135284472 0.032252983426825338 0 0.01650289197421961 0.031746274950764423 0 0.016586891091391661 0.032404802267165828 0 0.016083665135284472 0.032252983426825338 0 0.015909454506542131 0.03167326856199789 0 0.01650289197421961 0.031746274950764423 0 0.016254409017863666 0.031116398921421394 0 0.015909454506542131 0.03167326856199789 0 0.01650289197421961 0.031746274950764423 0 0.015909454506542131 0.03167326856199789 0 0.015313170296485306 0.031426931757552609 0 0.015356960894257197 0.032518566551320481 0 0.014555445765612145 0.031295297724985301 0 0.013868690080256681 0.03157051356612009 0 0.01489856775752991 0.032337188380794794 0 0.014325324090462761 0.032018861413321609 0 0.014851071417236805 0.032319119576235601 0 0.014555445765612145 0.031295297724985301 0 0.015313170296485306 0.031426931757552609 0 0.01489856775752991 0.032337188380794794 0 0.014805482356885566 0.032581158519810235 0 0.01489856775752991 0.032337188380794794 0 0.014919236687626914 0.032672279781993191 0 0.01489856775752991 0.032337188380794794 0 0.014919236687626914 0.032672279781993191 0 0.015356960894257197 0.032518566551320481 0 0.015313170296485306 0.031426931757552609 0 0.01489856775752991 0.032337188380794794 0 0.015356960894257197 0.032518566551320481 0 0.015356960894257197 0.032518566551320481 0 0.015275320861450038 0.033193662674542157 0 0.015899148212731789 0.032851269545033382 0 0.014919236687626914 0.032672279781993191 0 0.015356960894257197 0.032518566551320481 0 0.014992231180428313 0.033088933461445931 0 0.015356960894257197 0.032518566551320481 0 0.014992231180428313 0.033088933461445931 0 0.015275320861450038 0.033193662674542157 0 0.014544161927494246 0.035420990101795669 0 0.014044279077601925 0.035764251330532008 0 0.014925239199465113 0.033536481014496369 0 0.014992231180428313 0.033088933461445931 0 0.015275320861450038 0.033193662674542157 0 0.014264315796619072 0.03725620929299768 0 0.012914182716170532 0.038301971066344621 0 0.013275184560155879 0.036935170743704331 0 0.012914182716170532 0.038301971066344621 0 0.010381357942412245 0.039645607632874454 0 0.011667297996509245 0.037060149932398562 0 0.010381357942412245 0.039645607632874454 0 0.0097006516142994336 0.037058185190032747 0 0.011667297996509245 0.037060149932398562 0 0.014044279077601925 0.035764251330532008 0 0.013134632758983099 0.03623894205036908 0 0.016083665135284472 0.032252983426825338 0 0.015356960894257197 0.032518566551320481 0 0.015899148212731789 0.032851269545033382 0 0.010381357942412245 0.039645607632874454 0 0.0085327684007987219 0.038229954043465374 0 0.0070680112207915074 0.040949919959437975 0 0.013134632758983099 0.03623894205036908 0 0.011647768813900578 0.036688252701280032 0 0.016083665135284472 0.032252983426825338 0 0.015899148212731789 0.032851269545033382 0 0.016586891091391661 0.032404802267165828 0 0.010381357942412245 0.039645607632874454 0 0.0085327684007987219 0.038229954043465374 0 0.0097006516142994336 0.037058185190032747 0 0.0085327684007987219 0.038229954043465374 0 0.0081592325578319965 0.036535053362240041 0 0.0097006516142994336 0.037058185190032747 0 0.0081592325578319965 0.036535053362240041 0 0.0092015148998211387 0.035224118212957754 0 0.00725731066846902 0.035282629903042595 0 0.0081592325578319965 0.036535053362240041 0 0.0097006516142994336 0.037058185190032747 0 0.0092015148998211387 0.035224118212957754 0 0.011553859019264699 0.036963323119949258 0 0.0096694008167363694 0.035621242470374431 0 0.011667297996509245 0.037060149932398562 0 0.011423342232142714 0.036193698043195575 0 0.010181295648055819 0.036021156426560404 0 0.0097006516142994336 0.037058185190032747 0 0.011667297996509245 0.037060149932398562 0 0.0092015148998211387 0.035224118212957754 0 0.011667297996509245 0.037060149932398562 0 0.011423342232142714 0.036193698043195575 0 0.012428046172731364 0.036556941455946991 0 0.01190181533373561 0.035544264281054012 0 0.010507234994319629 0.03509081388444299 0 0.010724205728753638 0.034622059865337666 0 0.010937598465150078 0.035773597611153791 0 0.011423342232142714 0.036193698043195575 0 0.010181295648055819 0.036021156426560404 0 0.01190181533373561 0.035544264281054012 0 0.012514552811300043 0.035747637737549472 0 0.010724205728753638 0.034622059865337666 0 0.013448111849910845 0.036632983658015664 0 0.012555118704024735 0.036580487752651443 0 0.011741167895064476 0.035481934962497942 0 0.010484108378153971 0.03518911951525508 0 0.010937598465150078 0.035773597611153791 0 0.01190181533373561 0.035544264281054012 0 0.010198133545093913 0.035186662714963492 0 0.014511488282532653 0.038008566883869929 0 0.0143896281491085 0.037530010343873772 0 0.014808217961006795 0.038617003029744315 0 0.011423342232142714 0.036193698043195575 0 0.01190181533373561 0.035544264281054012 0 0.012428046172731364 0.036556941455946991 0 0.010937598465150078 0.035773597611153791 0 0.011423342232142714 0.036193698043195575 0 0.01190181533373561 0.035544264281054012 0 0.010507234994319629 0.03509081388444299 0 0.010724205728753638 0.034622059865337666 0 0.0079428721565298413 0.034438228422430599 0 0.010198133545093913 0.035186662714963492 0 0.010181295648055819 0.036021156426560404 0 0.0084274213789804729 0.034844232996936467 0 0.010937598465150078 0.035773597611153791 0 0.010198133545093913 0.035186662714963492 0 0.010181295648055819 0.036021156426560404 0 0.014188100623071279 0.036732273262402464 0 0.014264315796619072 0.03725620929299768 0 0.013275184560155879 0.036935170743704331 0 0.014188100623071279 0.036732273262402464 0 0.013275184560155879 0.036935170743704331 0 0.012514552811300043 0.035747637737549472 0 0.013275184560155879 0.036935170743704331 0 0.012428046172731364 0.036556941455946991 0 0.012514552811300043 0.035747637737549472 0 0.012914182716170532 0.038301971066344621 0 0.013275184560155879 0.036935170743704331 0 0.012428046172731364 0.036556941455946991 0 0.012914182716170532 0.038301971066344621 0 0.011667297996509245 0.037060149932398562 0 0.012428046172731364 0.036556941455946991 0 0.01190181533373561 0.035544264281054012 0 0.012428046172731364 0.036556941455946991 0 0.012514552811300043 0.035747637737549472 0 0.014511488282532653 0.038008566883869929 0 0.0143896281491085 0.037530010343873772 0 0.014379629638249167 0.037850004709578049 0 0.0143896281491085 0.037530010343873772 0 0.014296710339827221 0.037581565930855307 0 0.014379629638249167 0.037850004709578049 0 0.014188100623071279 0.036732273262402464 0 0.0143896281491085 0.037530010343873772 0 0.014260569540178666 0.037264509869698134 0 0.0143896281491085 0.037530010343873772 0 0.014260569540178666 0.037264509869698134 0 0.014296710339827221 0.037581565930855307 0 0.014091925801047298 0.036724747333603834 0 0.013448111849910845 0.036632983658015664 0 0.014224611252828773 0.037024663725843746 0 0.014260569540178666 0.037264509869698134 0 0.014252427731452627 0.037364659580377664 0 0.01424859113043743 0.037165495722384576 0 0.014252427731452627 0.037364659580377664 0 0.014260930280891768 0.037497727073916083 0 0.014252427731452627 0.037364659580377664 0 0.01427553926534394 0.037698136374732349 0 0.014260930280891768 0.037497727073916083 0 0.014260569540178666 0.037264509869698134 0 0.014252427731452627 0.037364659580377664 0 0.014296710339827221 0.037581565930855307 0 0.014252427731452627 0.037364659580377664 0 0.014296710339827221 0.037581565930855307 0 0.01427553926534394 0.037698136374732349 0 0.01427553926534394 0.037698136374732349 0 0.014271610999377154 0.037778080179078341 0 0.014260930280891768 0.037497727073916083 0 0.01427553926534394 0.037698136374732349 0 0.014310501818176058 0.038005911069936255 0 0.014320343751374452 0.037856171766413808 0 0.01427553926534394 0.037698136374732349 0 0.014310501818176058 0.038005911069936255 0 0.014271610999377154 0.037778080179078341 0 0.014310501818176058 0.038005911069936255 0 0.014320343751374452 0.037856171766413808 0 0.014373963077481795 0.038121535201738894 0 0.014296710339827221 0.037581565930855307 0 0.01427553926534394 0.037698136374732349 0 0.014320343751374452 0.037856171766413808 0 0.014296710339827221 0.037581565930855307 0 0.014320343751374452 0.037856171766413808 0 0.014379629638249167 0.037850004709578049 0 0.014320343751374452 0.037856171766413808 0 0.014379629638249167 0.037850004709578049 0 0.014373963077481795 0.038121535201738894 0 0.014511488282532653 0.038008566883869929 0 0.014379629638249167 0.037850004709578049 0 0.014471624755468884 0.038191807273016631 0 0.014379629638249167 0.037850004709578049 0 0.014373963077481795 0.038121535201738894 0 0.014471624755468884 0.038191807273016631 0 0.014310501818176058 0.038005911069936255 0 0.014394087081889818 0.03838359601572737 0 0.014373963077481795 0.038121535201738894 0 0.014394087081889818 0.03838359601572737 0 0.014373963077481795 0.038121535201738894 0 0.014471624755468884 0.038191807273016631 0 0.01429850645596438 0.039268903952075059 0 0.014815724946517854 0.039347493807205564 0 0.01452404005141061 0.040890484853435521 0 0.014378054842083685 0.041307149980331657 0 0.014591333229671087 0.039255888524650374 0 0.014394087081889818 0.03838359601572737 0 0.014249256317779442 0.03783376882613422 0 0.014591333229671087 0.039255888524650374 0 0.01452404005141061 0.040890484853435521 0 0.014378054842083685 0.041307149980331657 0 0.014228048515946381 0.041839524192243321 0 0.014310501818176058 0.038005911069936255 0 0.014249256317779442 0.03783376882613422 0 0.014271610999377154 0.037778080179078341 0 0.014310501818176058 0.038005911069936255 0 0.014394087081889818 0.03838359601572737 0 0.014249256317779442 0.03783376882613422 0 0.013899019944816078 0.041494661689845919 0 0.014055261497754587 0.04216637028530569 0 0.014265637771556565 0.037204267007818516 0 0.014249256317779442 0.03783376882613422 0 0.014260930280891768 0.037497727073916083 0 0.013899019944816078 0.041494661689845919 0 0.01429850645596438 0.039268903952075059 0 0.012437025889660126 0.041660296674415717 0 0.014378054842083685 0.041307149980331657 0 0.014228048515946381 0.041839524192243321 0 0.014249256317779442 0.03783376882613422 0 0.014271610999377154 0.037778080179078341 0 0.014260930280891768 0.037497727073916083 0 0.014705210425978716 0.0388749453397811 0 0.014808217961006795 0.038617003029744315 0 0.014241542487406259 0.03934556694957779 0 0.014734147273376033 0.03889335172504204 0 0.014705210425978716 0.0388749453397811 0 0.014734489465570676 0.038658064322433711 0 0.014734147273376033 0.03889335172504204 0 0.014705210425978716 0.0388749453397811 0 0.014681151832734003 0.038983909988356553 0 0.014705210425978716 0.0388749453397811 0 0.014808217961006795 0.038617003029744315 0 0.014734489465570676 0.038658064322433711 0 0.014511488282532653 0.038008566883869929 0 0.014808217961006795 0.038617003029744315 0 0.014630144391111103 0.038409370041749706 0 0.014808217961006795 0.038617003029744315 0 0.014734489465570676 0.038658064322433711 0 0.014630144391111103 0.038409370041749706 0 0.014734489465570676 0.038658064322433711 0 0.014630144391111103 0.038409370041749706 0 0.014606705992381303 0.038574472624792362 0 0.014511488282532653 0.038008566883869929 0 0.014630144391111103 0.038409370041749706 0 0.014471624755468884 0.038191807273016631 0 0.014630144391111103 0.038409370041749706 0 0.014471624755468884 0.038191807273016631 0 0.014606705992381303 0.038574472624792362 0 0.014394087081889818 0.03838359601572737 0 0.014606705992381303 0.038574472624792362 0 0.014591333229671087 0.039255888524650374 0 0.014394087081889818 0.03838359601572737 0 0.014471624755468884 0.038191807273016631 0 0.014606705992381303 0.038574472624792362 0 0.014734147273376033 0.03889335172504204 0 0.014606705992381303 0.038574472624792362 0 0.014591333229671087 0.039255888524650374 0 0.014734147273376033 0.03889335172504204 0 0.014734489465570676 0.038658064322433711 0 0.014606705992381303 0.038574472624792362 0 0.01452404005141061 0.040890484853435521 0 0.014591333229671087 0.039255888524650374 0 0.014597336968540662 0.040169040110972665 0 0.014591333229671087 0.039255888524650374 0 0.014597336968540662 0.040169040110972665 0 0.014439559513404521 0.039818915359539186 0 0.014591333229671087 0.039255888524650374 0 0.014683232079852835 0.039153752351138459 0 0.014439559513404521 0.039818915359539186 0 0.014683232079852835 0.039153752351138459 0 0.014439559513404521 0.039818915359539186 0 0.014739753099517005 0.038901332554486037 0 0.014734147273376033 0.03889335172504204 0 0.014591333229671087 0.039255888524650374 0 0.014683232079852835 0.039153752351138459 0 0.014734147273376033 0.03889335172504204 0 0.014683232079852835 0.039153752351138459 0 0.014681151832734003 0.038983909988356553 0 0.014683232079852835 0.039153752351138459 0 0.014681151832734003 0.038983909988356553 0 0.014739753099517005 0.038901332554486037 0 0.014372470630264644 0.039491604667298091 0 0.012988070952508294 0.038923658167443843 0 0.014591462371685309 0.038621836547215412 0 0.010227675661037388 0.035535134322118828 0 0.011385869383178194 0.038821361005598111 0 0.014439559513404521 0.039818915359539186 0 0.014591462371685309 0.038621836547215412 0 0.011385869383178194 0.038821361005598111 0 0.014741704945401838 0.0402694910600397 0 0.014591462371685309 0.038621836547215412 0 0.01445323847069039 0.043185603698178011 0 0.014597336968540662 0.040169040110972665 0 0.014741704945401838 0.0402694910600397 0 0.014625201744100957 0.041017811422888004 0 0.014597336968540662 0.040169040110972665 0 0.014439559513404521 0.039818915359539186 0 0.014741704945401838 0.0402694910600397 0 0.014439559513404521 0.039818915359539186 0 0.014741704945401838 0.0402694910600397 0 0.014591462371685309 0.038621836547215412 0 0.01390357539952246 0.04194068058525572 0 0.014137338517371067 0.042961723243657005 0 0.013852297732550809 0.045157093113735856 0 0.014244171144223329 0.044382921712147749 0 0.01445323847069039 0.043185603698178011 0 0.013852297732550809 0.045157093113735856 0 0.013689325370105537 0.04482744214704764 0 0.014244171144223329 0.044382921712147749 0 0.01390357539952246 0.04194068058525572 0 0.011170229130308651 0.040845828521689914 0 0.013852297732550809 0.045157093113735856 0 0.013062402750756544 0.045248769366170789 0 0.01246092443968228 0.046124833712878191 0 0.013852297732550809 0.045157093113735856 0 0.013062402750756544 0.045248769366170789 0 0.013689325370105537 0.04482744214704764 0 0.013062402750756544 0.045248769366170789 0 0.013060047457577429 0.044801540735666424 0 0.013689325370105537 0.04482744214704764 0 0.013060047457577429 0.044801540735666424 0 0.013689325370105537 0.04482744214704764 0 0.013615898527105619 0.044622871764347705 0 0.013689325370105537 0.04482744214704764 0 0.013615898527105619 0.044622871764347705 0 0.014244171144223329 0.044382921712147749 0 0.013615898527105619 0.044622871764347705 0 0.01397657140415717 0.044513657933307256 0 0.014244171144223329 0.044382921712147749 0 0.01397657140415717 0.044513657933307256 0 0.013443137608742639 0.044384359020601449 0 0.013923147911093536 0.044358532342046904 0 0.013615898527105619 0.044622871764347705 0 0.01397657140415717 0.044513657933307256 0 0.013443137608742639 0.044384359020601449 0 0.013060047457577429 0.044801540735666424 0 0.013443137608742639 0.044384359020601449 0 0.012703200792958093 0.044253280759389439 0 0.013060047457577429 0.044801540735666424 0 0.013615898527105619 0.044622871764347705 0 0.013443137608742639 0.044384359020601449 0 0.014261887476166852 0.044487932341075294 0 0.014456469754806795 0.044676397849658572 0 0.014327789538582193 0.044579899639821952 0 0.01412664571290588 0.044497098089154689 0 0.014261887476166852 0.044487932341075294 0 0.014327789538582193 0.044579899639821952 0 0.01397657140415717 0.044513657933307256 0 0.01412664571290588 0.044497098089154689 0 0.013923147911093536 0.044358532342046904 0 0.01397657140415717 0.044513657933307256 0 0.01412664571290588 0.044497098089154689 0 0.014261887476166852 0.044487932341075294 0 0.01412664571290588 0.044497098089154689 0 0.013923147911093536 0.044358532342046904 0 0.014327789538582193 0.044579899639821952 0 0.01397657140415717 0.044513657933307256 0 0.014244171144223329 0.044382921712147749 0 0.014261887476166852 0.044487932341075294 0 0.014244171144223329 0.044382921712147749 0 0.014261887476166852 0.044487932341075294 0 0.014246145779096917 0.044019762945183886 0 0.014261887476166852 0.044487932341075294 0 0.014246145779096917 0.044019762945183886 0 0.014292019246875108 0.04442305525932156 0 0.014246145779096917 0.044019762945183886 0 0.01445323847069039 0.043185603698178011 0 0.014125715093091452 0.043461581633408929 0 0.014244171144223329 0.044382921712147749 0 0.014246145779096917 0.044019762945183886 0 0.01445323847069039 0.043185603698178011 0 0.014741704945401838 0.0402694910600397 0 0.01445323847069039 0.043185603698178011 0 0.014625201744100957 0.041017811422888004 0 0.01445323847069039 0.043185603698178011 0 0.014383177470753749 0.041982920196269514 0 0.014625201744100957 0.041017811422888004 0 0.01452404005141061 0.040890484853435521 0 0.014228048515946381 0.041839524192243321 0 0.014383177470753749 0.041982920196269514 0 0.01452404005141061 0.040890484853435521 0 0.014597336968540662 0.040169040110972665 0 0.014625201744100957 0.041017811422888004 0 0.01452404005141061 0.040890484853435521 0 0.014383177470753749 0.041982920196269514 0 0.014625201744100957 0.041017811422888004 0 0.01445323847069039 0.043185603698178011 0 0.014180063817684153 0.042613776486938398 0 0.014125715093091452 0.043461581633408929 0 0.014190931212433356 0.04330795617602981 0 0.014228048515946381 0.041839524192243321 0 0.014180063817684153 0.042613776486938398 0 0.01445323847069039 0.043185603698178011 0 0.014383177470753749 0.041982920196269514 0 0.014180063817684153 0.042613776486938398 0 0.014228048515946381 0.041839524192243321 0 0.014383177470753749 0.041982920196269514 0 0.014180063817684153 0.042613776486938398 0 0.014125715093091452 0.043461581633408929 0 0.014118995875060653 0.044244694792200633 0 0.014174997890457744 0.044141234002299051 0 0.014190931212433356 0.04330795617602981 0 0.014125715093091452 0.043461581633408929 0 0.014118995875060653 0.044244694792200633 0 0.014190931212433356 0.04330795617602981 0 0.014180063817684153 0.042613776486938398 0 0.014125715093091452 0.043461581633408929 0 0.013550164282536154 0.043740319755041376 0 0.014190931212433356 0.04330795617602981 0 0.014118995875060653 0.044244694792200633 0 0.014118995875060653 0.044244694792200633 0 0.014455538358050414 0.044651698912023655 0 0.014670349765083419 0.044882564326849235 0 0.014118995875060653 0.044244694792200633 0 0.014455538358050414 0.044651698912023655 0 0.014174997890457744 0.044141234002299051 0 0.014246145779096917 0.044019762945183886 0 0.014174997890457744 0.044141234002299051 0 0.014292019246875108 0.04442305525932156 0 0.014455538358050414 0.044651698912023655 0 0.014174997890457744 0.044141234002299051 0 0.014292019246875108 0.04442305525932156 0 0.014246145779096917 0.044019762945183886 0 0.014125715093091452 0.043461581633408929 0 0.014174997890457744 0.044141234002299051 0 0.015504170044084054 0.045821045428207939 0 0.015296013276362085 0.045583929425676052 0 0.014972331305983468 0.045572481144279697 0 0.015296013276362085 0.045583929425676052 0 0.01512939568882944 0.045291206465569313 0 0.015433686690441834 0.045547403805722149 0 0.015296013276362085 0.045583929425676052 0 0.014972331305983468 0.045572481144279697 0 0.01512939568882944 0.045291206465569313 0 0.013550164282536154 0.043740319755041376 0 0.014118995875060653 0.044244694792200633 0 0.013313865624942743 0.043858257606005306 0 0.014041898764097524 0.04424428789335326 0 0.014421343378936047 0.045154803392570331 0 0.014118995875060653 0.044244694792200633 0 0.014972331305983468 0.045572481144279697 0 0.014670349765083419 0.044882564326849235 0 0.014972331305983468 0.045572481144279697 0 0.014670349765083419 0.044882564326849235 0 0.01512939568882944 0.045291206465569313 0 0.014455538358050414 0.044651698912023655 0 0.014670349765083419 0.044882564326849235 0 0.01490810031058154 0.045041524027620593 0 0.014670349765083419 0.044882564326849235 0 0.01490810031058154 0.045041524027620593 0 0.01512939568882944 0.045291206465569313 0 0.01490810031058154 0.045041524027620593 0 0.01512939568882944 0.045291206465569313 0 0.015354969883191958 0.045410232487305364 0 0.01512939568882944 0.045291206465569313 0 0.015354969883191958 0.045410232487305364 0 0.015433686690441834 0.045547403805722149 0 0.01490810031058154 0.045041524027620593 0 0.015354969883191958 0.045410232487305364 0 0.015080252813009632 0.045132756166556057 0 0.015354969883191958 0.045410232487305364 0 0.015080252813009632 0.045132756166556057 0 0.015572474744649255 0.045689967990119922 0 0.014455538358050414 0.044651698912023655 0 0.01490810031058154 0.045041524027620593 0 0.015080252813009632 0.045132756166556057 0 0.015080252813009632 0.045132756166556057 0 0.014765065056052927 0.044883133253701885 0 0.015097970097634418 0.045128491471912752 0 0.015080252813009632 0.045132756166556057 0 0.015845502188900927 0.046170222026653163 0 0.015572474744649255 0.045689967990119922 0 0.015127429100004877 0.045261520917104191 0 0.015441164056897553 0.0457442195025567 0 0.015080252813009632 0.045132756166556057 0 0.015131494079876478 0.045286889389307576 0 0.015097970097634418 0.045128491471912752 0 0.014292019246875108 0.04442305525932156 0 0.014568286676333959 0.044764107997906505 0 0.014456469754806795 0.044676397849658572 0 0.014261887476166852 0.044487932341075294 0 0.014292019246875108 0.04442305525932156 0 0.014456469754806795 0.044676397849658572 0 0.014455538358050414 0.044651698912023655 0 0.014292019246875108 0.04442305525932156 0 0.014568286676333959 0.044764107997906505 0 0.014455538358050414 0.044651698912023655 0 0.015080252813009632 0.045132756166556057 0 0.014568286676333959 0.044764107997906505 0 0.015080252813009632 0.045132756166556057 0 0.014568286676333959 0.044764107997906505 0 0.014765065056052927 0.044883133253701885 0 0.014568286676333959 0.044764107997906505 0 0.014765065056052927 0.044883133253701885 0 0.014456469754806795 0.044676397849658572 0 0.014456469754806795 0.044676397849658572 0 0.014601908724915489 0.044716199163923137 0 0.014327789538582193 0.044579899639821952 0 0.014765065056052927 0.044883133253701885 0 0.014456469754806795 0.044676397849658572 0 0.014601908724915489 0.044716199163923137 0 0.014601908724915489 0.044716199163923137 0 0.014897741915621501 0.044925920901936013 0 0.014714142679336082 0.044655243255512851 0 0.014765065056052927 0.044883133253701885 0 0.014601908724915489 0.044716199163923137 0 0.014897741915621501 0.044925920901936013 0 0.014765065056052927 0.044883133253701885 0 0.014897741915621501 0.044925920901936013 0 0.015097970097634418 0.045128491471912752 0 0.014897741915621501 0.044925920901936013 0 0.014714142679336082 0.044655243255512851 0 0.014968632067742006 0.044873653242667816 0 0.014897741915621501 0.044925920901936013 0 0.015130972076782814 0.045186920647392423 0 0.014968632067742006 0.044873653242667816 0 0.014714142679336082 0.044655243255512851 0 0.014717617565376612 0.044433231329326334 0 0.014968632067742006 0.044873653242667816 0 0.014601908724915489 0.044716199163923137 0 0.014714142679336082 0.044655243255512851 0 0.014296963043096101 0.044381990260638771 0 0.014714142679336082 0.044655243255512851 0 0.014717617565376612 0.044433231329326334 0 0.014296963043096101 0.044381990260638771 0 0.015131494079876478 0.045286889389307576 0 0.015097970097634418 0.045128491471912752 0 0.015254645030716574 0.045415379518194604 0 0.014897741915621501 0.044925920901936013 0 0.015097970097634418 0.045128491471912752 0 0.015130972076782814 0.045186920647392423 0 0.015097970097634418 0.045128491471912752 0 0.015130972076782814 0.045186920647392423 0 0.015254645030716574 0.045415379518194604 0 0.015130972076782814 0.045186920647392423 0 0.015254645030716574 0.045415379518194604 0 0.015423432603217248 0.045985729349708154 0 0.015423432603217248 0.045985729349708154 0 0.015372268045592424 0.045693141738307116 0 0.015546171155395866 0.04676845307604563 0 0.015423432603217248 0.045985729349708154 0 0.015198671267292333 0.045362525951536878 0 0.015372268045592424 0.045693141738307116 0 0.015130972076782814 0.045186920647392423 0 0.015423432603217248 0.045985729349708154 0 0.015198671267292333 0.045362525951536878 0 0.015130972076782814 0.045186920647392423 0 0.015198671267292333 0.045362525951536878 0 0.014968632067742006 0.044873653242667816 0 0.014820300596732455 0.046482321621656622 0 0.014677528048235161 0.049122201869984825 0 0.014820300596732455 0.046482321621656622 0 0.016361270417490501 0.046522749393253272 0 0.015198671267292333 0.045362525951536878 0 0.015138787791352517 0.045109361307880048 0 0.015057115922706279 0.045002917398476686 0 0.015198671267292333 0.045362525951536878 0 0.015138787791352517 0.045109361307880048 0 0.015372268045592424 0.045693141738307116 0 0.016948835528844026 0.047167835116787599 0 0.015546171155395866 0.04676845307604563 0 0.016477743471203187 0.048095706420204942 0 0.016361270417490501 0.046522749393253272 0 0.015474008162503975 0.046582039020343129 0 0.018183198257846124 0.047453307516821988 0 0.016948835528844026 0.047167835116787599 0 0.016477743471203187 0.048095706420204942 0 0.014717617565376612 0.044433231329326334 0 0.014620506184856994 0.04400482697969995 0 0.014937085742430059 0.044663619028759038 0 0.014968632067742006 0.044873653242667816 0 0.015057115922706279 0.045002917398476686 0 0.014937085742430059 0.044663619028759038 0 0.015198671267292333 0.045362525951536878 0 0.014968632067742006 0.044873653242667816 0 0.015057115922706279 0.045002917398476686 0 0.014717617565376612 0.044433231329326334 0 0.014968632067742006 0.044873653242667816 0 0.014937085742430059 0.044663619028759038 0 0.014820300596732455 0.046482321621656622 0 0.01529077527484991 0.044129125775898025 0 0.015138787791352517 0.045109361307880048 0 0.015057115922706279 0.045002917398476686 0 0.014937085742430059 0.044663619028759038 0 0.015950885625393159 0.043594196721970534 0 0.015314555291267913 0.043758093733103416 0 0.014999877493569125 0.043274698998299978 0 0.014820300596732455 0.046482321621656622 0 0.01253846778379614 0.046452765574037533 0 0.014571456286745136 0.044139860713000176 0 0.01529077527484991 0.044129125775898025 0 0.014620506184856994 0.04400482697969995 0 0.015314555291267913 0.043758093733103416 0 0.014999877493569125 0.043274698998299978 0 0.014620506184856994 0.04400482697969995 0 0.014043829628462819 0.042828058123643757 0 0.014999877493569125 0.043274698998299978 0 0.014620506184856994 0.04400482697969995 0 0.014019900440783646 0.043539501753997789 0 0.014043829628462819 0.042828058123643757 0 0.014620506184856994 0.04400482697969995 0 0.014295211540306123 0.044066735291894955 0 0.014019900440783646 0.043539501753997789 0 0.014717617565376612 0.044433231329326334 0 0.014620506184856994 0.04400482697969995 0 0.014295211540306123 0.044066735291894955 0 0.014295211540306123 0.044066735291894955 0 0.013829081252489661 0.043834569538993277 0 0.014019900440783646 0.043539501753997789 0 0.013829081252489661 0.043834569538993277 0 0.014019900440783646 0.043539501753997789 0 0.013420671091258475 0.043163582174845963 0 0.014019900440783646 0.043539501753997789 0 0.013420671091258475 0.043163582174845963 0 0.014043829628462819 0.042828058123643757 0 0.013420671091258475 0.043163582174845963 0 0.013070862675055649 0.042819785905531864 0 0.012806659295593895 0.043119263478562 0 0.013070862675055649 0.042819785905531864 0 0.012806659295593895 0.043119263478562 0 0.012741188051452657 0.042656201367532579 0 0.012806659295593895 0.043119263478562 0 0.012741188051452657 0.042656201367532579 0 0.012355620752910017 0.04267996193615356 0 0.012806659295593895 0.043119263478562 0 0.013265817783520265 0.043668464634389163 0 0.012606125449719166 0.043620703867351465 0 0.013420671091258475 0.043163582174845963 0 0.012806659295593895 0.043119263478562 0 0.013265817783520265 0.043668464634389163 0 0.013829081252489661 0.043834569538993277 0 0.013420671091258475 0.043163582174845963 0 0.013265817783520265 0.043668464634389163 0 0.013829081252489661 0.043834569538993277 0 0.013265817783520265 0.043668464634389163 0 0.013747641053500573 0.044070155726710768 0 0.013265817783520265 0.043668464634389163 0 0.013321252557637617 0.04405741183274315 0 0.013747641053500573 0.044070155726710768 0 0.013265817783520265 0.043668464634389163 0 0.013321252557637617 0.04405741183274315 0 0.012606125449719166 0.043620703867351465 0 0.013321252557637617 0.04405741183274315 0 0.012703200792958093 0.044253280759389439 0 0.012606125449719166 0.043620703867351465 0 0.013443137608742639 0.044384359020601449 0 0.013321252557637617 0.04405741183274315 0 0.012703200792958093 0.044253280759389439 0 0.013443137608742639 0.044384359020601449 0 0.013321252557637617 0.04405741183274315 0 0.013923147911093536 0.044358532342046904 0 0.013321252557637617 0.04405741183274315 0 0.013923147911093536 0.044358532342046904 0 0.013747641053500573 0.044070155726710768 0 0.014601908724915489 0.044716199163923137 0 0.014327789538582193 0.044579899639821952 0 0.014296963043096101 0.044381990260638771 0 0.013923147911093536 0.044358532342046904 0 0.014327789538582193 0.044579899639821952 0 0.014296963043096101 0.044381990260638771 0 0.014717617565376612 0.044433231329326334 0 0.014295211540306123 0.044066735291894955 0 0.014296963043096101 0.044381990260638771 0 0.014295211540306123 0.044066735291894955 0 0.013829081252489661 0.043834569538993277 0 0.014296963043096101 0.044381990260638771 0 0.013923147911093536 0.044358532342046904 0 0.014296963043096101 0.044381990260638771 0 0.013747641053500573 0.044070155726710768 0 0.013829081252489661 0.043834569538993277 0 0.014296963043096101 0.044381990260638771 0 0.013747641053500573 0.044070155726710768 0 0.014954020491157615 0.04683939527449834 0 0.014604816191184535 0.046567692335355446 0 0.014665661215405561 0.047042270348977698 0 0.017576285010854897 0.046010992084093129 0 0.017404701186089905 0.046184688144608951 0 0.014954020491157615 0.04683939527449834 0 0.015034264958127484 0.046452858042508718 0 0.014604816191184535 0.046567692335355446 0 0.017576285010854897 0.046010992084093129 0 0.014875331071365686 0.039878118595484208 0 0.015034264958127484 0.046452858042508718 0 0.014604816191184535 0.046567692335355446 0 0.014569454323336783 0.04607094000732067 0 0.014875331071365686 0.039878118595484208 0 0.013698402966103137 0.032693444526156197 0 0.013530321960278193 0.034843930420821435 0 0.013814693690973318 0.034518084574061407 0 0.013859134508341711 0.03472681622484642 0 0.013530321960278193 0.034843930420821435 0 0.013814693690973318 0.034518084574061407 0 0.013351378090803395 0.034698394532383228 0 0.014875331071365686 0.039878118595484208 0 0.014077882976897167 0.040413347862441183 0 0.015034264958127484 0.046452858042508718 0 0.014569454323336783 0.04607094000732067 0 0.015105703734979246 0.045975605106988511 0 0.015034264958127484 0.046452858042508718 0 0.015105703734979246 0.045975605106988511 0 0.015553626019068061 0.046253328512599202 0 0.0131739683017035 0.035035054751339743 0 0.013351378090803395 0.034698394532383228 0 0.013026030744386874 0.034982407316970186 0 0.0131739683017035 0.035035054751339743 0 0.013530321960278193 0.034843930420821435 0 0.013351378090803395 0.034698394532383228 0 0.014077882976897167 0.040413347862441183 0 0.014300243244701479 0.040414605929806495 0 0.015105703734979246 0.045975605106988511 0 0.015532556715142896 0.045877707182612422 0 0.015553626019068061 0.046253328512599202 0 0.015034264958127484 0.046452858042508718 0 0.015553626019068061 0.046253328512599202 0 0.015440681985676937 0.04677448153448583 0 0.015553626019068061 0.046253328512599202 0 0.015440681985676937 0.04677448153448583 0 0.015672235123665505 0.046615582959240009 0 0.015500511271735986 0.046815007926332634 0 0.015543985022980608 0.047407974237545163 0 0.014954020491157615 0.04683939527449834 0 0.015440681985676937 0.04677448153448583 0 0.01520650393499719 0.047113613673255672 0 0.014954020491157615 0.04683939527449834 0 0.015034264958127484 0.046452858042508718 0 0.015440681985676937 0.04677448153448583 0 0.015440681985676937 0.04677448153448583 0 0.015672235123665505 0.046615582959240009 0 0.015758770896819457 0.047329083734300059 0 0.015672235123665505 0.046615582959240009 0 0.015740293831844186 0.046621391854440634 0 0.015758770896819457 0.047329083734300059 0 0.015740293831844186 0.046621391854440634 0 0.015695085149976036 0.046192786314175657 0 0.015713989144761815 0.046107687261150887 0 0.015695085149976036 0.046192786314175657 0 0.015695666713998999 0.045893420141671887 0 0.015713989144761815 0.046107687261150887 0 0.015553626019068061 0.046253328512599202 0 0.015672235123665505 0.046615582959240009 0 0.015695085149976036 0.046192786314175657 0 0.015672235123665505 0.046615582959240009 0 0.015740293831844186 0.046621391854440634 0 0.015695085149976036 0.046192786314175657 0 0.015553626019068061 0.046253328512599202 0 0.015695085149976036 0.046192786314175657 0 0.015659490784491727 0.045988569278677317 0 0.015532556715142896 0.045877707182612422 0 0.015553626019068061 0.046253328512599202 0 0.015659490784491727 0.045988569278677317 0 0.014300243244701479 0.040414605929806495 0 0.014390077534476997 0.040519246961867553 0 0.015532556715142896 0.045877707182612422 0 0.015659490784491727 0.045988569278677317 0 0.015703961419980299 0.045802528228852703 0 0.012904858399144436 0.035227544550881805 0 0.013026030744386874 0.034982407316970186 0 0.012846906759131681 0.035236950062321963 0 0.015659490784491727 0.045988569278677317 0 0.015703961419980299 0.045802528228852703 0 0.015695666713998999 0.045893420141671887 0 0.015695085149976036 0.046192786314175657 0 0.015659490784491727 0.045988569278677317 0 0.015695666713998999 0.045893420141671887 0 0.015695666713998999 0.045893420141671887 0 0.015610404775626261 0.045735870117768133 0 0.01561743207998159 0.045724560328431127 0 0.015504170044084054 0.045821045428207939 0 0.015703961419980299 0.045802528228852703 0 0.015587024627889223 0.045764965259770092 0 0.015703961419980299 0.045802528228852703 0 0.015610404775626261 0.045735870117768133 0 0.015587024627889223 0.045764965259770092 0 0.015703961419980299 0.045802528228852703 0 0.015695666713998999 0.045893420141671887 0 0.015610404775626261 0.045735870117768133 0 0.015504170044084054 0.045821045428207939 0 0.015296013276362085 0.045583929425676052 0 0.015482897212665573 0.045680246381602674 0 0.015504170044084054 0.045821045428207939 0 0.015587024627889223 0.045764965259770092 0 0.015482897212665573 0.045680246381602674 0 0.015610404775626261 0.045735870117768133 0 0.015587024627889223 0.045764965259770092 0 0.015482897212665573 0.045680246381602674 0 0.015610404775626261 0.045735870117768133 0 0.015482897212665573 0.045680246381602674 0 0.015433686690441834 0.045547403805722149 0 0.015296013276362085 0.045583929425676052 0 0.015482897212665573 0.045680246381602674 0 0.015433686690441834 0.045547403805722149 0 0.015354969883191958 0.045410232487305364 0 0.015433686690441834 0.045547403805722149 0 0.01561743207998159 0.045724560328431127 0 0.015610404775626261 0.045735870117768133 0 0.015433686690441834 0.045547403805722149 0 0.01561743207998159 0.045724560328431127 0 0.01561743207998159 0.045724560328431127 0 0.015572474744649255 0.045689967990119922 0 0.015739460837046023 0.046227513184897241 0 0.015354969883191958 0.045410232487305364 0 0.01561743207998159 0.045724560328431127 0 0.015572474744649255 0.045689967990119922 0 0.015695666713998999 0.045893420141671887 0 0.01561743207998159 0.045724560328431127 0 0.015713989144761815 0.046107687261150887 0 0.01561743207998159 0.045724560328431127 0 0.015713989144761815 0.046107687261150887 0 0.015739460837046023 0.046227513184897241 0 0.015740293831844186 0.046621391854440634 0 0.015713989144761815 0.046107687261150887 0 0.015739460837046023 0.046227513184897241 0 0.015845502188900927 0.046170222026653163 0 0.015572474744649255 0.045689967990119922 0 0.015739460837046023 0.046227513184897241 0 0.015925077055836161 0.04716024756710431 0 0.015435495961983171 0.047858458211704952 0 0.015755260512416259 0.047036713150947297 0 0.015441164056897553 0.0457442195025567 0 0.015538293684529931 0.046668884932726556 0 0.015131494079876478 0.045286889389307576 0 0.015254645030716574 0.045415379518194604 0 0.015089305842609516 0.046156589751063383 0 0.015845502188900927 0.046170222026653163 0 0.015739460837046023 0.046227513184897241 0 0.015925077055836161 0.04716024756710431 0 0.015739460837046023 0.046227513184897241 0 0.015925077055836161 0.04716024756710431 0 0.015755260512416259 0.047036713150947297 0 0.015740293831844186 0.046621391854440634 0 0.015739460837046023 0.046227513184897241 0 0.015755260512416259 0.047036713150947297 0 0.015254645030716574 0.045415379518194604 0 0.015423432603217248 0.045985729349708154 0 0.015089305842609516 0.046156589751063383 0 0.015423432603217248 0.045985729349708154 0 0.015546171155395866 0.04676845307604563 0 0.015249741920399533 0.046877922070782188 0 0.015423432603217248 0.045985729349708154 0 0.015089305842609516 0.046156589751063383 0 0.015249741920399533 0.046877922070782188 0 0.015546171155395866 0.04676845307604563 0 0.015096079228209967 0.047765959651482039 0 0.015249741920399533 0.046877922070782188 0 0.015546171155395866 0.04676845307604563 0 0.015337324164353574 0.047819422765800298 0 0.015096079228209967 0.047765959651482039 0 0.015546171155395866 0.04676845307604563 0 0.015337324164353574 0.047819422765800298 0 0.016477743471203187 0.048095706420204942 0 0.015337324164353574 0.047819422765800298 0 0.015096079228209967 0.047765959651482039 0 0.014770538717048651 0.048759085204764248 0 0.015096079228209967 0.047765959651482039 0 0.015249741920399533 0.046877922070782188 0 0.015435495961983171 0.047858458211704952 0 0.015089305842609516 0.046156589751063383 0 0.015249741920399533 0.046877922070782188 0 0.015435495961983171 0.047858458211704952 0 0.015538293684529931 0.046668884932726556 0 0.015420783359356054 0.047677433324718743 0 0.015435495961983171 0.047858458211704952 0 0.015919337869995703 0.048586226003379543 0 0.015275031014734838 0.048477014063359337 0 0.015096079228209967 0.047765959651482039 0 0.015435495961983171 0.047858458211704952 0 0.015275031014734838 0.048477014063359337 0 0.015435495961983171 0.047858458211704952 0 0.015919337869995703 0.048586226003379543 0 0.015902337669621527 0.048168307002829862 0 0.015919337869995703 0.048586226003379543 0 0.015902337669621527 0.048168307002829862 0 0.016239755437319547 0.048571164586525939 0 0.015435495961983171 0.047858458211704952 0 0.015902337669621527 0.048168307002829862 0 0.015792608292441484 0.047623653356152089 0 0.015435495961983171 0.047858458211704952 0 0.015792608292441484 0.047623653356152089 0 0.015755260512416259 0.047036713150947297 0 0.015902337669621527 0.048168307002829862 0 0.015792608292441484 0.047623653356152089 0 0.016095464188701485 0.048232371122607982 0 0.015740293831844186 0.046621391854440634 0 0.015792608292441484 0.047623653356152089 0 0.015755260512416259 0.047036713150947297 0 0.015740293831844186 0.046621391854440634 0 0.015792608292441484 0.047623653356152089 0 0.015758770896819457 0.047329083734300059 0 0.015758770896819457 0.047329083734300059 0 0.015760355781133772 0.047796909345581062 0 0.016095464188701485 0.048232371122607982 0 0.015440681985676937 0.04677448153448583 0 0.015758770896819457 0.047329083734300059 0 0.015760355781133772 0.047796909345581062 0 0.015760355781133772 0.047796909345581062 0 0.016246850552448101 0.048359543688082242 0 0.016095464188701485 0.048232371122607982 0 0.015760355781133772 0.047796909345581062 0 0.016246850552448101 0.048359543688082242 0 0.016504481106004346 0.04860275565415819 0 0.015792608292441484 0.047623653356152089 0 0.015758770896819457 0.047329083734300059 0 0.016095464188701485 0.048232371122607982 0 0.016095464188701485 0.048232371122607982 0 0.016239755437319547 0.048571164586525939 0 0.016631317658874857 0.048780746833340938 0 0.015902337669621527 0.048168307002829862 0 0.016095464188701485 0.048232371122607982 0 0.016239755437319547 0.048571164586525939 0 0.015919337869995703 0.048586226003379543 0 0.016239755437319547 0.048571164586525939 0 0.016687487200334895 0.048939766084355005 0 0.016239755437319547 0.048571164586525939 0 0.016687487200334895 0.048939766084355005 0 0.016631317658874857 0.048780746833340938 0 0.016687487200334895 0.048939766084355005 0 0.016631317658874857 0.048780746833340938 0 0.017461628534679308 0.049315510597321643 0 0.016246850552448101 0.048359543688082242 0 0.016095464188701485 0.048232371122607982 0 0.016631317658874857 0.048780746833340938 0 0.016246850552448101 0.048359543688082242 0 0.016631317658874857 0.048780746833340938 0 0.016504481106004346 0.04860275565415819 0 0.016631317658874857 0.048780746833340938 0 0.017144045405502899 0.04907604690220288 0 0.016504481106004346 0.04860275565415819 0 0.017144045405502899 0.04907604690220288 0 0.017282789897870878 0.049223284730992876 0 0.016504481106004346 0.04860275565415819 0 0.01763940131526907 0.04924995195214249 0 0.015591412780953322 0.047964803914717774 0 0.016631317658874857 0.048780746833340938 0 0.017144045405502899 0.04907604690220288 0 0.017461628534679308 0.049315510597321643 0 0.017144045405502899 0.04907604690220288 0 0.017720264072496904 0.049445393309887842 0 0.017282789897870878 0.049223284730992876 0 0.017144045405502899 0.04907604690220288 0 0.017720264072496904 0.049445393309887842 0 0.017461628534679308 0.049315510597321643 0 0.01763940131526907 0.04924995195214249 0 0.018683162820027712 0.050237509104459122 0 0.018904909034823589 0.051274623905635357 0 0.018820359284513904 0.049949614352412221 0 0.019393648024695422 0.050522466424021875 0 0.017720264072496904 0.049445393309887842 0 0.017282789897870878 0.049223284730992876 0 0.018820359284513904 0.049949614352412221 0 0.019389707811913032 0.048249585649011578 0 0.020363236290558077 0.049216312856956726 0 0.019809673105675468 0.050112631138549905 0 0.01763940131526907 0.04924995195214249 0 0.021096727695548226 0.050141893842269546 0 0.01763940131526907 0.04924995195214249 0 0.017492939063862317 0.04736390935675109 0 0.019389707811913032 0.048249585649011578 0 0.020363236290558077 0.049216312856956726 0 0.020274299272167076 0.047456907580746756 0 0.014785387793206279 0.047940967926432945 0 0.01472398095693927 0.047485777783396063 0 0.014993165478407754 0.047517168843652452 0 0.01472398095693927 0.047485777783396063 0 0.014909343766030011 0.047199977696770604 0 0.014665661215405561 0.047042270348977698 0 0.018942934050409633 0.046337746350729535 0 0.020274299272167076 0.047456907580746756 0 0.020191741296943042 0.045638204573220965 0 0.017492939063862317 0.04736390935675109 0 0.017404701186089905 0.046184688144608951 0 0.01472398095693927 0.047485777783396063 0 0.014993165478407754 0.047517168843652452 0 0.014909343766030011 0.047199977696770604 0 0.01520650393499719 0.047113613673255672 0 0.014993165478407754 0.047517168843652452 0 0.014909343766030011 0.047199977696770604 0 0.015543985022980608 0.047407974237545163 0 0.015591412780953322 0.047964803914717774 0 0.014954020491157615 0.04683939527449834 0 0.01520650393499719 0.047113613673255672 0 0.014909343766030011 0.047199977696770604 0 0.014954020491157615 0.04683939527449834 0 0.014909343766030011 0.047199977696770604 0 0.014665661215405561 0.047042270348977698 0 0.021674006824698371 0.048179132634850561 0 0.019836015237323361 0.047879998482108201 0 0.019696008695239627 0.048447420949731292 0 0.021674006824698371 0.048179132634850561 0 0.019836015237323361 0.047879998482108201 0 0.020996916669394475 0.047645609897993241 0 0.019836015237323361 0.047879998482108201 0 0.018544941185079 0.048365992752423585 0 0.018628095168102772 0.047429817378222758 0 0.019836015237323361 0.047879998482108201 0 0.018544941185079 0.048365992752423585 0 0.019696008695239627 0.048447420949731292 0 0.018544941185079 0.048365992752423585 0 0.019696008695239627 0.048447420949731292 0 0.018639832281161981 0.049078396699334462 0 0.019696008695239627 0.048447420949731292 0 0.020737183409488772 0.04879009464550467 0 0.01964321655014141 0.049210525749511923 0 0.021674006824698371 0.048179132634850561 0 0.019696008695239627 0.048447420949731292 0 0.020737183409488772 0.04879009464550467 0 0.020819701198126362 0.049549370336173175 0 0.020737183409488772 0.04879009464550467 0 0.01964321655014141 0.049210525749511923 0 0.019696008695239627 0.048447420949731292 0 0.01964321655014141 0.049210525749511923 0 0.018639832281161981 0.049078396699334462 0 0.01964321655014141 0.049210525749511923 0 0.018784557213938641 0.04963137277596541 0 0.018639832281161981 0.049078396699334462 0 0.01964321655014141 0.049210525749511923 0 0.019682491450723476 0.050009249400319443 0 0.018784557213938641 0.04963137277596541 0 0.020819701198126362 0.049549370336173175 0 0.01964321655014141 0.049210525749511923 0 0.019682491450723476 0.050009249400319443 0 0.019682491450723476 0.050009249400319443 0 0.018820359284513904 0.049949614352412221 0 0.019393648024695422 0.050522466424021875 0 0.018820359284513904 0.049949614352412221 0 0.018784557213938641 0.04963137277596541 0 0.018165214187189926 0.049611638305816559 0 0.019682491450723476 0.050009249400319443 0 0.018820359284513904 0.049949614352412221 0 0.018784557213938641 0.04963137277596541 0 0.017720264072496904 0.049445393309887842 0 0.018820359284513904 0.049949614352412221 0 0.018165214187189926 0.049611638305816559 0 0.019887926027041595 0.050392623849716024 0 0.021096727695548226 0.050141893842269546 0 0.017461628534679308 0.049315510597321643 0 0.018091587849392625 0.049400332642495465 0 0.017418230004720033 0.049091406263941213 0 0.017461628534679308 0.049315510597321643 0 0.018165214187189926 0.049611638305816559 0 0.018091587849392625 0.049400332642495465 0 0.017720264072496904 0.049445393309887842 0 0.017461628534679308 0.049315510597321643 0 0.018165214187189926 0.049611638305816559 0 0.018784557213938641 0.04963137277596541 0 0.018165214187189926 0.049611638305816559 0 0.018091587849392625 0.049400332642495465 0 0.018544941185079 0.048365992752423585 0 0.018639832281161981 0.049078396699334462 0 0.017418230004720033 0.049091406263941213 0 0.018091587849392625 0.049400332642495465 0 0.018639832281161981 0.049078396699334462 0 0.017418230004720033 0.049091406263941213 0 0.018784557213938641 0.04963137277596541 0 0.018091587849392625 0.049400332642495465 0 0.018639832281161981 0.049078396699334462 0 0.016687487200334895 0.048939766084355005 0 0.017461628534679308 0.049315510597321643 0 0.017418230004720033 0.049091406263941213 0 0.015919337869995703 0.048586226003379543 0 0.016687487200334895 0.048939766084355005 0 0.016423438006442324 0.048822055568146998 0 0.016687487200334895 0.048939766084355005 0 0.017418230004720033 0.049091406263941213 0 0.016423438006442324 0.048822055568146998 0 0.017418230004720033 0.049091406263941213 0 0.016423438006442324 0.048822055568146998 0 0.016493755339972722 0.048611491848226739 0 0.017418230004720033 0.049091406263941213 0 0.016493755339972722 0.048611491848226739 0 0.017372796825777744 0.048330348749495718 0 0.016493755339972722 0.048611491848226739 0 0.017372796825777744 0.048330348749495718 0 0.015898556225064395 0.048238051200716073 0 0.018544941185079 0.048365992752423585 0 0.017418230004720033 0.049091406263941213 0 0.017372796825777744 0.048330348749495718 0 0.018544941185079 0.048365992752423585 0 0.017372796825777744 0.048330348749495718 0 0.018628095168102772 0.047429817378222758 0 0.017454435171468427 0.048362640093837672 0 0.01792757804858831 0.047527124669842602 0 0.017372796825777744 0.048330348749495718 0 0.015898556225064395 0.048238051200716073 0 0.016049862566719933 0.047518419988690525 0 0.017372796825777744 0.048330348749495718 0 0.016049862566719933 0.047518419988690525 0 0.017264110950626479 0.047534064637202576 0 0.014733797361456654 0.048038212026014299 0 0.015898556225064395 0.048238051200716073 0 0.016049862566719933 0.047518419988690525 0 0.014733797361456654 0.048038212026014299 0 0.015898556225064395 0.048238051200716073 0 0.014976306098753953 0.048611324609255796 0 0.016493755339972722 0.048611491848226739 0 0.015898556225064395 0.048238051200716073 0 0.015786784080452799 0.048660998127542945 0 0.016423438006442324 0.048822055568146998 0 0.016493755339972722 0.048611491848226739 0 0.015786784080452799 0.048660998127542945 0 0.015919337869995703 0.048586226003379543 0 0.015786784080452799 0.048660998127542945 0 0.015275031014734838 0.048477014063359337 0 0.015919337869995703 0.048586226003379543 0 0.016423438006442324 0.048822055568146998 0 0.015786784080452799 0.048660998127542945 0 0.015786784080452799 0.048660998127542945 0 0.015275031014734838 0.048477014063359337 0 0.014976306098753953 0.048611324609255796 0 0.015898556225064395 0.048238051200716073 0 0.015786784080452799 0.048660998127542945 0 0.014976306098753953 0.048611324609255796 0 0.014976306098753953 0.048611324609255796 0 0.014770538717048651 0.048759085204764248 0 0.013876203718618332 0.048685305293831638 0 0.014976306098753953 0.048611324609255796 0 0.013876203718618332 0.048685305293831638 0 0.014025404911651777 0.048342255122872657 0 0.015275031014734838 0.048477014063359337 0 0.014976306098753953 0.048611324609255796 0 0.014770538717048651 0.048759085204764248 0 0.015096079228209967 0.047765959651482039 0 0.015275031014734838 0.048477014063359337 0 0.014770538717048651 0.048759085204764248 0 0.015337324164353574 0.047819422765800298 0 0.014770538717048651 0.048759085204764248 0 0.016477743471203187 0.048095706420204942 0 0.014783013292367517 0.048761676266766002 0 0.014677528048235161 0.049122201869984825 0 0.014770538717048651 0.048759085204764248 0 0.013768974407511795 0.049073109452044725 0 0.013044821259178614 0.04976280838404739 0 0.014770538717048651 0.048759085204764248 0 0.013768974407511795 0.049073109452044725 0 0.013876203718618332 0.048685305293831638 0 0.013768974407511795 0.049073109452044725 0 0.013876203718618332 0.048685305293831638 0 0.013330090752485901 0.049299536326890769 0 0.013876203718618332 0.048685305293831638 0 0.014025404911651777 0.048342255122872657 0 0.01319897232232682 0.048242893795627503 0 0.014733797361456654 0.048038212026014299 0 0.014976306098753953 0.048611324609255796 0 0.014025404911651777 0.048342255122872657 0 0.014733797361456654 0.048038212026014299 0 0.014025404911651777 0.048342255122872657 0 0.013258549885958537 0.047754893762564615 0 0.014025404911651777 0.048342255122872657 0 0.01319897232232682 0.048242893795627503 0 0.013258549885958537 0.047754893762564615 0 0.013258549885958537 0.047754893762564615 0 0.012779064033568221 0.046834283192544367 0 0.011746384994772102 0.047081443001942079 0 0.013258549885958537 0.047754893762564615 0 0.014347414312970253 0.047241577565371763 0 0.012779064033568221 0.046834283192544367 0 0.014733797361456654 0.048038212026014299 0 0.013258549885958537 0.047754893762564615 0 0.014347414312970253 0.047241577565371763 0 0.014347414312970253 0.047241577565371763 0 0.012779064033568221 0.046834283192544367 0 0.013694366755167629 0.046180071772750568 0 0.012779064033568221 0.046834283192544367 0 0.012237872253551595 0.046030525516525193 0 0.013694366755167629 0.046180071772750568 0 0.012779064033568221 0.046834283192544367 0 0.012237872253551595 0.046030525516525193 0 0.011045721151348088 0.046126694321727765 0 0.012237872253551595 0.046030525516525193 0 0.011648784792654174 0.044999479044082809 0 0.013694366755167629 0.046180071772750568 0 0.011648784792654174 0.044999479044082809 0 0.013694366755167629 0.046180071772750568 0 0.014098264693338518 0.044999642031740957 0 0.013694366755167629 0.046180071772750568 0 0.015263242580885997 0.045853278289824627 0 0.015445490525861473 0.046737186663731993 0 0.013694366755167629 0.046180071772750568 0 0.015263242580885997 0.045853278289824627 0 0.014098264693338518 0.044999642031740957 0 0.015263242580885997 0.045853278289824627 0 0.014098264693338518 0.044999642031740957 0 0.016546984677484618 0.044999534399793706 0 0.015263242580885997 0.045853278289824627 0 0.016546984677484618 0.044999534399793706 0 0.016689588812907892 0.046182987048184715 0 0.015263242580885997 0.045853278289824627 0 0.015445490525861473 0.046737186663731993 0 0.016689588812907892 0.046182987048184715 0 0.015445490525861473 0.046737186663731993 0 0.016680246320992732 0.046947116099460687 0 0.016689588812907892 0.046182987048184715 0 0.015445490525861473 0.046737186663731993 0 0.016049862566719933 0.047518419988690525 0 0.016680246320992732 0.046947116099460687 0 0.014347414312970253 0.047241577565371763 0 0.015445490525861473 0.046737186663731993 0 0.016049862566719933 0.047518419988690525 0 0.014347414312970253 0.047241577565371763 0 0.013694366755167629 0.046180071772750568 0 0.015445490525861473 0.046737186663731993 0 0.014733797361456654 0.048038212026014299 0 0.014347414312970253 0.047241577565371763 0 0.016049862566719933 0.047518419988690525 0 0.016049862566719933 0.047518419988690525 0 0.017264110950626479 0.047534064637202576 0 0.016680246320992732 0.046947116099460687 0 0.01792757804858831 0.047527124669842602 0 0.018479917582803426 0.046446051588150843 0 0.018628095168102772 0.047429817378222758 0 0.019119657149860456 0.046473725559244151 0 0.019971233267170121 0.047214584691001538 0 0.017264110950626479 0.047534064637202576 0 0.016680246320992732 0.046947116099460687 0 0.017834769884775538 0.046549154437974076 0 0.016680246320992732 0.046947116099460687 0 0.016689588812907892 0.046182987048184715 0 0.017834769884775538 0.046549154437974076 0 0.016689588812907892 0.046182987048184715 0 0.018994405169561225 0.044994777900393759 0 0.017834769884775538 0.046549154437974076 0 0.016546984677484618 0.044999534399793706 0 0.016689588812907892 0.046182987048184715 0 0.018994405169561225 0.044994777900393759 0 0.018995990617796242 0.04499491840883061 0 0.018479917582803426 0.046446051588150843 0 0.018997322375625993 0.044994677000525903 0 0.019119657149860456 0.046473725559244151 0 0.020535480397246009 0.046253880228662725 0 0.018997322375625993 0.044994677000525903 0 0.020535480397246009 0.046253880228662725 0 0.021547389653511932 0.044999569218505044 0 0.022631152094141519 0.046280895682095605 0 0.020535480397246009 0.046253880228662725 0 0.021547389653511932 0.044999569218505044 0 0.022631152094141519 0.046280895682095605 0 0.020535480397246009 0.046253880228662725 0 0.02140083208368971 0.047028367974981042 0 0.020535480397246009 0.046253880228662725 0 0.02140083208368971 0.047028367974981042 0 0.019971233267170121 0.047214584691001538 0 0.019119657149860456 0.046473725559244151 0 0.020535480397246009 0.046253880228662725 0 0.019971233267170121 0.047214584691001538 0 0.019836015237323361 0.047879998482108201 0 0.018628095168102772 0.047429817378222758 0 0.019971233267170121 0.047214584691001538 0 0.02140083208368971 0.047028367974981042 0 0.019971233267170121 0.047214584691001538 0 0.020996916669394475 0.047645609897993241 0 0.019836015237323361 0.047879998482108201 0 0.019971233267170121 0.047214584691001538 0 0.020996916669394475 0.047645609897993241 0 0.0093149533616100066 0.047989521161892056 0 0.005859205081846024 0.048621470744806029 0 0.0089327790136186063 0.048198226425972261 0 0.0075712331818659426 0.048848593952195825 0 0.0087685845002117811 0.047982995659216529 0 0.0089165089170245224 0.048167211044516711 0 0.0075916089186461935 0.047803299743152658 0 0.0089327790136186063 0.048198226425972261 0 0.005859205081846024 0.048621470744806029 0 0.0087685845002117811 0.047982995659216529 0 0.0089165089170245224 0.048167211044516711 0 0.0091842005056480217 0.047567401136302409 0 0.0089327790136186063 0.048198226425972261 0 0.0096732639640214439 0.047796242734883025 0 0.0088830076114838341 0.048034061871754116 0 0.0096651339735344191 0.047755864821832042 0 0.010060218335805636 0.048465768733789459 0 0.0089165089170245224 0.048167211044516711 0 0.0096642736477835309 0.047844254697560505 0 0.0091842005056480217 0.047567401136302409 0 0.0091842005056480217 0.047567401136302409 0 0.0097231014578447739 0.047027662910276637 0 0.0088347295237239803 0.046863350497454444 0 0.0096642736477835309 0.047844254697560505 0 0.0091842005056480217 0.047567401136302409 0 0.0097231014578447739 0.047027662910276637 0 0.0087685845002117811 0.047982995659216529 0 0.0078483266735179733 0.047793153586178659 0 0.0088347295237239803 0.046863350497454444 0 0.005859205081846024 0.048621470744806029 0 0.006410193437315353 0.048294897116950578 0 0.0087685845002117811 0.047982995659216529 0 0.0091842005056480217 0.047567401136302409 0 0.0088347295237239803 0.046863350497454444 0 0.0023289824775849636 0.050586616533801018 0 0.0028633598602849095 0.050763963504754456 0 0.0027604551308733449 0.04947804832131146 0 0.0028633598602849095 0.050763963504754456 0 0.0042262744081396457 0.049423282361709481 0 0.0027604551308733449 0.04947804832131146 0 0.0019090104799235215 0.050445847243108445 0 0.0018980113407188425 0.048991479795184194 0 0.0027604551308733449 0.04947804832131146 0 0.0012054320030118809 0.049184390118846379 0 -0.00052194435962238503 0.049634747996067957 0 0.0019090104799235215 0.050445847243108445 0 0.0018980113407188425 0.048991479795184194 0 0.00091002509202901187 0.050172209758150954 0 0.0019090104799235215 0.050445847243108445 0 0.0023289824775849636 0.050586616533801018 0 0.0027604551308733449 0.04947804832131146 0 0.0021845516270502024 0.049097733009056746 0 0.0028729581492526563 0.048950159628362785 0 0.0021845516270502024 0.049097733009056746 0 -0.00052194435962238503 0.049634747996067957 0 0.0021586839408988309 0.047859060199193386 0 0.0022096556054938491 0.048993535478474785 0 0.00074799801555691019 0.048649431837744062 0 0.0021586839408988309 0.047859060199193386 0 0.0022096556054938491 0.048993535478474785 0 0.0030628531294460363 0.048166166109843235 0 0.0022096556054938491 0.048993535478474785 0 0.0030628531294460363 0.048166166109843235 0 0.00421134192459772 0.048558235201211136 0 0.0022096556054938491 0.048993535478474785 0 0.002458872687493118 0.050331696321950128 0 0.00421134192459772 0.048558235201211136 0 0.0022096556054938491 0.048993535478474785 0 0.00074799801555691019 0.048649431837744062 0 0.00048743997235023689 0.050156674420954631 0 0.0022096556054938491 0.048993535478474785 0 0.002458872687493118 0.050331696321950128 0 0.00048743997235023689 0.050156674420954631 0 0.0082363389317415218 0.048467023147719376 0 0.0065873905027789949 0.047881287743614949 0 0.0065260832071497516 0.04906516290187498 0 0.005713623560394409 0.048770807717580467 0 0.0065873905027789949 0.047881287743614949 0 0.0065260832071497516 0.04906516290187498 0 0.0028729581492526563 0.048950159628362785 0 0.005859205081846024 0.048621470744806029 0 0.0036651998044184195 0.049977842114567898 0 0.005859205081846024 0.048621470744806029 0 0.0083289097416576786 0.048407222998653077 0 0.0083813131804226903 0.049032016153565026 0 0.0089971225921012671 0.048693399552876195 0 0.005713623560394409 0.048770807717580467 0 0.0065260832071497516 0.04906516290187498 0 0.0048457293414590208 0.049628751667582169 0 0.011728353053428762 0.045537288894761982 0 0.0049449758055073265 0.048023106152916738 0 0.0083289097416576786 0.048407222998653077 0 0.0083813131804226903 0.049032016153565026 0 0.0072689501673490944 0.048743419106536026 0 0.0075712331818659426 0.048848593952195825 0 0.0049449758055073265 0.048023106152916738 0 0.0036651998044184195 0.049977842114567898 0 0.0049449758055073265 0.048023106152916738 0 0.002458872687493118 0.050331696321950128 0 0.00048743997235023689 0.050156674420954631 0 0.00070590536508122366 0.052108915384216047 0 0.012741188051452657 0.042656201367532579 0 0.012357351570359564 0.042123775818764163 0 0.012355620752910017 0.04267996193615356 0 0.012741188051452657 0.042656201367532579 0 0.013206561621161163 0.042404969135378466 0 0.012357351570359564 0.042123775818764163 0 0.013420671091258475 0.043163582174845963 0 0.013070862675055649 0.042819785905531864 0 0.013206561621161163 0.042404969135378466 0 0.013070862675055649 0.042819785905531864 0 0.012741188051452657 0.042656201367532579 0 0.013206561621161163 0.042404969135378466 0 0.011728353053428762 0.045537288894761982 0 0.011567445628492901 0.046059096172155617 0 0.0083813131804226903 0.049032016153565026 0 0.0089971225921012671 0.048693399552876195 0 0.0094148667383632673 0.049285066892195598 0 0.013420671091258475 0.043163582174845963 0 0.013206561621161163 0.042404969135378466 0 0.014043829628462819 0.042828058123643757 0 0.0089971225921012671 0.048693399552876195 0 0.0096444293759788968 0.048722194567595113 0 0.0094148667383632673 0.049285066892195598 0 0.0093068638926462315 0.048093520788590534 0 0.0089971225921012671 0.048693399552876195 0 0.0096444293759788968 0.048722194567595113 0 0.0093068638926462315 0.048093520788590534 0 0.0083289097416576786 0.048407222998653077 0 0.0089971225921012671 0.048693399552876195 0 0.0089327790136186063 0.048198226425972261 0 0.01025820162101565 0.048461659140015365 0 0.0093068638926462315 0.048093520788590534 0 0.0096444293759788968 0.048722194567595113 0 0.010357460572043049 0.048485982616734355 0 0.0094148667383632673 0.049285066892195598 0 0.010119703780453262 0.049034203321768964 0 0.01042964741059201 0.049601386040595809 0 0.011567445628492901 0.046059096172155617 0 0.01253846778379614 0.046452765574037533 0 0.0096444293759788968 0.048722194567595113 0 0.0094148667383632673 0.049285066892195598 0 0.010119703780453262 0.049034203321768964 0 0.010119703780453262 0.049034203321768964 0 0.01042964741059201 0.049601386040595809 0 0.010781798428360571 0.049071989132028662 0 0.011574724978286289 0.050022832682006094 0 0.01042964741059201 0.049601386040595809 0 0.010781798428360571 0.049071989132028662 0 0.011574724978286289 0.050022832682006094 0 0.010781798428360571 0.049071989132028662 0 0.011466259099924186 0.048869107907840971 0 0.01025820162101565 0.048461659140015365 0 0.011378929449463313 0.048855719844616868 0 0.010781798428360571 0.049071989132028662 0 0.010357460572043049 0.048485982616734355 0 0.011466259099924186 0.048869107907840971 0 0.010060218335805636 0.048465768733789459 0 0.011466259099924186 0.048869107907840971 0 0.010589373787577608 0.048066401173250027 0 0.011466259099924186 0.048869107907840971 0 0.011239956358246241 0.047904492594595463 0 0.010589373787577608 0.048066401173250027 0 0.010119703780453262 0.049034203321768964 0 0.010781798428360571 0.049071989132028662 0 0.010357460572043049 0.048485982616734355 0 0.0096444293759788968 0.048722194567595113 0 0.010119703780453262 0.049034203321768964 0 0.010357460572043049 0.048485982616734355 0 0.013768974407511795 0.049073109452044725 0 0.013330090752485901 0.049299536326890769 0 0.013044821259178614 0.04976280838404739 0 0.013330090752485901 0.049299536326890769 0 0.013044821259178614 0.04976280838404739 0 0.012319547937344232 0.04918692040037044 0 0.011574724978286289 0.050022832682006094 0 0.012319547937344232 0.04918692040037044 0 0.011466259099924186 0.048869107907840971 0 0.011574724978286289 0.050022832682006094 0 0.013044821259178614 0.04976280838404739 0 0.012319547937344232 0.04918692040037044 0 0.011466259099924186 0.048869107907840971 0 0.012290940336500127 0.048103255939897414 0 0.011239956358246241 0.047904492594595463 0 0.012319547937344232 0.04918692040037044 0 0.011466259099924186 0.048869107907840971 0 0.012290940336500127 0.048103255939897414 0 0.013259624506760794 0.049280349491810586 0 0.01257500705995661 0.048346706503933135 0 0.013876203718618332 0.048685305293831638 0 0.013330090752485901 0.049299536326890769 0 0.012872422894928811 0.048543507636697444 0 0.013330090752485901 0.049299536326890769 0 0.012319547937344232 0.04918692040037044 0 0.012290940336500127 0.048103255939897414 0 0.013876203718618332 0.048685305293831638 0 0.01319897232232682 0.048242893795627503 0 0.012872422894928811 0.048543507636697444 0 0.01319897232232682 0.048242893795627503 0 0.012872422894928811 0.048543507636697444 0 0.011819921091968975 0.047978478322061195 0 0.01257500705995661 0.048346706503933135 0 0.011642786979218753 0.047517350288242249 0 0.012290940336500127 0.048103255939897414 0 0.011239956358246241 0.047904492594595463 0 0.011489946406451391 0.047118691618648123 0 0.01319897232232682 0.048242893795627503 0 0.013258549885958537 0.047754893762564615 0 0.011819921091968975 0.047978478322061195 0 0.0096651339735344191 0.047755864821832042 0 0.010060218335805636 0.048465768733789459 0 0.010589373787577608 0.048066401173250027 0 0.0096732639640214439 0.047796242734883025 0 0.010329413442867244 0.047547237413009869 0 0.0096651339735344191 0.047755864821832042 0 0.010589373787577608 0.048066401173250027 0 0.010416142475282237 0.047508448364342176 0 0.011239956358246241 0.047904492594595463 0 0.010589373787577608 0.048066401173250027 0 0.010416142475282237 0.047508448364342176 0 0.011489946406451391 0.047118691618648123 0 0.010416142475282237 0.047508448364342176 0 0.010382234397384402 0.046718594169857679 0 0.011239956358246241 0.047904492594595463 0 0.011489946406451391 0.047118691618648123 0 0.010416142475282237 0.047508448364342176 0 0.010416142475282237 0.047508448364342176 0 0.0097231014578447739 0.047027662910276637 0 0.010382234397384402 0.046718594169857679 0 0.0096642736477835309 0.047844254697560505 0 0.010416142475282237 0.047508448364342176 0 0.0097231014578447739 0.047027662910276637 0 0.0097231014578447739 0.047027662910276637 0 0.010382234397384402 0.046718594169857679 0 0.0097112506218928561 0.046168493692610488 0 0.011489946406451391 0.047118691618648123 0 0.010382234397384402 0.046718594169857679 0 0.010748830061887985 0.046296236203733077 0 0.010382234397384402 0.046718594169857679 0 0.010175769455739185 0.046125800972061745 0 0.010748830061887985 0.046296236203733077 0 0.010591342730565978 0.046960509319206811 0 0.010589399361998011 0.046310628495944313 0 0.0099844361457127051 0.045836325002980342 0 0.010175769455739185 0.046125800972061745 0 0.010748830061887985 0.046296236203733077 0 0.0099844361457127051 0.045836325002980342 0 0.010681787175959214 0.046619979171390102 0 0.010069143483471923 0.045888118951173611 0 0.010382234397384402 0.046718594169857679 0 0.010175769455739185 0.046125800972061745 0 0.0097112506218928561 0.046168493692610488 0 0.010175769455739185 0.046125800972061745 0 0.0097112506218928561 0.046168493692610488 0 0.010024750873684575 0.045867276215702989 0 0.013258549885958537 0.047754893762564615 0 0.011819921091968975 0.047978478322061195 0 0.011746384994772102 0.047081443001942079 0 0.011819921091968975 0.047978478322061195 0 0.010591342730565978 0.046960509319206811 0 0.011746384994772102 0.047081443001942079 0 0.011642786979218753 0.047517350288242249 0 0.010681787175959214 0.046619979171390102 0 0.010591342730565978 0.046960509319206811 0 0.011746384994772102 0.047081443001942079 0 0.010589399361998011 0.046310628495944313 0 0.011746384994772102 0.047081443001942079 0 0.011045721151348088 0.046126694321727765 0 0.010589399361998011 0.046310628495944313 0 0.012779064033568221 0.046834283192544367 0 0.011746384994772102 0.047081443001942079 0 0.011045721151348088 0.046126694321727765 0 0.010589399361998011 0.046310628495944313 0 0.010096629148449617 0.045777593088698575 0 0.0099844361457127051 0.045836325002980342 0 0.011045721151348088 0.046126694321727765 0 0.010589399361998011 0.046310628495944313 0 0.010096629148449617 0.045777593088698575 0 0.011045721151348088 0.046126694321727765 0 0.010096629148449617 0.045777593088698575 0 0.0092038088262841565 0.045000087229505679 0 0.010096629148449617 0.045777593088698575 0 0.0092038088262841565 0.045000087229505679 0 0.0099844361457127051 0.045836325002980342 0 0.011648784792654174 0.044999479044082809 0 0.011045721151348088 0.046126694321727765 0 0.0092038088262841565 0.045000087229505679 0 0.012237872253551595 0.046030525516525193 0 0.011648784792654174 0.044999479044082809 0 0.011045721151348088 0.046126694321727765 0 0.0056539138884832175 0.048126990828939009 0 0.00735544334549017 0.04668019988082462 0 0.0055256223004997813 0.046576158349905757 0 0.00770807507781128 0.047125374094273656 0 0.0086819847400624456 0.046209933222811431 0 0.010175769455739185 0.046125800972061745 0 0.010024750873684575 0.045867276215702989 0 0.0099844361457127051 0.045836325002980342 0 0.0091999479526716516 0.045000120148539713 0 0.0086819847400624456 0.046209933222811431 0 0.0092038088262841565 0.045000087229505679 0 0.010024750873684575 0.045867276215702989 0 0.0099844361457127051 0.045836325002980342 0 0.0091997538593338851 0.045000029274406779 0 0.00735544334549017 0.04668019988082462 0 0.006984481034724945 0.044999883677749389 0 0.00735544334549017 0.04668019988082462 0 0.006984481034724945 0.044999883677749389 0 0.0055256223004997813 0.046576158349905757 0 0.006984481034724945 0.044999883677749389 0 0.0047702277257092958 0.045000082950066744 0 0.0055256223004997813 0.046576158349905757 0 0.0047702277257092958 0.045000082950066744 0 0.0038047244257012709 0.046482493171232854 0 0.0055256223004997813 0.046576158349905757 0 0.0047695564003367363 0.045000008199685429 0 0.0033178892361357733 0.046506592754877361 0 0.002325687002489188 0.04499985936762943 0 0.0047694383397349363 0.045000278417552692 0 0.0035699225324413658 0.046470600979029983 0 0.0038047244257012709 0.046482493171232854 0 0.0042799817058820511 0.047818745040645406 0 0.002856756398399538 0.047791487496874042 0 0.0038047244257012709 0.046482493171232854 0 0.0055256223004997813 0.046576158349905757 0 0.0042799817058820511 0.047818745040645406 0 0.0056539138884832175 0.048126990828939009 0 0.0055256223004997813 0.046576158349905757 0 0.0042799817058820511 0.047818745040645406 0 0.0056539138884832175 0.048126990828939009 0 0.0042799817058820511 0.047818745040645406 0 0.0042262744081396457 0.049423282361709481 0 0.0042799817058820511 0.047818745040645406 0 0.0042262744081396457 0.049423282361709481 0 0.002856756398399538 0.047791487496874042 0 0.00770807507781128 0.047125374094273656 0 0.006410193437315353 0.048294897116950578 0 0.0097231014578447739 0.047027662910276637 0 0.0097112506218928561 0.046168493692610488 0 0.0088347295237239803 0.046863350497454444 0 0.0042262744081396457 0.049423282361709481 0 0.0027604551308733449 0.04947804832131146 0 0.002856756398399538 0.047791487496874042 0 0.0018980113407188425 0.048991479795184194 0 0.0027604551308733449 0.04947804832131146 0 0.002856756398399538 0.047791487496874042 0 0.0012054320030118809 0.049184390118846379 0 0.002359997536081872 0.047820551508845476 0 0.00043173855384455548 0.049213833750877768 0 0.0018438469232762013 0.047909572898676714 0 -0.00039808712306368737 0.047353547074697307 0 0.0018438469232762013 0.047909572898676714 0 0.0012251483185218633 0.046373951072791693 0 -0.00039808712306368737 0.047353547074697307 0 0.0012251483185218633 0.046373951072791693 0 -0.00011805983323585303 0.044999867082912079 0 -0.00039808712306368737 0.047353547074697307 0 0.0033178892361357733 0.046506592754877361 0 0.0018438469232762013 0.047909572898676714 0 0.0012251483185218633 0.046373951072791693 0 0.0035699225324413658 0.046470600979029983 0 0.002359997536081872 0.047820551508845476 0 0.0033178892361357733 0.046506592754877361 0 0.0012251483185218633 0.046373951072791693 0 0.002325687002489188 0.04499985936762943 0 0.0012251483185218633 0.046373951072791693 0 0.002325687002489188 0.04499985936762943 0 -0.00011805983323585303 0.044999867082912079 0 -0.00011805983323585303 0.044999867082912079 0 -0.0017148937144441936 0.046265106176234971 0 -0.00039808712306368737 0.047353547074697307 0 -0.00011805983323585303 0.044999867082912079 0 -0.0025616160300450017 0.044999883557853039 0 -0.0017148937144441936 0.046265106176234971 0 -0.0025616160300450017 0.044999883557853039 0 -0.0017148937144441936 0.046265106176234971 0 -0.0035312295574117135 0.045964462234280724 0 -0.0017148937144441936 0.046265106176234971 0 -0.00039808712306368737 0.047353547074697307 0 -0.0027242442635483561 0.047772731542168163 0 -0.0017148937144441936 0.046265106176234971 0 -0.0035312295574117135 0.045964462234280724 0 -0.0027242442635483561 0.047772731542168163 0 -0.0050700024448811637 0.045961460611299895 0 -0.0050056753482018192 0.044999696542652047 0 -0.0035312295574117135 0.045964462234280724 0 -0.0050700024448811637 0.045961460611299895 0 -0.0050056753482018192 0.044999696542652047 0 -0.0062953291286296491 0.045661529971965382 0 -0.0025616160300450017 0.044999883557853039 0 -0.0050056753482018192 0.044999696542652047 0 -0.0035312295574117135 0.045964462234280724 0 -0.0035312295574117135 0.045964462234280724 0 -0.0041577236809899887 0.047226368508460743 0 -0.0027242442635483561 0.047772731542168163 0 -0.0050700024448811637 0.045961460611299895 0 -0.0062606817357287476 0.047176138858764254 0 -0.0063072138431328958 0.046305773633398599 0 -0.0050700024448811637 0.045961460611299895 0 -0.0035312295574117135 0.045964462234280724 0 -0.0041577236809899887 0.047226368508460743 0 -0.0051355676721781497 0.045992808016770338 0 -0.0056755160400264642 0.047328942551612109 0 -0.0050700024448811637 0.045961460611299895 0 -0.0041577236809899887 0.047226368508460743 0 -0.0051604612325647312 0.047633982714185751 0 -0.0041577236809899887 0.047226368508460743 0 -0.0051604612325647312 0.047633982714185751 0 -0.0042890659155737859 0.048527663681413653 0 -0.0051604612325647312 0.047633982714185751 0 -0.0042890659155737859 0.048527663681413653 0 -0.0053954377696076522 0.048925445233227928 0 -0.0041577236809899887 0.047226368508460743 0 -0.0042890659155737859 0.048527663681413653 0 -0.0027242442635483561 0.047772731542168163 0 -0.0042890659155737859 0.048527663681413653 0 -0.0032322783124468916 0.049633039538059302 0 -0.0047558300539598582 0.049707207290141033 0 -0.0042890659155737859 0.048527663681413653 0 -0.0027242442635483561 0.047772731542168163 0 -0.0032322783124468916 0.049633039538059302 0 -0.0042890659155737859 0.048527663681413653 0 -0.0047558300539598582 0.049707207290141033 0 -0.0053954377696076522 0.048925445233227928 0 0.00043173855384455548 0.049213833750877768 0 -0.00039808712306368737 0.047353547074697307 0 -0.0013869654167679318 0.048898589357337048 0 -0.00039808712306368737 0.047353547074697307 0 -0.0027242442635483561 0.047772731542168163 0 -0.0013869654167679318 0.048898589357337048 0 -0.0027242442635483561 0.047772731542168163 0 -0.0013869654167679318 0.048898589357337048 0 -0.0032322783124468916 0.049633039538059302 0 0.00043173855384455548 0.049213833750877768 0 -0.0013869654167679318 0.048898589357337048 0 -0.00089310593044891425 0.050580682483403118 0 0.0021586839408988309 0.047859060199193386 0 1.0171832038216619e-06 0.047274014606482215 0 0.00074799801555691019 0.048649431837744062 0 -0.00052194435962238503 0.049634747996067957 0 -0.0020040682434240118 0.04973160741528438 0 1.0171832038216619e-06 0.047274014606482215 0 0.00074799801555691019 0.048649431837744062 0 -0.0015006905874444018 0.049072863673722926 0 0.00048743997235023689 0.050156674420954631 0 -0.0015006905874444018 0.049072863673722926 0 -0.0014336813275421074 0.050651167433352032 0 0.00074799801555691019 0.048649431837744062 0 0.00048743997235023689 0.050156674420954631 0 -0.0015006905874444018 0.049072863673722926 0 -0.002609692566020656 0.050408750372358944 0 -0.0032110035838166513 0.050425069600992939 0 -0.0032322783124468916 0.049633039538059302 0 -0.002609692566020656 0.050408750372358944 0 -0.0032110035838166513 0.050425069600992939 0 -0.0029798927223996497 0.050947750766842131 0 -0.0032110035838166513 0.050425069600992939 0 -0.003399402740548643 0.050846645917259084 0 -0.0029798927223996497 0.050947750766842131 0 -0.0020040682434240118 0.04973160741528438 0 -0.0028834776178277661 0.050801147834320305 0 -0.0015006905874444018 0.049072863673722926 0 -0.0014336813275421074 0.050651167433352032 0 -0.0029798927223996497 0.050947750766842131 0 -0.00052194435962238503 0.049634747996067957 0 -0.0035365124417944711 0.049800090710146197 0 -0.0013869654167679318 0.048898589357337048 0 -0.00089310593044891425 0.050580682483403118 0 -0.0032322783124468916 0.049633039538059302 0 -0.0021895152036560681 0.049914641242100433 0 -0.002609692566020656 0.050408750372358944 0 -0.0032322783124468916 0.049633039538059302 0 -0.0032322783124468916 0.049633039538059302 0 -0.0047558300539598582 0.049707207290141033 0 -0.003884201430511615 0.050380428145609661 0 -0.0047558300539598582 0.049707207290141033 0 -0.0050053320190306576 0.050413587554626139 0 -0.003884201430511615 0.050380428145609661 0 -0.0050053320190306576 0.050413587554626139 0 -0.003884201430511615 0.050380428145609661 0 -0.0047565073119046905 0.051388786144372138 0 -0.0032110035838166513 0.050425069600992939 0 -0.0032322783124468916 0.049633039538059302 0 -0.003884201430511615 0.050380428145609661 0 -0.0032110035838166513 0.050425069600992939 0 -0.003884201430511615 0.050380428145609661 0 -0.003399402740548643 0.050846645917259084 0 -0.003884201430511615 0.050380428145609661 0 -0.003399402740548643 0.050846645917259084 0 -0.0038286678407576879 0.051421499302441075 0 -0.003399402740548643 0.050846645917259084 0 -0.0033063200763512835 0.051287226846898834 0 -0.0038286678407576879 0.051421499302441075 0 -0.0033063200763512835 0.051287226846898834 0 -0.0038286678407576879 0.051421499302441075 0 -0.0027950516479885619 0.05215267051377083 0 -0.003399402740548643 0.050846645917259084 0 -0.0033063200763512835 0.051287226846898834 0 -0.0029798927223996497 0.050947750766842131 0 -0.0050053320190306576 0.050413587554626139 0 -0.0047565073119046905 0.051388786144372138 0 -0.0057166023706465138 0.050909677662589865 0 -0.003884201430511615 0.050380428145609661 0 -0.0038286678407576879 0.051421499302441075 0 -0.0047565073119046905 0.051388786144372138 0 -0.0042688851333601277 0.052506052038041026 0 -0.0050713481819751422 0.052143805198474905 0 -0.0054750577878705754 0.052797585763244538 0 -0.0047565073119046905 0.051388786144372138 0 -0.0042688851333601277 0.052506052038041026 0 -0.0050713481819751422 0.052143805198474905 0 -0.0038286678407576879 0.051421499302441075 0 -0.0047565073119046905 0.051388786144372138 0 -0.0042688851333601277 0.052506052038041026 0 -0.0038286678407576879 0.051421499302441075 0 -0.0042688851333601277 0.052506052038041026 0 -0.0027950516479885619 0.05215267051377083 0 -0.0015458916272475525 0.049116333824888399 0 -0.00086612091046062395 0.048857564488874843 0 0.0011500213060320931 0.04572363036608381 0 0.0024876025413315961 0.045297642866984851 0 0.0020373653147711139 0.045963348917268207 0 0.0024876025413315961 0.045297642866984851 0 0.0028575458557308299 0.045800195230629608 0 0.0038269953768993231 0.044901948866540649 0 0.0024876025413315961 0.045297642866984851 0 0.0028575458557308299 0.045800195230629608 0 0.0020373653147711139 0.045963348917268207 0 0.011826285261862418 0.042495687525222904 0 0.012357351570359564 0.042123775818764163 0 0.012355620752910017 0.04267996193615356 0 -0.00086612091046062395 0.048857564488874843 0 0.0049449758055073265 0.048023106152916738 0 0.008085255975214329 0.043239922003831095 0 0.0049449758055073265 0.048023106152916738 0 0.0049449758055073265 0.048023106152916738 0 -0.004605653367393942 0.05193323857452254 0 0.00070590536508122366 0.052108915384216047 0 -0.00026883749597690778 0.051186077068220481 0 -0.002854874170585513 0.051266966238121166 0 0.00048743997235023689 0.050156674420954631 0 0.00070590536508122366 0.052108915384216047 0 -0.00026883749597690778 0.051186077068220481 0 0.00048743997235023689 0.050156674420954631 0 -0.00026883749597690778 0.051186077068220481 0 -0.0014336813275421074 0.050651167433352032 0 -0.0027950516479885619 0.05215267051377083 0 -0.0010021286102960796 0.051549389405581771 0 -0.002854874170585513 0.051266966238121166 0 -0.00026883749597690778 0.051186077068220481 0 -0.0014336813275421074 0.050651167433352032 0 -0.002854874170585513 0.051266966238121166 0 -0.0014336813275421074 0.050651167433352032 0 -0.0029798927223996497 0.050947750766842131 0 -0.002854874170585513 0.051266966238121166 0 -0.0033063200763512835 0.051287226846898834 0 -0.0029798927223996497 0.050947750766842131 0 -0.002854874170585513 0.051266966238121166 0 -0.0033063200763512835 0.051287226846898834 0 -0.0027950516479885619 0.05215267051377083 0 -0.002854874170585513 0.051266966238121166 0 -0.0089537039916508174 0.051112179755441037 0 -0.0098413678537912341 0.050272356948851168 0 -0.0082724238067885762 0.050359406268731539 0 -0.0099288456559270873 0.05143374175231577 0 -0.0089537039916508174 0.051112179755441037 0 -0.0098413678537912341 0.050272356948851168 0 -0.0099288456559270873 0.05143374175231577 0 -0.0089537039916508174 0.051112179755441037 0 -0.0090338374194421662 0.052061843941253828 0 -0.0089537039916508174 0.051112179755441037 0 -0.0090338374194421662 0.052061843941253828 0 -0.0078864206924483989 0.051623731422206276 0 -0.010202376264585773 0.05027469126931422 0 -0.011706845787653982 0.050354425652731689 0 -0.011946154908928633 0.051647364477919386 0 -0.0099288456559270873 0.05143374175231577 0 -0.0098413678537912341 0.050272356948851168 0 -0.011946154908928633 0.051647364477919386 0 -0.010063694821683327 0.050297838720761753 0 -0.011794824997640761 0.051618193980553104 0 -0.011946154908928633 0.051647364477919386 0 -0.01012077728496532 0.052273411503774098 0 -0.010853224057186292 0.052977584208591125 0 -0.0099288456559270873 0.05143374175231577 0 -0.011946154908928633 0.051647364477919386 0 -0.01012077728496532 0.052273411503774098 0 -0.011946154908928633 0.051647364477919386 0 -0.012699278058382339 0.052326056833987555 0 -0.010853224057186292 0.052977584208591125 0 -0.01012077728496532 0.052273411503774098 0 -0.0089971853735298785 0.052548564634416955 0 -0.010853224057186292 0.052977584208591125 0 -0.0085896248738387693 0.052494098049564397 0 -0.011181119891071961 0.052742990674057438 0 -0.0099288456559270873 0.05143374175231577 0 -0.01012077728496532 0.052273411503774098 0 -0.0090338374194421662 0.052061843941253828 0 -0.0090338374194421662 0.052061843941253828 0 -0.0089305764679467291 0.052719654235056014 0 -0.0078864206924483989 0.051623731422206276 0 -0.008727588044377654 0.052289792463205462 0 -0.0085896248738387693 0.052494098049564397 0 -0.01012077728496532 0.052273411503774098 0 -0.0090338374194421662 0.052061843941253828 0 -0.0089971853735298785 0.052548564634416955 0 -0.0085896248738387693 0.052494098049564397 0 -0.0060137919123719021 0.051885082385010856 0 -0.0089305764679467291 0.052719654235056014 0 -0.0066446469992687907 0.052019774854245152 0 -0.0078864206924483989 0.051623731422206276 0 -0.0066985619431865857 0.052278169154261402 0 -0.0057340956139302589 0.051868255895425763 0 -0.0061232637062384552 0.052522805460320295 0 -0.0057340956139302589 0.051868255895425763 0 -0.0054750577878705754 0.052797585763244538 0 -0.0061232637062384552 0.052522805460320295 0 -0.0050713481819751422 0.052143805198474905 0 -0.0057340956139302589 0.051868255895425763 0 -0.0054750577878705754 0.052797585763244538 0 -0.0047565073119046905 0.051388786144372138 0 -0.0050713481819751422 0.052143805198474905 0 -0.0057340956139302589 0.051868255895425763 0 -0.0047565073119046905 0.051388786144372138 0 -0.0066446469992687907 0.052019774854245152 0 -0.0057166023706465138 0.050909677662589865 0 -0.0049134700353449939 0.051439215687373689 0 -0.0060137919123719021 0.051885082385010856 0 -0.0066446469992687907 0.052019774854245152 0 -0.0057166023706465138 0.050909677662589865 0 -0.0069195322053466693 0.050983871883670435 0 -0.0089537039916508174 0.051112179755441037 0 -0.0078864206924483989 0.051623731422206276 0 -0.0082724238067885762 0.050359406268731539 0 -0.0066446469992687907 0.052019774854245152 0 -0.0078864206924483989 0.051623731422206276 0 -0.0069195322053466693 0.050983871883670435 0 -0.0069195322053466693 0.050983871883670435 0 -0.0082724238067885762 0.050359406268731539 0 -0.0075642264613217849 0.0497762306591003 0 -0.0078864206924483989 0.051623731422206276 0 -0.0069195322053466693 0.050983871883670435 0 -0.0082724238067885762 0.050359406268731539 0 -0.0075642264613217849 0.0497762306591003 0 -0.0070458412377719512 0.049071263683432842 0 -0.0079884326199261384 0.048914558248614542 0 -0.0069195322053466693 0.050983871883670435 0 -0.0075642264613217849 0.0497762306591003 0 -0.0070458412377719512 0.049071263683432842 0 -0.0082724238067885762 0.050359406268731539 0 -0.0075642264613217849 0.0497762306591003 0 -0.0079884326199261384 0.048914558248614542 0 -0.0047558300539598582 0.049707207290141033 0 -0.0050053320190306576 0.050413587554626139 0 -0.0058469497476801389 0.049929807469555283 0 -0.0068949495129420613 0.050952537647187726 0 -0.0064796496280165108 0.049590178024404657 0 -0.0057166023706465138 0.050909677662589865 0 -0.0069195322053466693 0.050983871883670435 0 -0.0058469497476801389 0.049929807469555283 0 -0.0050053320190306576 0.050413587554626139 0 -0.0057166023706465138 0.050909677662589865 0 -0.0058469497476801389 0.049929807469555283 0 -0.0064796496280165108 0.049590178024404657 0 -0.0061540547247624887 0.048532462341981074 0 -0.0070458412377719512 0.049071263683432842 0 -0.0069500515971500729 0.048166541045817406 0 -0.0071639332368217566 0.048194175535195588 0 -0.0047558300539598582 0.049707207290141033 0 -0.0058469497476801389 0.049929807469555283 0 -0.0053954377696076522 0.048925445233227928 0 -0.0083145511244152488 0.049043218368403627 0 -0.0072395890418923232 0.048208578774444857 0 -0.0070458412377719512 0.049071263683432842 0 -0.0079884326199261384 0.048914558248614542 0 -0.0071639332368217566 0.048194175535195588 0 -0.0086486410476767119 0.049205740453433774 0 -0.0071639332368217566 0.048194175535195588 0 -0.0084421616642446993 0.048314909529259313 0 -0.0086486410476767119 0.049205740453433774 0 -0.0093002069908207918 0.048579509471132105 0 -0.0084421616642446993 0.048314909529259313 0 -0.0086486410476767119 0.049205740453433774 0 -0.0093002069908207918 0.048579509471132105 0 -0.010367336593994069 0.049139888125095489 0 -0.010202376264585773 0.05027469126931422 0 -0.0086486410476767119 0.049205740453433774 0 -0.010367336593994069 0.049139888125095489 0 -0.0098413678537912341 0.050272356948851168 0 -0.0082724238067885762 0.050359406268731539 0 -0.0079884326199261384 0.048914558248614542 0 -0.010063694821683327 0.050297838720761753 0 -0.0083145511244152488 0.049043218368403627 0 -0.010202376264585773 0.05027469126931422 0 -0.011706845787653982 0.050354425652731689 0 -0.010367336593994069 0.049139888125095489 0 -0.011706845787653982 0.050354425652731689 0 -0.010367336593994069 0.049139888125095489 0 -0.012946337734998712 0.04947378464874453 0 -0.010367336593994069 0.049139888125095489 0 -0.011056502208438512 0.048118743268060211 0 -0.012946337734998712 0.04947378464874453 0 -0.0093002069908207918 0.048579509471132105 0 -0.010367336593994069 0.049139888125095489 0 -0.011056502208438512 0.048118743268060211 0 -0.011056502208438512 0.048118743268060211 0 -0.0090859961295635117 0.047819401513455241 0 -0.009692405263756667 0.046943615503645966 0 -0.01166414516864543 0.048268707984372772 0 -0.010208094292023273 0.047109876932101051 0 -0.0093002069908207918 0.048579509471132105 0 -0.011056502208438512 0.048118743268060211 0 -0.0090859961295635117 0.047819401513455241 0 -0.0093002069908207918 0.048579509471132105 0 -0.0090859961295635117 0.047819401513455241 0 -0.0084421616642446993 0.048314909529259313 0 -0.009692405263756667 0.046943615503645966 0 -0.0083233301416560258 0.047164492988163199 0 -0.00859474599619129 0.04655972594219572 0 -0.0090859961295635117 0.047819401513455241 0 -0.009692405263756667 0.046943615503645966 0 -0.0083233301416560258 0.047164492988163199 0 -0.012234798189745169 0.048334396418669455 0 -0.010766001657493402 0.047390639892074073 0 -0.012754814812950889 0.047475351615216196 0 -0.0071639332368217566 0.048194175535195588 0 -0.007993562730771812 0.047827979313670374 0 -0.0071061867748583489 0.04753494991076869 0 -0.0069500515971500729 0.048166541045817406 0 -0.0071639332368217566 0.048194175535195588 0 -0.0071061867748583489 0.04753494991076869 0 -0.0071639332368217566 0.048194175535195588 0 -0.007993562730771812 0.047827979313670374 0 -0.0084421616642446993 0.048314909529259313 0 -0.0090859961295635117 0.047819401513455241 0 -0.007993562730771812 0.047827979313670374 0 -0.0084421616642446993 0.048314909529259313 0 -0.0090859961295635117 0.047819401513455241 0 -0.007993562730771812 0.047827979313670374 0 -0.0083233301416560258 0.047164492988163199 0 -0.0083233301416560258 0.047164492988163199 0 -0.0071061867748583489 0.04753494991076869 0 -0.0073930348905139019 0.046413620742138853 0 -0.007993562730771812 0.047827979313670374 0 -0.0083233301416560258 0.047164492988163199 0 -0.0071061867748583489 0.04753494991076869 0 -0.0056755160400264642 0.047328942551612109 0 -0.0061540547247624887 0.048532462341981074 0 -0.0062606817357287476 0.047176138858764254 0 -0.0071061867748583489 0.04753494991076869 0 -0.0073930348905139019 0.046413620742138853 0 -0.0062606817357287476 0.047176138858764254 0 -0.0069500515971500729 0.048166541045817406 0 -0.0071061867748583489 0.04753494991076869 0 -0.0062606817357287476 0.047176138858764254 0 -0.0063072138431328958 0.046305773633398599 0 -0.0073930348905139019 0.046413620742138853 0 -0.0063072138431328958 0.046305773633398599 0 -0.0073930348905139019 0.046413620742138853 0 -0.0062953291286296491 0.045661529971965382 0 -0.0073930348905139019 0.046413620742138853 0 -0.00859474599619129 0.04655972594219572 0 -0.0088558202978597476 0.045656956805106071 0 -0.0083233301416560258 0.047164492988163199 0 -0.0073930348905139019 0.046413620742138853 0 -0.00859474599619129 0.04655972594219572 0 -0.0073930348905139019 0.046413620742138853 0 -0.0074494127633913309 0.044999788394105449 0 -0.0088558202978597476 0.045656956805106071 0 -0.0050056753482018192 0.044999696542652047 0 -0.0074494127633913309 0.044999788394105449 0 -0.0062953291286296491 0.045661529971965382 0 -0.0073930348905139019 0.046413620742138853 0 -0.0074494127633913309 0.044999788394105449 0 -0.0062953291286296491 0.045661529971965382 0 -0.0050700024448811637 0.045961460611299895 0 -0.0063072138431328958 0.046305773633398599 0 -0.0062953291286296491 0.045661529971965382 0 -0.010766001657493402 0.047390639892074073 0 -0.011401379221561786 0.046219971128801628 0 -0.0088558202978597476 0.045656956805106071 0 -0.010766001657493402 0.047390639892074073 0 -0.011401379221561786 0.046219971128801628 0 -0.012754814812950889 0.047475351615216196 0 -0.010208094292023273 0.047109876932101051 0 -0.0089562388055167228 0.045675465437497086 0 -0.009692405263756667 0.046943615503645966 0 -0.00859474599619129 0.04655972594219572 0 -0.0088558202978597476 0.045656956805106071 0 -0.0074494127633913309 0.044999788394105449 0 -0.0088558202978597476 0.045656956805106071 0 -0.0098932527872518158 0.044999646606679322 0 -0.011401379221561786 0.046219971128801628 0 -0.0088558202978597476 0.045656956805106071 0 -0.0098932527872518158 0.044999646606679322 0 -0.011401379221561786 0.046219971128801628 0 -0.0098932527872518158 0.044999646606679322 0 -0.012337002141477727 0.044999818231240551 0 -0.011401379221561786 0.046219971128801628 0 -0.012337002141477727 0.044999818231240551 0 -0.01331624209438759 0.046355703042260374 0 -0.011401379221561786 0.046219971128801628 0 -0.01331624209438759 0.046355703042260374 0 -0.012754814812950889 0.047475351615216196 0 -0.01331624209438759 0.046355703042260374 0 -0.012754814812950889 0.047475351615216196 0 -0.01388800492619988 0.047224891688674525 0 -0.012337002141477727 0.044999818231240551 0 -0.01331624209438759 0.046355703042260374 0 -0.01478026531497565 0.044999821483888834 0 -0.01331624209438759 0.046355703042260374 0 -0.01478026531497565 0.044999821483888834 0 -0.014831300051943604 0.046765548429644602 0 -0.01478026531497565 0.044999821483888834 0 -0.016111414931512722 0.046705658356926603 0 -0.017223478443107461 0.044999818159175711 0 -0.016612242127317597 0.046683046040340279 0 -0.01722412971941973 0.045000099665005427 0 -0.01331624209438759 0.046355703042260374 0 -0.014831300051943604 0.046765548429644602 0 -0.01388800492619988 0.047224891688674525 0 -0.01478026531497565 0.044999821483888834 0 -0.016111414931512722 0.046705658356926603 0 -0.014831300051943604 0.046765548429644602 0 -0.014831300051943604 0.046765548429644602 0 -0.014525929132159093 0.047702064113342768 0 -0.01388800492619988 0.047224891688674525 0 -0.014831300051943604 0.046765548429644602 0 -0.014525929132159093 0.047702064113342768 0 -0.015249710006635955 0.048162921013856955 0 -0.014567294071034522 0.047566269802239165 0 -0.015903739362787932 0.047950996917356062 0 -0.014525929132159093 0.047702064113342768 0 -0.013872264444237494 0.047809171387376947 0 -0.01388800492619988 0.047224891688674525 0 -0.017108453626295404 0.046648201644628427 0 -0.016618533222568906 0.048310204662194718 0 -0.018212102648242679 0.047838718798333811 0 -0.016612242127317597 0.046683046040340279 0 -0.015903739362787932 0.047950996917356062 0 -0.016111414931512722 0.046705658356926603 0 -0.014831300051943604 0.046765548429644602 0 -0.015249710006635955 0.048162921013856955 0 -0.016646474621466324 0.04734403206971808 0 -0.017894952434411887 0.048114052064249825 0 -0.016974186026502441 0.048364509100715977 0 -0.016646474621466324 0.04734403206971808 0 -0.016075395934490436 0.049047488924902079 0 -0.016974186026502441 0.048364509100715977 0 -0.015903739362787932 0.047950996917356062 0 -0.018017366759338755 0.048666086909874944 0 -0.014635340847830943 0.047862348697140802 0 -0.014401606455107206 0.047972674944612465 0 -0.014445602897250579 0.048260009313704555 0 -0.015903739362787932 0.047950996917356062 0 -0.015557384061819541 0.048486013958518551 0 -0.014525929132159093 0.047702064113342768 0 -0.014401606455107206 0.047972674944612465 0 -0.013872264444237494 0.047809171387376947 0 -0.014401606455107206 0.047972674944612465 0 -0.014203676069417966 0.048026061694401372 0 -0.013872264444237494 0.047809171387376947 0 -0.014525929132159093 0.047702064113342768 0 -0.014635340847830943 0.047862348697140802 0 -0.014401606455107206 0.047972674944612465 0 -0.014401606455107206 0.047972674944612465 0 -0.014203676069417966 0.048026061694401372 0 -0.014325014566439732 0.048155967463037894 0 -0.014203676069417966 0.048026061694401372 0 -0.013987871821954358 0.048182823107780041 0 -0.014325014566439732 0.048155967463037894 0 -0.014203676069417966 0.048026061694401372 0 -0.013872264444237494 0.047809171387376947 0 -0.013987871821954358 0.048182823107780041 0 -0.013872264444237494 0.047809171387376947 0 -0.013280474798953348 0.048090778211816676 0 -0.013987871821954358 0.048182823107780041 0 -0.013872264444237494 0.047809171387376947 0 -0.013280474798953348 0.048090778211816676 0 -0.012754814812950889 0.047475351615216196 0 -0.012234798189745169 0.048334396418669455 0 -0.013280474798953348 0.048090778211816676 0 -0.012754814812950889 0.047475351615216196 0 -0.013872264444237494 0.047809171387376947 0 -0.012754814812950889 0.047475351615216196 0 -0.01388800492619988 0.047224891688674525 0 -0.020912598180773175 0.046451350458660064 0 -0.021505692024443735 0.047498473507279093 0 -0.022793669428357644 0.046783758973524485 0 -0.020912598180773175 0.046451350458660064 0 -0.022622449135693199 0.044999871082604816 0 -0.022793669428357644 0.046783758973524485 0 -0.019923350904490787 0.044999666477831109 0 -0.020912598180773175 0.046451350458660064 0 -0.022622449135693199 0.044999871082604816 0 -0.019923350904490787 0.044999666477831109 0 -0.020912598180773175 0.046451350458660064 0 -0.018823505437987054 0.046488135731585674 0 -0.020912598180773175 0.046451350458660064 0 -0.018823505437987054 0.046488135731585674 0 -0.019842224586478743 0.047747348678130165 0 -0.019923350904490787 0.044999666477831109 0 -0.018823505437987054 0.046488135731585674 0 -0.017225486168228457 0.044999835753911505 0 -0.017108453626295404 0.046648201644628427 0 -0.018823505437987054 0.046488135731585674 0 -0.017225486168228457 0.044999835753911505 0 -0.017108453626295404 0.046648201644628427 0 -0.018823505437987054 0.046488135731585674 0 -0.018212102648242679 0.047838718798333811 0 -0.016618533222568906 0.048310204662194718 0 -0.018212102648242679 0.047838718798333811 0 -0.017953291308340072 0.049100418066143812 0 -0.018212102648242679 0.047838718798333811 0 -0.017953291308340072 0.049100418066143812 0 -0.019090254108266449 0.048713188458261919 0 -0.017953291308340072 0.049100418066143812 0 -0.019090254108266449 0.048713188458261919 0 -0.01937612522240123 0.049902679804546497 0 -0.019090254108266449 0.048713188458261919 0 -0.019842224586478743 0.047747348678130165 0 -0.020145005618380282 0.048966811384550508 0 -0.019090254108266449 0.048713188458261919 0 -0.020145005618380282 0.048966811384550508 0 -0.01937612522240123 0.049902679804546497 0 -0.018823505437987054 0.046488135731585674 0 -0.018212102648242679 0.047838718798333811 0 -0.019842224586478743 0.047747348678130165 0 -0.018212102648242679 0.047838718798333811 0 -0.019090254108266449 0.048713188458261919 0 -0.019842224586478743 0.047747348678130165 0 -0.019842224586478743 0.047747348678130165 0 -0.021030982891363074 0.048279370837366373 0 -0.021505692024443735 0.047498473507279093 0 -0.020912598180773175 0.046451350458660064 0 -0.019842224586478743 0.047747348678130165 0 -0.021505692024443735 0.047498473507279093 0 -0.019842224586478743 0.047747348678130165 0 -0.020145005618380282 0.048966811384550508 0 -0.021030982891363074 0.048279370837366373 0 -0.020145005618380282 0.048966811384550508 0 -0.021326576657824829 0.048982804769011859 0 -0.021030982891363074 0.048279370837366373 0 -0.021326576657824829 0.048982804769011859 0 -0.021030982891363074 0.048279370837366373 0 -0.022302871401236688 0.048134005245620157 0 -0.021326576657824829 0.048982804769011859 0 -0.022302871401236688 0.048134005245620157 0 -0.022123424102487087 0.04942038005629814 0 -0.022302871401236688 0.048134005245620157 0 -0.022123424102487087 0.04942038005629814 0 -0.023841544393948755 0.048545341052849592 0 -0.021505692024443735 0.047498473507279093 0 -0.022793669428357644 0.046783758973524485 0 -0.022909623488273866 0.047656490590197352 0 -0.022302871401236688 0.048134005245620157 0 -0.021505692024443735 0.047498473507279093 0 -0.022909623488273866 0.047656490590197352 0 -0.021030982891363074 0.048279370837366373 0 -0.022302871401236688 0.048134005245620157 0 -0.021505692024443735 0.047498473507279093 0 -0.024810149931806001 0.048518952824384821 0 -0.024503242121547735 0.048290333445789577 0 -0.026177482848262684 0.048409830271263887 0 -0.021790269133941376 0.05122365613525133 0 -0.022123424102487087 0.04942038005629814 0 -0.024304709093597714 0.050370275968450853 0 -0.024810149931806001 0.048518952824384821 0 -0.024318388245899759 0.04808375168131894 0 -0.024014801622139568 0.048844050393069431 0 -0.023901874825463038 0.049077844231177239 0 -0.023134806603560785 0.04902773969218685 0 -0.021923737516116242 0.049478186807694877 0 -0.020653425453025755 0.049594990831455112 0 -0.022123424102487087 0.04942038005629814 0 -0.021326827714062406 0.050158469988328347 0 -0.020658372987502234 0.049506367435310804 0 -0.021326576657824829 0.048982804769011859 0 -0.022123424102487087 0.04942038005629814 0 -0.020699194689614561 0.049755235763312297 0 -0.021790269133941376 0.05122365613525133 0 -0.022123424102487087 0.04942038005629814 0 -0.021326827714062406 0.050158469988328347 0 -0.020145005618380282 0.048966811384550508 0 -0.020699194689614561 0.049755235763312297 0 -0.01937612522240123 0.049902679804546497 0 -0.020658372987502234 0.049506367435310804 0 -0.020481313763607498 0.050387009350726146 0 -0.019204219917839709 0.049577402074058009 0 -0.021326827714062406 0.050158469988328347 0 -0.020658372987502234 0.049506367435310804 0 -0.020481313763607498 0.050387009350726146 0 -0.020145005618380282 0.048966811384550508 0 -0.021326576657824829 0.048982804769011859 0 -0.020699194689614561 0.049755235763312297 0 -0.022477043876831342 0.048651530435563195 0 -0.021355077928366436 0.047951965492367778 0 -0.020688726456889843 0.049179191109785095 0 -0.024318388245899759 0.04808375168131894 0 -0.021968345955129285 0.048497872390836187 0 -0.024014801622139568 0.048844050393069431 0 -0.023134806603560785 0.04902773969218685 0 -0.021372331479888856 0.048804000221968 0 -0.023134806603560785 0.04902773969218685 0 -0.020862781262661938 0.04911959498109713 0 -0.021790269133941376 0.05122365613525133 0 -0.021326827714062406 0.050158469988328347 0 -0.020481313763607498 0.050387009350726146 0 -0.021355077928366436 0.047951965492367778 0 -0.02041883178730108 0.048230614548046405 0 -0.020688726456889843 0.049179191109785095 0 -0.02041883178730108 0.048230614548046405 0 -0.019410562126934254 0.048491312502162362 0 -0.020688726456889843 0.049179191109785095 0 -0.02041883178730108 0.048230614548046405 0 -0.020264958271696207 0.047221693894415336 0 -0.019410562126934254 0.048491312502162362 0 -0.021355077928366436 0.047951965492367778 0 -0.02041883178730108 0.048230614548046405 0 -0.020264958271696207 0.047221693894415336 0 -0.020653425453025755 0.049594990831455112 0 -0.019516379611713573 0.048928498455421132 0 -0.020862781262661938 0.04911959498109713 0 -0.019516379611713573 0.048928498455421132 0 -0.020264958271696207 0.047221693894415336 0 -0.019410562126934254 0.048491312502162362 0 -0.017881076384840454 0.047326764620660482 0 -0.017894952434411887 0.048114052064249825 0 -0.019150252020355765 0.048893334300175256 0 -0.017284983680914943 0.048987274247217487 0 -0.018017366759338755 0.048666086909874944 0 -0.019516379611713573 0.048928498455421132 0 -0.019516379611713573 0.048928498455421132 0 -0.017691505240872218 0.048053524406502311 0 -0.019410562126934254 0.048491312502162362 0 -0.019108318850592349 0.049623191834456036 0 -0.01780695350038709 0.049094433169907505 0 -0.019410562126934254 0.048491312502162362 0 -0.017881076384840454 0.047326764620660482 0 -0.01780695350038709 0.049094433169907505 0 -0.019108318850592349 0.049623191834456036 0 -0.018824638246885357 0.05143708473750698 0 -0.020642042950859169 0.050528713747260347 0 -0.018824638246885357 0.05143708473750698 0 -0.020642042950859169 0.050528713747260347 0 -0.020356503027826833 0.051661674431903712 0 -0.020642042950859169 0.050528713747260347 0 -0.021757077733897338 0.051352324200284405 0 -0.020356503027826833 0.051661674431903712 0 -0.020642042950859169 0.050528713747260347 0 -0.021757077733897338 0.051352324200284405 0 -0.022084500716791338 0.050125180340041937 0 -0.019247143837289746 0.049562909639727988 0 -0.021372331479888856 0.048804000221968 0 -0.019410562126934254 0.048491312502162362 0 -0.019108318850592349 0.049623191834456036 0 -0.020688726456889843 0.049179191109785095 0 -0.020642042950859169 0.050528713747260347 0 -0.022084500716791338 0.050125180340041937 0 -0.021968345955129285 0.048497872390836187 0 -0.019108318850592349 0.049623191834456036 0 -0.020642042950859169 0.050528713747260347 0 -0.021968345955129285 0.048497872390836187 0 -0.022084500716791338 0.050125180340041937 0 -0.021968345955129285 0.048497872390836187 0 -0.022932161320782626 0.049839836159875306 0 -0.021968345955129285 0.048497872390836187 0 -0.023730340170012795 0.049377146089194447 0 -0.024014801622139568 0.048844050393069431 0 -0.021968345955129285 0.048497872390836187 0 -0.023730340170012795 0.049377146089194447 0 -0.022932161320782626 0.049839836159875306 0 -0.023730340170012795 0.049377146089194447 0 -0.022932161320782626 0.049839836159875306 0 -0.023705382206597833 0.050352370944452565 0 -0.022084500716791338 0.050125180340041937 0 -0.022932161320782626 0.049839836159875306 0 -0.022756979161933241 0.050697862847781786 0 -0.021757077733897338 0.051352324200284405 0 -0.022084500716791338 0.050125180340041937 0 -0.022756979161933241 0.050697862847781786 0 -0.021757077733897338 0.051352324200284405 0 -0.022756979161933241 0.050697862847781786 0 -0.023350708275723473 0.051326679637294571 0 -0.022756979161933241 0.050697862847781786 0 -0.023705382206597833 0.050352370944452565 0 -0.023350708275723473 0.051326679637294571 0 -0.022932161320782626 0.049839836159875306 0 -0.022756979161933241 0.050697862847781786 0 -0.023705382206597833 0.050352370944452565 0 -0.024660480794911607 0.050603561667561428 0 -0.025021917551273139 0.049568460659351027 0 -0.025804037282350679 0.050639607781767605 0 -0.023705382206597833 0.050352370944452565 0 -0.024660480794911607 0.050603561667561428 0 -0.025021917551273139 0.049568460659351027 0 -0.023705382206597833 0.050352370944452565 0 -0.024660480794911607 0.050603561667561428 0 -0.023350708275723473 0.051326679637294571 0 -0.023730340170012795 0.049377146089194447 0 -0.025021917551273139 0.049568460659351027 0 -0.024014801622139568 0.048844050393069431 0 -0.023730340170012795 0.049377146089194447 0 -0.023705382206597833 0.050352370944452565 0 -0.025021917551273139 0.049568460659351027 0 -0.024810149931806001 0.048518952824384821 0 -0.025021917551273139 0.049568460659351027 0 -0.024014801622139568 0.048844050393069431 0 -0.014612725238295552 0.049130467113688625 0 -0.012946337734998712 0.04947378464874453 0 -0.01355298000500206 0.048488414234879193 0 -0.014612725238295552 0.049130467113688625 0 -0.012946337734998712 0.04947378464874453 0 -0.014406020708279871 0.050243708135302642 0 -0.012234798189745169 0.048334396418669455 0 -0.013280474798953348 0.048090778211816676 0 -0.01355298000500206 0.048488414234879193 0 -0.012234798189745169 0.048334396418669455 0 -0.012946337734998712 0.04947378464874453 0 -0.01355298000500206 0.048488414234879193 0 -0.01166414516864543 0.048268707984372772 0 -0.012851147625438084 0.049485501265855596 0 -0.013280474798953348 0.048090778211816676 0 -0.01355298000500206 0.048488414234879193 0 -0.013987871821954358 0.048182823107780041 0 -0.014612725238295552 0.049130467113688625 0 -0.01355298000500206 0.048488414234879193 0 -0.01454246835376523 0.048176849486511998 0 -0.01355298000500206 0.048488414234879193 0 -0.013987871821954358 0.048182823107780041 0 -0.01454246835376523 0.048176849486511998 0 -0.014401606455107206 0.047972674944612465 0 -0.014325014566439732 0.048155967463037894 0 -0.014445602897250579 0.048260009313704555 0 -0.013987871821954358 0.048182823107780041 0 -0.014325014566439732 0.048155967463037894 0 -0.01454246835376523 0.048176849486511998 0 -0.014325014566439732 0.048155967463037894 0 -0.014445602897250579 0.048260009313704555 0 -0.01454246835376523 0.048176849486511998 0 -0.015855564223262928 0.047646233991359269 0 -0.01454246835376523 0.048176849486511998 0 -0.016301697402687314 0.048674479189229201 0 -0.015557384061819541 0.048486013958518551 0 -0.014797218720989776 0.04829376237424092 0 -0.015557384061819541 0.048486013958518551 0 -0.017691505240872218 0.048053524406502311 0 -0.016075395934490436 0.049047488924902079 0 -0.016974186026502441 0.048364509100715977 0 -0.017284983680914943 0.048987274247217487 0 -0.015855564223262928 0.047646233991359269 0 -0.017881076384840454 0.047326764620660482 0 -0.016301697402687314 0.048674479189229201 0 -0.017894952434411887 0.048114052064249825 0 -0.016974186026502441 0.048364509100715977 0 -0.017284983680914943 0.048987274247217487 0 -0.017881076384840454 0.047326764620660482 0 -0.01780695350038709 0.049094433169907505 0 -0.016301697402687314 0.048674479189229201 0 -0.01780695350038709 0.049094433169907505 0 -0.016301697402687314 0.048674479189229201 0 -0.016134997364847282 0.049770531059050993 0 -0.014612725238295552 0.049130467113688625 0 -0.01454246835376523 0.048176849486511998 0 -0.016301697402687314 0.048674479189229201 0 -0.014612725238295552 0.049130467113688625 0 -0.016301697402687314 0.048674479189229201 0 -0.016134997364847282 0.049770531059050993 0 -0.014612725238295552 0.049130467113688625 0 -0.016134997364847282 0.049770531059050993 0 -0.014406020708279871 0.050243708135302642 0 -0.016134997364847282 0.049770531059050993 0 -0.017392858659463682 0.050429454780682177 0 -0.015654053969258008 0.05097553852617058 0 -0.016134997364847282 0.049770531059050993 0 -0.015654053969258008 0.05097553852617058 0 -0.014406020708279871 0.050243708135302642 0 -0.01780695350038709 0.049094433169907505 0 -0.016134997364847282 0.049770531059050993 0 -0.017392858659463682 0.050429454780682177 0 -0.019108318850592349 0.049623191834456036 0 -0.01780695350038709 0.049094433169907505 0 -0.017392858659463682 0.050429454780682177 0 -0.018824638246885357 0.05143708473750698 0 -0.017392858659463682 0.050429454780682177 0 -0.016737720403639522 0.051803166455914033 0 -0.019108318850592349 0.049623191834456036 0 -0.018824638246885357 0.05143708473750698 0 -0.017392858659463682 0.050429454780682177 0 -0.017392858659463682 0.050429454780682177 0 -0.015654053969258008 0.05097553852617058 0 -0.016737720403639522 0.051803166455914033 0 -0.015654053969258008 0.05097553852617058 0 -0.016737720403639522 0.051803166455914033 0 -0.015170827907427629 0.052136297768619506 0 -0.015654053969258008 0.05097553852617058 0 -0.014118926098419218 0.051502429504242407 0 -0.015170827907427629 0.052136297768619506 0 -0.014118926098419218 0.051502429504242407 0 -0.013785351878745451 0.052585316727358521 0 -0.015170827907427629 0.052136297768619506 0 -0.015654053969258008 0.05097553852617058 0 -0.014118926098419218 0.051502429504242407 0 -0.014406020708279871 0.050243708135302642 0 -0.012946337734998712 0.04947378464874453 0 -0.014406020708279871 0.050243708135302642 0 -0.012975046799466062 0.050905464076214213 0 -0.014118926098419218 0.051502429504242407 0 -0.014406020708279871 0.050243708135302642 0 -0.012975046799466062 0.050905464076214213 0 -0.011706845787653982 0.050354425652731689 0 -0.011946154908928633 0.051647364477919386 0 -0.012975046799466062 0.050905464076214213 0 -0.011706845787653982 0.050354425652731689 0 -0.012946337734998712 0.04947378464874453 0 -0.012975046799466062 0.050905464076214213 0 -0.014118926098419218 0.051502429504242407 0 -0.012975046799466062 0.050905464076214213 0 -0.012699278058382339 0.052326056833987555 0 -0.011946154908928633 0.051647364477919386 0 -0.012975046799466062 0.050905464076214213 0 -0.012699278058382339 0.052326056833987555 0 -0.014118926098419218 0.051502429504242407 0 -0.012699278058382339 0.052326056833987555 0 -0.013785351878745451 0.052585316727358521 0 -0.012699278058382339 0.052326056833987555 0 -0.012785693157469667 0.053203607057114688 0 -0.010853224057186292 0.052977584208591125 0 -0.012699278058382339 0.052326056833987555 0 -0.012785693157469667 0.053203607057114688 0 -0.013785351878745451 0.052585316727358521 0 -0.013581168342475034 0.053388291158853712 0 -0.012785693157469667 0.053203607057114688 0 -0.012714422834276172 0.054197580228187117 0 -0.013581168342475034 0.053388291158853712 0 -0.012785693157469667 0.053203607057114688 0 -0.013785351878745451 0.052585316727358521 0 -0.012785693157469667 0.053203607057114688 0 -0.012714422834276172 0.054197580228187117 0 -0.011919873914081109 0.053496088026774975 0 -0.01288949761177984 0.054223898215805387 0 -0.014562898879367413 0.054972216324920643 0 -0.014174505824802322 0.050820519477661502 0 -0.015585037116741571 0.050820062468567129 0 -0.013556579524859915 0.05033528728860015 0 -0.014631295859997178 0.052762253903433316 0 -0.013469336715754178 0.052659780720318322 0 -0.012714422834276172 0.054197580228187117 0 -0.014091641243425043 0.054996191385815907 0 -0.011797443938698905 0.054295456818844151 0 -0.012714422834276172 0.054197580228187117 0 -0.014086500470832066 0.053801338996461279 0 -0.014149577251464764 0.054224904755388409 0 -0.013581168342475034 0.053388291158853712 0 -0.012714422834276172 0.054197580228187117 0 -0.014086500470832066 0.053801338996461279 0 -0.012714422834276172 0.054197580228187117 0 -0.01476883677902973 0.054914683536016924 0 -0.014149577251464764 0.054224904755388409 0 -0.012714422834276172 0.054197580228187117 0 -0.014560655777816 0.054939739612235548 0 -0.014091641243425043 0.054996191385815907 0 -0.01476883677902973 0.054914683536016924 0 -0.015077971459379795 0.053958128504490062 0 -0.015909085128827789 0.054569077733403706 0 -0.01476883677902973 0.054914683536016924 0 -0.014149577251464764 0.054224904755388409 0 -0.015077971459379795 0.053958128504490062 0 -0.014086500470832066 0.053801338996461279 0 -0.014149577251464764 0.054224904755388409 0 -0.015077971459379795 0.053958128504490062 0 -0.014086500470832066 0.053801338996461279 0 -0.015077971459379795 0.053958128504490062 0 -0.01457346894928736 0.053140289992107792 0 -0.015077971459379795 0.053958128504490062 0 -0.01457346894928736 0.053140289992107792 0 -0.016066632672640298 0.05291513757541625 0 -0.013581168342475034 0.053388291158853712 0 -0.01457346894928736 0.053140289992107792 0 -0.013785351878745451 0.052585316727358521 0 -0.013581168342475034 0.053388291158853712 0 -0.014086500470832066 0.053801338996461279 0 -0.01457346894928736 0.053140289992107792 0 -0.01457346894928736 0.053140289992107792 0 -0.013785351878745451 0.052585316727358521 0 -0.015170827907427629 0.052136297768619506 0 -0.01457346894928736 0.053140289992107792 0 -0.015170827907427629 0.052136297768619506 0 -0.016066632672640298 0.05291513757541625 0 -0.016737720403639522 0.051803166455914033 0 -0.015170827907427629 0.052136297768619506 0 -0.016066632672640298 0.05291513757541625 0 -0.016066632672640298 0.05291513757541625 0 -0.018022620598257398 0.052731973791750111 0 -0.016710343006910603 0.053928416891681569 0 -0.016737720403639522 0.051803166455914033 0 -0.016066632672640298 0.05291513757541625 0 -0.018022620598257398 0.052731973791750111 0 -0.018824638246885357 0.05143708473750698 0 -0.016737720403639522 0.051803166455914033 0 -0.018022620598257398 0.052731973791750111 0 -0.018022620598257398 0.052731973791750111 0 -0.018040974821412075 0.053983279321107865 0 -0.019321764048705715 0.05361236877148827 0 -0.018022620598257398 0.052731973791750111 0 -0.018040974821412075 0.053983279321107865 0 -0.016710343006910603 0.053928416891681569 0 -0.018040974821412075 0.053983279321107865 0 -0.018767945565769668 0.054457612210134745 0 -0.019321764048705715 0.05361236877148827 0 -0.016710343006910603 0.053928416891681569 0 -0.015909085128827789 0.054569077733403706 0 -0.017082325500836101 0.055485318419672358 0 -0.018040974821412075 0.053983279321107865 0 -0.016710343006910603 0.053928416891681569 0 -0.017082325500836101 0.055485318419672358 0 -0.015077971459379795 0.053958128504490062 0 -0.016066632672640298 0.05291513757541625 0 -0.016710343006910603 0.053928416891681569 0 -0.015077971459379795 0.053958128504490062 0 -0.016710343006910603 0.053928416891681569 0 -0.015909085128827789 0.054569077733403706 0 -0.0174336022239567 0.054440733723089302 0 -0.014631295859997178 0.052762253903433316 0 -0.018234421362417194 0.051824684051608956 0 -0.016907575926959642 0.052620979060932223 0 -0.015585037116741571 0.050820062468567129 0 -0.01476883677902973 0.054914683536016924 0 -0.015909085128827789 0.054569077733403706 0 -0.017082325500836101 0.055485318419672358 0 -0.014562898879367413 0.054972216324920643 0 -0.0174336022239567 0.054440733723089302 0 -0.017082325500836101 0.055485318419672358 0 -0.018767945565769668 0.054457612210134745 0 -0.019273756157246788 0.05495796850356837 0 -0.0174336022239567 0.054440733723089302 0 -0.019969708905977997 0.055774587890020183 0 -0.0174336022239567 0.054440733723089302 0 -0.020736859569216483 0.054458997045076861 0 -0.017082325500836101 0.055485318419672358 0 -0.019273756157246788 0.05495796850356837 0 -0.020116370510224298 0.055553284329839664 0 -0.018040974821412075 0.053983279321107865 0 -0.017082325500836101 0.055485318419672358 0 -0.018767945565769668 0.054457612210134745 0 -0.017869227268443286 0.054889085935904608 0 -0.020116370510224298 0.055553284329839664 0 -0.020260016049758755 0.055803709582634163 0 -0.018234421362417194 0.051824684051608956 0 -0.019616454524276718 0.053425776550140393 0 -0.021064468327545084 0.053516129991158977 0 -0.018234421362417194 0.051824684051608956 0 -0.019616454524276718 0.053425776550140393 0 -0.018253016494348698 0.053503616791627406 0 -0.019616454524276718 0.053425776550140393 0 -0.018253016494348698 0.053503616791627406 0 -0.019409998587508779 0.054539731780208017 0 -0.02031591663870121 0.053916690636538804 0 -0.020540455798336514 0.054525252326627811 0 -0.019409998587508779 0.054539731780208017 0 -0.019616454524276718 0.053425776550140393 0 -0.02031591663870121 0.053916690636538804 0 -0.019409998587508779 0.054539731780208017 0 -0.016907575926959642 0.052620979060932223 0 -0.018253016494348698 0.053503616791627406 0 -0.017096566889091634 0.0550867049049358 0 -0.018234421362417194 0.051824684051608956 0 -0.016907575926959642 0.052620979060932223 0 -0.018253016494348698 0.053503616791627406 0 -0.016907575926959642 0.052620979060932223 0 -0.01528353571354241 0.052157543369230494 0 -0.017096566889091634 0.0550867049049358 0 -0.014697691710481789 0.053435749972283203 0 -0.01528353571354241 0.052157543369230494 0 -0.017096566889091634 0.0550867049049358 0 -0.014697691710481789 0.053435749972283203 0 -0.014297387623604512 0.051557672773102442 0 -0.01528353571354241 0.052157543369230494 0 -0.014697691710481789 0.053435749972283203 0 -0.014297387623604512 0.051557672773102442 0 -0.013697289920423988 0.051663850731512639 0 -0.014174505824802322 0.050820519477661502 0 -0.014813360559261447 0.051317390588564299 0 -0.015585037116741571 0.050820062468567129 0 -0.014297387623604512 0.051557672773102442 0 -0.014813360559261447 0.051317390588564299 0 -0.01528353571354241 0.052157543369230494 0 -0.014174505824802322 0.050820519477661502 0 -0.014297387623604512 0.051557672773102442 0 -0.014813360559261447 0.051317390588564299 0 -0.014813360559261447 0.051317390588564299 0 -0.015585037116741571 0.050820062468567129 0 -0.01528353571354241 0.052157543369230494 0 -0.016907575926959642 0.052620979060932223 0 -0.015585037116741571 0.050820062468567129 0 -0.01528353571354241 0.052157543369230494 0 -0.014560655777816 0.054939739612235548 0 -0.016433298177742427 0.055681807173161332 0 -0.014091641243425043 0.054996191385815907 0 -0.024729009266079599 0.052868210421982545 0 -0.024821494677077949 0.051560973928065933 0 -0.023466093465054558 0.052418489356767524 0 -0.024821494677077949 0.051560973928065933 0 -0.023350708275723473 0.051326679637294571 0 -0.023466093465054558 0.052418489356767524 0 -0.024660480794911607 0.050603561667561428 0 -0.024821494677077949 0.051560973928065933 0 -0.023350708275723473 0.051326679637294571 0 -0.024660480794911607 0.050603561667561428 0 -0.024821494677077949 0.051560973928065933 0 -0.025804037282350679 0.050639607781767605 0 -0.023350708275723473 0.051326679637294571 0 -0.022316198912760588 0.052162187421122837 0 -0.023466093465054558 0.052418489356767524 0 -0.021757077733897338 0.051352324200284405 0 -0.023350708275723473 0.051326679637294571 0 -0.022316198912760588 0.052162187421122837 0 -0.022316198912760588 0.052162187421122837 0 -0.023466093465054558 0.052418489356767524 0 -0.022266594820115258 0.053162794236653176 0 -0.024729009266079599 0.052868210421982545 0 -0.023466093465054558 0.052418489356767524 0 -0.023211823996960805 0.053470303024907184 0 -0.023466093465054558 0.052418489356767524 0 -0.023211823996960805 0.053470303024907184 0 -0.022266594820115258 0.053162794236653176 0 -0.023211823996960805 0.053470303024907184 0 -0.022266594820115258 0.053162794236653176 0 -0.021939666388816774 0.053863298415556385 0 -0.022266594820115258 0.053162794236653176 0 -0.020842928446813454 0.05350744127665305 0 -0.021939666388816774 0.053863298415556385 0 -0.020842928446813454 0.05350744127665305 0 -0.020895381158879272 0.054134809526141942 0 -0.021939666388816774 0.053863298415556385 0 -0.020842928446813454 0.05350744127665305 0 -0.021560483026211375 0.052739555086799172 0 -0.019876316481914753 0.05271361592010395 0 -0.022266594820115258 0.053162794236653176 0 -0.020842928446813454 0.05350744127665305 0 -0.021560483026211375 0.052739555086799172 0 -0.022316198912760588 0.052162187421122837 0 -0.022266594820115258 0.053162794236653176 0 -0.021560483026211375 0.052739555086799172 0 -0.022316198912760588 0.052162187421122837 0 -0.021560483026211375 0.052739555086799172 0 -0.021002166071268879 0.052127803170194185 0 -0.021757077733897338 0.051352324200284405 0 -0.022316198912760588 0.052162187421122837 0 -0.021002166071268879 0.052127803170194185 0 -0.021757077733897338 0.051352324200284405 0 -0.021002166071268879 0.052127803170194185 0 -0.020356503027826833 0.051661674431903712 0 -0.021560483026211375 0.052739555086799172 0 -0.021002166071268879 0.052127803170194185 0 -0.019876316481914753 0.05271361592010395 0 -0.018824638246885357 0.05143708473750698 0 -0.019876316481914753 0.05271361592010395 0 -0.020356503027826833 0.051661674431903712 0 -0.021002166071268879 0.052127803170194185 0 -0.019876316481914753 0.05271361592010395 0 -0.020356503027826833 0.051661674431903712 0 -0.018824638246885357 0.05143708473750698 0 -0.018022620598257398 0.052731973791750111 0 -0.019876316481914753 0.05271361592010395 0 -0.018022620598257398 0.052731973791750111 0 -0.019876316481914753 0.05271361592010395 0 -0.019321764048705715 0.05361236877148827 0 -0.020842928446813454 0.05350744127665305 0 -0.019876316481914753 0.05271361592010395 0 -0.019321764048705715 0.05361236877148827 0 -0.020842928446813454 0.05350744127665305 0 -0.0200131275748817 0.054333141625972622 0 -0.020895381158879272 0.054134809526141942 0 -0.020842928446813454 0.05350744127665305 0 -0.019321764048705715 0.05361236877148827 0 -0.0200131275748817 0.054333141625972622 0 -0.018767945565769668 0.054457612210134745 0 -0.019321764048705715 0.05361236877148827 0 -0.0200131275748817 0.054333141625972622 0 -0.018767945565769668 0.054457612210134745 0 -0.0200131275748817 0.054333141625972622 0 -0.019273756157246788 0.05495796850356837 0 -0.0200131275748817 0.054333141625972622 0 -0.02015533903670302 0.054959554863120173 0 -0.019273756157246788 0.05495796850356837 0 -0.0200131275748817 0.054333141625972622 0 -0.020797385777672969 0.054712726949894236 0 -0.020895381158879272 0.054134809526141942 0 -0.0200131275748817 0.054333141625972622 0 -0.02015533903670302 0.054959554863120173 0 -0.020797385777672969 0.054712726949894236 0 -0.020797385777672969 0.054712726949894236 0 -0.02055563796431743 0.055237110839095556 0 -0.021577151618112189 0.055043967471586686 0 -0.02015533903670302 0.054959554863120173 0 -0.02055563796431743 0.055237110839095556 0 -0.020116370510224298 0.055553284329839664 0 -0.02015533903670302 0.054959554863120173 0 -0.020797385777672969 0.054712726949894236 0 -0.02055563796431743 0.055237110839095556 0 -0.02015533903670302 0.054959554863120173 0 -0.019273756157246788 0.05495796850356837 0 -0.020116370510224298 0.055553284329839664 0 -0.021064468327545084 0.053516129991158977 0 -0.021519890240926716 0.055260118008950906 0 -0.020540455798336514 0.054525252326627811 0 -0.019616454524276718 0.053425776550140393 0 -0.02031591663870121 0.053916690636538804 0 -0.021064468327545084 0.053516129991158977 0 -0.02031591663870121 0.053916690636538804 0 -0.021064468327545084 0.053516129991158977 0 -0.020540455798336514 0.054525252326627811 0 -0.02055563796431743 0.055237110839095556 0 -0.020260016049758755 0.055803709582634163 0 -0.021577151618112189 0.055043967471586686 0 -0.02055563796431743 0.055237110839095556 0 -0.020116370510224298 0.055553284329839664 0 -0.020260016049758755 0.055803709582634163 0 -0.020736859569216483 0.054458997045076861 0 -0.022951957157132833 0.055500061231181223 0 -0.021577151618112189 0.055043967471586686 0 -0.022775529869579314 0.054460905408737666 0 -0.023228613252628979 0.055513006174418685 0 -0.020260016049758755 0.055803709582634163 0 -0.021577151618112189 0.055043967471586686 0 -0.023228613252628979 0.055513006174418685 0 -0.021064468327545084 0.053516129991158977 0 -0.023228613252628979 0.055513006174418685 0 -0.021519890240926716 0.055260118008950906 0 -0.021577151618112189 0.055043967471586686 0 -0.02160695978609373 0.054448991796878933 0 -0.022775529869579314 0.054460905408737666 0 -0.020797385777672969 0.054712726949894236 0 -0.021577151618112189 0.055043967471586686 0 -0.02160695978609373 0.054448991796878933 0 -0.020797385777672969 0.054712726949894236 0 -0.02160695978609373 0.054448991796878933 0 -0.020895381158879272 0.054134809526141942 0 -0.02160695978609373 0.054448991796878933 0 -0.020895381158879272 0.054134809526141942 0 -0.021939666388816774 0.053863298415556385 0 -0.02160695978609373 0.054448991796878933 0 -0.021939666388816774 0.053863298415556385 0 -0.022775529869579314 0.054460905408737666 0 -0.023211823996960805 0.053470303024907184 0 -0.022775529869579314 0.054460905408737666 0 -0.024209969026396903 0.054235075726045086 0 -0.023211823996960805 0.053470303024907184 0 -0.021939666388816774 0.053863298415556385 0 -0.022775529869579314 0.054460905408737666 0 -0.024209969026396903 0.054235075726045086 0 -0.024904030695811586 0.055300716888216535 0 -0.023228613252628979 0.055513006174418685 0 -0.022775529869579314 0.054460905408737666 0 -0.024209969026396903 0.054235075726045086 0 -0.023228613252628979 0.055513006174418685 0 -0.024209969026396903 0.054235075726045086 0 -0.024904030695811586 0.055300716888216535 0 -0.02624351244469366 0.053525408687412949 0 -0.024729009266079599 0.052868210421982545 0 -0.023211823996960805 0.053470303024907184 0 -0.024209969026396903 0.054235075726045086 0 -0.024729009266079599 0.052868210421982545 0 -0.024209969026396903 0.054235075726045086 0 -0.02624351244469366 0.053525408687412949 0 -0.024904030695811586 0.055300716888216535 0 -0.023279707888769343 0.056594427259487594 0 -0.025914558536422425 0.057001028384470014 0 -0.024904030695811586 0.055300716888216535 0 -0.023228613252628979 0.055513006174418685 0 -0.023279707888769343 0.056594427259487594 0 -0.023279707888769343 0.056594427259487594 0 -0.024043361870288518 0.058218190068136319 0 -0.025914558536422425 0.057001028384470014 0 -0.023279707888769343 0.056594427259487594 0 -0.02180652931441255 0.057103846220259179 0 -0.022090762373598964 0.05751497474034533 0 -0.023279707888769343 0.056594427259487594 0 -0.02180652931441255 0.057103846220259179 0 -0.022279776879851516 0.056139968420454101 0 -0.021998650472504745 0.055583943248454601 0 -0.020106003073468881 0.051420360079986412 0 -0.02180652931441255 0.057103846220259179 0 -0.022279776879851516 0.056139968420454101 0 -0.021118792513342272 0.056111328474308927 0 -0.023228613252628979 0.055513006174418685 0 -0.022279776879851516 0.056139968420454101 0 -0.021519890240926716 0.055260118008950906 0 -0.023228613252628979 0.055513006174418685 0 -0.023279707888769343 0.056594427259487594 0 -0.022279776879851516 0.056139968420454101 0 -0.022279776879851516 0.056139968420454101 0 -0.021519890240926716 0.055260118008950906 0 -0.021118792513342272 0.056111328474308927 0 -0.021519890240926716 0.055260118008950906 0 -0.020478885924740394 0.055395027855070667 0 -0.021118792513342272 0.056111328474308927 0 -0.021519890240926716 0.055260118008950906 0 -0.020540455798336514 0.054525252326627811 0 -0.020478885924740394 0.055395027855070667 0 -0.020478885924740394 0.055395027855070667 0 -0.021118792513342272 0.056111328474308927 0 -0.019698591841553915 0.056558461158167171 0 -0.02180652931441255 0.057103846220259179 0 -0.022115005476875057 0.057606188619683238 0 -0.019698591841553915 0.056558461158167171 0 -0.012478911041347929 0.049791238883860611 0 -0.012357964400502536 0.049799302851509547 0 -0.01250781158355567 0.050040162242345101 0 -0.02180652931441255 0.057103846220259179 0 -0.021118792513342272 0.056111328474308927 0 -0.019698591841553915 0.056558461158167171 0 -0.020106003073468881 0.051420360079986412 0 -0.015620237640482525 0.053500341485472301 0 -0.012478911041347929 0.049791238883860611 0 -0.012391631415856783 0.049628182911051484 0 -0.012357964400502536 0.049799302851509547 0 -0.012478911041347929 0.049791238883860611 0 -0.012391631415856783 0.049628182911051484 0 -0.012464615143096476 0.049582601996880131 0 -0.012500599270117149 0.049416678826954386 0 -0.012464615143096476 0.049582601996880131 0 -0.012384702650804963 0.049449180023262686 0 -0.012391631415856783 0.049628182911051484 0 -0.012464615143096476 0.049582601996880131 0 -0.012384702650804963 0.049449180023262686 0 -0.012391631415856783 0.049628182911051484 0 -0.012384702650804963 0.049449180023262686 0 -0.012289146099492731 0.049537946579632869 0 -0.012384702650804963 0.049449180023262686 0 -0.012289146099492731 0.049537946579632869 0 -0.012270397788754965 0.049270693990807524 0 -0.01841264915361077 0.047651572233262378 0 -0.020106003073468881 0.051420360079986412 0 -0.023833499335293343 0.044220290394369456 0 -0.024753054505453714 0.046010294775616009 0 -0.022465801567346264 0.044717272567099613 0 -0.020106003073468881 0.051420360079986412 0 -0.024228390439556321 0.053359915911898571 0 -0.012391631415856783 0.049628182911051484 0 -0.012289146099492731 0.049537946579632869 0 -0.012357964400502536 0.049799302851509547 0 -0.023279707888769343 0.056594427259487594 0 -0.022090762373598964 0.05751497474034533 0 -0.024043361870288518 0.058218190068136319 0 -0.023833499335293343 0.044220290394369456 0 -0.022465801567346264 0.044717272567099613 0 -0.022887859451285211 0.042483963931650701 0 -0.01841264915361077 0.047651572233262378 0 -0.019030903408073212 0.035041409278656815 0 -0.024714204812874892 0.036148896875498771 0 -0.019030903408073212 0.035041409278656815 0 -0.024228390439556321 0.053359915911898571 0 -0.024714204812874892 0.036148896875498771 0 -0.022465801567346264 0.044717272567099613 0 -0.020218444520276144 0.043471301811215841 0 -0.022887859451285211 0.042483963931650701 0 -0.024043361870288518 0.058218190068136319 0 -0.025914558536422425 0.057001028384470014 0 -0.026137962992773423 0.058786517254762569 0 -0.012860716810566313 0.050253679126326882 0 -0.012638191992530768 0.050376275816716255 0 -0.012754017889501885 0.049904292360356282 0 -0.012860716810566313 0.050253679126326882 0 -0.013031683379104323 0.0500634747050826 0 -0.013060247076578779 0.050490676680638523 0 -0.012860716810566313 0.050253679126326882 0 -0.013031683379104323 0.0500634747050826 0 -0.012937532734384985 0.049898565197865778 0 -0.012813346318397074 0.050832464626676253 0 -0.012860716810566313 0.050253679126326882 0 -0.013060247076578779 0.050490676680638523 0 -0.013793313325156858 0.052137416767518319 0 -0.014985668943006849 0.052731441606800787 0 -0.012813346318397074 0.050832464626676253 0 -0.012860716810566313 0.050253679126326882 0 -0.012638191992530768 0.050376275816716255 0 -0.014985668943006849 0.052731441606800787 0 -0.015620237640482525 0.053500341485472301 0 -0.018253016494348698 0.053503616791627406 0 -0.017096566889091634 0.0550867049049358 0 -0.019409998587508779 0.054539731780208017 0 -0.017096566889091634 0.0550867049049358 0 -0.019409998587508779 0.054539731780208017 0 -0.019698591841553915 0.056558461158167171 0 -0.020478885924740394 0.055395027855070667 0 -0.019409998587508779 0.054539731780208017 0 -0.019698591841553915 0.056558461158167171 0 -0.020540455798336514 0.054525252326627811 0 -0.020478885924740394 0.055395027855070667 0 -0.019409998587508779 0.054539731780208017 0 -0.012478911041347929 0.049791238883860611 0 -0.01250781158355567 0.050040162242345101 0 -0.012603381278860818 0.049960798069222941 0 -0.012638191992530768 0.050376275816716255 0 -0.01250781158355567 0.050040162242345101 0 -0.012603381278860818 0.049960798069222941 0 -0.012638191992530768 0.050376275816716255 0 -0.012603381278860818 0.049960798069222941 0 -0.012754017889501885 0.049904292360356282 0 -0.012603381278860818 0.049960798069222941 0 -0.012596362049621721 0.049662633844873155 0 -0.012754017889501885 0.049904292360356282 0 -0.012596362049621721 0.049662633844873155 0 -0.01275392338937288 0.049594299434072994 0 -0.012754017889501885 0.049904292360356282 0 -0.012478911041347929 0.049791238883860611 0 -0.012603381278860818 0.049960798069222941 0 -0.012596362049621721 0.049662633844873155 0 -0.012478911041347929 0.049791238883860611 0 -0.012464615143096476 0.049582601996880131 0 -0.012596362049621721 0.049662633844873155 0 -0.012500599270117149 0.049416678826954386 0 -0.012464615143096476 0.049582601996880131 0 -0.012596362049621721 0.049662633844873155 0 -0.012500599270117149 0.049416678826954386 0 -0.012596362049621721 0.049662633844873155 0 -0.012652534321061502 0.049387022854502645 0 -0.012596362049621721 0.049662633844873155 0 -0.01275392338937288 0.049594299434072994 0 -0.012652534321061502 0.049387022854502645 0 -0.01275392338937288 0.049594299434072994 0 -0.012754017889501885 0.049904292360356282 0 -0.012927442970054697 0.049655462360154688 0 -0.01275392338937288 0.049594299434072994 0 -0.012927442970054697 0.049655462360154688 0 -0.012869882697658147 0.049367714731574627 0 -0.012754017889501885 0.049904292360356282 0 -0.012937532734384985 0.049898565197865778 0 -0.012927442970054697 0.049655462360154688 0 -0.012860716810566313 0.050253679126326882 0 -0.012754017889501885 0.049904292360356282 0 -0.012937532734384985 0.049898565197865778 0 -0.013031683379104323 0.0500634747050826 0 -0.012937532734384985 0.049898565197865778 0 -0.013008565463369122 0.049667965425516609 0 -0.011898811012531102 0.045975138882151406 0 -0.012702333386079604 0.045264192792943594 0 -0.013028438308456526 0.049655194995179688 0 -0.012927442970054697 0.049655462360154688 0 -0.012869882697658147 0.049367714731574627 0 -0.011622705332673887 0.038538884666590396 0 -0.010806547029089206 0.038503892679712659 0 -0.011739381087705289 0.03926343200123876 0 -0.011622705332673887 0.038538884666590396 0 -0.011739381087705289 0.03926343200123876 0 -0.012533146243394168 0.039369693044196269 0 -0.012937532734384985 0.049898565197865778 0 -0.013008565463369122 0.049667965425516609 0 -0.012927442970054697 0.049655462360154688 0 -0.011898811012531102 0.045975138882151406 0 -0.012997783013281703 0.047740581302718771 0 -0.011898811012531102 0.045975138882151406 0 -0.003998799849640737 0.041063828302192101 0 -0.0059209324676355391 0.031981831969085418 0 -0.0045251570529432593 0.031913084385315392 0 -0.0057335222594799666 0.032521118696776014 0 -0.0045251570529432593 0.031913084385315392 0 -0.0053449459285978716 0.032651734789411434 0 -0.0057335222594799666 0.032521118696776014 0 -0.003998799849640737 0.041063828302192101 0 0.0017637955686775559 0.039604163089365325 0 0.0041690553708922714 0.047746778293626675 0 0.0061068756599538133 0.046359916334126984 0 0.0047183019367879903 0.046028986843453065 0 0.0041690553708922714 0.047746778293626675 0 0.0061068756599538133 0.046359916334126984 0 0.0066356634793654033 0.047596436169521014 0 -0.0081080374609207133 0.045331695375498922 0 -0.0079420958730648597 0.045326179266177956 0 -0.0078884238496136749 0.045174823488379715 0 -0.003998799849640737 0.041063828302192101 0 -0.0074208025702224168 0.047827947527994949 0 -0.011898811012531102 0.045975138882151406 0 -0.0074208025702224168 0.047827947527994949 0 -0.013031683379104323 0.0500634747050826 0 -0.013008565463369122 0.049667965425516609 0 -0.013316590628901954 0.050084657521846397 0 -0.013031683379104323 0.0500634747050826 0 -0.013316590628901954 0.050084657521846397 0 -0.013060247076578779 0.050490676680638523 0 -0.013316590628901954 0.050084657521846397 0 -0.013403901957392442 0.050802254985118526 0 -0.013060247076578779 0.050490676680638523 0 -0.01060720818485272 0.047597707120879337 0 -0.011388804051368405 0.04834991724500666 0 -0.011066285174716799 0.049025996439165949 0 -0.0074208025702224168 0.047827947527994949 0 -0.012710438987635233 0.050229594564519219 0 -0.0074208025702224168 0.047827947527994949 0 -0.0022902562778558642 0.046301004691074663 0 0.0061068756599538133 0.046359916334126984 0 0.0047183019367879903 0.046028986843453065 0 0.0059481454646963727 0.045067511339646663 0 -0.011066285174716799 0.049025996439165949 0 -0.012059223887331808 0.049096323699494647 0 -0.011620427043102587 0.04956701064196449 0 -0.011388804051368405 0.04834991724500666 0 -0.011066285174716799 0.049025996439165949 0 -0.012059223887331808 0.049096323699494647 0 -0.012813346318397074 0.050832464626676253 0 -0.013060247076578779 0.050490676680638523 0 -0.013078238175099035 0.050961290315624852 0 -0.013403901957392442 0.050802254985118526 0 -0.013060247076578779 0.050490676680638523 0 -0.013078238175099035 0.050961290315624852 0 0.0086486397290243631 0.044432876292022021 0 0.0071768551929574358 0.044265368289691416 0 0.0076449711244662155 0.045579305945815156 0 -0.0022902562778558642 0.046301004691074663 0 -0.00097696422376615478 0.047960141672350756 0 0.0061068756599538133 0.046359916334126984 0 0.0059481454646963727 0.045067511339646663 0 0.0076449711244662155 0.045579305945815156 0 0.0059481454646963727 0.045067511339646663 0 0.0071768551929574358 0.044265368289691416 0 0.0076449711244662155 0.045579305945815156 0 0.0086486397290243631 0.044432876292022021 0 0.0076449711244662155 0.045579305945815156 0 0.0094171608768273407 0.045214239306643866 0 0.0076449711244662155 0.045579305945815156 0 0.0085492698997919579 0.0463181420679072 0 0.0094171608768273407 0.045214239306643866 0 0.0085492698997919579 0.0463181420679072 0 0.0066356634793654033 0.047596436169521014 0 0.0089360359434209821 0.047262167503493019 0 0.0076449711244662155 0.045579305945815156 0 0.0085492698997919579 0.0463181420679072 0 0.0066356634793654033 0.047596436169521014 0 0.0061068756599538133 0.046359916334126984 0 0.0076449711244662155 0.045579305945815156 0 0.0066356634793654033 0.047596436169521014 0 -0.0045251570529432593 0.031913084385315392 0 -0.0036101634001763599 0.033391735750582456 0 -0.0053449459285978716 0.032651734789411434 0 -0.0045251570529432593 0.031913084385315392 0 -0.0020821237534544902 0.033551095887732862 0 -0.0036101634001763599 0.033391735750582456 0 -0.0045251570529432593 0.031913084385315392 0 -0.0011262582753718963 0.032201852873978302 0 -0.0020821237534544902 0.033551095887732862 0 0.0017637955686775559 0.039604163089365325 0 0.0037113014897412612 0.039779100702129602 0 -0.0011262582753718963 0.032201852873978302 0 0.0017958394751258924 0.034829507719914575 0 0.0043519845041657713 0.033315710606151724 0 0.0037113014897412612 0.039779100702129602 0 0.0075419149828823868 0.040059372555331547 0 -0.0020821237534544902 0.033551095887732862 0 0.0017958394751258924 0.034829507719914575 0 -0.00071635532689135514 0.035098600967110843 0 -0.0011262582753718963 0.032201852873978302 0 -0.0020821237534544902 0.033551095887732862 0 0.0017958394751258924 0.034829507719914575 0 0.0017958394751258924 0.034829507719914575 0 0.0043519845041657713 0.033315710606151724 0 0.007317070721039918 0.038457700161462501 0 0.010890733591920745 0.04671612567124931 0 0.009885802114900406 0.046108153939945315 0 0.01079447097612206 0.045221717258708508 0 0.0089360359434209821 0.047262167503493019 0 0.010890733591920745 0.04671612567124931 0 0.009885802114900406 0.046108153939945315 0 0.0085492698997919579 0.0463181420679072 0 0.0089360359434209821 0.047262167503493019 0 0.009885802114900406 0.046108153939945315 0 0.0090470440433525687 0.037090890341358131 0 0.010227675661037388 0.035535134322118828 0 0.011385869383178194 0.038821361005598111 0 0.0043519845041657713 0.033315710606151724 0 0.0090470440433525687 0.037090890341358131 0 0.007317070721039918 0.038457700161462501 0 0.0043519845041657713 0.033315710606151724 0 0.0090470440433525687 0.037090890341358131 0 0.010227675661037388 0.035535134322118828 0 0.0075419149828823868 0.040059372555331547 0 0.011170229130308651 0.040845828521689914 0 0.010890733591920745 0.04671612567124931 0 0.01246092443968228 0.046124833712878191 0 0.012046855704860467 0.045298223426412647 0 0.010890733591920745 0.04671612567124931 0 0.012046855704860467 0.045298223426412647 0 0.01079447097612206 0.045221717258708508 0 0.013062402750756544 0.045248769366170789 0 0.01246092443968228 0.046124833712878191 0 0.012046855704860467 0.045298223426412647 0 0.013060047457577429 0.044801540735666424 0 0.012046855704860467 0.045298223426412647 0 0.012374921084389834 0.04468432329702543 0 0.013062402750756544 0.045248769366170789 0 0.013060047457577429 0.044801540735666424 0 0.012046855704860467 0.045298223426412647 0 0.012046855704860467 0.045298223426412647 0 0.011614491176318388 0.044459822107022207 0 0.01079447097612206 0.045221717258708508 0 0.012046855704860467 0.045298223426412647 0 0.011614491176318388 0.044459822107022207 0 0.012374921084389834 0.04468432329702543 0 0.011614491176318388 0.044459822107022207 0 0.012374921084389834 0.04468432329702543 0 0.012703200792958093 0.044253280759389439 0 0.013060047457577429 0.044801540735666424 0 0.012374921084389834 0.04468432329702543 0 0.012703200792958093 0.044253280759389439 0 0.0085492698997919579 0.0463181420679072 0 0.009885802114900406 0.046108153939945315 0 0.0094171608768273407 0.045214239306643866 0 0.009885802114900406 0.046108153939945315 0 0.0094171608768273407 0.045214239306643866 0 0.01079447097612206 0.045221717258708508 0 0.011614491176318388 0.044459822107022207 0 0.01079447097612206 0.045221717258708508 0 0.010118512943660112 0.044101626576715368 0 0.0086486397290243631 0.044432876292022021 0 0.0094171608768273407 0.045214239306643866 0 0.010118512943660112 0.044101626576715368 0 0.0094171608768273407 0.045214239306643866 0 0.01079447097612206 0.045221717258708508 0 0.010118512943660112 0.044101626576715368 0 0.010118512943660112 0.044101626576715368 0 0.01011178181672627 0.042986463141678491 0 0.0088043106258612492 0.043476851480080084 0 0.011614491176318388 0.044459822107022207 0 0.010118512943660112 0.044101626576715368 0 0.011139784795232642 0.043515358994191393 0 0.010118512943660112 0.044101626576715368 0 0.011139784795232642 0.043515358994191393 0 0.01011178181672627 0.042986463141678491 0 0.0053901829182874603 0.045436784250744683 0 0.0050099604817502421 0.045722597547160321 0 0.011614491176318388 0.044459822107022207 0 0.012703200792958093 0.044253280759389439 0 0.012011886329401191 0.043859988078116703 0 0.012703200792958093 0.044253280759389439 0 0.012011886329401191 0.043859988078116703 0 0.012606125449719166 0.043620703867351465 0 0.011614491176318388 0.044459822107022207 0 0.011139784795232642 0.043515358994191393 0 0.012011886329401191 0.043859988078116703 0 0.011139784795232642 0.043515358994191393 0 0.011909584540197927 0.043395390456594886 0 0.011116548117697961 0.042707259321134998 0 0.011139784795232642 0.043515358994191393 0 0.012011886329401191 0.043859988078116703 0 0.011909584540197927 0.043395390456594886 0 0.012011886329401191 0.043859988078116703 0 0.011909584540197927 0.043395390456594886 0 0.012606125449719166 0.043620703867351465 0 0.012806659295593895 0.043119263478562 0 0.012606125449719166 0.043620703867351465 0 0.012108523802758907 0.042990602850996061 0 0.011909584540197927 0.043395390456594886 0 0.012606125449719166 0.043620703867351465 0 0.012108523802758907 0.042990602850996061 0 0.011909584540197927 0.043395390456594886 0 0.012108523802758907 0.042990602850996061 0 0.011116548117697961 0.042707259321134998 0 0.011826285261862418 0.042495687525222904 0 0.012108523802758907 0.042990602850996061 0 0.011116548117697961 0.042707259321134998 0 0.0028575458557308299 0.045800195230629608 0 0.0018892846956706378 0.046755160113942748 0 0.0020373653147711139 0.045963348917268207 0 0.008085255975214329 0.043239922003831095 0 0.0063338576972748629 0.044909498010910112 0 0.012806659295593895 0.043119263478562 0 0.012108523802758907 0.042990602850996061 0 0.012355620752910017 0.04267996193615356 0 0.011826285261862418 0.042495687525222904 0 0.012108523802758907 0.042990602850996061 0 0.012355620752910017 0.04267996193615356 0 0.00089912664135730525 0.047725120443276668 0 0.00080855880224286504 0.046700506778617382 0 -0.00026013355174909098 0.047367992925674916 0 0.00089912664135730525 0.047725120443276668 0 0.0018892846956706378 0.046755160113942748 0 0.00080855880224286504 0.046700506778617382 0 0.0053901829182874603 0.045436784250744683 0 0.0063338576972748629 0.044909498010910112 0 0.011139784795232642 0.043515358994191393 0 0.01011178181672627 0.042986463141678491 0 0.011116548117697961 0.042707259321134998 0 0.0011500213060320931 0.04572363036608381 0 0.0018892846956706378 0.046755160113942748 0 0.00080855880224286504 0.046700506778617382 0 0.0011500213060320931 0.04572363036608381 0 0.0018892846956706378 0.046755160113942748 0 0.0020373653147711139 0.045963348917268207 0 0.0011500213060320931 0.04572363036608381 0 0.00080855880224286504 0.046700506778617382 0 -0.00019664939934765081 0.046182684434762866 0 -0.0015458916272475525 0.049116333824888399 0 -0.002135083797510462 0.04933023289723322 0 0.00080855880224286504 0.046700506778617382 0 -0.00019664939934765081 0.046182684434762866 0 -0.00026013355174909098 0.047367992925674916 0 -0.012323008776258455 0.050338703244480115 0 -0.012244913502372584 0.050378880338170763 0 -0.011931843936131619 0.050365018174022821 0 -0.00026013355174909098 0.047367992925674916 0 -0.0015394358333127574 0.046664083702251245 0 -0.0012822961884070242 0.048154370916304721 0 -0.0075780470135127639 0.050303227473275029 0 -0.0072479208718946456 0.049110914554654501 0 -0.0066985619431865857 0.052278169154261402 0 -0.0061232637062384552 0.052522805460320295 0 -0.0065759457647110537 0.053137809848366822 0 -0.0054750577878705754 0.052797585763244538 0 -0.0061232637062384552 0.052522805460320295 0 -0.0065759457647110537 0.053137809848366822 0 -0.002135083797510462 0.04933023289723322 0 -0.0075780470135127639 0.050303227473275029 0 -0.00019664939934765081 0.046182684434762866 0 -0.00026013355174909098 0.047367992925674916 0 -0.0015394358333127574 0.046664083702251245 0 -0.010292197935422952 0.052755827763096994 0 -0.0095132219779498917 0.053494141717452842 0 -0.010970586721431147 0.05328584061701213 0 -0.0097379117987350626 0.051790478361614545 0 -0.010292197935422952 0.052755827763096994 0 -0.0095132219779498917 0.053494141717452842 0 -0.0085896248738387693 0.052494098049564397 0 -0.0075780470135127639 0.050303227473275029 0 -0.0097379117987350626 0.051790478361614545 0 -0.010292197935422952 0.052755827763096994 0 -0.011299019339644261 0.052472546540530587 0 -0.010292197935422952 0.052755827763096994 0 -0.011299019339644261 0.052472546540530587 0 -0.010970586721431147 0.05328584061701213 0 -0.012785693157469667 0.053203607057114688 0 -0.011299019339644261 0.052472546540530587 0 -0.011919873914081109 0.053496088026774975 0 -0.012509408007751712 0.053164705965942118 0 -0.011181119891071961 0.052742990674057438 0 -0.011299019339644261 0.052472546540530587 0 -0.010970586721431147 0.05328584061701213 0 -0.011919873914081109 0.053496088026774975 0 -0.012714422834276172 0.054197580228187117 0 -0.011919873914081109 0.053496088026774975 0 -0.011797443938698905 0.054295456818844151 0 -0.010970586721431147 0.05328584061701213 0 -0.011919873914081109 0.053496088026774975 0 -0.011797443938698905 0.054295456818844151 0 -0.012919219242837817 0.050540239760758256 0 -0.012976820594594414 0.050895540540449591 0 -0.013505892119371286 0.051024544890488549 0 -0.013556579524859915 0.05033528728860015 0 -0.012919219242837817 0.050540239760758256 0 -0.013505892119371286 0.051024544890488549 0 -0.014174505824802322 0.050820519477661502 0 -0.013556579524859915 0.05033528728860015 0 -0.013505892119371286 0.051024544890488549 0 -0.0095132219779498917 0.053494141717452842 0 -0.010970586721431147 0.05328584061701213 0 -0.011797443938698905 0.054295456818844151 0 -0.012323008776258455 0.050338703244480115 0 -0.013556579524859915 0.05033528728860015 0 -0.012919219242837817 0.050540239760758256 0 -0.0075780470135127639 0.050303227473275029 0 -0.013469336715754178 0.052659780720318322 0 -0.012323008776258455 0.050338703244480115 0 -0.012244913502372584 0.050378880338170763 0 -0.012919219242837817 0.050540239760758256 0 -0.012244913502372584 0.050378880338170763 0 -0.012976820594594414 0.050895540540449591 0 -0.012955348932212557 0.051181432805793167 0 -0.012244913502372584 0.050378880338170763 0 -0.012919219242837817 0.050540239760758256 0 -0.012976820594594414 0.050895540540449591 0 -0.012244913502372584 0.050378880338170763 0 -0.012955348932212557 0.051181432805793167 0 -0.012974693111619921 0.051515579566743984 0 -0.012242602933956613 0.050418834079646077 0 -0.012232439746438993 0.050679062224535366 0 -0.012244913502372584 0.050378880338170763 0 -0.011609645872419708 0.050234299757956284 0 -0.011931843936131619 0.050365018174022821 0 -0.012976820594594414 0.050895540540449591 0 -0.012955348932212557 0.051181432805793167 0 -0.013179086802598862 0.051267116140992663 0 -0.012955348932212557 0.051181432805793167 0 -0.012974693111619921 0.051515579566743984 0 -0.013093076413985091 0.051563589167978791 0 -0.012955348932212557 0.051181432805793167 0 -0.013179086802598862 0.051267116140992663 0 -0.013093076413985091 0.051563589167978791 0 -0.014174505824802322 0.050820519477661502 0 -0.014297387623604512 0.051557672773102442 0 -0.013505892119371286 0.051024544890488549 0 -0.013505892119371286 0.051024544890488549 0 -0.013179086802598862 0.051267116140992663 0 -0.013697289920423988 0.051663850731512639 0 -0.012976820594594414 0.050895540540449591 0 -0.013505892119371286 0.051024544890488549 0 -0.013179086802598862 0.051267116140992663 0 -0.013179086802598862 0.051267116140992663 0 -0.013697289920423988 0.051663850731512639 0 -0.013093076413985091 0.051563589167978791 0 -0.014297387623604512 0.051557672773102442 0 -0.013505892119371286 0.051024544890488549 0 -0.013697289920423988 0.051663850731512639 0 -0.013793313325156858 0.052137416767518319 0 -0.013188405281134082 0.051656585026789423 0 -0.012813346318397074 0.050832464626676253 0 -0.013093076413985091 0.051563589167978791 0 -0.013078238175099035 0.050961290315624852 0 -0.014697691710481789 0.053435749972283203 0 -0.013697289920423988 0.051663850731512639 0 -0.013093076413985091 0.051563589167978791 0 -0.013093076413985091 0.051563589167978791 0 -0.013078238175099035 0.050961290315624852 0 -0.013171085505384896 0.051222207573413447 0 -0.013403901957392442 0.050802254985118526 0 -0.013078238175099035 0.050961290315624852 0 -0.013171085505384896 0.051222207573413447 0 -0.013403901957392442 0.050802254985118526 0 -0.012974693111619921 0.051515579566743984 0 -0.013171085505384896 0.051222207573413447 0 -0.012710438987635233 0.050229594564519219 0 -0.012232439746438993 0.050679062224535366 0 -0.011066285174716799 0.049025996439165949 0 -0.011609645872419708 0.050234299757956284 0 -0.011620427043102587 0.04956701064196449 0 -0.011609645872419708 0.050234299757956284 0 -0.011620427043102587 0.04956701064196449 0 -0.011931843936131619 0.050365018174022821 0 -0.012974693111619921 0.051515579566743984 0 -0.013093076413985091 0.051563589167978791 0 -0.013171085505384896 0.051222207573413447 0 -0.00097696422376615478 0.047960141672350756 0 0.0050099604817502421 0.045722597547160321 0 -0.00097696422376615478 0.047960141672350756 0 -0.0072479208718946456 0.049110914554654501 0 -0.0010497950302256929 0.049612300293909728 0 -8.8367786483467154e-05 0.048678750044653066 0 -0.0012822961884070242 0.048154370916304721 0 -0.012059223887331808 0.049096323699494647 0 -0.011620427043102587 0.04956701064196449 0 -0.011931843936131619 0.050365018174022821 0 0.0086486397290243631 0.044432876292022021 0 0.0071768551929574358 0.044265368289691416 0 0.0088043106258612492 0.043476851480080084 0 0.0086486397290243631 0.044432876292022021 0 0.010118512943660112 0.044101626576715368 0 0.0088043106258612492 0.043476851480080084 0 0.00089912664135730525 0.047725120443276668 0 -0.00026013355174909098 0.047367992925674916 0 -8.8367786483467154e-05 0.048678750044653066 0 -0.00026013355174909098 0.047367992925674916 0 -8.8367786483467154e-05 0.048678750044653066 0 -0.0012822961884070242 0.048154370916304721 0 -0.046541372019396704 0.034836880393238491 0 -0.045000714998315546 0.035885943959924914 0 -0.046587667637537952 0.034657345259358485 0 -0.046607627880726803 0.037302066606641635 0 -0.046946878066234238 0.038068313826104538 0 -0.046288650199173637 0.037988570976155489 0 -0.046607627880726803 0.037302066606641635 0 -0.045000270296564664 0.035889191228386019 0 -0.046288650199173637 0.037988570976155489 0 -0.04628285683998043 0.035885414702164276 0 -0.045000150375543425 0.035887125512184342 0 -0.045000714998315546 0.035885943959924914 0 -0.044999550398958359 0.033758364556791494 0 -0.046587667637537952 0.034657345259358485 0 -0.046587667637537952 0.034657345259358485 0 -0.046159091851877013 0.035009908209352313 0 -0.045766382076817436 0.035661912524763251 0 -0.046541372019396704 0.034836880393238491 0 -0.046587667637537952 0.034657345259358485 0 -0.046159091851877013 0.035009908209352313 0 -0.046541372019396704 0.034836880393238491 0 -0.046159091851877013 0.035009908209352313 0 -0.04485139081710604 0.034582715656359564 0 -0.046159091851877013 0.035009908209352313 0 -0.04485139081710604 0.034582715656359564 0 -0.045766382076817436 0.035661912524763251 0 -0.046597054198840103 0.037972287757444816 0 -0.045821190123347101 0.038976193946744286 0 -0.047552297564989979 0.039768402938567461 0 -0.04679604257905047 0.039884018802916886 0 -0.047165917200163943 0.043372194426348626 0 -0.04485139081710604 0.034582715656359564 0 -0.044378957730107478 0.0358440000139673 0 -0.045766382076817436 0.035661912524763251 0 -0.046597054198840103 0.037972287757444816 0 -0.046693631847331885 0.03831887331567202 0 -0.047042178749002135 0.038477783263006014 0 -0.046946878066234238 0.038068313826104538 0 -0.046767403688119352 0.038226821889951475 0 -0.046607627880726803 0.037302066606641635 0 -0.047070757543493998 0.038321631910310551 0 -0.047042178749002135 0.038477783263006014 0 -0.047203688950233275 0.039670520022232952 0 -0.047042178749002135 0.038477783263006014 0 -0.046545752010706362 0.038858529147207568 0 -0.046597054198840103 0.037972287757444816 0 -0.046745820176890836 0.038612491246233935 0 -0.047203688950233275 0.039670520022232952 0 -0.04679604257905047 0.039884018802916886 0 -0.046545752010706362 0.038858529147207568 0 -0.047042178749002135 0.038477783263006014 0 -0.046545752010706362 0.038858529147207568 0 -0.046767403688119352 0.038226821889951475 0 -0.04628285683998043 0.035885414702164276 0 -0.046597054198840103 0.037972287757444816 0 -0.046607627880726803 0.037302066606641635 0 -0.047042178749002135 0.038477783263006014 0 -0.046946878066234238 0.038068313826104538 0 -0.046946878066234238 0.038068313826104538 0 -0.047233844469252211 0.038485465278658648 0 -0.046288650199173637 0.037988570976155489 0 -0.046946878066234238 0.038068313826104538 0 -0.046767403688119352 0.038226821889951475 0 -0.047233844469252211 0.038485465278658648 0 -0.046767403688119352 0.038226821889951475 0 -0.047233844469252211 0.038485465278658648 0 -0.045973117949333724 0.037762240076039857 0 -0.043797248907092572 0.044494549184043219 0 -0.040956057852796754 0.044316847585324767 0 -0.039291127366845077 0.047506148961652152 0 -0.045303304292198567 0.041417144345277407 0 -0.042442945468784118 0.043036817368813103 0 -0.045303304292198567 0.041417144345277407 0 -0.045721133812559399 0.040566678803148459 0 -0.043797248907092572 0.044494549184043219 0 -0.045931260759798753 0.040295616417869322 0 -0.044694675796881002 0.041763908203537342 0 -0.047233844469252211 0.038485465278658648 0 -0.045931260759798753 0.040295616417869322 0 -0.046288650199173637 0.037988570976155489 0 -0.045000270296564664 0.035889191228386019 0 -0.046288650199173637 0.037988570976155489 0 -0.044999251415390719 0.037914419405429556 0 -0.045931260759798753 0.040295616417869322 0 -0.044999251415390719 0.037914419405429556 0 -0.044999495262227171 0.03994330171452358 0 -0.045931260759798753 0.040295616417869322 0 -0.046288650199173637 0.037988570976155489 0 -0.044999251415390719 0.037914419405429556 0 -0.045931260759798753 0.040295616417869322 0 -0.044999495262227171 0.03994330171452358 0 -0.045413883454995314 0.040950193923311937 0 -0.045931260759798753 0.040295616417869322 0 -0.045101972746402701 0.04106591826775513 0 -0.045413883454995314 0.040950193923311937 0 -0.045931260759798753 0.040295616417869322 0 -0.045101972746402701 0.04106591826775513 0 -0.044694675796881002 0.041763908203537342 0 -0.045101972746402701 0.04106591826775513 0 -0.045413883454995314 0.040950193923311937 0 -0.045177385936797002 0.041242394099753991 0 -0.045000581721987176 0.041963950329717642 0 -0.045413883454995314 0.040950193923311937 0 -0.045177385936797002 0.041242394099753991 0 -0.044999495262227171 0.03994330171452358 0 -0.045000581721987176 0.041963950329717642 0 -0.045413883454995314 0.040950193923311937 0 -0.045000232378366659 0.04196666824816575 0 -0.044675928142755172 0.043722385676713729 0 -0.045000581721987176 0.041963950329717642 0 -0.045177385936797002 0.041242394099753991 0 -0.045337994002696079 0.040788529343572764 0 -0.044999998415239058 0.041968332430177516 0 -0.0449999909453511 0.044503541506876569 0 -0.045558769524026071 0.044249809419780919 0 -0.045101972746402701 0.04106591826775513 0 -0.045177385936797002 0.041242394099753991 0 -0.044870181925188657 0.040582882549042763 0 -0.045177385936797002 0.041242394099753991 0 -0.044870181925188657 0.040582882549042763 0 -0.045337994002696079 0.040788529343572764 0 -0.04253492908258464 0.046569661304661565 0 -0.043245446930062055 0.045630821601023441 0 -0.044432740985022187 0.045730754050399731 0 -0.043700264246020339 0.043496989396605026 0 -0.044675928142755172 0.043722385676713729 0 -0.04253492908258464 0.046569661304661565 0 -0.043245446930062055 0.045630821601023441 0 -0.041934914238244206 0.044999974066423011 0 -0.043245446930062055 0.045630821601023441 0 -0.04425389615604422 0.044999968973496847 0 -0.041934914238244206 0.044999974066423011 0 -0.043245446930062055 0.045630821601023441 0 -0.04425389615604422 0.044999968973496847 0 -0.044432740985022187 0.045730754050399731 0 -0.04425543229028845 0.044999952942065463 0 -0.04499996703898921 0.044505813745929927 0 -0.044616488714022677 0.044851015625756857 0 -0.04425543229028845 0.044999952942065463 0 -0.044999261472282275 0.044998889926510223 0 -0.04499996703898921 0.044505813745929927 0 -0.044254609387465567 0.044999921591156108 0 -0.044675928142755172 0.043722385676713729 0 -0.044999574411687199 0.044502622399409705 0 -0.044675928142755172 0.043722385676713729 0 -0.039615880458166663 0.044999967909255152 0 -0.040888845029987936 0.046106435511891961 0 -0.039110108186519804 0.046456712227113811 0 -0.04253492908258464 0.046569661304661565 0 -0.041934914238244206 0.044999974066423011 0 -0.040888845029987936 0.046106435511891961 0 -0.039615880458166663 0.044999967909255152 0 -0.041934914238244206 0.044999974066423011 0 -0.040888845029987936 0.046106435511891961 0 -0.04253492908258464 0.046569661304661565 0 -0.040888845029987936 0.046106435511891961 0 -0.040629428222955531 0.047400845829255848 0 -0.043700264246020339 0.043496989396605026 0 -0.041977526703186427 0.043712988669349272 0 -0.045101972746402701 0.04106591826775513 0 -0.044870181925188657 0.040582882549042763 0 -0.043506451366062709 0.039921212600119368 0 -0.040888845029987936 0.046106435511891961 0 -0.040629428222955531 0.047400845829255848 0 -0.039110108186519804 0.046456712227113811 0 -0.040629428222955531 0.047400845829255848 0 -0.038722633200649698 0.048227616743681166 0 -0.039110108186519804 0.046456712227113811 0 -0.041977526703186427 0.043712988669349272 0 -0.039475065844954506 0.044273019729022041 0 -0.043506451366062709 0.039921212600119368 0 -0.043061015609178188 0.041837328449961526 0 -0.040352128222064611 0.04019951551026963 0 -0.045101972746402701 0.04106591826775513 0 -0.043506451366062709 0.039921212600119368 0 -0.043061015609178188 0.041837328449961526 0 -0.045101972746402701 0.04106591826775513 0 -0.044694675796881002 0.041763908203537342 0 -0.043061015609178188 0.041837328449961526 0 -0.043797248907092572 0.044494549184043219 0 -0.044694675796881002 0.041763908203537342 0 -0.043061015609178188 0.041837328449961526 0 -0.043797248907092572 0.044494549184043219 0 -0.043061015609178188 0.041837328449961526 0 -0.040956057852796754 0.044316847585324767 0 -0.043061015609178188 0.041837328449961526 0 -0.039971070141432322 0.042655846503084266 0 -0.040956057852796754 0.044316847585324767 0 -0.039971070141432322 0.042655846503084266 0 -0.038024510252384139 0.045286461224535821 0 -0.040956057852796754 0.044316847585324767 0 -0.039971070141432322 0.042655846503084266 0 -0.036117173947539251 0.041604622858948531 0 -0.038024510252384139 0.045286461224535821 0 -0.035998047349527738 0.045668634259288021 0 -0.035677678727266411 0.045425394049384331 0 -0.038024510252384139 0.045286461224535821 0 -0.036599566030253453 0.045300866635997528 0 -0.03749983879267936 0.044757426550964506 0 -0.035998047349527738 0.045668634259288021 0 -0.036189248521731408 0.045943017058543333 0 -0.038024510252384139 0.045286461224535821 0 -0.035998047349527738 0.045668634259288021 0 -0.036189248521731408 0.045943017058543333 0 -0.035728188155059189 0.045890538475096748 0 -0.035998047349527738 0.045668634259288021 0 -0.035677678727266411 0.045425394049384331 0 -0.035355799742095788 0.045672609866143632 0 -0.036599566030253453 0.045300866635997528 0 -0.035996396792688005 0.045535135536400068 0 -0.036599566030253453 0.045300866635997528 0 -0.039475065844954506 0.044273019729022041 0 -0.03683758222909931 0.049047228162032934 0 -0.038722633200649698 0.048227616743681166 0 -0.037202308446909547 0.0469458839218269 0 -0.043061015609178188 0.041837328449961526 0 -0.039971070141432322 0.042655846503084266 0 -0.040352128222064611 0.04019951551026963 0 -0.039971070141432322 0.042655846503084266 0 -0.036117173947539251 0.041604622858948531 0 -0.040352128222064611 0.04019951551026963 0 -0.038722633200649698 0.048227616743681166 0 -0.039110108186519804 0.046456712227113811 0 -0.037202308446909547 0.0469458839218269 0 -0.037202308446909547 0.0469458839218269 0 -0.037296882946395465 0.044999976082066614 0 -0.036217468436828604 0.045949988838060021 0 -0.039110108186519804 0.046456712227113811 0 -0.037202308446909547 0.0469458839218269 0 -0.037296882946395465 0.044999976082066614 0 -0.039615880458166663 0.044999967909255152 0 -0.039110108186519804 0.046456712227113811 0 -0.037296882946395465 0.044999976082066614 0 -0.034129518588094224 0.044999669679179094 0 -0.034410583703284203 0.04556501239464928 0 -0.033378266350945179 0.045392805096175874 0 -0.034131465723642042 0.045000016516054987 0 -0.034977864511235635 0.044999975059815907 0 -0.035502866513890771 0.047055361314134042 0 -0.034114571172522652 0.044902843884772163 0 -0.035018097639675838 0.046696435033757019 0 -0.037296882946395465 0.044999976082066614 0 -0.034977864511235635 0.044999975059815907 0 -0.036217468436828604 0.045949988838060021 0 -0.034977864511235635 0.044999975059815907 0 -0.036217468436828604 0.045949988838060021 0 -0.035502866513890771 0.047055361314134042 0 -0.037202308446909547 0.0469458839218269 0 -0.036217468436828604 0.045949988838060021 0 -0.035502866513890771 0.047055361314134042 0 -0.03683758222909931 0.049047228162032934 0 -0.037202308446909547 0.0469458839218269 0 -0.035502866513890771 0.047055361314134042 0 -0.034410583703284203 0.04556501239464928 0 -0.033548612466483232 0.04598420823075515 0 -0.033240201401910141 0.045741680009102496 0 -0.034410583703284203 0.04556501239464928 0 -0.033240201401910141 0.045741680009102496 0 -0.033378266350945179 0.045392805096175874 0 -0.034410583703284203 0.04556501239464928 0 -0.033548612466483232 0.04598420823075515 0 -0.034248901618729961 0.04594850668261604 0 -0.033548612466483232 0.04598420823075515 0 -0.034248901618729961 0.04594850668261604 0 -0.033811576329690875 0.046383329431636748 0 -0.036599566030253453 0.045300866635997528 0 -0.035018097639675838 0.046696435033757019 0 -0.034410583703284203 0.04556501239464928 0 -0.034248901618729961 0.04594850668261604 0 -0.034937106854713663 0.04583217584973856 0 -0.035433480117032526 0.045695825515981496 0 -0.034410583703284203 0.04556501239464928 0 -0.034937106854713663 0.04583217584973856 0 -0.034248901618729961 0.04594850668261604 0 -0.034937106854713663 0.04583217584973856 0 -0.03445340485547526 0.046166649382663287 0 -0.035433480117032526 0.045695825515981496 0 -0.034937106854713663 0.04583217584973856 0 -0.035355799742095788 0.045672609866143632 0 -0.034937106854713663 0.04583217584973856 0 -0.035352055437934869 0.045853180193356283 0 -0.034944338436979784 0.046164901489056206 0 -0.035998047349527738 0.045668634259288021 0 -0.035355799742095788 0.045672609866143632 0 -0.035352055437934869 0.045853180193356283 0 -0.034937106854713663 0.04583217584973856 0 -0.035355799742095788 0.045672609866143632 0 -0.035352055437934869 0.045853180193356283 0 -0.034937106854713663 0.04583217584973856 0 -0.034944338436979784 0.046164901489056206 0 -0.03445340485547526 0.046166649382663287 0 -0.034944338436979784 0.046164901489056206 0 -0.03445340485547526 0.046166649382663287 0 -0.034291604056995433 0.046615942105885995 0 -0.034944338436979784 0.046164901489056206 0 -0.034291604056995433 0.046615942105885995 0 -0.035036714983927374 0.046506189227755783 0 -0.034944338436979784 0.046164901489056206 0 -0.035433425698115008 0.046159773761987828 0 -0.035036714983927374 0.046506189227755783 0 -0.035352055437934869 0.045853180193356283 0 -0.034944338436979784 0.046164901489056206 0 -0.035433425698115008 0.046159773761987828 0 -0.036189248521731408 0.045943017058543333 0 -0.035433425698115008 0.046159773761987828 0 -0.03581688381304899 0.046387983866321168 0 -0.036189248521731408 0.045943017058543333 0 -0.035433425698115008 0.046159773761987828 0 -0.035728188155059189 0.045890538475096748 0 -0.035998047349527738 0.045668634259288021 0 -0.035352055437934869 0.045853180193356283 0 -0.035728188155059189 0.045890538475096748 0 -0.035352055437934869 0.045853180193356283 0 -0.035433425698115008 0.046159773761987828 0 -0.035728188155059189 0.045890538475096748 0 -0.033811576329690875 0.046383329431636748 0 -0.03445340485547526 0.046166649382663287 0 -0.034291604056995433 0.046615942105885995 0 -0.034248901618729961 0.04594850668261604 0 -0.033811576329690875 0.046383329431636748 0 -0.03445340485547526 0.046166649382663287 0 -0.033811576329690875 0.046383329431636748 0 -0.034291604056995433 0.046615942105885995 0 -0.033616787803170678 0.047128159489797379 0 -0.033811576329690875 0.046383329431636748 0 -0.033616787803170678 0.047128159489797379 0 -0.032924887513127374 0.046882464622355055 0 -0.034214201435471991 0.047535530114950326 0 -0.033475462235969193 0.047784267779790029 0 -0.034678589593115747 0.048118451153905673 0 -0.034291604056995433 0.046615942105885995 0 -0.034186139782089328 0.047067306497763091 0 -0.034752006705088698 0.046962497825582809 0 -0.034291604056995433 0.046615942105885995 0 -0.033616787803170678 0.047128159489797379 0 -0.034186139782089328 0.047067306497763091 0 -0.033616787803170678 0.047128159489797379 0 -0.034186139782089328 0.047067306497763091 0 -0.034214201435471991 0.047535530114950326 0 -0.034186139782089328 0.047067306497763091 0 -0.034572051082173844 0.047339117940967713 0 -0.034752006705088698 0.046962497825582809 0 -0.034186139782089328 0.047067306497763091 0 -0.034214201435471991 0.047535530114950326 0 -0.034572051082173844 0.047339117940967713 0 -0.034214201435471991 0.047535530114950326 0 -0.03469615533832085 0.047819572312510598 0 -0.034572051082173844 0.047339117940967713 0 -0.033616787803170678 0.047128159489797379 0 -0.034214201435471991 0.047535530114950326 0 -0.033475462235969193 0.047784267779790029 0 -0.032999186318035015 0.047916994477920756 0 -0.033191994516168472 0.048241352765157633 0 -0.03341527189532735 0.048149070995961024 0 -0.032930507963363422 0.047895076367440108 0 -0.036909342678367374 0.044446641336727481 0 -0.032999186318035015 0.047916994477920756 0 -0.033191994516168472 0.048241352765157633 0 -0.032926120144787241 0.048372602290508569 0 -0.033191994516168472 0.048241352765157633 0 -0.03341527189532735 0.048149070995961024 0 -0.033385170548025249 0.048265006189155982 0 -0.033191994516168472 0.048241352765157633 0 -0.033176663960587424 0.048432188110856221 0 -0.032926120144787241 0.048372602290508569 0 -0.041285997137977301 0.03698629412370142 0 -0.040309912284206571 0.037325647580402493 0 -0.041068628314737475 0.038614885623871879 0 -0.041220107302972382 0.037093398384618462 0 -0.040309912284206571 0.037325647580402493 0 -0.040150821265132995 0.036598755201427829 0 -0.039970324134424771 0.040460510471062069 0 -0.040919789155541009 0.039052279609142135 0 -0.034214201435471991 0.047535530114950326 0 -0.034678589593115747 0.048118451153905673 0 -0.03469615533832085 0.047819572312510598 0 -0.035482467449728473 0.048815404223338583 0 -0.034611309562617709 0.048317258859747955 0 -0.035155831382649744 0.047964649209815628 0 -0.039970324134424771 0.040460510471062069 0 -0.036909342678367374 0.044446641336727481 0 -0.036909342678367374 0.044446641336727481 0 -0.036392123316139259 0.046439439375906964 0 -0.034611309562617709 0.048317258859747955 0 -0.03469615533832085 0.047819572312510598 0 -0.035155831382649744 0.047964649209815628 0 -0.035482467449728473 0.048815404223338583 0 -0.035155831382649744 0.047964649209815628 0 -0.03583531461965369 0.047418116246494599 0 -0.035155831382649744 0.047964649209815628 0 -0.03583531461965369 0.047418116246494599 0 -0.035097428894250687 0.047393904678777424 0 -0.03583531461965369 0.047418116246494599 0 -0.035097428894250687 0.047393904678777424 0 -0.035608059087320974 0.046889134071669822 0 -0.035097428894250687 0.047393904678777424 0 -0.034752006705088698 0.046962497825582809 0 -0.035608059087320974 0.046889134071669822 0 -0.03469615533832085 0.047819572312510598 0 -0.035097428894250687 0.047393904678777424 0 -0.034572051082173844 0.047339117940967713 0 -0.03469615533832085 0.047819572312510598 0 -0.035155831382649744 0.047964649209815628 0 -0.035097428894250687 0.047393904678777424 0 -0.035097428894250687 0.047393904678777424 0 -0.034572051082173844 0.047339117940967713 0 -0.034752006705088698 0.046962497825582809 0 -0.034752006705088698 0.046962497825582809 0 -0.035036714983927374 0.046506189227755783 0 -0.035608059087320974 0.046889134071669822 0 -0.034291604056995433 0.046615942105885995 0 -0.034752006705088698 0.046962497825582809 0 -0.035036714983927374 0.046506189227755783 0 -0.035433425698115008 0.046159773761987828 0 -0.035036714983927374 0.046506189227755783 0 -0.03581688381304899 0.046387983866321168 0 -0.035036714983927374 0.046506189227755783 0 -0.035608059087320974 0.046889134071669822 0 -0.03581688381304899 0.046387983866321168 0 -0.036189248521731408 0.045943017058543333 0 -0.03581688381304899 0.046387983866321168 0 -0.036801942273811554 0.046474441136561032 0 -0.035608059087320974 0.046889134071669822 0 -0.03581688381304899 0.046387983866321168 0 -0.036801942273811554 0.046474441136561032 0 -0.036189248521731408 0.045943017058543333 0 -0.036801942273811554 0.046474441136561032 0 -0.038024510252384139 0.045286461224535821 0 -0.03583531461965369 0.047418116246494599 0 -0.036801942273811554 0.046474441136561032 0 -0.039291127366845077 0.047506148961652152 0 -0.036801942273811554 0.046474441136561032 0 -0.038024510252384139 0.045286461224535821 0 -0.039291127366845077 0.047506148961652152 0 -0.03583531461965369 0.047418116246494599 0 -0.035608059087320974 0.046889134071669822 0 -0.036801942273811554 0.046474441136561032 0 -0.038024510252384139 0.045286461224535821 0 -0.040956057852796754 0.044316847585324767 0 -0.039291127366845077 0.047506148961652152 0 -0.046767403688119352 0.038226821889951475 0 -0.045973117949333724 0.037762240076039857 0 -0.04582087520859205 0.038643846799850542 0 -0.045973117949333724 0.037762240076039857 0 -0.045064206301114934 0.038517907475237374 0 -0.04582087520859205 0.038643846799850542 0 -0.039970324134424771 0.040460510471062069 0 -0.042442945468784118 0.043036817368813103 0 -0.043926582560476012 0.038084324889846678 0 -0.045973117949333724 0.037762240076039857 0 -0.045064206301114934 0.038517907475237374 0 -0.035482467449728473 0.048815404223338583 0 -0.03583531461965369 0.047418116246494599 0 -0.039291127366845077 0.047506148961652152 0 -0.041285997137977301 0.03698629412370142 0 -0.043427724740862574 0.037724394546627404 0 -0.042208703349697715 0.038506711215599995 0 -0.039970324134424771 0.040460510471062069 0 -0.044399798957176204 0.038337427632672123 0 -0.043427724740862574 0.037724394546627404 0 -0.043491092573957869 0.040005863969154093 0 -0.04582087520859205 0.038643846799850542 0 -0.043427724740862574 0.037724394546627404 0 -0.042208703349697715 0.038506711215599995 0 -0.043491092573957869 0.040005863969154093 0 -0.042208703349697715 0.038506711215599995 0 -0.043491092573957869 0.040005863969154093 0 -0.041675986249411594 0.039668020015458397 0 -0.046545752010706362 0.038858529147207568 0 -0.046767403688119352 0.038226821889951475 0 -0.04582087520859205 0.038643846799850542 0 -0.044399798957176204 0.038337427632672123 0 -0.045520690797200357 0.038586901561672167 0 -0.043491092573957869 0.040005863969154093 0 -0.04582087520859205 0.038643846799850542 0 -0.045287408324563863 0.040096385034215934 0 -0.04582087520859205 0.038643846799850542 0 -0.046080755379773165 0.039565828580642705 0 -0.045287408324563863 0.040096385034215934 0 -0.046545752010706362 0.038858529147207568 0 -0.04582087520859205 0.038643846799850542 0 -0.046080755379773165 0.039565828580642705 0 -0.04679604257905047 0.039884018802916886 0 -0.046545752010706362 0.038858529147207568 0 -0.046080755379773165 0.039565828580642705 0 -0.04679604257905047 0.039884018802916886 0 -0.046029775690583863 0.040909930821335212 0 -0.047165917200163943 0.043372194426348626 0 -0.046080755379773165 0.039565828580642705 0 -0.046029775690583863 0.040909930821335212 0 -0.045287408324563863 0.040096385034215934 0 -0.04679604257905047 0.039884018802916886 0 -0.046080755379773165 0.039565828580642705 0 -0.046029775690583863 0.040909930821335212 0 -0.043491092573957869 0.040005863969154093 0 -0.045287408324563863 0.040096385034215934 0 -0.044978081130044492 0.041864656518861079 0 -0.046029775690583863 0.040909930821335212 0 -0.045287408324563863 0.040096385034215934 0 -0.044978081130044492 0.041864656518861079 0 -0.046029775690583863 0.040909930821335212 0 -0.044978081130044492 0.041864656518861079 0 -0.047165917200163943 0.043372194426348626 0 -0.043491092573957869 0.040005863969154093 0 -0.044978081130044492 0.041864656518861079 0 -0.042574760972558932 0.04302898431329321 0 -0.043491092573957869 0.040005863969154093 0 -0.041878194048355147 0.040870563854588184 0 -0.042574760972558932 0.04302898431329321 0 -0.043491092573957869 0.040005863969154093 0 -0.041878194048355147 0.040870563854588184 0 -0.041675986249411594 0.039668020015458397 0 -0.041878194048355147 0.040870563854588184 0 -0.039848016517389923 0.040763495092227917 0 -0.042574760972558932 0.04302898431329321 0 -0.038749964333001242 0.040059516114738972 0 -0.040220289655782199 0.043420483202435231 0 -0.042574760972558932 0.04302898431329321 0 -0.037110740532127214 0.043015710908859486 0 -0.042899847013384881 0.042333812529665303 0 -0.041878194048355147 0.040870563854588184 0 -0.039848016517389923 0.040763495092227917 0 -0.041675986249411594 0.039668020015458397 0 -0.036189600080977297 0.04643354288390427 0 -0.037065569147595727 0.047443131466835604 0 -0.036095818016595553 0.049460057267219019 0 -0.036637009603796046 0.048686753311442094 0 -0.03642395385624763 0.050359915194035307 0 -0.03829865440822413 0.042241453952572665 0 -0.037835584421721254 0.041886994775538609 0 -0.037501573037700145 0.04505292611376497 0 -0.036095818016595553 0.049460057267219019 0 -0.035997422419490492 0.04893808121308748 0 -0.035496492986706984 0.049429510918656314 0 -0.036095818016595553 0.049460057267219019 0 -0.035496492986706984 0.049429510918656314 0 -0.035917230586168254 0.04987968344269024 0 -0.035997422419490492 0.04893808121308748 0 -0.036637009603796046 0.048686753311442094 0 -0.036138006928485546 0.048292024251481921 0 -0.035997422419490492 0.04893808121308748 0 -0.036138006928485546 0.048292024251481921 0 -0.03562018466948369 0.048876556001685667 0 -0.036095818016595553 0.049460057267219019 0 -0.035997422419490492 0.04893808121308748 0 -0.036637009603796046 0.048686753311442094 0 -0.035997422419490492 0.04893808121308748 0 -0.03562018466948369 0.048876556001685667 0 -0.035496492986706984 0.049429510918656314 0 -0.037110740532127214 0.043015710908859486 0 -0.036189600080977297 0.04643354288390427 0 -0.033414260533949414 0.048345970141220454 0 -0.033397194105766012 0.04833256943603724 0 -0.033385170548025249 0.048265006189155982 0 -0.036189600080977297 0.04643354288390427 0 -0.033542332134720916 0.049049850366721923 0 -0.033387486444372956 0.048818545376845095 0 -0.033224598422501805 0.048629584789412289 0 -0.033385170548025249 0.048265006189155982 0 -0.036189600080977297 0.04643354288390427 0 -0.034505089345926152 0.048970169286899901 0 -0.033387486444372956 0.048818545376845095 0 -0.033224598422501805 0.048629584789412289 0 -0.033132037495808744 0.04863298453672512 0 -0.034214762838340504 0.048954405731843544 0 -0.034505089345926152 0.048970169286899901 0 -0.033224598422501805 0.048629584789412289 0 -0.033165668219952003 0.048631539250152921 0 -0.033176663960587424 0.048432188110856221 0 -0.033165668219952003 0.048631539250152921 0 -0.033176663960587424 0.048432188110856221 0 -0.032926120144787241 0.048372602290508569 0 -0.033224598422501805 0.048629584789412289 0 -0.033176663960587424 0.048432188110856221 0 -0.033385170548025249 0.048265006189155982 0 -0.033191994516168472 0.048241352765157633 0 -0.033176663960587424 0.048432188110856221 0 -0.033385170548025249 0.048265006189155982 0 -0.040309912284206571 0.037325647580402493 0 -0.039848016517389923 0.040763495092227917 0 -0.041068628314737475 0.038614885623871879 0 -0.03341527189532735 0.048149070995961024 0 -0.033414260533949414 0.048345970141220454 0 -0.033385170548025249 0.048265006189155982 0 -0.040309912284206571 0.037325647580402493 0 -0.040150821265132995 0.036598755201427829 0 -0.039848016517389923 0.040763495092227917 0 -0.036909342678367374 0.044446641336727481 0 -0.037110740532127214 0.043015710908859486 0 -0.041285997137977301 0.03698629412370142 0 -0.042208703349697715 0.038506711215599995 0 -0.041068628314737475 0.038614885623871879 0 -0.042208703349697715 0.038506711215599995 0 -0.041068628314737475 0.038614885623871879 0 -0.041675986249411594 0.039668020015458397 0 -0.039848016517389923 0.040763495092227917 0 -0.041068628314737475 0.038614885623871879 0 -0.041675986249411594 0.039668020015458397 0 -0.031939697042599649 0.05052801187054283 0 -0.031049239977286477 0.049491913146277523 0 -0.032517177385109536 0.049285556185109346 0 -0.034505089345926152 0.048970169286899901 0 -0.03229304180832597 0.048900584969506854 0 -0.034505089345926152 0.048970169286899901 0 -0.033076885737289667 0.049494507707910432 0 -0.034034575823689642 0.050449258887963228 0 -0.031939697042599649 0.05052801187054283 0 -0.032517177385109536 0.049285556185109346 0 -0.036138006928485546 0.048292024251481921 0 -0.033957223515362518 0.048352334082185158 0 -0.034848327551575631 0.04884429258535216 0 -0.033165668219952003 0.048631539250152921 0 -0.032444121453871946 0.04847077685953121 0 -0.032926120144787241 0.048372602290508569 0 -0.036138006928485546 0.048292024251481921 0 -0.034848327551575631 0.04884429258535216 0 -0.03562018466948369 0.048876556001685667 0 -0.034848327551575631 0.04884429258535216 0 -0.03562018466948369 0.048876556001685667 0 -0.035496492986706984 0.049429510918656314 0 -0.034848327551575631 0.04884429258535216 0 -0.035496492986706984 0.049429510918656314 0 -0.034348405287421703 0.049775936773512136 0 -0.033957223515362518 0.048352334082185158 0 -0.034348405287421703 0.049775936773512136 0 -0.032549896914974348 0.050121454480226528 0 -0.033957223515362518 0.048352334082185158 0 -0.034848327551575631 0.04884429258535216 0 -0.034348405287421703 0.049775936773512136 0 -0.033957223515362518 0.048352334082185158 0 -0.031569924999859271 0.048514614114842987 0 -0.032549896914974348 0.050121454480226528 0 -0.031569924999859271 0.048514614114842987 0 -0.030164241740778992 0.051083043822899306 0 -0.032549896914974348 0.050121454480226528 0 -0.029746888635226836 0.050519402357447375 0 -0.031049239977286477 0.049491913146277523 0 -0.029908821581358134 0.048903946184209852 0 -0.033076885737289667 0.049494507707910432 0 -0.030649522014474337 0.049504154998098911 0 -0.031939697042599649 0.05052801187054283 0 -0.029746888635226836 0.050519402357447375 0 -0.031049239977286477 0.049491913146277523 0 -0.031049239977286477 0.049491913146277523 0 -0.029908821581358134 0.048903946184209852 0 -0.031094388529215151 0.048113583288414169 0 -0.029746888635226836 0.050519402357447375 0 -0.029908821581358134 0.048903946184209852 0 -0.02830861111124322 0.049137317337209482 0 -0.029908821581358134 0.048903946184209852 0 -0.02912128529185767 0.048290754067676536 0 -0.02830861111124322 0.049137317337209482 0 -0.029908821581358134 0.048903946184209852 0 -0.02912128529185767 0.048290754067676536 0 -0.03011724576813362 0.047686695885825969 0 -0.02912128529185767 0.048290754067676536 0 -0.03011724576813362 0.047686695885825969 0 -0.029196278937708275 0.047221494174179937 0 -0.03011724576813362 0.047686695885825969 0 -0.031094388529215151 0.048113583288414169 0 -0.031152757000158356 0.047115005147316757 0 -0.029908821581358134 0.048903946184209852 0 -0.03011724576813362 0.047686695885825969 0 -0.031094388529215151 0.048113583288414169 0 -0.031094388529215151 0.048113583288414169 0 -0.032288027125278312 0.04765352245868576 0 -0.031152757000158356 0.047115005147316757 0 -0.031094388529215151 0.048113583288414169 0 -0.032288027125278312 0.04765352245868576 0 -0.032444121453871946 0.04847077685953121 0 -0.031049239977286477 0.049491913146277523 0 -0.031094388529215151 0.048113583288414169 0 -0.032517177385109536 0.049285556185109346 0 -0.031217614750278806 0.048113150528862489 0 -0.03229304180832597 0.048900584969506854 0 -0.032999186318035015 0.047916994477920756 0 -0.032444121453871946 0.04847077685953121 0 -0.032926120144787241 0.048372602290508569 0 -0.033616787803170678 0.047128159489797379 0 -0.032288027125278312 0.04765352245868576 0 -0.032924887513127374 0.046882464622355055 0 -0.032999186318035015 0.047916994477920756 0 -0.032288027125278312 0.04765352245868576 0 -0.032444121453871946 0.04847077685953121 0 -0.032930507963363422 0.047895076367440108 0 -0.032457922251885693 0.047653300772054659 0 -0.033616787803170678 0.047128159489797379 0 -0.033475462235969193 0.047784267779790029 0 -0.032288027125278312 0.04765352245868576 0 -0.032288027125278312 0.04765352245868576 0 -0.032924887513127374 0.046882464622355055 0 -0.032107435030078027 0.046889203812041542 0 -0.032924887513127374 0.046882464622355055 0 -0.032107435030078027 0.046889203812041542 0 -0.032794758440638436 0.046440038967470107 0 -0.033811576329690875 0.046383329431636748 0 -0.032924887513127374 0.046882464622355055 0 -0.032794758440638436 0.046440038967470107 0 -0.032107435030078027 0.046889203812041542 0 -0.03185385717583656 0.046542278959948877 0 -0.031152757000158356 0.047115005147316757 0 -0.032288027125278312 0.04765352245868576 0 -0.032107435030078027 0.046889203812041542 0 -0.031152757000158356 0.047115005147316757 0 -0.032107435030078027 0.046889203812041542 0 -0.03185385717583656 0.046542278959948877 0 -0.032794758440638436 0.046440038967470107 0 -0.03185385717583656 0.046542278959948877 0 -0.032794758440638436 0.046440038967470107 0 -0.032493477420063935 0.046092134588353116 0 -0.033548612466483232 0.04598420823075515 0 -0.033811576329690875 0.046383329431636748 0 -0.032794758440638436 0.046440038967470107 0 -0.033548612466483232 0.04598420823075515 0 -0.032794758440638436 0.046440038967470107 0 -0.032493477420063935 0.046092134588353116 0 -0.033548612466483232 0.04598420823075515 0 -0.033240201401910141 0.045741680009102496 0 -0.032493477420063935 0.046092134588353116 0 -0.033240201401910141 0.045741680009102496 0 -0.032493477420063935 0.046092134588353116 0 -0.031867540829240232 0.045812173476277765 0 -0.033240201401910141 0.045741680009102496 0 -0.031867540829240232 0.045812173476277765 0 -0.033378266350945179 0.045392805096175874 0 -0.03185385717583656 0.046542278959948877 0 -0.031867540829240232 0.045812173476277765 0 -0.030855185486819578 0.046586702082485824 0 -0.03185385717583656 0.046542278959948877 0 -0.032493477420063935 0.046092134588353116 0 -0.031867540829240232 0.045812173476277765 0 -0.031867540829240232 0.045812173476277765 0 -0.032659416493824707 0.044999513585716307 0 -0.03033992258232697 0.044999575048981236 0 -0.034129518588094224 0.044999669679179094 0 -0.033378266350945179 0.045392805096175874 0 -0.032659416493824707 0.044999513585716307 0 -0.031867540829240232 0.045812173476277765 0 -0.033378266350945179 0.045392805096175874 0 -0.032659416493824707 0.044999513585716307 0 -0.029334071819499978 0.045813152483045017 0 -0.03033992258232697 0.044999575048981236 0 -0.028022247358479756 0.044999506302233941 0 -0.029334071819499978 0.045813152483045017 0 -0.028022247358479756 0.044999506302233941 0 -0.027765785921310713 0.045838955686437963 0 -0.031867540829240232 0.045812173476277765 0 -0.03033992258232697 0.044999575048981236 0 -0.030600630991936655 0.045838843926919934 0 -0.029334071819499978 0.045813152483045017 0 -0.03033992258232697 0.044999575048981236 0 -0.030600630991936655 0.045838843926919934 0 -0.029334071819499978 0.045813152483045017 0 -0.030600630991936655 0.045838843926919934 0 -0.030855185486819578 0.046586702082485824 0 -0.031867540829240232 0.045812173476277765 0 -0.030600630991936655 0.045838843926919934 0 -0.030855185486819578 0.046586702082485824 0 -0.030855185486819578 0.046586702082485824 0 -0.028563143436038562 0.046524003681548583 0 -0.028139504747274623 0.047643609800120348 0 -0.029334071819499978 0.045813152483045017 0 -0.028563143436038562 0.046524003681548583 0 -0.027765785921310713 0.045838955686437963 0 -0.029334071819499978 0.045813152483045017 0 -0.030855185486819578 0.046586702082485824 0 -0.028563143436038562 0.046524003681548583 0 -0.030937126168028808 0.046757168464482204 0 -0.028816594203570824 0.046734006199235303 0 -0.030855185486819578 0.046586702082485824 0 -0.03064036509806848 0.046917143836630121 0 -0.030324581098377681 0.046739606747648092 0 -0.030353654594338534 0.046682077948657079 0 -0.028816594203570824 0.046734006199235303 0 -0.03185385717583656 0.046542278959948877 0 -0.030855185486819578 0.046586702082485824 0 -0.031152757000158356 0.047115005147316757 0 -0.030855185486819578 0.046586702082485824 0 -0.03064036509806848 0.046917143836630121 0 -0.031152757000158356 0.047115005147316757 0 -0.030353654594338534 0.046682077948657079 0 -0.031028776595180059 0.047063560600664446 0 -0.03011724576813362 0.047686695885825969 0 -0.029900100824602791 0.046407211660529586 0 -0.031152757000158356 0.047115005147316757 0 -0.03011724576813362 0.047686695885825969 0 -0.029900100824602791 0.046407211660529586 0 -0.029196278937708275 0.047221494174179937 0 -0.029900100824602791 0.046407211660529586 0 -0.029196278937708275 0.047221494174179937 0 -0.028677071753196653 0.045685109060255732 0 -0.029196278937708275 0.047221494174179937 0 -0.028171492313572931 0.047076242952205888 0 -0.028677071753196653 0.045685109060255732 0 -0.029196278937708275 0.047221494174179937 0 -0.028171492313572931 0.047076242952205888 0 -0.028214999334310539 0.048105960473245869 0 -0.028171492313572931 0.047076242952205888 0 -0.027355730180817966 0.04764018559470154 0 -0.028214999334310539 0.048105960473245869 0 -0.028171492313572931 0.047076242952205888 0 -0.027355730180817966 0.04764018559470154 0 -0.027076439639720399 0.046010422428171806 0 -0.026427084297754373 0.046879181769557451 0 -0.026263127601974634 0.047528177934130597 0 -0.027355730180817966 0.04764018559470154 0 -0.027076439639720399 0.046010422428171806 0 -0.026011517651525311 0.047968098789271496 0 -0.025262183789781567 0.047878341652665905 0 -0.025659916410296892 0.047118113045706497 0 -0.024349213568470307 0.047330630386441745 0 -0.026427084297754373 0.046879181769557451 0 -0.026585322361066567 0.047031803216539443 0 -0.028171492313572931 0.047076242952205888 0 -0.027076439639720399 0.046010422428171806 0 -0.028677071753196653 0.045685109060255732 0 -0.026427084297754373 0.046879181769557451 0 -0.028816594203570824 0.046734006199235303 0 -0.026662087544964037 0.047250177422793492 0 -0.028072631670088475 0.046914825876506694 0 -0.027139216643598137 0.046369667042928366 0 -0.028816594203570824 0.046734006199235303 0 -0.026585322361066567 0.047031803216539443 0 -0.028563143436038562 0.046524003681548583 0 -0.028139504747274623 0.047643609800120348 0 -0.027098071258547577 0.046997324257273376 0 -0.028563143436038562 0.046524003681548583 0 -0.027098071258547577 0.046997324257273376 0 -0.027765785921310713 0.045838955686437963 0 -0.026585322361066567 0.047031803216539443 0 -0.027484546574224868 0.046079831162152966 0 -0.026533228049656167 0.047678713340141815 0 -0.025901769937020726 0.046399871083547622 0 -0.024441028067113211 0.046372423486864378 0 -0.026585322361066567 0.047031803216539443 0 -0.024392466135872339 0.046488938668911052 0 -0.026533228049656167 0.047678713340141815 0 -0.025901769937020726 0.046399871083547622 0 -0.027255120078210238 0.046270897424888595 0 -0.025901769937020726 0.046399871083547622 0 -0.025321252957022776 0.044999778135804934 0 -0.027255120078210238 0.046270897424888595 0 -0.025321252957022776 0.044999778135804934 0 -0.028020832050997618 0.045000022079299346 0 -0.027255120078210238 0.046270897424888595 0 -0.028020692065592139 0.045000235699970262 0 -0.027484546574224868 0.046079831162152966 0 -0.022622449135693199 0.044999871082604816 0 -0.024441028067113211 0.046372423486864378 0 -0.022793669428357644 0.046783758973524485 0 -0.025901769937020726 0.046399871083547622 0 -0.025321252957022776 0.044999778135804934 0 -0.024441028067113211 0.046372423486864378 0 -0.025321252957022776 0.044999778135804934 0 -0.022622449135693199 0.044999871082604816 0 -0.024441028067113211 0.046372423486864378 0 -0.024441028067113211 0.046372423486864378 0 -0.022793669428357644 0.046783758973524485 0 -0.024349213568470307 0.047330630386441745 0 -0.025659916410296892 0.047118113045706497 0 -0.024441028067113211 0.046372423486864378 0 -0.024349213568470307 0.047330630386441745 0 -0.022302871401236688 0.048134005245620157 0 -0.022909623488273866 0.047656490590197352 0 -0.02376811336082555 0.048190939753445322 0 -0.022793669428357644 0.046783758973524485 0 -0.022909623488273866 0.047656490590197352 0 -0.024349213568470307 0.047330630386441745 0 -0.022909623488273866 0.047656490590197352 0 -0.024349213568470307 0.047330630386441745 0 -0.02376811336082555 0.048190939753445322 0 -0.025262183789781567 0.047878341652665905 0 -0.024349213568470307 0.047330630386441745 0 -0.02376811336082555 0.048190939753445322 0 -0.026427084297754373 0.046879181769557451 0 -0.024198804466668434 0.047538139220210628 0 -0.02687833138062112 0.04624513603664155 0 -0.02479138527476947 0.046784279084450549 0 -0.026011517651525311 0.047968098789271496 0 -0.02479138527476947 0.046784279084450549 0 -0.026011517651525311 0.047968098789271496 0 -0.023841544393948755 0.048545341052849592 0 -0.022302871401236688 0.048134005245620157 0 -0.02479138527476947 0.046784279084450549 0 -0.023841544393948755 0.048545341052849592 0 -0.022559366503616288 0.048027114874319175 0 -0.024198804466668434 0.047538139220210628 0 -0.022123424102487087 0.04942038005629814 0 -0.023841544393948755 0.048545341052849592 0 -0.024304709093597714 0.050370275968450853 0 -0.023134806603560785 0.04902773969218685 0 -0.02518229394745225 0.049455013548356873 0 -0.024810149931806001 0.048518952824384821 0 -0.026177482848262684 0.048409830271263887 0 -0.025935000507724962 0.049001373106631635 0 -0.026177482848262684 0.048409830271263887 0 -0.026920698279724421 0.049149155951537779 0 -0.027233259384616258 0.04866565791366332 0 -0.026177482848262684 0.048409830271263887 0 -0.026920698279724421 0.049149155951537779 0 -0.025935000507724962 0.049001373106631635 0 -0.026011517651525311 0.047968098789271496 0 -0.024304709093597714 0.050370275968450853 0 -0.027233259384616258 0.04866565791366332 0 -0.02518229394745225 0.049455013548356873 0 -0.027073338307506641 0.048724184641528029 0 -0.026011517651525311 0.047968098789271496 0 -0.023841544393948755 0.048545341052849592 0 -0.024304709093597714 0.050370275968450853 0 -0.027355730180817966 0.04764018559470154 0 -0.026011517651525311 0.047968098789271496 0 -0.027233259384616258 0.04866565791366332 0 -0.027355730180817966 0.04764018559470154 0 -0.027233259384616258 0.04866565791366332 0 -0.028214999334310539 0.048105960473245869 0 -0.027233259384616258 0.04866565791366332 0 -0.028214999334310539 0.048105960473245869 0 -0.02830861111124322 0.049137317337209482 0 -0.02912128529185767 0.048290754067676536 0 -0.028214999334310539 0.048105960473245869 0 -0.02830861111124322 0.049137317337209482 0 -0.02912128529185767 0.048290754067676536 0 -0.029196278937708275 0.047221494174179937 0 -0.028214999334310539 0.048105960473245869 0 -0.026920698279724421 0.049149155951537779 0 -0.027233259384616258 0.04866565791366332 0 -0.02830861111124322 0.049137317337209482 0 -0.026920698279724421 0.049149155951537779 0 -0.02830861111124322 0.049137317337209482 0 -0.027767051836748546 0.050199269772275117 0 -0.029746888635226836 0.050519402357447375 0 -0.02830861111124322 0.049137317337209482 0 -0.027767051836748546 0.050199269772275117 0 -0.030649522014474337 0.049504154998098911 0 -0.02843717430853478 0.049543725653971887 0 -0.031569924999859271 0.048514614114842987 0 -0.029035800247494459 0.048874844280152901 0 -0.030164241740778992 0.051083043822899306 0 -0.029035800247494459 0.048874844280152901 0 -0.027590495531237616 0.05071982206510809 0 -0.030164241740778992 0.051083043822899306 0 -0.025804037282350679 0.050639607781767605 0 -0.026405271508241138 0.049615889296921373 0 -0.027590495531237616 0.05071982206510809 0 -0.029035800247494459 0.048874844280152901 0 -0.026405271508241138 0.049615889296921373 0 -0.027590495531237616 0.05071982206510809 0 -0.025021917551273139 0.049568460659351027 0 -0.025804037282350679 0.050639607781767605 0 -0.026405271508241138 0.049615889296921373 0 -0.024810149931806001 0.048518952824384821 0 -0.025021917551273139 0.049568460659351027 0 -0.025935000507724962 0.049001373106631635 0 -0.025021917551273139 0.049568460659351027 0 -0.025935000507724962 0.049001373106631635 0 -0.026405271508241138 0.049615889296921373 0 -0.026920698279724421 0.049149155951537779 0 -0.025935000507724962 0.049001373106631635 0 -0.026405271508241138 0.049615889296921373 0 -0.02843717430853478 0.049543725653971887 0 -0.026557646410846319 0.049605873766776179 0 -0.026920698279724421 0.049149155951537779 0 -0.027767051836748546 0.050199269772275117 0 -0.026405271508241138 0.049615889296921373 0 -0.026353532148672826 0.051918626648838617 0 -0.027964689760969309 0.052254088432900969 0 -0.02624351244469366 0.053525408687412949 0 -0.024729009266079599 0.052868210421982545 0 -0.026353532148672826 0.051918626648838617 0 -0.02624351244469366 0.053525408687412949 0 -0.024729009266079599 0.052868210421982545 0 -0.024821494677077949 0.051560973928065933 0 -0.026353532148672826 0.051918626648838617 0 -0.024821494677077949 0.051560973928065933 0 -0.025804037282350679 0.050639607781767605 0 -0.026353532148672826 0.051918626648838617 0 -0.025804037282350679 0.050639607781767605 0 -0.026353532148672826 0.051918626648838617 0 -0.027590495531237616 0.05071982206510809 0 -0.026353532148672826 0.051918626648838617 0 -0.027590495531237616 0.05071982206510809 0 -0.027964689760969309 0.052254088432900969 0 -0.027590495531237616 0.05071982206510809 0 -0.030164241740778992 0.051083043822899306 0 -0.027964689760969309 0.052254088432900969 0 -0.030164241740778992 0.051083043822899306 0 -0.027964689760969309 0.052254088432900969 0 -0.030023239224086611 0.052903338765412436 0 -0.027964689760969309 0.052254088432900969 0 -0.028218844485095925 0.053535684991703025 0 -0.030023239224086611 0.052903338765412436 0 -0.030023239224086611 0.052903338765412436 0 -0.028993100517947845 0.055234125265765814 0 -0.031210334833532697 0.054002758600548213 0 -0.028218844485095925 0.053535684991703025 0 -0.030023239224086611 0.052903338765412436 0 -0.028993100517947845 0.055234125265765814 0 -0.028218844485095925 0.053535684991703025 0 -0.027282893423617602 0.0545758626115425 0 -0.028993100517947845 0.055234125265765814 0 -0.028218844485095925 0.053535684991703025 0 -0.027282893423617602 0.0545758626115425 0 -0.02624351244469366 0.053525408687412949 0 -0.027964689760969309 0.052254088432900969 0 -0.028218844485095925 0.053535684991703025 0 -0.02624351244469366 0.053525408687412949 0 -0.024904030695811586 0.055300716888216535 0 -0.027282893423617602 0.0545758626115425 0 -0.02624351244469366 0.053525408687412949 0 -0.024904030695811586 0.055300716888216535 0 -0.026609060143307856 0.055743087170213673 0 -0.025914558536422425 0.057001028384470014 0 -0.024904030695811586 0.055300716888216535 0 -0.027282893423617602 0.0545758626115425 0 -0.026609060143307856 0.055743087170213673 0 -0.027282893423617602 0.0545758626115425 0 -0.026609060143307856 0.055743087170213673 0 -0.028993100517947845 0.055234125265765814 0 -0.026609060143307856 0.055743087170213673 0 -0.028048323234068612 0.056600509954998719 0 -0.028993100517947845 0.055234125265765814 0 -0.026609060143307856 0.055743087170213673 0 -0.028048323234068612 0.056600509954998719 0 -0.025914558536422425 0.057001028384470014 0 -0.025914558536422425 0.057001028384470014 0 -0.028191647405134156 0.05794703032610507 0 -0.026137962992773423 0.058786517254762569 0 -0.028048323234068612 0.056600509954998719 0 -0.025914558536422425 0.057001028384470014 0 -0.028191647405134156 0.05794703032610507 0 -0.025381995201220503 0.021421663256185504 0 -0.026479108550929793 0.022349035048686305 0 -0.025195728681746101 0.022614870772653999 0 -0.025381995201220503 0.021421663256185504 0 -0.023102927575634102 0.022292008136606298 0 -0.025195728681746101 0.022614870772653999 0 -0.026611073202044155 0.04030197429902084 0 -0.024714204812874892 0.036148896875498771 0 -0.024714204812874892 0.036148896875498771 0 -0.023297125266843157 0.020475182012152055 0 -0.026839348834254626 0.020657712827121272 0 -0.02769586126014988 0.022114648321876939 0 -0.026479108550929793 0.022349035048686305 0 -0.025381995201220503 0.021421663256185504 0 -0.026839348834254626 0.020657712827121272 0 -0.026479108550929793 0.022349035048686305 0 -0.026611073202044155 0.04030197429902084 0 -0.028455104063629846 0.038859400846681803 0 -0.028048323234068612 0.056600509954998719 0 -0.028191647405134156 0.05794703032610507 0 -0.029920992038369145 0.057277366936832837 0 -0.029920992038369145 0.057277366936832837 0 -0.028993100517947845 0.055234125265765814 0 -0.030797486494386853 0.055544182870351053 0 -0.028048323234068612 0.056600509954998719 0 -0.029920992038369145 0.057277366936832837 0 -0.028993100517947845 0.055234125265765814 0 -0.028993100517947845 0.055234125265765814 0 -0.030797486494386853 0.055544182870351053 0 -0.031210334833532697 0.054002758600548213 0 -0.030797486494386853 0.055544182870351053 0 -0.03227273049294669 0.055020788075539 0 -0.031210334833532697 0.054002758600548213 0 -0.030797486494386853 0.055544182870351053 0 -0.03227273049294669 0.055020788075539 0 -0.031943610232802983 0.056552815677405756 0 -0.03227273049294669 0.055020788075539 0 -0.034322099748146713 0.055574377012512582 0 -0.033223572933444113 0.053472697180735766 0 -0.030209091989795045 0.038021778056366466 0 -0.032463144901605942 0.036800526301444446 0 -0.03227273049294669 0.055020788075539 0 -0.031943610232802983 0.056552815677405756 0 -0.034322099748146713 0.055574377012512582 0 -0.028444132529870984 0.019511307049436391 0 -0.029959851025259773 0.020021278254346575 0 -0.030526307641612904 0.01801486775839178 0 -0.028455104063629846 0.038859400846681803 0 -0.030209091989795045 0.038021778056366466 0 -0.029920992038369145 0.057277366936832837 0 -0.030797486494386853 0.055544182870351053 0 -0.031943610232802983 0.056552815677405756 0 -0.026839348834254626 0.020657712827121272 0 -0.028444132529870984 0.019511307049436391 0 -0.028292065424262759 0.021035587616977006 0 -0.028292065424262759 0.021035587616977006 0 -0.02936459863954614 0.021609182414138926 0 -0.029959851025259773 0.020021278254346575 0 -0.028444132529870984 0.019511307049436391 0 -0.028292065424262759 0.021035587616977006 0 -0.029959851025259773 0.020021278254346575 0 -0.028292065424262759 0.021035587616977006 0 -0.02936459863954614 0.021609182414138926 0 -0.028522431587025138 0.021982173254870601 0 -0.02936459863954614 0.021609182414138926 0 -0.02985036926235168 0.022275981664505538 0 -0.029048055036151838 0.022535129941472939 0 -0.02936459863954614 0.021609182414138926 0 -0.028522431587025138 0.021982173254870601 0 -0.029048055036151838 0.022535129941472939 0 -0.028292065424262759 0.021035587616977006 0 -0.028522431587025138 0.021982173254870601 0 -0.02769586126014988 0.022114648321876939 0 -0.026839348834254626 0.020657712827121272 0 -0.028292065424262759 0.021035587616977006 0 -0.02769586126014988 0.022114648321876939 0 -0.030825487700805128 0.021351260981889341 0 -0.032293393032823588 0.019539195064564824 0 -0.033063036664596625 0.022130475030988576 0 -0.030825487700805128 0.021351260981889341 0 -0.033063036664596625 0.022130475030988576 0 -0.03095138925715428 0.022578857136949109 0 -0.02985036926235168 0.022275981664505538 0 -0.030825487700805128 0.021351260981889341 0 -0.03095138925715428 0.022578857136949109 0 -0.02936459863954614 0.021609182414138926 0 -0.02985036926235168 0.022275981664505538 0 -0.030825487700805128 0.021351260981889341 0 -0.02936459863954614 0.021609182414138926 0 -0.030825487700805128 0.021351260981889341 0 -0.029959851025259773 0.020021278254346575 0 -0.030825487700805128 0.021351260981889341 0 -0.029959851025259773 0.020021278254346575 0 -0.032293393032823588 0.019539195064564824 0 -0.032293393032823588 0.019539195064564824 0 -0.030526307641612904 0.01801486775839178 0 -0.03367743821974107 0.016482362890552358 0 -0.029959851025259773 0.020021278254346575 0 -0.032293393032823588 0.019539195064564824 0 -0.030526307641612904 0.01801486775839178 0 -0.032463144901605942 0.036800526301444446 0 -0.035230814017179757 0.035574670404859274 0 -0.034322099748146713 0.055574377012512582 0 -0.035070547782416119 0.053768564966556506 0 -0.036747841243521644 0.05468647546273344 0 -0.035070547782416119 0.053768564966556506 0 -0.035691598123937664 0.052462122336931843 0 -0.036632098843070504 0.052866920480544026 0 -0.035070547782416119 0.053768564966556506 0 -0.036632098843070504 0.052866920480544026 0 -0.036747841243521644 0.05468647546273344 0 -0.035070547782416119 0.053768564966556506 0 -0.035691598123937664 0.052462122336931843 0 -0.034583593233026892 0.052452797448321008 0 -0.034583593233026892 0.052452797448321008 0 -0.035390601534699077 0.051758621431062413 0 -0.034575764049056296 0.051647845663452804 0 -0.035691598123937664 0.052462122336931843 0 -0.034583593233026892 0.052452797448321008 0 -0.035390601534699077 0.051758621431062413 0 -0.035691598123937664 0.052462122336931843 0 -0.035390601534699077 0.051758621431062413 0 -0.036253030458602439 0.051866951575435229 0 -0.034583593233026892 0.052452797448321008 0 -0.033223572933444113 0.053472697180735766 0 -0.03343148377800291 0.051489929169084327 0 -0.035070547782416119 0.053768564966556506 0 -0.034583593233026892 0.052452797448321008 0 -0.033223572933444113 0.053472697180735766 0 -0.034322099748146713 0.055574377012512582 0 -0.035070547782416119 0.053768564966556506 0 -0.033223572933444113 0.053472697180735766 0 -0.03227273049294669 0.055020788075539 0 -0.033223572933444113 0.053472697180735766 0 -0.031210334833532697 0.054002758600548213 0 -0.030023239224086611 0.052903338765412436 0 -0.031210334833532697 0.054002758600548213 0 -0.031738911753830208 0.052283601802965936 0 -0.033223572933444113 0.053472697180735766 0 -0.031210334833532697 0.054002758600548213 0 -0.031738911753830208 0.052283601802965936 0 -0.033223572933444113 0.053472697180735766 0 -0.031738911753830208 0.052283601802965936 0 -0.03343148377800291 0.051489929169084327 0 -0.031738911753830208 0.052283601802965936 0 -0.032549896914974348 0.050121454480226528 0 -0.03343148377800291 0.051489929169084327 0 -0.030164241740778992 0.051083043822899306 0 -0.030023239224086611 0.052903338765412436 0 -0.031738911753830208 0.052283601802965936 0 -0.030164241740778992 0.051083043822899306 0 -0.031738911753830208 0.052283601802965936 0 -0.032549896914974348 0.050121454480226528 0 -0.034348405287421703 0.049775936773512136 0 -0.034897101595970183 0.050875059504936475 0 -0.03343148377800291 0.051489929169084327 0 -0.034348405287421703 0.049775936773512136 0 -0.032549896914974348 0.050121454480226528 0 -0.03343148377800291 0.051489929169084327 0 -0.034348405287421703 0.049775936773512136 0 -0.035580290818901121 0.050300229530174358 0 -0.034897101595970183 0.050875059504936475 0 -0.035496492986706984 0.049429510918656314 0 -0.034348405287421703 0.049775936773512136 0 -0.035580290818901121 0.050300229530174358 0 -0.035496492986706984 0.049429510918656314 0 -0.035580290818901121 0.050300229530174358 0 -0.035917230586168254 0.04987968344269024 0 -0.035580290818901121 0.050300229530174358 0 -0.034897101595970183 0.050875059504936475 0 -0.035730635482200741 0.051048579139483928 0 -0.034897101595970183 0.050875059504936475 0 -0.035730635482200741 0.051048579139483928 0 -0.035390601534699077 0.051758621431062413 0 -0.034897101595970183 0.050875059504936475 0 -0.035390601534699077 0.051758621431062413 0 -0.034575764049056296 0.051647845663452804 0 -0.034583593233026892 0.052452797448321008 0 -0.03343148377800291 0.051489929169084327 0 -0.034575764049056296 0.051647845663452804 0 -0.034897101595970183 0.050875059504936475 0 -0.03343148377800291 0.051489929169084327 0 -0.034575764049056296 0.051647845663452804 0 -0.040142318321130389 0.047767243659652105 0 -0.038368339505205393 0.045153779389121837 0 -0.037968418111667263 0.050582311432259087 0 -0.041178441884155245 0.045416399749203806 0 -0.040142318321130389 0.047767243659652105 0 -0.038368339505205393 0.045153779389121837 0 -0.041178441884155245 0.045416399749203806 0 -0.040142318321130389 0.047767243659652105 0 -0.042588378747594413 0.047683334388812872 0 -0.038114952222417606 0.046095690750848468 0 -0.037501573037700145 0.04505292611376497 0 -0.037073528925356869 0.048557729460970069 0 -0.037065569147595727 0.047443131466835604 0 -0.036680992238691527 0.050328511120717657 0 -0.03843890152635384 0.045251196109759494 0 -0.037917909420651971 0.050520697835362442 0 -0.035730635482200741 0.051048579139483928 0 -0.03642395385624763 0.050359915194035307 0 -0.036253030458602439 0.051866951575435229 0 -0.038114952222417606 0.046095690750848468 0 -0.037073528925356869 0.048557729460970069 0 -0.037968418111667263 0.050582311432259087 0 -0.035730635482200741 0.051048579139483928 0 -0.035390601534699077 0.051758621431062413 0 -0.036253030458602439 0.051866951575435229 0 -0.03829865440822413 0.042241453952572665 0 -0.038114952222417606 0.046095690750848468 0 -0.037501573037700145 0.04505292611376497 0 -0.037110740532127214 0.043015710908859486 0 -0.03843890152635384 0.045251196109759494 0 -0.035580290818901121 0.050300229530174358 0 -0.035730635482200741 0.051048579139483928 0 -0.03642395385624763 0.050359915194035307 0 -0.036095818016595553 0.049460057267219019 0 -0.03642395385624763 0.050359915194035307 0 -0.035917230586168254 0.04987968344269024 0 -0.035580290818901121 0.050300229530174358 0 -0.03642395385624763 0.050359915194035307 0 -0.035917230586168254 0.04987968344269024 0 -0.038749964333001242 0.040059516114738972 0 -0.038368339505205393 0.045153779389121837 0 -0.040220289655782199 0.043420483202435231 0 -0.041178441884155245 0.045416399749203806 0 -0.038368339505205393 0.045153779389121837 0 -0.040220289655782199 0.043420483202435231 0 -0.041178441884155245 0.045416399749203806 0 -0.040220289655782199 0.043420483202435231 0 -0.042574760972558932 0.04302898431329321 0 -0.041178441884155245 0.045416399749203806 0 -0.042574760972558932 0.04302898431329321 0 -0.044248807195417968 0.044682408316575016 0 -0.044978081130044492 0.041864656518861079 0 -0.042574760972558932 0.04302898431329321 0 -0.044248807195417968 0.044682408316575016 0 -0.044978081130044492 0.041864656518861079 0 -0.044248807195417968 0.044682408316575016 0 -0.047165917200163943 0.043372194426348626 0 -0.045137450301771347 0.045043676320948411 0 -0.045821190123347101 0.038976193946744286 0 -0.044248807195417968 0.044682408316575016 0 -0.04668269047560674 0.047083690298293547 0 -0.047165917200163943 0.043372194426348626 0 -0.044248807195417968 0.044682408316575016 0 -0.04668269047560674 0.047083690298293547 0 -0.042588378747594413 0.047683334388812872 0 -0.041178441884155245 0.045416399749203806 0 -0.044248807195417968 0.044682408316575016 0 -0.042588378747594413 0.047683334388812872 0 -0.042588378747594413 0.047683334388812872 0 -0.043401111811301019 0.050036185817729763 0 -0.040684007986932759 0.050417681219947948 0 -0.04668269047560674 0.047083690298293547 0 -0.042588378747594413 0.047683334388812872 0 -0.043401111811301019 0.050036185817729763 0 -0.045137450301771347 0.045043676320948411 0 -0.042118497315613179 0.03122211182849402 0 -0.04668269047560674 0.047083690298293547 0 -0.043401111811301019 0.050036185817729763 0 -0.046027260455586048 0.051029571289726523 0 -0.042118497315613179 0.03122211182849402 0 -0.041249596267905968 0.015810332773830295 0 -0.042084402959312865 0.019937206156110939 0 -0.042145451840175825 0.02045513052129309 0 -0.042589925505532575 0.020487058978534874 0 -0.043401111811301019 0.050036185817729763 0 -0.041164366305645787 0.053217954096056209 0 -0.040684007986932759 0.050417681219947948 0 -0.042118497315613179 0.03122211182849402 0 -0.039324534888839531 0.034432462921786783 0 -0.040144740755556116 0.014476380962734197 0 -0.03723473254274965 0.015299055382071309 0 -0.039765686972107195 0.016491480138741962 0 -0.043401111811301019 0.050036185817729763 0 -0.046027260455586048 0.051029571289726523 0 -0.041164366305645787 0.053217954096056209 0 -0.041164366305645787 0.053217954096056209 0 -0.038593470492147744 0.05248830438983712 0 -0.036747841243521644 0.05468647546273344 0 -0.041164366305645787 0.053217954096056209 0 -0.040684007986932759 0.050417681219947948 0 -0.038593470492147744 0.05248830438983712 0 -0.040684007986932759 0.050417681219947948 0 -0.037968418111667263 0.050582311432259087 0 -0.038593470492147744 0.05248830438983712 0 -0.040142318321130389 0.047767243659652105 0 -0.040684007986932759 0.050417681219947948 0 -0.037968418111667263 0.050582311432259087 0 -0.040142318321130389 0.047767243659652105 0 -0.042588378747594413 0.047683334388812872 0 -0.040684007986932759 0.050417681219947948 0 -0.036680992238691527 0.050328511120717657 0 -0.036586766629139629 0.052671155286579896 0 -0.037073528925356869 0.048557729460970069 0 -0.037968418111667263 0.050582311432259087 0 -0.036632098843070504 0.052866920480544026 0 -0.035691598123937664 0.052462122336931843 0 -0.036253030458602439 0.051866951575435229 0 -0.036632098843070504 0.052866920480544026 0 -0.037968418111667263 0.050582311432259087 0 -0.036632098843070504 0.052866920480544026 0 -0.038593470492147744 0.05248830438983712 0 -0.036632098843070504 0.052866920480544026 0 -0.038593470492147744 0.05248830438983712 0 -0.036747841243521644 0.05468647546273344 0 -0.03723473254274965 0.015299055382071309 0 -0.03367743821974107 0.016482362890552358 0 -0.03742514013913429 0.017527840892096413 0 -0.039324534888839531 0.034432462921786783 0 -0.035230814017179757 0.035574670404859274 0 -0.03367743821974107 0.016482362890552358 0 -0.03742514013913429 0.017527840892096413 0 -0.035567882457716998 0.019321898247097954 0 -0.03742514013913429 0.017527840892096413 0 -0.035567882457716998 0.019321898247097954 0 -0.038015110556606481 0.019500758033874951 0 -0.032293393032823588 0.019539195064564824 0 -0.03367743821974107 0.016482362890552358 0 -0.035567882457716998 0.019321898247097954 0 -0.032293393032823588 0.019539195064564824 0 -0.035567882457716998 0.019321898247097954 0 -0.033063036664596625 0.022130475030988576 0 -0.035567882457716998 0.019321898247097954 0 -0.036807569825791274 0.021765658376167681 0 -0.038015110556606481 0.019500758033874951 0 -0.035567882457716998 0.019321898247097954 0 -0.036807569825791274 0.021765658376167681 0 -0.033063036664596625 0.022130475030988576 0 -0.041961384675542945 0.021706901356974628 0 -0.039990994442230192 0.020982768010552242 0 -0.039997138825897692 0.02408401471630189 0 -0.041961384675542945 0.021706901356974628 0 -0.039990994442230192 0.020982768010552242 0 -0.041765963619157367 0.020738573342100903 0 -0.036807569825791274 0.021765658376167681 0 -0.039990994442230192 0.020982768010552242 0 -0.039997138825897692 0.02408401471630189 0 -0.040125578530121157 0.020831427510200555 0 -0.04049165310244978 0.020215274674216913 0 -0.036807569825791274 0.021765658376167681 0 -0.039990994442230192 0.020982768010552242 0 -0.038015110556606481 0.019500758033874951 0 -0.039990994442230192 0.020982768010552242 0 -0.038015110556606481 0.019500758033874951 0 -0.039564275748787431 0.018622896653782153 0 -0.041961384675542945 0.021706901356974628 0 -0.041765963619157367 0.020738573342100903 0 -0.042866124620185228 0.021059981180613457 0 -0.039990994442230192 0.020982768010552242 0 -0.041765963619157367 0.020738573342100903 0 -0.041736000043536059 0.020479822211540575 0 -0.041736000043536059 0.020479822211540575 0 -0.042145451840175825 0.02045513052129309 0 -0.042528658855403634 0.020649075289980022 0 -0.041765963619157367 0.020738573342100903 0 -0.041736000043536059 0.020479822211540575 0 -0.042528658855403634 0.020649075289980022 0 -0.04049165310244978 0.020215274674216913 0 -0.041249596267905968 0.015810332773830295 0 -0.03742514013913429 0.017527840892096413 0 -0.038015110556606481 0.019500758033874951 0 -0.039564275748787431 0.018622896653782153 0 -0.03742514013913429 0.017527840892096413 0 -0.039564275748787431 0.018622896653782153 0 -0.039765686972107195 0.016491480138741962 0 -0.03723473254274965 0.015299055382071309 0 -0.03742514013913429 0.017527840892096413 0 -0.039765686972107195 0.016491480138741962 0 -0.042145451840175825 0.02045513052129309 0 -0.042528658855403634 0.020649075289980022 0 -0.042589925505532575 0.020487058978534874 0 -0.043092367990959432 0.021045333180637085 0 -0.042528658855403634 0.020649075289980022 0 -0.042589925505532575 0.020487058978534874 0 -0.043092367990959432 0.021045333180637085 0 -0.044981285693657343 0.022549527250133854 0 -0.044279318809395118 0.020679850864879563 0 -0.043092367990959432 0.021045333180637085 0 -0.044279318809395118 0.020679850864879563 0 -0.042589925505532575 0.020487058978534874 0 -0.043210753067875494 0.021200670002402111 0 -0.044408103116841929 0.02254716612533024 0 -0.043092367990959432 0.021045333180637085 0 -0.043220081691858751 0.020797109532255595 0 -0.043714031510920702 0.02074686447223897 0 -0.043092367990959432 0.021045333180637085 0 -0.045050727980158863 0.024541978426519909 0 -0.044981285693657343 0.022549527250133854 0 -0.043092367990959432 0.021045333180637085 0 -0.042528658855403634 0.020649075289980022 0 -0.043220081691858751 0.020797109532255595 0 -0.041765963619157367 0.020738573342100903 0 -0.042528658855403634 0.020649075289980022 0 -0.042866124620185228 0.021059981180613457 0 -0.042528658855403634 0.020649075289980022 0 -0.042866124620185228 0.021059981180613457 0 -0.043220081691858751 0.020797109532255595 0 -0.043220081691858751 0.020797109532255595 0 -0.043830014607468479 0.021146430075329192 0 -0.043714031510920702 0.02074686447223897 0 -0.042866124620185228 0.021059981180613457 0 -0.043220081691858751 0.020797109532255595 0 -0.043830014607468479 0.021146430075329192 0 -0.043830014607468479 0.021146430075329192 0 -0.044443311130222207 0.021405320101920571 0 -0.043551455335204568 0.021999828966191466 0 -0.042866124620185228 0.021059981180613457 0 -0.043830014607468479 0.021146430075329192 0 -0.043551455335204568 0.021999828966191466 0 -0.041961384675542945 0.021706901356974628 0 -0.042866124620185228 0.021059981180613457 0 -0.043551455335204568 0.021999828966191466 0 -0.04607725169275656 0.02354869989503058 0 -0.045000063059316808 0.023813319587001437 0 -0.044999871053052448 0.021208214825704865 0 -0.04607725169275656 0.02354869989503058 0 -0.045000063059316808 0.023813319587001437 0 -0.045798612117318442 0.024204577681024235 0 -0.043830014607468479 0.021146430075329192 0 -0.044675371281956089 0.021156163623877303 0 -0.044443311130222207 0.021405320101920571 0 -0.045291113113723649 0.022343004662981971 0 -0.044408103116841929 0.02254716612533024 0 -0.043830014607468479 0.021146430075329192 0 -0.044675371281956089 0.021156163623877303 0 -0.043714031510920702 0.02074686447223897 0 -0.04607725169275656 0.02354869989503058 0 -0.045050727980158863 0.024541978426519909 0 -0.045798612117318442 0.024204577681024235 0 -0.045050727980158863 0.024541978426519909 0 -0.045798612117318442 0.024204577681024235 0 -0.046093734434489775 0.024830771084810722 0 -0.045000063059316808 0.023813319587001437 0 -0.045798612117318442 0.024204577681024235 0 -0.046093734434489775 0.024830771084810722 0 -0.045000063059316808 0.023813319587001437 0 -0.046093734434489775 0.024830771084810722 0 -0.044999700675766946 0.026416707341305624 0 -0.046093734434489775 0.024830771084810722 0 -0.044999700675766946 0.026416707341305624 0 -0.046331673147461998 0.02737849759858579 0 -0.046142951581383415 0.024699914991401749 0 -0.046228126963195802 0.024778874337555871 0 -0.045050727980158863 0.024541978426519909 0 -0.046093734434489775 0.024830771084810722 0 -0.044981285693657343 0.022549527250133854 0 -0.046093734434489775 0.024830771084810722 0 -0.044981285693657343 0.022549527250133854 0 -0.046217784881224008 0.021765128621251316 0 -0.044981285693657343 0.022549527250133854 0 -0.046217784881224008 0.021765128621251316 0 -0.044279318809395118 0.020679850864879563 0 -0.044999700675766946 0.026416707341305624 0 -0.046331673147461998 0.02737849759858579 0 -0.04500013320121244 0.029023755137942139 0 -0.046331673147461998 0.02737849759858579 0 -0.04500013320121244 0.029023755137942139 0 -0.046424403143486552 0.0291883621290818 0 -0.046228126963195802 0.024778874337555871 0 -0.046047139930338286 0.023618031883714547 0 -0.04500013320121244 0.029023755137942139 0 -0.046424403143486552 0.0291883621290818 0 -0.046565339852793243 0.031026789641464658 0 -0.04500013320121244 0.029023755137942139 0 -0.044999925513225805 0.031628229315073149 0 -0.046565339852793243 0.031026789641464658 0 -0.046047139930338286 0.023618031883714547 0 -0.045440047834607124 0.029649953876523995 0 -0.045665079082708615 0.019881920137366196 0 -0.043503855527642903 0.019214948458649659 0 -0.045485579858634981 0.018532306052195229 0 -0.044916818410618765 0.028223363400677735 0 -0.045440047834607124 0.029649953876523995 0 -0.046217784881224008 0.021765128621251316 0 -0.045665079082708615 0.019881920137366196 0 -0.044279318809395118 0.020679850864879563 0 -0.045665079082708615 0.019881920137366196 0 -0.044279318809395118 0.020679850864879563 0 -0.043503855527642903 0.019214948458649659 0 -0.044279318809395118 0.020679850864879563 0 -0.042589925505532575 0.020487058978534874 0 -0.043503855527642903 0.019214948458649659 0 -0.042084402959312865 0.019937206156110939 0 -0.042589925505532575 0.020487058978534874 0 -0.043503855527642903 0.019214948458649659 0 -0.043859988322332184 0.037479298785632893 0 -0.043472110891643129 0.039256212680022634 0 -0.045512095199985426 0.038212634759970165 0 -0.042118497315613179 0.03122211182849402 0 -0.044916818410618765 0.028223363400677735 0 -0.045512095199985426 0.038212634759970165 0 -0.046103965270349233 0.036791383977901271 0 -0.045065796062802199 0.036759530738486312 0 -0.045512095199985426 0.038212634759970165 0 -0.046103965270349233 0.036791383977901271 0 -0.047196540541715938 0.037339187399572038 0 -0.043859988322332184 0.037479298785632893 0 -0.045065796062802199 0.036759530738486312 0 -0.044378957730107478 0.0358440000139673 0 -0.043859988322332184 0.037479298785632893 0 -0.045512095199985426 0.038212634759970165 0 -0.045065796062802199 0.036759530738486312 0 -0.045065796062802199 0.036759530738486312 0 -0.044378957730107478 0.0358440000139673 0 -0.045766382076817436 0.035661912524763251 0 -0.046103965270349233 0.036791383977901271 0 -0.045065796062802199 0.036759530738486312 0 -0.045766382076817436 0.035661912524763251 0 -0.046103965270349233 0.036791383977901271 0 -0.045766382076817436 0.035661912524763251 0 -0.046995824685487644 0.036090753931022408 0 -0.046632549831346889 0.03433206358829767 0 -0.046869399426226907 0.035313677777668473 0 -0.046587667637537952 0.034657345259358485 0 -0.045766382076817436 0.035661912524763251 0 -0.046995824685487644 0.036090753931022408 0 -0.044999550398958359 0.033758364556791494 0 -0.046610365069392444 0.032774645454003756 0 -0.045000107088683433 0.031628380064747427 0 -0.044999550398958359 0.033758364556791494 0 -0.046587667637537952 0.034657345259358485 0 -0.046610365069392444 0.032774645454003756 0 -0.045000928385116885 0.031628288012367868 0 -0.045440047834607124 0.029649953876523995 0 -0.046610365069392444 0.032774645454003756 0 -0.045000107088683433 0.031628380064747427 0 -0.0464970034331086 0.031107976755275237 0 -0.046869399426226907 0.035313677777668473 0 -0.045440047834607124 0.029649953876523995 0 -0.046103965270349233 0.036791383977901271 0 -0.046995824685487644 0.036090753931022408 0 -0.047196540541715938 0.037339187399572038 0 -0.045494238241389852 0.012182245281763246 0 -0.046175217627676499 0.012684473058088785 0 -0.045515920094362443 0.012826675835006377 0 -0.045000164107884578 0.012789077523845742 0 -0.046134706776829792 0.013535826938001979 0 -0.044999999828675259 0.012789025844942374 0 -0.046782373951301186 0.014189063818826914 0 -0.044999947581483624 0.01489390766272633 0 -0.044998947052222252 0.012786277165049095 0 -0.045494238241389852 0.012182245281763246 0 -0.045515920094362443 0.012826675835006377 0 -0.045494238241389852 0.012182245281763246 0 -0.045823496673347258 0.011057710946480972 0 -0.044999642905244684 0.010517712482634493 0 -0.044998947052222252 0.012786277165049095 0 -0.045494238241389852 0.012182245281763246 0 -0.044999642905244684 0.010517712482634493 0 -0.045494238241389852 0.012182245281763246 0 -0.045823496673347258 0.011057710946480972 0 -0.046175217627676499 0.012684473058088785 0 -0.045823496673347258 0.011057710946480972 0 -0.046666423425481995 0.011651890601286793 0 -0.046175217627676499 0.012684473058088785 0 -0.045823496673347258 0.011057710946480972 0 -0.046666423425481995 0.011651890601286793 0 -0.046559304401690302 0.010587083876087495 0 -0.046666423425481995 0.011651890601286793 0 -0.047828654564853912 0.011192159802530308 0 -0.046559304401690302 0.010587083876087495 0 -0.046666423425481995 0.011651890601286793 0 -0.04724732219796788 0.012363761119712144 0 -0.047828654564853912 0.011192159802530308 0 -0.04724732219796788 0.012363761119712144 0 -0.046175217627676499 0.012684473058088785 0 -0.047441132757765313 0.013526571736945917 0 -0.046666423425481995 0.011651890601286793 0 -0.04724732219796788 0.012363761119712144 0 -0.046175217627676499 0.012684473058088785 0 -0.046175217627676499 0.012684473058088785 0 -0.046171021533327035 0.01377465073419307 0 -0.045515920094362443 0.012826675835006377 0 -0.046175217627676499 0.012684473058088785 0 -0.046171021533327035 0.01377465073419307 0 -0.047441132757765313 0.013526571736945917 0 -0.050126959923006226 0.016871777083417663 0 -0.04850866118450544 0.015570028452761325 0 -0.048328272354753551 0.017212595411229863 0 -0.047128986504325142 0.014938355346430206 0 -0.046171021533327035 0.01377465073419307 0 -0.047441132757765313 0.013526571736945917 0 -0.048733594476577893 0.015918105027255852 0 -0.047340446638442064 0.014675305303919134 0 -0.04850866118450544 0.015570028452761325 0 -0.046664562872581 0.016108055365281874 0 -0.048328272354753551 0.017212595411229863 0 -0.047340446638442064 0.014675305303919134 0 -0.046134706776829792 0.013535826938001979 0 -0.04850866118450544 0.015570028452761325 0 -0.046664562872581 0.016108055365281874 0 -0.046782373951301186 0.014189063818826914 0 -0.046664562872581 0.016108055365281874 0 -0.046782373951301186 0.014189063818826914 0 -0.044999947581483624 0.01489390766272633 0 -0.046664562872581 0.016108055365281874 0 -0.044999947581483624 0.01489390766272633 0 -0.04499998779802869 0.016998115309097131 0 -0.04630292512903543 0.017766470200766427 0 -0.04499998779802869 0.016998115309097131 0 -0.045152572306293194 0.019067597380257179 0 -0.046664562872581 0.016108055365281874 0 -0.04630292512903543 0.017766470200766427 0 -0.04499998779802869 0.016998115309097131 0 -0.046664562872581 0.016108055365281874 0 -0.04630292512903543 0.017766470200766427 0 -0.048328272354753551 0.017212595411229863 0 -0.04630292512903543 0.017766470200766427 0 -0.047561709065949649 0.018622590529067947 0 -0.048328272354753551 0.017212595411229863 0 -0.045498707170221898 0.01952811546558535 0 -0.045219370316730859 0.020004486475729964 0 -0.04506890258369934 0.020993162853871091 0 -0.04630292512903543 0.017766470200766427 0 -0.047561709065949649 0.018622590529067947 0 -0.045152572306293194 0.019067597380257179 0 -0.045498707170221898 0.01952811546558535 0 -0.045219370316730859 0.020004486475729964 0 -0.045152572306293194 0.019067597380257179 0 -0.046486108503621247 0.019021876091151736 0 -0.045196334301177928 0.019103509589397178 0 -0.04499998779802869 0.016998115309097131 0 -0.045152572306293194 0.019067597380257179 0 -0.04499936123979266 0.019104890011309935 0 -0.045219370316730859 0.020004486475729964 0 -0.045152572306293194 0.019067597380257179 0 -0.045120532046495299 0.020342072137115124 0 -0.045152572306293194 0.019067597380257179 0 -0.04499936123979266 0.019104890011309935 0 -0.045120532046495299 0.020342072137115124 0 -0.04499936123979266 0.019104890011309935 0 -0.045120532046495299 0.020342072137115124 0 -0.044999033394102085 0.021206362857138523 0 -0.045120532046495299 0.020342072137115124 0 -0.044913449246416132 0.021182660579833829 0 -0.044999033394102085 0.021206362857138523 0 -0.045219370316730859 0.020004486475729964 0 -0.045120532046495299 0.020342072137115124 0 -0.04506890258369934 0.020993162853871091 0 -0.045120532046495299 0.020342072137115124 0 -0.04506890258369934 0.020993162853871091 0 -0.044913449246416132 0.021182660579833829 0 -0.044675371281956089 0.021156163623877303 0 -0.044913449246416132 0.021182660579833829 0 -0.044443311130222207 0.021405320101920571 0 -0.04506890258369934 0.020993162853871091 0 -0.044913449246416132 0.021182660579833829 0 -0.044443311130222207 0.021405320101920571 0 -0.045291113113723649 0.022343004662981971 0 -0.045000071443912944 0.021208187055180957 0 -0.044675371281956089 0.021156163623877303 0 -0.044913449246416132 0.021182660579833829 0 -0.044999033394102085 0.021206362857138523 0 -0.043551455335204568 0.021999828966191466 0 -0.044044558203611285 0.021646297997679167 0 -0.043535687605490071 0.021914030366053893 0 -0.044443311130222207 0.021405320101920571 0 -0.043551455335204568 0.021999828966191466 0 -0.044044558203611285 0.021646297997679167 0 -0.04506890258369934 0.020993162853871091 0 -0.044443311130222207 0.021405320101920571 0 -0.044044558203611285 0.021646297997679167 0 -0.04506890258369934 0.020993162853871091 0 -0.044044558203611285 0.021646297997679167 0 -0.043695448963858269 0.022231411025253212 0 -0.044978596246349527 0.021041939932467137 0 -0.045304773280551769 0.020940925067741371 0 -0.043535687605490071 0.021914030366053893 0 -0.043695448963858269 0.022231411025253212 0 -0.043390570978178562 0.022047605029262209 0 -0.044044558203611285 0.021646297997679167 0 -0.043535687605490071 0.021914030366053893 0 -0.043695448963858269 0.022231411025253212 0 -0.045498707170221898 0.01952811546558535 0 -0.046836729181535329 0.019752779912034429 0 -0.046986820757112309 0.018748685767247288 0 -0.046486108503621247 0.019021876091151736 0 -0.048507903965601645 0.018552040739065592 0 -0.045498707170221898 0.01952811546558535 0 -0.04506890258369934 0.020993162853871091 0 -0.046836729181535329 0.019752779912034429 0 -0.047561709065949649 0.018622590529067947 0 -0.049681013951905634 0.018275589686679482 0 -0.048328272354753551 0.017212595411229863 0 -0.050126959923006226 0.016871777083417663 0 -0.049681013951905634 0.018275589686679482 0 -0.048328272354753551 0.017212595411229863 0 -0.048733594476577893 0.015918105027255852 0 -0.04942135574225804 0.017285943619245542 0 -0.050126959923006226 0.016871777083417663 0 -0.049681013951905634 0.018275589686679482 0 -0.051653436159171277 0.018026933324487637 0 -0.047128986504325142 0.014938355346430206 0 -0.047934851877731097 0.015268555129852009 0 -0.048262037964865029 0.016229672633048399 0 -0.048678995705606833 0.015268122203011032 0 -0.048731979558777894 0.015853409811265404 0 -0.049402417748038982 0.015627929682701523 0 -0.048678995705606833 0.015268122203011032 0 -0.048396043642493489 0.015659715598288174 0 -0.048731979558777894 0.015853409811265404 0 -0.047934851877731097 0.015268555129852009 0 -0.048678995705606833 0.015268122203011032 0 -0.048396043642493489 0.015659715598288174 0 -0.047934851877731097 0.015268555129852009 0 -0.048396043642493489 0.015659715598288174 0 -0.048262037964865029 0.016229672633048399 0 -0.048396043642493489 0.015659715598288174 0 -0.048262037964865029 0.016229672633048399 0 -0.048731979558777894 0.015853409811265404 0 -0.04942135574225804 0.017285943619245542 0 -0.049025221617589473 0.01668137871030622 0 -0.048262037964865029 0.016229672633048399 0 -0.048731979558777894 0.015853409811265404 0 -0.049324445596548978 0.016499752640428401 0 -0.048368784647255803 0.017553426511001963 0 -0.048294750282843697 0.018155942820993098 0 -0.049324445596548978 0.016499752640428401 0 -0.043231195307196567 0.022264758276330048 0 -0.043138526661769171 0.02203484648481055 0 -0.042944263831999639 0.022197284333577455 0 -0.045304773280551769 0.020940925067741371 0 -0.045333628470830438 0.020244780549409317 0 -0.046986820757112309 0.018748685767247288 0 -0.048368784647255803 0.017553426511001963 0 -0.048294750282843697 0.018155942820993098 0 -0.043695448963858269 0.022231411025253212 0 -0.043231195307196567 0.022264758276330048 0 -0.043390570978178562 0.022047605029262209 0 -0.046836729181535329 0.019752779912034429 0 -0.046986820757112309 0.018748685767247288 0 -0.048294750282843697 0.018155942820993098 0 -0.048507903965601645 0.018552040739065592 0 -0.04942135574225804 0.017285943619245542 0 -0.043535687605490071 0.021914030366053893 0 -0.043390570978178562 0.022047605029262209 0 -0.043273226645207295 0.021789452215399331 0 -0.043231195307196567 0.022264758276330048 0 -0.043390570978178562 0.022047605029262209 0 -0.043138526661769171 0.02203484648481055 0 -0.043390570978178562 0.022047605029262209 0 -0.043138526661769171 0.02203484648481055 0 -0.043273226645207295 0.021789452215399331 0 -0.043138526661769171 0.02203484648481055 0 -0.043273226645207295 0.021789452215399331 0 -0.042685896705284873 0.021785698818093859 0 -0.041961384675542945 0.021706901356974628 0 -0.043551455335204568 0.021999828966191466 0 -0.039997138825897692 0.02408401471630189 0 -0.043411781095759966 0.022143430546675738 0 -0.041537592580255057 0.022861232543865673 0 -0.043551455335204568 0.021999828966191466 0 -0.043535687605490071 0.021914030366053893 0 -0.043273226645207295 0.021789452215399331 0 -0.036807569825791274 0.021765658376167681 0 -0.033063036664596625 0.022130475030988576 0 -0.035390624436291214 0.024717931696463996 0 -0.033063036664596625 0.022130475030988576 0 -0.035390624436291214 0.024717931696463996 0 -0.031756011466954094 0.023091903115817616 0 -0.036807569825791274 0.021765658376167681 0 -0.039997138825897692 0.02408401471630189 0 -0.035390624436291214 0.024717931696463996 0 -0.041537592580255057 0.022861232543865673 0 -0.039294595237133099 0.023350089047715464 0 -0.042685896705284873 0.021785698818093859 0 -0.042848873255520149 0.022073266257561543 0 -0.042576727153748294 0.022106110577926323 0 -0.043138526661769171 0.02203484648481055 0 -0.042685896705284873 0.021785698818093859 0 -0.042848873255520149 0.022073266257561543 0 -0.043138526661769171 0.02203484648481055 0 -0.042848873255520149 0.022073266257561543 0 -0.042944263831999639 0.022197284333577455 0 -0.039294595237133099 0.023350089047715464 0 -0.035501175276665797 0.022056433717942952 0 -0.042685896705284873 0.021785698818093859 0 -0.042352204718163783 0.022026666868557875 0 -0.04207972619835406 0.021839287363166614 0 -0.042685896705284873 0.021785698818093859 0 -0.042576727153748294 0.022106110577926323 0 -0.042352204718163783 0.022026666868557875 0 -0.042576727153748294 0.022106110577926323 0 -0.042569857952383924 0.022257849769060013 0 -0.042360115031867276 0.022213707369474853 0 -0.042576727153748294 0.022106110577926323 0 -0.042360115031867276 0.022213707369474853 0 -0.042352204718163783 0.022026666868557875 0 -0.042576727153748294 0.022106110577926323 0 -0.042569857952383924 0.022257849769060013 0 -0.04276512043540677 0.022204721995124691 0 -0.042569857952383924 0.022257849769060013 0 -0.042423670603913145 0.022338281221511214 0 -0.042734823865490872 0.022404595781174007 0 -0.042569857952383924 0.022257849769060013 0 -0.04276512043540677 0.022204721995124691 0 -0.042734823865490872 0.022404595781174007 0 -0.042569857952383924 0.022257849769060013 0 -0.042423670603913145 0.022338281221511214 0 -0.042360115031867276 0.022213707369474853 0 -0.045333628470830438 0.020244780549409317 0 -0.048095785787566611 0.019421553164252134 0 -0.043231195307196567 0.022264758276330048 0 -0.042944263831999639 0.022197284333577455 0 -0.042734823865490872 0.022404595781174007 0 -0.048294750282843697 0.018155942820993098 0 -0.049324445596548978 0.016499752640428401 0 -0.050088702474872661 0.01610082218622658 0 -0.042848873255520149 0.022073266257561543 0 -0.042576727153748294 0.022106110577926323 0 -0.04276512043540677 0.022204721995124691 0 -0.042848873255520149 0.022073266257561543 0 -0.042944263831999639 0.022197284333577455 0 -0.04276512043540677 0.022204721995124691 0 -0.042944263831999639 0.022197284333577455 0 -0.04276512043540677 0.022204721995124691 0 -0.042734823865490872 0.022404595781174007 0 -0.048731979558777894 0.015853409811265404 0 -0.049324445596548978 0.016499752640428401 0 -0.049402417748038982 0.015627929682701523 0 -0.049324445596548978 0.016499752640428401 0 -0.050088702474872661 0.01610082218622658 0 -0.049402417748038982 0.015627929682701523 0 -0.050088702474872661 0.01610082218622658 0 -0.049402417748038982 0.015627929682701523 0 -0.04994788135788325 0.015240022817568599 0 -0.050088702474872661 0.01610082218622658 0 -0.050640556580845271 0.015154252177214677 0 -0.051505201595158104 0.015443851662555554 0 -0.048095785787566611 0.019421553164252134 0 -0.038884886013425317 0.016900312814868895 0 -0.042734823865490872 0.022404595781174007 0 -0.042142958159776048 0.022541583239270122 0 -0.042330542634758474 0.022419502364160484 0 -0.042423670603913145 0.022338281221511214 0 -0.042734823865490872 0.022404595781174007 0 -0.042330542634758474 0.022419502364160484 0 -0.050088702474872661 0.01610082218622658 0 -0.050640556580845271 0.015154252177214677 0 -0.04994788135788325 0.015240022817568599 0 -0.050640556580845271 0.015154252177214677 0 -0.050208104862981932 0.014506162154020464 0 -0.05087976814962044 0.014014693430708771 0 -0.050640556580845271 0.015154252177214677 0 -0.050208104862981932 0.014506162154020464 0 -0.04994788135788325 0.015240022817568599 0 -0.040280475336674913 0.012821287140930239 0 -0.039914092724475367 0.012685313491906864 0 -0.050208104862981932 0.014506162154020464 0 -0.05087976814962044 0.014014693430708771 0 -0.049723393455855761 0.013691853013333555 0 -0.02945619829289238 0.01254915912890691 0 -0.029760988260679366 0.01273021742120577 0 -0.029393060585036167 0.012615606975900896 0 -0.05087976814962044 0.014014693430708771 0 -0.049723393455855761 0.013691853013333555 0 -0.050059191202689979 0.012444746676096498 0 -0.049723393455855761 0.013691853013333555 0 -0.048828466911427691 0.013160905620661079 0 -0.050059191202689979 0.012444746676096498 0 -0.050208104862981932 0.014506162154020464 0 -0.049723393455855761 0.013691853013333555 0 -0.049455459480677588 0.014783815900375292 0 -0.049723393455855761 0.013691853013333555 0 -0.049455459480677588 0.014783815900375292 0 -0.048574216678753161 0.014294888889673094 0 -0.049402417748038982 0.015627929682701523 0 -0.04994788135788325 0.015240022817568599 0 -0.049455459480677588 0.014783815900375292 0 -0.050208104862981932 0.014506162154020464 0 -0.04994788135788325 0.015240022817568599 0 -0.049455459480677588 0.014783815900375292 0 -0.048678995705606833 0.015268122203011032 0 -0.049402417748038982 0.015627929682701523 0 -0.049455459480677588 0.014783815900375292 0 -0.048678995705606833 0.015268122203011032 0 -0.049455459480677588 0.014783815900375292 0 -0.048574216678753161 0.014294888889673094 0 -0.047934851877731097 0.015268555129852009 0 -0.048574216678753161 0.014294888889673094 0 -0.047760820035838668 0.01450413888740985 0 -0.047934851877731097 0.015268555129852009 0 -0.048678995705606833 0.015268122203011032 0 -0.048574216678753161 0.014294888889673094 0 -0.047128986504325142 0.014938355346430206 0 -0.047760820035838668 0.01450413888740985 0 -0.047441132757765313 0.013526571736945917 0 -0.048574216678753161 0.014294888889673094 0 -0.047760820035838668 0.01450413888740985 0 -0.047441132757765313 0.013526571736945917 0 -0.047128986504325142 0.014938355346430206 0 -0.047934851877731097 0.015268555129852009 0 -0.047760820035838668 0.01450413888740985 0 -0.047441132757765313 0.013526571736945917 0 -0.048828466911427691 0.013160905620661079 0 -0.048174439008543526 0.012385269630815996 0 -0.049723393455855761 0.013691853013333555 0 -0.048574216678753161 0.014294888889673094 0 -0.048828466911427691 0.013160905620661079 0 -0.048574216678753161 0.014294888889673094 0 -0.047441132757765313 0.013526571736945917 0 -0.048828466911427691 0.013160905620661079 0 -0.048828466911427691 0.013160905620661079 0 -0.048174439008543526 0.012385269630815996 0 -0.049102455455220954 0.012141692925475473 0 -0.04724732219796788 0.012363761119712144 0 -0.047441132757765313 0.013526571736945917 0 -0.048174439008543526 0.012385269630815996 0 -0.04724732219796788 0.012363761119712144 0 -0.048174439008543526 0.012385269630815996 0 -0.047828654564853912 0.011192159802530308 0 -0.048174439008543526 0.012385269630815996 0 -0.047828654564853912 0.011192159802530308 0 -0.049102455455220954 0.012141692925475473 0 -0.047828654564853912 0.011192159802530308 0 -0.049102455455220954 0.012141692925475473 0 -0.049242216236608044 0.011008456517140558 0 -0.050059191202689979 0.012444746676096498 0 -0.049102455455220954 0.012141692925475473 0 -0.049242216236608044 0.011008456517140558 0 -0.029760988260679366 0.01273021742120577 0 -0.02975861616796862 0.012976797293891265 0 -0.029881189499090161 0.012839091397524517 0 -0.039914092724475367 0.012685313491906864 0 -0.039531554503074509 0.01187695638046274 0 -0.029760988260679366 0.01273021742120577 0 -0.029386921717247848 0.012847465075643895 0 -0.02975861616796862 0.012976797293891265 0 -0.029760988260679366 0.01273021742120577 0 -0.029393060585036167 0.012615606975900896 0 -0.029386921717247848 0.012847465075643895 0 -0.048828466911427691 0.013160905620661079 0 -0.050059191202689979 0.012444746676096498 0 -0.049102455455220954 0.012141692925475473 0 -0.02725179515050016 0.015792527696981942 0 -0.028544981114246873 0.014775788013683486 0 -0.028435832752284257 0.017228416633154147 0 -0.029087543247358006 0.012635509932431713 0 -0.029393060585036167 0.012615606975900896 0 -0.029386921717247848 0.012847465075643895 0 -0.029386921717247848 0.012847465075643895 0 -0.028452429675016735 0.0136058689706158 0 -0.02975861616796862 0.012976797293891265 0 -0.029087543247358006 0.012635509932431713 0 -0.029386921717247848 0.012847465075643895 0 -0.028452429675016735 0.0136058689706158 0 -0.02725179515050016 0.015792527696981942 0 -0.028452429675016735 0.0136058689706158 0 -0.028544981114246873 0.014775788013683486 0 -0.028224234354680293 0.014391253568258515 0 -0.028377387327037252 0.013715131718351661 0 -0.028544981114246873 0.014775788013683486 0 -0.029368123775254169 0.014834079256570275 0 -0.029128607771305246 0.016172873769444696 0 -0.028544981114246873 0.014775788013683486 0 -0.029368123775254169 0.014834079256570275 0 -0.028650506130246872 0.014013350177801373 0 -0.028544981114246873 0.014775788013683486 0 -0.029128607771305246 0.016172873769444696 0 -0.028435832752284257 0.017228416633154147 0 -0.028435832752284257 0.017228416633154147 0 -0.02809176650989248 0.018767498746743938 0 -0.027750541024108899 0.017718331245425805 0 -0.028435832752284257 0.017228416633154147 0 -0.029362670560424027 0.017817479743816304 0 -0.029116501856526728 0.018670256756999459 0 -0.029362670560424027 0.017817479743816304 0 -0.029116501856526728 0.018670256756999459 0 -0.030185368973256084 0.019605185009384133 0 -0.029128607771305246 0.016172873769444696 0 -0.028435832752284257 0.017228416633154147 0 -0.029362670560424027 0.017817479743816304 0 -0.027940235228434234 0.022388920125355257 0 -0.028226224745571626 0.023333886781615472 0 -0.028644843838302292 0.022994512153281216 0 -0.028964336630553575 0.020399431642608649 0 -0.027349457026202072 0.021465191070682448 0 -0.027940235228434234 0.022388920125355257 0 -0.028529339822539291 0.02348209331039617 0 -0.028226224745571626 0.023333886781615472 0 -0.028435832752284257 0.017228416633154147 0 -0.029116501856526728 0.018670256756999459 0 -0.02809176650989248 0.018767498746743938 0 -0.027337841280865971 0.01845813083479202 0 -0.026880702908544486 0.017674479061567942 0 -0.026878719803442492 0.019144381820994216 0 -0.02809176650989248 0.018767498746743938 0 -0.027337841280865971 0.01845813083479202 0 -0.026878719803442492 0.019144381820994216 0 -0.027337841280865971 0.01845813083479202 0 -0.027750541024108899 0.017718331245425805 0 -0.026880702908544486 0.017674479061567942 0 -0.02809176650989248 0.018767498746743938 0 -0.027337841280865971 0.01845813083479202 0 -0.027750541024108899 0.017718331245425805 0 -0.02725179515050016 0.015792527696981942 0 -0.028435832752284257 0.017228416633154147 0 -0.027750541024108899 0.017718331245425805 0 -0.02725179515050016 0.015792527696981942 0 -0.027750541024108899 0.017718331245425805 0 -0.026880702908544486 0.017674479061567942 0 -0.028224234354680293 0.014391253568258515 0 -0.02787146106617594 0.014635711545038765 0 -0.029087543247358006 0.012635509932431713 0 -0.029393060585036167 0.012615606975900896 0 -0.029455410945688737 0.01257238169341209 0 -0.02945619829289238 0.01254915912890691 0 -0.029393060585036167 0.012615606975900896 0 -0.029455410945688737 0.01257238169341209 0 -0.029455410945688737 0.01257238169341209 0 -0.02957787177620266 0.012835079160089781 0 -0.029560003202748174 0.01283864943507846 0 -0.02787146106617594 0.014635711545038765 0 -0.03272337448733291 0.018588287971012467 0 -0.02945619829289238 0.01254915912890691 0 -0.029455410945688737 0.01257238169341209 0 -0.029560003202748174 0.01283864943507846 0 -0.050640556580845271 0.015154252177214677 0 -0.05087976814962044 0.014014693430708771 0 -0.051505201595158104 0.015443851662555554 0 -0.040280475336674913 0.012821287140930239 0 -0.038884886013425317 0.016900312814868895 0 -0.042142958159776048 0.022541583239270122 0 -0.042104483964936289 0.022488465150057476 0 -0.042330542634758474 0.022419502364160484 0 -0.03272337448733291 0.018588287971012467 0 -0.038884886013425317 0.016900312814868895 0 -0.03272337448733291 0.018588287971012467 0 -0.035764728982520651 0.02025135238327504 0 -0.035974733733820735 0.014153993577102919 0 -0.032900233213934746 0.015135819021464499 0 -0.03580932261513628 0.020068466739806549 0 -0.038884886013425317 0.016900312814868895 0 -0.035764728982520651 0.02025135238327504 0 -0.042104483964936289 0.022488465150057476 0 -0.042330542634758474 0.022419502364160484 0 -0.042253120217555167 0.022326488418340045 0 -0.042423670603913145 0.022338281221511214 0 -0.042330542634758474 0.022419502364160484 0 -0.042253120217555167 0.022326488418340045 0 -0.027349457026202072 0.021465191070682448 0 -0.03272337448733291 0.018588287971012467 0 -0.028529339822539291 0.02348209331039617 0 -0.029220943541337471 0.023667894620547445 0 -0.028978479247352543 0.023547268351736789 0 -0.029220943541337471 0.023667894620547445 0 -0.029220598369415179 0.023585772582199724 0 -0.028978479247352543 0.023547268351736789 0 -0.029220598369415179 0.023585772582199724 0 -0.028978479247352543 0.023547268351736789 0 -0.029156889121546858 0.023530468891819964 0 -0.028978479247352543 0.023547268351736789 0 -0.029156889121546858 0.023530468891819964 0 -0.028743134512263919 0.023496411390437542 0 -0.029220598369415179 0.023585772582199724 0 -0.029156889121546858 0.023530468891819964 0 -0.029481853306680208 0.023538892895172241 0 -0.029156889121546858 0.023530468891819964 0 -0.02929603506006288 0.023556297146911903 0 -0.028743134512263919 0.023496411390437542 0 -0.029156889121546858 0.023530468891819964 0 -0.02929603506006288 0.023556297146911903 0 -0.029481853306680208 0.023538892895172241 0 -0.02929603506006288 0.023556297146911903 0 -0.029481853306680208 0.023538892895172241 0 -0.02977492659301437 0.023650470896834308 0 -0.042104483964936289 0.022488465150057476 0 -0.042253120217555167 0.022326488418340045 0 -0.042101652849527577 0.02218561696515969 0 -0.035764728982520651 0.02025135238327504 0 -0.035818157774784004 0.023436808031303952 0 -0.042253120217555167 0.022326488418340045 0 -0.042101652849527577 0.02218561696515969 0 -0.042360115031867276 0.022213707369474853 0 -0.042423670603913145 0.022338281221511214 0 -0.042253120217555167 0.022326488418340045 0 -0.042360115031867276 0.022213707369474853 0 -0.042101652849527577 0.02218561696515969 0 -0.042360115031867276 0.022213707369474853 0 -0.042352204718163783 0.022026666868557875 0 -0.042101652849527577 0.02218561696515969 0 -0.042352204718163783 0.022026666868557875 0 -0.04207972619835406 0.021839287363166614 0 -0.035818157774784004 0.023436808031303952 0 -0.035501175276665797 0.022056433717942952 0 -0.029481853306680208 0.023538892895172241 0 -0.030218727868764297 0.023834559601094457 0 -0.02977492659301437 0.023650470896834308 0 -0.035390624436291214 0.024717931696463996 0 -0.030962071306958459 0.024326167071576758 0 -0.030970225264581729 0.024114375695853868 0 -0.035501175276665797 0.022056433717942952 0 -0.034577449923530075 0.022253623310936801 0 -0.030849425955207378 0.024162073638609824 0 -0.030304254233729257 0.023900616828166497 0 -0.030970225264581729 0.024114375695853868 0 -0.035501175276665797 0.022056433717942952 0 -0.035398721979044659 0.022231243119785499 0 -0.030304254233729257 0.023900616828166497 0 -0.030534651533452719 0.023916547092488815 0 -0.030970225264581729 0.024114375695853868 0 -0.030304254233729257 0.023900616828166497 0 -0.030534651533452719 0.023916547092488815 0 -0.030272335108028237 0.023790781329129578 0 -0.030534651533452719 0.023916547092488815 0 -0.030970225264581729 0.024114375695853868 0 -0.030521304755565942 0.023677311166412775 0 -0.030218727868764297 0.023834559601094457 0 -0.030304254233729257 0.023900616828166497 0 -0.030007169180960434 0.023725518319908861 0 -0.02977492659301437 0.023650470896834308 0 -0.029492609424184576 0.023549582543312964 0 -0.030007169180960434 0.023725518319908861 0 -0.02929603506006288 0.023556297146911903 0 -0.02977492659301437 0.023650470896834308 0 -0.029492609424184576 0.023549582543312964 0 -0.02929603506006288 0.023556297146911903 0 -0.029492609424184576 0.023549582543312964 0 -0.028874600141211595 0.023461531837725889 0 -0.029492609424184576 0.023549582543312964 0 -0.029745694276328834 0.023501427340172847 0 -0.02920105313390112 0.023353280512953444 0 -0.029745694276328834 0.023501427340172847 0 -0.029324412420176416 0.02308794637605744 0 -0.02920105313390112 0.023353280512953444 0 -0.029745694276328834 0.023501427340172847 0 -0.029984844862554615 0.023479514927391715 0 -0.029814896141942299 0.023198260928825088 0 -0.029492609424184576 0.023549582543312964 0 -0.029745694276328834 0.023501427340172847 0 -0.030007169180960434 0.023725518319908861 0 -0.030218727868764297 0.023834559601094457 0 -0.02977492659301437 0.023650470896834308 0 -0.030007169180960434 0.023725518319908861 0 -0.030304254233729257 0.023900616828166497 0 -0.030007169180960434 0.023725518319908861 0 -0.030272335108028237 0.023790781329129578 0 -0.030007169180960434 0.023725518319908861 0 -0.030053737798032495 0.023649162092026041 0 -0.030272335108028237 0.023790781329129578 0 -0.029745694276328834 0.023501427340172847 0 -0.030007169180960434 0.023725518319908861 0 -0.030053737798032495 0.023649162092026041 0 -0.029745694276328834 0.023501427340172847 0 -0.030053737798032495 0.023649162092026041 0 -0.029984844862554615 0.023479514927391715 0 -0.030053737798032495 0.023649162092026041 0 -0.029984844862554615 0.023479514927391715 0 -0.030231280515897779 0.023591607579788322 0 -0.030053737798032495 0.023649162092026041 0 -0.030231280515897779 0.023591607579788322 0 -0.030272335108028237 0.023790781329129578 0 -0.030231280515897779 0.023591607579788322 0 -0.030272335108028237 0.023790781329129578 0 -0.030521304755565942 0.023677311166412775 0 -0.030534651533452719 0.023916547092488815 0 -0.030272335108028237 0.023790781329129578 0 -0.030521304755565942 0.023677311166412775 0 -0.030231280515897779 0.023591607579788322 0 -0.030521304755565942 0.023677311166412775 0 -0.030356080251974324 0.023316736551074635 0 -0.030356080251974324 0.023316736551074635 0 -0.03095138925715428 0.022578857136949109 0 -0.030935819914037911 0.023330408443440063 0 -0.030521304755565942 0.023677311166412775 0 -0.030356080251974324 0.023316736551074635 0 -0.030935819914037911 0.023330408443440063 0 -0.029984844862554615 0.023479514927391715 0 -0.030356080251974324 0.023316736551074635 0 -0.029814896141942299 0.023198260928825088 0 -0.029984844862554615 0.023479514927391715 0 -0.030231280515897779 0.023591607579788322 0 -0.030356080251974324 0.023316736551074635 0 -0.030356080251974324 0.023316736551074635 0 -0.029814896141942299 0.023198260928825088 0 -0.030075786967764733 0.022848365689164884 0 -0.029745694276328834 0.023501427340172847 0 -0.029814896141942299 0.023198260928825088 0 -0.029324412420176416 0.02308794637605744 0 -0.029814896141942299 0.023198260928825088 0 -0.029564126478815535 0.022777844351313841 0 -0.030075786967764733 0.022848365689164884 0 -0.029814896141942299 0.023198260928825088 0 -0.029564126478815535 0.022777844351313841 0 -0.029324412420176416 0.02308794637605744 0 -0.02985036926235168 0.022275981664505538 0 -0.029564126478815535 0.022777844351313841 0 -0.030075786967764733 0.022848365689164884 0 -0.030356080251974324 0.023316736551074635 0 -0.030075786967764733 0.022848365689164884 0 -0.03095138925715428 0.022578857136949109 0 -0.02985036926235168 0.022275981664505538 0 -0.030075786967764733 0.022848365689164884 0 -0.03095138925715428 0.022578857136949109 0 -0.033063036664596625 0.022130475030988576 0 -0.03095138925715428 0.022578857136949109 0 -0.031756011466954094 0.023091903115817616 0 -0.03095138925715428 0.022578857136949109 0 -0.031756011466954094 0.023091903115817616 0 -0.030935819914037911 0.023330408443440063 0 -0.035390624436291214 0.024717931696463996 0 -0.030970225264581729 0.024114375695853868 0 -0.031756011466954094 0.023091903115817616 0 -0.030970225264581729 0.024114375695853868 0 -0.031756011466954094 0.023091903115817616 0 -0.030935819914037911 0.023330408443440063 0 -0.030970225264581729 0.024114375695853868 0 -0.030521304755565942 0.023677311166412775 0 -0.030935819914037911 0.023330408443440063 0 -0.02769586126014988 0.022114648321876939 0 -0.028292332634651359 0.022679854696771987 0 -0.027570238225339681 0.02283492807633521 0 -0.028522431587025138 0.021982173254870601 0 -0.02769586126014988 0.022114648321876939 0 -0.028292332634651359 0.022679854696771987 0 -0.028522431587025138 0.021982173254870601 0 -0.028292332634651359 0.022679854696771987 0 -0.029048055036151838 0.022535129941472939 0 -0.02985036926235168 0.022275981664505538 0 -0.029564126478815535 0.022777844351313841 0 -0.029048055036151838 0.022535129941472939 0 -0.029564126478815535 0.022777844351313841 0 -0.029048055036151838 0.022535129941472939 0 -0.029324412420176416 0.02308794637605744 0 -0.029048055036151838 0.022535129941472939 0 -0.029324412420176416 0.02308794637605744 0 -0.028748227431515481 0.023103159564567193 0 -0.028292332634651359 0.022679854696771987 0 -0.029048055036151838 0.022535129941472939 0 -0.028748227431515481 0.023103159564567193 0 -0.028748227431515481 0.023103159564567193 0 -0.02920105313390112 0.023353280512953444 0 -0.028874600141211595 0.023461531837725889 0 -0.029324412420176416 0.02308794637605744 0 -0.028748227431515481 0.023103159564567193 0 -0.02920105313390112 0.023353280512953444 0 -0.029492609424184576 0.023549582543312964 0 -0.02920105313390112 0.023353280512953444 0 -0.028874600141211595 0.023461531837725889 0 -0.028748227431515481 0.023103159564567193 0 -0.028874600141211595 0.023461531837725889 0 -0.028294412703534083 0.023228385497861104 0 -0.028292332634651359 0.022679854696771987 0 -0.028748227431515481 0.023103159564567193 0 -0.028294412703534083 0.023228385497861104 0 -0.028292332634651359 0.022679854696771987 0 -0.028294412703534083 0.023228385497861104 0 -0.027570238225339681 0.02283492807633521 0 -0.028294412703534083 0.023228385497861104 0 -0.02785711294050873 0.023268118107305193 0 -0.027570238225339681 0.02283492807633521 0 -0.028294412703534083 0.023228385497861104 0 -0.028310881558199545 0.023481717685722416 0 -0.02785711294050873 0.023268118107305193 0 -0.028874600141211595 0.023461531837725889 0 -0.028294412703534083 0.023228385497861104 0 -0.028310881558199545 0.023481717685722416 0 -0.028874600141211595 0.023461531837725889 0 -0.028310881558199545 0.023481717685722416 0 -0.028743134512263919 0.023496411390437542 0 -0.02929603506006288 0.023556297146911903 0 -0.028874600141211595 0.023461531837725889 0 -0.028743134512263919 0.023496411390437542 0 -0.028529339822539291 0.02348209331039617 0 -0.028743134512263919 0.023496411390437542 0 -0.028226224745571626 0.023333886781615472 0 -0.028529339822539291 0.02348209331039617 0 -0.028978479247352543 0.023547268351736789 0 -0.028743134512263919 0.023496411390437542 0 -0.028310881558199545 0.023481717685722416 0 -0.028743134512263919 0.023496411390437542 0 -0.028226224745571626 0.023333886781615472 0 -0.028310881558199545 0.023481717685722416 0 -0.028268266972739826 0.023449615511838991 0 -0.028226224745571626 0.023333886781615472 0 -0.028268266972739826 0.023449615511838991 0 -0.028226224745571626 0.023333886781615472 0 -0.028644843838302292 0.022994512153281216 0 -0.028644843838302292 0.022994512153281216 0 -0.027878547268211196 0.023566090131779901 0 -0.027257495042414651 0.024079644299938432 0 -0.028661475049539437 0.023078652630961875 0 -0.029110419630487785 0.023365435195228396 0 -0.028268266972739826 0.023449615511838991 0 -0.028644843838302292 0.022994512153281216 0 -0.027878547268211196 0.023566090131779901 0 -0.027257495042414651 0.024079644299938432 0 -0.02694239334285755 0.023588218142886246 0 -0.026037296923255484 0.024110810147064017 0 -0.027878547268211196 0.023566090131779901 0 -0.027257495042414651 0.024079644299938432 0 -0.02694239334285755 0.023588218142886246 0 -0.02694239334285755 0.023588218142886246 0 -0.026866826451875488 0.023130111286866359 0 -0.025669400221742002 0.023284861800997404 0 -0.02694239334285755 0.023588218142886246 0 -0.02776673674038874 0.023455036727573274 0 -0.026866826451875488 0.023130111286866359 0 -0.027878547268211196 0.023566090131779901 0 -0.02694239334285755 0.023588218142886246 0 -0.02776673674038874 0.023455036727573274 0 -0.028310881558199545 0.023481717685722416 0 -0.02776673674038874 0.023455036727573274 0 -0.02785711294050873 0.023268118107305193 0 -0.028310881558199545 0.023481717685722416 0 -0.028268266972739826 0.023449615511838991 0 -0.02776673674038874 0.023455036727573274 0 -0.028268266972739826 0.023449615511838991 0 -0.027878547268211196 0.023566090131779901 0 -0.02776673674038874 0.023455036727573274 0 -0.02785711294050873 0.023268118107305193 0 -0.026866826451875488 0.023130111286866359 0 -0.027570238225339681 0.02283492807633521 0 -0.02776673674038874 0.023455036727573274 0 -0.02785711294050873 0.023268118107305193 0 -0.026866826451875488 0.023130111286866359 0 -0.026866826451875488 0.023130111286866359 0 -0.026479108550929793 0.022349035048686305 0 -0.025870762815044402 0.02288315293157988 0 -0.026866826451875488 0.023130111286866359 0 -0.026479108550929793 0.022349035048686305 0 -0.027570238225339681 0.02283492807633521 0 -0.02769586126014988 0.022114648321876939 0 -0.026479108550929793 0.022349035048686305 0 -0.027570238225339681 0.02283492807633521 0 -0.024970869498876586 0.022583726945069812 0 -0.025077770795603787 0.022863708764017141 0 -0.025195728681746101 0.022614870772653999 0 -0.025077770795603787 0.022863708764017141 0 -0.025870762815044402 0.02288315293157988 0 -0.025195728681746101 0.022614870772653999 0 -0.026479108550929793 0.022349035048686305 0 -0.025870762815044402 0.02288315293157988 0 -0.025195728681746101 0.022614870772653999 0 -0.026866826451875488 0.023130111286866359 0 -0.025870762815044402 0.02288315293157988 0 -0.025669400221742002 0.023284861800997404 0 -0.025077770795603787 0.022863708764017141 0 -0.025870762815044402 0.02288315293157988 0 -0.025669400221742002 0.023284861800997404 0 -0.025077770795603787 0.022863708764017141 0 -0.025669400221742002 0.023284861800997404 0 -0.024660481078358127 0.023205927176979106 0 -0.025669400221742002 0.023284861800997404 0 -0.025144202443296623 0.023929634571395235 0 -0.026037296923255484 0.024110810147064017 0 -0.025669400221742002 0.023284861800997404 0 -0.025144202443296623 0.023929634571395235 0 -0.024660481078358127 0.023205927176979106 0 -0.02694239334285755 0.023588218142886246 0 -0.025669400221742002 0.023284861800997404 0 -0.026037296923255484 0.024110810147064017 0 -0.03171511119335322 0.022914669151519771 0 -0.034150090631538871 0.023277935883682391 0 -0.032510520133598536 0.020286297163458325 0 -0.029110419630487785 0.023365435195228396 0 -0.03143338451848942 0.023998561263020007 0 -0.02371187093007469 0.022859335084965501 0 -0.03143338451848942 0.023998561263020007 0 -0.021387628510773873 0.013833050474567727 0 -0.022193374634431568 0.014876049350031055 0 -0.021203783948872571 0.01472615537809488 0 -0.02371187093007469 0.022859335084965501 0 -0.02914039397673359 0.017416712499685096 0 -0.036376465193419361 0.023824795485168106 0 -0.034150090631538871 0.023277935883682391 0 -0.03503131276145003 0.021042349530243098 0 -0.022193374634431568 0.014876049350031055 0 -0.021612964280855407 0.015332538934459414 0 -0.021203783948872571 0.01472615537809488 0 -0.022193374634431568 0.014876049350031055 0 -0.021612964280855407 0.015332538934459414 0 -0.023124735458700255 0.01563954621291129 0 -0.021612964280855407 0.015332538934459414 0 -0.023124735458700255 0.01563954621291129 0 -0.02165161970355715 0.01607746324424306 0 -0.02914039397673359 0.017416712499685096 0 -0.028205940651934942 0.016939637967002995 0 -0.034150090631538871 0.023277935883682391 0 -0.03503131276145003 0.021042349530243098 0 -0.032510520133598536 0.020286297163458325 0 -0.03503131276145003 0.021042349530243098 0 -0.033388917984271654 0.018005705141867671 0 -0.032510520133598536 0.020286297163458325 0 -0.03171511119335322 0.022914669151519771 0 -0.032510520133598536 0.020286297163458325 0 -0.030185368973256084 0.019605185009384133 0 -0.027940235228434234 0.022388920125355257 0 -0.028644843838302292 0.022994512153281216 0 -0.030185368973256084 0.019605185009384133 0 -0.028644843838302292 0.022994512153281216 0 -0.03171511119335322 0.022914669151519771 0 -0.030185368973256084 0.019605185009384133 0 -0.028964336630553575 0.020399431642608649 0 -0.030159941943189331 0.019713794016506688 0 -0.029362670560424027 0.017817479743816304 0 -0.030185368973256084 0.019605185009384133 0 -0.030512404099287755 0.017206887337741106 0 -0.032510520133598536 0.020286297163458325 0 -0.030185368973256084 0.019605185009384133 0 -0.030512404099287755 0.017206887337741106 0 -0.033388917984271654 0.018005705141867671 0 -0.032510520133598536 0.020286297163458325 0 -0.030512404099287755 0.017206887337741106 0 -0.028205940651934942 0.016939637967002995 0 -0.027746675410310322 0.015879173239368671 0 -0.033388917984271654 0.018005705141867671 0 -0.030512404099287755 0.017206887337741106 0 -0.031518328863547669 0.01551777809890271 0 -0.029128607771305246 0.016172873769444696 0 -0.029362670560424027 0.017817479743816304 0 -0.030512404099287755 0.017206887337741106 0 -0.029368123775254169 0.014834079256570275 0 -0.029128607771305246 0.016172873769444696 0 -0.030512404099287755 0.017206887337741106 0 -0.029368123775254169 0.014834079256570275 0 -0.030512404099287755 0.017206887337741106 0 -0.031518328863547669 0.01551777809890271 0 -0.029368123775254169 0.014834079256570275 0 -0.031518328863547669 0.01551777809890271 0 -0.029845585426005804 0.014105852962600036 0 -0.027746675410310322 0.015879173239368671 0 -0.027284896273443 0.015192386294911108 0 -0.02391854813917824 0.016157312010061129 0 -0.022989884268296776 0.016303579885491949 0 -0.023833674402030925 0.016502671245907256 0 -0.022989884268296776 0.016303579885491949 0 -0.02248928182628674 0.016911073760797354 0 -0.023833674402030925 0.016502671245907256 0 -0.022989884268296776 0.016303579885491949 0 -0.02248928182628674 0.016911073760797354 0 -0.02165161970355715 0.01607746324424306 0 -0.023124735458700255 0.01563954621291129 0 -0.022989884268296776 0.016303579885491949 0 -0.02165161970355715 0.01607746324424306 0 -0.023124735458700255 0.01563954621291129 0 -0.02391854813917824 0.016157312010061129 0 -0.022989884268296776 0.016303579885491949 0 -0.023833674402030925 0.016502671245907256 0 -0.024718949264038399 0.016084101346693462 0 -0.024113471325786191 0.016470829708331632 0 -0.02248928182628674 0.016911073760797354 0 -0.023833674402030925 0.016502671245907256 0 -0.024113471325786191 0.016470829708331632 0 -0.02391854813917824 0.016157312010061129 0 -0.023833674402030925 0.016502671245907256 0 -0.024636801173949414 0.016124037566343973 0 -0.027284896273443 0.015192386294911108 0 -0.027038360394146019 0.014858834407122495 0 -0.024636801173949414 0.016124037566343973 0 -0.024718949264038399 0.016084101346693462 0 -0.025541349843347022 0.015614308617491237 0 -0.023833674402030925 0.016502671245907256 0 -0.024636801173949414 0.016124037566343973 0 -0.024718949264038399 0.016084101346693462 0 -0.024718949264038399 0.016084101346693462 0 -0.025534597970770234 0.015743006258263349 0 -0.025541349843347022 0.015614308617491237 0 -0.025534597970770234 0.015743006258263349 0 -0.026052444431752537 0.016016816008834624 0 -0.027132694971449812 0.015073717398919431 0 -0.025534597970770234 0.015743006258263349 0 -0.025270377420927886 0.016093491494232615 0 -0.026052444431752537 0.016016816008834624 0 -0.024718949264038399 0.016084101346693462 0 -0.025534597970770234 0.015743006258263349 0 -0.025270377420927886 0.016093491494232615 0 -0.024718949264038399 0.016084101346693462 0 -0.024835691275934362 0.016239050596141873 0 -0.025270377420927886 0.016093491494232615 0 -0.024718949264038399 0.016084101346693462 0 -0.024835691275934362 0.016239050596141873 0 -0.024113471325786191 0.016470829708331632 0 -0.024835691275934362 0.016239050596141873 0 -0.025307668941218463 0.016306337782696363 0 -0.024933059135751799 0.016296537113354548 0 -0.024835691275934362 0.016239050596141873 0 -0.025307668941218463 0.016306337782696363 0 -0.025270377420927886 0.016093491494232615 0 -0.025307668941218463 0.016306337782696363 0 -0.02576174459122222 0.016274260878808081 0 -0.025270377420927886 0.016093491494232615 0 -0.025307668941218463 0.016306337782696363 0 -0.025714237458108236 0.016405385137361481 0 -0.025701253425865753 0.016413207867633124 0 -0.025307668941218463 0.016306337782696363 0 -0.025714237458108236 0.016405385137361481 0 -0.02576174459122222 0.016274260878808081 0 -0.025714237458108236 0.016405385137361481 0 -0.025864024734625835 0.01645422492795242 0 -0.025818653476318263 0.01639328067690201 0 -0.025714237458108236 0.016405385137361481 0 -0.025701253425865753 0.016413207867633124 0 -0.025818653476318263 0.01639328067690201 0 -0.025714237458108236 0.016405385137361481 0 -0.026094983528743444 0.016425637817824041 0 -0.025864024734625835 0.01645422492795242 0 -0.025714237458108236 0.016405385137361481 0 -0.026094983528743444 0.016425637817824041 0 -0.02576174459122222 0.016274260878808081 0 -0.026094983528743444 0.016425637817824041 0 -0.02576174459122222 0.016274260878808081 0 -0.026443566134202897 0.01624615449824908 0 -0.02576174459122222 0.016274260878808081 0 -0.026052444431752537 0.016016816008834624 0 -0.026443566134202897 0.01624615449824908 0 -0.02576174459122222 0.016274260878808081 0 -0.025270377420927886 0.016093491494232615 0 -0.026052444431752537 0.016016816008834624 0 -0.026052444431752537 0.016016816008834624 0 -0.027066992877384285 0.015950174287412976 0 -0.027132694971449812 0.015073717398919431 0 -0.027066992877384285 0.015950174287412976 0 -0.027781393148678432 0.016608458064556641 0 -0.028328002161772184 0.015461141479906309 0 -0.027066992877384285 0.015950174287412976 0 -0.028328002161772184 0.015461141479906309 0 -0.027132694971449812 0.015073717398919431 0 -0.027703169399925329 0.01601917241125082 0 -0.026569042884704446 0.016235791907572336 0 -0.027066992877384285 0.015950174287412976 0 -0.027781393148678432 0.016608458064556641 0 -0.026443566134202897 0.01624615449824908 0 -0.026052444431752537 0.016016816008834624 0 -0.027066992877384285 0.015950174287412976 0 -0.026443566134202897 0.01624615449824908 0 -0.026094983528743444 0.016425637817824041 0 -0.026443566134202897 0.01624615449824908 0 -0.026895107805592382 0.01629470929612321 0 -0.027575763254501211 0.015455910596728925 0 -0.026443566134202897 0.01624615449824908 0 -0.026895107805592382 0.01629470929612321 0 -0.027575763254501211 0.015455910596728925 0 -0.026895107805592382 0.01629470929612321 0 -0.027801574352802682 0.016421180842155259 0 -0.026895107805592382 0.01629470929612321 0 -0.027801574352802682 0.016421180842155259 0 -0.026739488454810705 0.016587748663130675 0 -0.026094983528743444 0.016425637817824041 0 -0.026895107805592382 0.01629470929612321 0 -0.026739488454810705 0.016587748663130675 0 -0.028719737727466544 0.016359757787638183 0 -0.029338675820063102 0.016280793634807739 0 -0.029016313258099578 0.016765776725865825 0 -0.028719737727466544 0.016359757787638183 0 -0.029186001214527597 0.015895081179708823 0 -0.029338675820063102 0.016280793634807739 0 -0.028719737727466544 0.016359757787638183 0 -0.027801574352802682 0.016421180842155259 0 -0.0283667111409589 0.016741098759243383 0 -0.028719737727466544 0.016359757787638183 0 -0.027801574352802682 0.016421180842155259 0 -0.028474627530569816 0.015929208309156104 0 -0.027575763254501211 0.015455910596728925 0 -0.027801574352802682 0.016421180842155259 0 -0.028474627530569816 0.015929208309156104 0 -0.028474627530569816 0.015929208309156104 0 -0.029186001214527597 0.015895081179708823 0 -0.028922692317110674 0.015143633157428057 0 -0.028719737727466544 0.016359757787638183 0 -0.028474627530569816 0.015929208309156104 0 -0.029186001214527597 0.015895081179708823 0 -0.027575763254501211 0.015455910596728925 0 -0.028474627530569816 0.015929208309156104 0 -0.028922692317110674 0.015143633157428057 0 -0.027781393148678432 0.016608458064556641 0 -0.029600751365410606 0.016234262608575991 0 -0.028328002161772184 0.015461141479906309 0 -0.027703169399925329 0.01601917241125082 0 -0.029241777299112676 0.0156963146789908 0 -0.029600751365410606 0.016234262608575991 0 -0.029552223949130565 0.014864408754512226 0 -0.030437277693222374 0.015408735613057891 0 -0.029600751365410606 0.016234262608575991 0 -0.028328002161772184 0.015461141479906309 0 -0.029552223949130565 0.014864408754512226 0 -0.029886066114335631 0.013574863928646977 0 -0.02871300189452209 0.014247425049198906 0 -0.029081573156098443 0.013198376370067917 0 -0.029552223949130565 0.014864408754512226 0 -0.029886066114335631 0.013574863928646977 0 -0.02871300189452209 0.014247425049198906 0 -0.02871300189452209 0.014247425049198906 0 -0.028294595440626888 0.013765610863423679 0 -0.029081573156098443 0.013198376370067917 0 -0.028328002161772184 0.015461141479906309 0 -0.029552223949130565 0.014864408754512226 0 -0.02871300189452209 0.014247425049198906 0 -0.028328002161772184 0.015461141479906309 0 -0.02871300189452209 0.014247425049198906 0 -0.027132694971449812 0.015073717398919431 0 -0.027204690054010567 0.015193892242234105 0 -0.027038360394146019 0.014858834407122495 0 -0.027132694971449812 0.015073717398919431 0 -0.028364765781049798 0.013812767509189944 0 -0.028294595440626888 0.013765610863423679 0 -0.025534597970770234 0.015743006258263349 0 -0.027132694971449812 0.015073717398919431 0 -0.025541349843347022 0.015614308617491237 0 -0.02871300189452209 0.014247425049198906 0 -0.027132694971449812 0.015073717398919431 0 -0.028294595440626888 0.013765610863423679 0 -0.028294595440626888 0.013765610863423679 0 -0.028650506130246872 0.014013350177801373 0 -0.028549985172343303 0.01363707258785757 0 -0.028364765781049798 0.013812767509189944 0 -0.028294595440626888 0.013765610863423679 0 -0.028650506130246872 0.014013350177801373 0 -0.029845585426005804 0.014105852962600036 0 -0.028364765781049798 0.013812767509189944 0 -0.028650506130246872 0.014013350177801373 0 -0.029368123775254169 0.014834079256570275 0 -0.029845585426005804 0.014105852962600036 0 -0.028650506130246872 0.014013350177801373 0 -0.028544981114246873 0.014775788013683486 0 -0.028650506130246872 0.014013350177801373 0 -0.028549985172343303 0.01363707258785757 0 -0.028452429675016735 0.0136058689706158 0 -0.028549985172343303 0.01363707258785757 0 -0.029081573156098443 0.013198376370067917 0 -0.028452429675016735 0.0136058689706158 0 -0.028544981114246873 0.014775788013683486 0 -0.028549985172343303 0.01363707258785757 0 -0.028452429675016735 0.0136058689706158 0 -0.029081573156098443 0.013198376370067917 0 -0.02975861616796862 0.012976797293891265 0 -0.029886066114335631 0.013574863928646977 0 -0.029081573156098443 0.013198376370067917 0 -0.030437673838673043 0.012187112028544103 0 -0.029081573156098443 0.013198376370067917 0 -0.030437673838673043 0.012187112028544103 0 -0.02975861616796862 0.012976797293891265 0 -0.028294595440626888 0.013765610863423679 0 -0.028549985172343303 0.01363707258785757 0 -0.029081573156098443 0.013198376370067917 0 -0.029858519465640953 0.012437936088659016 0 -0.030437673838673043 0.012187112028544103 0 -0.029935030206694791 0.012692977504064186 0 -0.031369874549554547 0.011341571234442401 0 -0.031159516529626341 0.011841738310421396 0 -0.034586449706110897 0.0099521276106919708 0 -0.037962844268236769 0.0094888961299544571 0 -0.036080872438774128 0.012659414006831567 0 -0.029858519465640953 0.012437936088659016 0 -0.029881189499090161 0.012839091397524517 0 -0.029733367355203228 0.012453590153760177 0 -0.034586449706110897 0.0099521276106919708 0 -0.030437673838673043 0.012187112028544103 0 -0.032013909542864781 0.012637388996658913 0 -0.030437673838673043 0.012187112028544103 0 -0.02975861616796862 0.012976797293891265 0 -0.029935030206694791 0.012692977504064186 0 -0.029858519465640953 0.012437936088659016 0 -0.029935030206694791 0.012692977504064186 0 -0.029881189499090161 0.012839091397524517 0 -0.02975861616796862 0.012976797293891265 0 -0.029935030206694791 0.012692977504064186 0 -0.029881189499090161 0.012839091397524517 0 -0.039531554503074509 0.01187695638046274 0 -0.039238140668407681 0.01111867365814455 0 -0.047828654564853912 0.011192159802530308 0 -0.049242216236608044 0.011008456517140558 0 -0.048453572669949048 0.0095981821506124186 0 -0.047828654564853912 0.011192159802530308 0 -0.048453572669949048 0.0095981821506124186 0 -0.047203212573102803 0.0095418500324038636 0 -0.039238140668407681 0.01111867365814455 0 -0.045326900472462454 0.0090607632247747434 0 -0.038199129586562686 0.0089325478692753833 0 -0.039557103921170678 0.011252303233360872 0 -0.041716703541166661 0.0088276163055734155 0 -0.031369874549554547 0.011341571234442401 0 -0.039238140668407681 0.01111867365814455 0 -0.039238140668407681 0.01111867365814455 0 -0.038994725687218595 0.010456085817391002 0 -0.037962844268236769 0.0094888961299544571 0 -0.039557103921170678 0.011252303233360872 0 -0.036080872438774128 0.012659414006831567 0 -0.039557103921170678 0.011252303233360872 0 -0.038148930158765804 0.013606416774473206 0 -0.036080872438774128 0.012659414006831567 0 -0.039557103921170678 0.011252303233360872 0 -0.042606966311938763 0.01089069194131036 0 -0.041716703541166661 0.0088276163055734155 0 -0.039557103921170678 0.011252303233360872 0 -0.041048441929038705 0.012843832190031209 0 -0.042606966311938763 0.01089069194131036 0 -0.039557103921170678 0.011252303233360872 0 -0.041048441929038705 0.012843832190031209 0 -0.038148930158765804 0.013606416774473206 0 -0.036271455730426311 0.013372189376194129 0 -0.03442065929723092 0.01584278482417063 0 -0.036080872438774128 0.012659414006831567 0 -0.03124713049302057 0.01486358455838902 0 -0.033574024220929477 0.020318427758599378 0 -0.031064544355481338 0.015536831524270111 0 -0.03442065929723092 0.01584278482417063 0 -0.038148930158765804 0.013606416774473206 0 -0.036080872438774128 0.012659414006831567 0 -0.036806190351494607 0.014273506956855074 0 -0.036080872438774128 0.012659414006831567 0 -0.032013909542864781 0.012637388996658913 0 -0.03124713049302057 0.01486358455838902 0 -0.034586449706110897 0.0099521276106919708 0 -0.036080872438774128 0.012659414006831567 0 -0.032013909542864781 0.012637388996658913 0 -0.029886066114335631 0.013574863928646977 0 -0.032013909542864781 0.012637388996658913 0 -0.03124713049302057 0.01486358455838902 0 -0.029886066114335631 0.013574863928646977 0 -0.030437673838673043 0.012187112028544103 0 -0.032013909542864781 0.012637388996658913 0 -0.029552223949130565 0.014864408754512226 0 -0.03124713049302057 0.01486358455838902 0 -0.030437277693222374 0.015408735613057891 0 -0.03124713049302057 0.01486358455838902 0 -0.030437277693222374 0.015408735613057891 0 -0.030720752087849065 0.015358681649127296 0 -0.029552223949130565 0.014864408754512226 0 -0.029886066114335631 0.013574863928646977 0 -0.03124713049302057 0.01486358455838902 0 -0.029600751365410606 0.016234262608575991 0 -0.030437277693222374 0.015408735613057891 0 -0.030577541913200383 0.015406096885230642 0 -0.029241777299112676 0.0156963146789908 0 -0.030442771850323753 0.015427749722713753 0 -0.030437277693222374 0.015408735613057891 0 -0.030720752087849065 0.015358681649127296 0 -0.030577541913200383 0.015406096885230642 0 -0.038148930158765804 0.013606416774473206 0 -0.036806190351494607 0.014273506956855074 0 -0.038043472211050956 0.014431519670370171 0 -0.030720752087849065 0.015358681649127296 0 -0.030577541913200383 0.015406096885230642 0 -0.029972274996740381 0.015699181919469955 0 -0.03442065929723092 0.01584278482417063 0 -0.036741191994681517 0.014803760257535178 0 -0.036806190351494607 0.014273506956855074 0 -0.037199887288905102 0.015649155032029075 0 -0.038043472211050956 0.014431519670370171 0 -0.03442065929723092 0.01584278482417063 0 -0.033573991088458953 0.014035391785463773 0 -0.036558154743177661 0.014833617351836796 0 -0.036086407649933122 0.013655534683841106 0 -0.037116474857241823 0.012990480549119828 0 -0.036086407649933122 0.013655534683841106 0 -0.037116474857241823 0.012990480549119828 0 -0.035631417291061174 0.012482071435637485 0 -0.036741191994681517 0.014803760257535178 0 -0.038904214717995225 0.012625626264138403 0 -0.028922692317110674 0.015143633157428057 0 -0.030577541913200383 0.015406096885230642 0 -0.029972274996740381 0.015699181919469955 0 -0.029186001214527597 0.015895081179708823 0 -0.028922692317110674 0.015143633157428057 0 -0.029972274996740381 0.015699181919469955 0 -0.033573991088458953 0.014035391785463773 0 -0.033106904328818111 0.014511940228387117 0 -0.029186001214527597 0.015895081179708823 0 -0.029972274996740381 0.015699181919469955 0 -0.029338675820063102 0.016280793634807739 0 -0.037116474857241823 0.012990480549119828 0 -0.036918645123082593 0.010927776164846253 0 -0.037634563234331876 0.011181948639841198 0 -0.040322149780549404 0.0053780253891681142 0 -0.038904214717995225 0.012625626264138403 0 -0.037116474857241823 0.012990480549119828 0 -0.036918645123082593 0.010927776164846253 0 -0.035631417291061174 0.012482071435637485 0 -0.042238995477146039 0.002782232334634622 0 -0.041583764262508087 0.0027895288794833146 0 -0.041770612086261087 0.0025494220543381026 0 -0.042238995477146039 0.002782232334634622 0 -0.041583764262508087 0.0027895288794833146 0 -0.041537508894738062 0.0039417164302534462 0 -0.033106904328818111 0.014511940228387117 0 -0.03652418806453283 0.0097431915253001228 0 -0.036918645123082593 0.010927776164846253 0 -0.037634563234331876 0.011181948639841198 0 -0.038105956538889013 0.0094594744712261022 0 -0.041489214766263369 0.015879508970919921 0 -0.040431043717016606 0.016311036081464999 0 -0.041740304845500807 0.016630085709171096 0 -0.042127240184484903 0.0066885101796248523 0 -0.045557050676382167 0.007456719669545077 0 -0.041489214766263369 0.015879508970919921 0 -0.040431043717016606 0.016311036081464999 0 -0.040913894042181854 0.015210065585753621 0 -0.041090378613876093 0.002738608842712432 0 -0.041583764262508087 0.0027895288794833146 0 -0.041537508894738062 0.0039417164302534462 0 -0.042127240184484903 0.0066885101796248523 0 -0.038904214717995225 0.012625626264138403 0 -0.042127240184484903 0.0066885101796248523 0 -0.041098083286057879 0.0041826634904110196 0 -0.040431043717016606 0.016311036081464999 0 -0.039979962383658176 0.015130037390379165 0 -0.040913894042181854 0.015210065585753621 0 -0.041489214766263369 0.015879508970919921 0 -0.040913894042181854 0.015210065585753621 0 -0.041879045635660146 0.015146856918785683 0 -0.040913894042181854 0.015210065585753621 0 -0.041891767129512439 0.014537778127158752 0 -0.041879045635660146 0.015146856918785683 0 -0.040913894042181854 0.015210065585753621 0 -0.040273971414529153 0.014500457002516412 0 -0.041891767129512439 0.014537778127158752 0 -0.038904214717995225 0.012625626264138403 0 -0.039945460114358976 0.015901215633877246 0 -0.037199887288905102 0.015649155032029075 0 -0.037968126702808344 0.017422987663814619 0 -0.040273971414529153 0.014500457002516412 0 -0.039979962383658176 0.015130037390379165 0 -0.040913894042181854 0.015210065585753621 0 -0.040273971414529153 0.014500457002516412 0 -0.038148930158765804 0.013606416774473206 0 -0.038043472211050956 0.014431519670370171 0 -0.040273971414529153 0.014500457002516412 0 -0.037199887288905102 0.015649155032029075 0 -0.038043472211050956 0.014431519670370171 0 -0.040273971414529153 0.014500457002516412 0 -0.041048441929038705 0.012843832190031209 0 -0.038148930158765804 0.013606416774473206 0 -0.040273971414529153 0.014500457002516412 0 -0.041048441929038705 0.012843832190031209 0 -0.040273971414529153 0.014500457002516412 0 -0.042903893692845446 0.01366068682483213 0 -0.042903893692845446 0.01366068682483213 0 -0.04387002594635319 0.013861828455684991 0 -0.045056769694318093 0.012551879502481456 0 -0.042903893692845446 0.01366068682483213 0 -0.043536764064649791 0.014101263094997265 0 -0.04387002594635319 0.013861828455684991 0 -0.040273971414529153 0.014500457002516412 0 -0.042903893692845446 0.01366068682483213 0 -0.041891767129512439 0.014537778127158752 0 -0.042903893692845446 0.01366068682483213 0 -0.041891767129512439 0.014537778127158752 0 -0.043536764064649791 0.014101263094997265 0 -0.041891767129512439 0.014537778127158752 0 -0.041879045635660146 0.015146856918785683 0 -0.043536764064649791 0.014101263094997265 0 -0.041879045635660146 0.015146856918785683 0 -0.043536764064649791 0.014101263094997265 0 -0.042510610835282209 0.015803794105235046 0 -0.041489214766263369 0.015879508970919921 0 -0.041879045635660146 0.015146856918785683 0 -0.042510610835282209 0.015803794105235046 0 -0.043536764064649791 0.014101263094997265 0 -0.043611660450809109 0.011378108101222471 0 -0.042514200382848505 0.012546526231526377 0 -0.043536764064649791 0.014101263094997265 0 -0.043611660450809109 0.011378108101222471 0 -0.045235309404303245 0.01205577933535722 0 -0.043810636822980552 0.013787911891529165 0 -0.043305531828929301 0.014782573374234265 0 -0.043611660450809109 0.011378108101222471 0 -0.045235309404303245 0.01205577933535722 0 -0.044437046490717988 0.0097123640640021623 0 -0.043611660450809109 0.011378108101222471 0 -0.042311931461655281 0.0092976736392531376 0 -0.044437046490717988 0.0097123640640021623 0 -0.045235309404303245 0.01205577933535722 0 -0.046558315477572533 0.010033267589803524 0 -0.044437046490717988 0.0097123640640021623 0 -0.043305531828929301 0.014782573374234265 0 -0.045557050676382167 0.007456719669545077 0 -0.041489214766263369 0.015879508970919921 0 -0.042510610835282209 0.015803794105235046 0 -0.041740304845500807 0.016630085709171096 0 -0.046240708554812923 0.0009010918761465902 0 -0.04499993517681368 0.0014300362169451992 0 -0.044999898355990824 -0.0008421926917014991 0 -0.044929008112178974 0.0077168088216812208 0 -0.045441889071144416 0.0026932492720413625 0 -0.043611660450809109 0.011378108101222471 0 -0.042514200382848505 0.012546526231526377 0 -0.042311931461655281 0.0092976736392531376 0 -0.046240708554812923 0.0009010918761465902 0 -0.047351872874754175 0.002247566034800912 0 -0.047443465096618002 -0.00020605214600117255 0 -0.043536764064649791 0.014101263094997265 0 -0.042514200382848505 0.012546526231526377 0 -0.04387002594635319 0.013861828455684991 0 -0.046240708554812923 0.0009010918761465902 0 -0.047351872874754175 0.002247566034800912 0 -0.046194666564911613 0.003039173543368912 0 -0.044929008112178974 0.0077168088216812208 0 -0.045526420605733975 0.0088978400073243796 0 -0.047351872874754175 0.002247566034800912 0 -0.046194666564911613 0.003039173543368912 0 -0.047186620457822293 0.0043214399071023627 0 -0.04499993517681368 0.0014300362169451992 0 -0.046194666564911613 0.003039173543368912 0 -0.045000041528645923 0.0037017879252439065 0 -0.046240708554812923 0.0009010918761465902 0 -0.04499993517681368 0.0014300362169451992 0 -0.046194666564911613 0.003039173543368912 0 -0.046194666564911613 0.003039173543368912 0 -0.045000041528645923 0.0037017879252439065 0 -0.046055267665407837 0.0050756715802862517 0 -0.046194666564911613 0.003039173543368912 0 -0.047186620457822293 0.0043214399071023627 0 -0.046055267665407837 0.0050756715802862517 0 -0.047186620457822293 0.0043214399071023627 0 -0.046055267665407837 0.0050756715802862517 0 -0.047051653339377483 0.0062984973361981441 0 -0.045526420605733975 0.0088978400073243796 0 -0.046010863545115431 0.0093587396717382428 0 -0.045000041528645923 0.0037017879252439065 0 -0.046055267665407837 0.0050756715802862517 0 -0.044999593206172542 0.0059739436585492557 0 -0.046055267665407837 0.0050756715802862517 0 -0.044999593206172542 0.0059739436585492557 0 -0.04568204566109331 0.0074921084916072965 0 -0.04568204566109331 0.0074921084916072965 0 -0.044999601695744219 0.0082460908186438968 0 -0.046138243737034131 0.0093328530122946639 0 -0.044999593206172542 0.0059739436585492557 0 -0.04568204566109331 0.0074921084916072965 0 -0.044999601695744219 0.0082460908186438968 0 -0.04568204566109331 0.0074921084916072965 0 -0.046138243737034131 0.0093328530122946639 0 -0.047051653339377483 0.0062984973361981441 0 -0.046138243737034131 0.0093328530122946639 0 -0.045056769694318093 0.012551879502481456 0 -0.044483398317541847 0.010567901263228608 0 -0.046132187069406624 0.0092290044597895249 0 -0.046010863545115431 0.0093587396717382428 0 -0.046055267665407837 0.0050756715802862517 0 -0.04568204566109331 0.0074921084916072965 0 -0.047051653339377483 0.0062984973361981441 0 -0.042903893692845446 0.01366068682483213 0 -0.045056769694318093 0.012551879502481456 0 -0.043142291823581751 0.012157662219410307 0 -0.045056769694318093 0.012551879502481456 0 -0.043142291823581751 0.012157662219410307 0 -0.044483398317541847 0.010567901263228608 0 -0.041048441929038705 0.012843832190031209 0 -0.043142291823581751 0.012157662219410307 0 -0.042606966311938763 0.01089069194131036 0 -0.041048441929038705 0.012843832190031209 0 -0.042903893692845446 0.01366068682483213 0 -0.043142291823581751 0.012157662219410307 0 -0.043142291823581751 0.012157662219410307 0 -0.042606966311938763 0.01089069194131036 0 -0.044483398317541847 0.010567901263228608 0 -0.046138243737034131 0.0093328530122946639 0 -0.044483398317541847 0.010567901263228608 0 -0.045484116829551932 0.0093055730042287486 0 -0.042606966311938763 0.01089069194131036 0 -0.044483398317541847 0.010567901263228608 0 -0.045484116829551932 0.0093055730042287486 0 -0.045484116829551932 0.0093055730042287486 0 -0.047203212573102803 0.0095418500324038636 0 -0.046559304401690302 0.010587083876087495 0 -0.045006373795850985 0.0092978091506196337 0 -0.045326900472462454 0.0090607632247747434 0 -0.042606966311938763 0.01089069194131036 0 -0.045484116829551932 0.0093055730042287486 0 -0.041716703541166661 0.0088276163055734155 0 -0.047828654564853912 0.011192159802530308 0 -0.047203212573102803 0.0095418500324038636 0 -0.046559304401690302 0.010587083876087495 0 -0.045823496673347258 0.011057710946480972 0 -0.045484116829551932 0.0093055730042287486 0 -0.046559304401690302 0.010587083876087495 0 -0.045823496673347258 0.011057710946480972 0 -0.045484116829551932 0.0093055730042287486 0 -0.045761017767897101 0.0097146773761103509 0 -0.045823496673347258 0.011057710946480972 0 -0.044999642905244684 0.010517712482634493 0 -0.045761017767897101 0.0097146773761103509 0 -0.044999601695744219 0.0082460908186438968 0 -0.046138243737034131 0.0093328530122946639 0 -0.045761017767897101 0.0097146773761103509 0 -0.044999601695744219 0.0082460908186438968 0 -0.044999642905244684 0.010517712482634493 0 -0.045761017767897101 0.0097146773761103509 0 -0.046138243737034131 0.0093328530122946639 0 -0.045484116829551932 0.0093055730042287486 0 -0.045761017767897101 0.0097146773761103509 0 -0.0026516528271718375 0.040219526173285822 0 -0.0057176969012813772 0.039583670686123396 0 -0.0048184789315569958 0.041332622236697432 0 -0.0041813952378836521 0.038326470328069413 0 -0.00072250990085514707 0.038784208476879377 0 -0.0019347493482703244 0.036714619774401616 0 -0.0020176246528556545 0.04081808339746737 0 -0.0041813952378836521 0.038326470328069413 0 -0.00072250990085514707 0.038784208476879377 0 -0.0026516528271718375 0.040219526173285822 0 -0.0041813952378836521 0.038326470328069413 0 -0.0057176969012813772 0.039583670686123396 0 -0.002670251152109308 0.04119194740036012 0 -0.0040448006955815389 0.03829367346930506 0 -0.0041813952378836521 0.038326470328069413 0 -0.0057176969012813772 0.039583670686123396 0 -0.0060276343418250678 0.036945063998247263 0 -0.0074983015516294554 0.038387218787172578 0 -0.0057176969012813772 0.039583670686123396 0 -0.0060276343418250678 0.036945063998247263 0 -0.0086813181712133512 0.038316299345792726 0 -0.0077593611449269717 0.040898492096875919 0 -0.010036803302037519 0.03843908825771148 0 -0.0086813181712133512 0.038316299345792726 0 -0.0074983015516294554 0.038387218787172578 0 -0.0077593611449269717 0.040898492096875919 0 -0.0086813181712133512 0.038316299345792726 0 -0.0074983015516294554 0.038387218787172578 0 -0.007576866619328766 0.037015518288139856 0 -0.0076686361221429107 0.040246087673870438 0 -0.0070894264630234037 0.03672167616363254 0 -0.0070894264630234037 0.03672167616363254 0 -0.011030829165530736 0.034726115163858304 0 -0.0074983015516294554 0.038387218787172578 0 -0.0074944913562425778 0.041025361171102559 0 -0.0057176969012813772 0.039583670686123396 0 -0.0074944913562425778 0.041025361171102559 0 -0.0057176969012813772 0.039583670686123396 0 -0.0048184789315569958 0.041332622236697432 0 -0.0074944913562425778 0.041025361171102559 0 -0.0051966853365616192 0.043351518053313456 0 -0.0048184789315569958 0.041332622236697432 0 -0.0042700440556532162 0.033698218554532339 0 -0.0039952489366949376 0.03066097332999174 0 -0.0063144393656364107 0.031376095384155374 0 -0.0070894264630234037 0.03672167616363254 0 -0.0023452382609522606 0.032220735512172916 0 -0.0070894264630234037 0.03672167616363254 0 -0.0056114618687871541 0.026286438551646411 0 -0.0095879226371536237 0.030443691012301793 0 -0.009344589239077189 0.027621224647714562 0 -0.0079257569787583096 0.029847529430330769 0 -0.009344589239077189 0.027621224647714562 0 -0.0079257569787583096 0.029847529430330769 0 -0.0084421862470708577 0.027339137704372279 0 -0.0056114618687871541 0.026286438551646411 0 -0.0092196274887941729 0.024075814164435626 0 -0.0074243993236042423 0.024163053288580604 0 -0.0065855794273200667 0.023903664276140865 0 -0.0067622844604476587 0.023084789542660383 0 -0.0026641982951527074 0.025122835286869982 0 -0.0025328938375800232 0.025109846630705226 0 -0.0025724154569630739 0.025145061445012315 0 -0.0056114618687871541 0.026286438551646411 0 -0.0023452382609522606 0.032220735512172916 0 0.0028657733283019345 0.028648064985965321 0 0.0040514739944273546 0.028318058013130139 0 0.0035991543044120518 0.029365417840628256 0 -0.0023452382609522606 0.032220735512172916 0 0.00015096125935023133 0.026919960184347922 0 -0.0025328938375800232 0.025109846630705226 0 -0.0024616957768917873 0.025141436954888012 0 -0.0025724154569630739 0.025145061445012315 0 -0.0023452382609522606 0.032220735512172916 0 5.6208103228639844e-05 0.035731794147206765 0 -0.0051966853365616192 0.043351518053313456 0 -0.0048184789315569958 0.041332622236697432 0 -0.0031174986457573992 0.042762452016274689 0 -0.0026516528271718375 0.040219526173285822 0 -0.0048184789315569958 0.041332622236697432 0 -0.0031174986457573992 0.042762452016274689 0 0.0040514739944273546 0.028318058013130139 0 0.005078414945739778 0.028691331599508766 0 0.0051950540895641913 0.028028579405241855 0 -0.002670251152109308 0.04119194740036012 0 0.0050264244267508107 0.036105952820021277 0 5.6208103228639844e-05 0.035731794147206765 0 0.0050264244267508107 0.036105952820021277 0 -0.0026516528271718375 0.040219526173285822 0 -0.0031174986457573992 0.042762452016274689 0 -0.0010262379292096545 0.042132962916599064 0 0.0040514739944273546 0.028318058013130139 0 0.0045958635918180273 0.029011106578899402 0 0.005078414945739778 0.028691331599508766 0 0.0040514739944273546 0.028318058013130139 0 0.0041943807142146086 0.029250885934566241 0 0.0045958635918180273 0.029011106578899402 0 0.0040514739944273546 0.028318058013130139 0 0.0041943807142146086 0.029250885934566241 0 0.0035991543044120518 0.029365417840628256 0 0.0041943807142146086 0.029250885934566241 0 0.0045958635918180273 0.029011106578899402 0 0.0047535795514947162 0.029489927591254048 0 0.0045958635918180273 0.029011106578899402 0 0.0051981107821950897 0.029288952725332783 0 0.0047535795514947162 0.029489927591254048 0 0.0045958635918180273 0.029011106578899402 0 0.0051981107821950897 0.029288952725332783 0 0.005078414945739778 0.028691331599508766 0 0.005078414945739778 0.028691331599508766 0 0.0059973045774278002 0.028964406807281753 0 0.0051950540895641913 0.028028579405241855 0 0.011904088385710896 0.029973904248113362 0 0.0050264244267508107 0.036105952820021277 0 0.0051981107821950897 0.029288952725332783 0 0.005078414945739778 0.028691331599508766 0 0.0059973045774278002 0.028964406807281753 0 0.017202585448766749 0.031546116158611484 0 0.016952666926239385 0.031626081362792859 0 0.017050876149041924 0.031174902355090295 0 0.011037896461386018 0.037143688324196365 0 0.0050264244267508107 0.036105952820021277 0 0.017202585448766749 0.031546116158611484 0 0.017051207339362596 0.032010704513794709 0 0.016952666926239385 0.031626081362792859 0 0.017202585448766749 0.031546116158611484 0 0.017051207339362596 0.032010704513794709 0 0.01726609195052967 0.031842758478104381 0 0.0035858336666848433 0.042109842248834295 0 4.8583853594463849e-05 0.043200766489171323 0 0.00066814177940677059 0.040698540871699093 0 0.016254409017863666 0.031116398921421394 0 0.01650289197421961 0.031746274950764423 0 0.01682925347293111 0.031198703785618283 0 0.01650289197421961 0.031746274950764423 0 0.016952666926239385 0.031626081362792859 0 0.01682925347293111 0.031198703785618283 0 0.016952666926239385 0.031626081362792859 0 0.01682925347293111 0.031198703785618283 0 0.017050876149041924 0.031174902355090295 0 0.017051207339362596 0.032010704513794709 0 0.016952666926239385 0.031626081362792859 0 0.016586891091391661 0.032404802267165828 0 0.01650289197421961 0.031746274950764423 0 0.016952666926239385 0.031626081362792859 0 0.016586891091391661 0.032404802267165828 0 0.011037896461386018 0.037143688324196365 0 0.011647768813900578 0.036688252701280032 0 0.0035858336666848433 0.042109842248834295 0 0.0070680112207915074 0.040949919959437975 0 0.0055054528169987222 0.038550225482946933 0 0.0035858336666848433 0.042109842248834295 0 0.0055054528169987222 0.038550225482946933 0 0.0024162761151112324 0.038572558702406612 0 0.0055054528169987222 0.038550225482946933 0 0.0024162761151112324 0.038572558702406612 0 0.0042662775752163084 0.036186083534223284 0 0.0070680112207915074 0.040949919959437975 0 0.0055054528169987222 0.038550225482946933 0 0.007046249758965996 0.037506367550023643 0 0.0085327684007987219 0.038229954043465374 0 0.0070680112207915074 0.040949919959437975 0 0.007046249758965996 0.037506367550023643 0 -0.0020176246528556545 0.04081808339746737 0 4.8583853594463849e-05 0.043200766489171323 0 0.00066814177940677059 0.040698540871699093 0 -0.0020176246528556545 0.04081808339746737 0 0.00066814177940677059 0.040698540871699093 0 -0.00072250990085514707 0.038784208476879377 0 0.0035858336666848433 0.042109842248834295 0 0.00066814177940677059 0.040698540871699093 0 0.0024162761151112324 0.038572558702406612 0 0.00066814177940677059 0.040698540871699093 0 0.0024162761151112324 0.038572558702406612 0 -0.00072250990085514707 0.038784208476879377 0 0.0024162761151112324 0.038572558702406612 0 -0.00072250990085514707 0.038784208476879377 0 0.00050533407257923838 0.03696160216854489 0 -0.00072250990085514707 0.038784208476879377 0 0.00050533407257923838 0.03696160216854489 0 -0.0019347493482703244 0.036714619774401616 0 0.00050533407257923838 0.03696160216854489 0 -0.00051254298668352248 0.035266973001642637 0 -0.0019347493482703244 0.036714619774401616 0 0.00050533407257923838 0.03696160216854489 0 0.0021798285819152681 0.036370888145013255 0 0.0011786466426256701 0.035206488818766771 0 0.00050533407257923838 0.03696160216854489 0 -0.00051254298668352248 0.035266973001642637 0 0.0011786466426256701 0.035206488818766771 0 0.0024162761151112324 0.038572558702406612 0 0.0021798285819152681 0.036370888145013255 0 0.0042662775752163084 0.036186083534223284 0 0.0024162761151112324 0.038572558702406612 0 0.00050533407257923838 0.03696160216854489 0 0.0021798285819152681 0.036370888145013255 0 0.0021798285819152681 0.036370888145013255 0 0.0025619710185238718 0.03459264217071218 0 0.0042662775752163084 0.036186083534223284 0 0.0025619710185238718 0.03459264217071218 0 0.0016277159505310329 0.033983462416915251 0 0.0011786466426256701 0.035206488818766771 0 0.0021798285819152681 0.036370888145013255 0 0.0025619710185238718 0.03459264217071218 0 0.0011786466426256701 0.035206488818766771 0 0.0025619710185238718 0.03459264217071218 0 0.0044093884199613029 0.034308575709908196 0 0.0028289313470599739 0.032698989975433961 0 0.0025619710185238718 0.03459264217071218 0 0.0016277159505310329 0.033983462416915251 0 0.0028289313470599739 0.032698989975433961 0 0.0016277159505310329 0.033983462416915251 0 0.00070214419946762485 0.034070532565581173 0 0.00074116063473655752 0.033264903821371768 0 0.0016277159505310329 0.033983462416915251 0 0.00070214419946762485 0.034070532565581173 0 0.0011786466426256701 0.035206488818766771 0 0.00070214419946762485 0.034070532565581173 0 -0.00051254298668352248 0.035266973001642637 0 -0.0009762792607692554 0.033773633221786122 0 0.00070214419946762485 0.034070532565581173 0 0.00074116063473655752 0.033264903821371768 0 -0.0009762792607692554 0.033773633221786122 0 0.00070214419946762485 0.034070532565581173 0 -0.00051254298668352248 0.035266973001642637 0 0.0011786466426256701 0.035206488818766771 0 0.0055054528169987222 0.038550225482946933 0 0.007046249758965996 0.037506367550023643 0 0.006498927464185446 0.036394728882734428 0 0.0081592325578319965 0.036535053362240041 0 0.006498927464185446 0.036394728882734428 0 0.00725731066846902 0.035282629903042595 0 0.0081592325578319965 0.036535053362240041 0 0.007046249758965996 0.037506367550023643 0 0.006498927464185446 0.036394728882734428 0 0.0085327684007987219 0.038229954043465374 0 0.0081592325578319965 0.036535053362240041 0 0.007046249758965996 0.037506367550023643 0 0.006498927464185446 0.036394728882734428 0 0.0042662775752163084 0.036186083534223284 0 0.0058916812795914751 0.034888474017543102 0 0.0055054528169987222 0.038550225482946933 0 0.006498927464185446 0.036394728882734428 0 0.0042662775752163084 0.036186083534223284 0 0.0044093884199613029 0.034308575709908196 0 0.006514750381364543 0.033338611167384923 0 0.0028289313470599739 0.032698989975433961 0 0.0025619710185238718 0.03459264217071218 0 0.0042662775752163084 0.036186083534223284 0 0.0044093884199613029 0.034308575709908196 0 0.0044093884199613029 0.034308575709908196 0 0.0058916812795914751 0.034888474017543102 0 0.006514750381364543 0.033338611167384923 0 0.0042662775752163084 0.036186083534223284 0 0.0044093884199613029 0.034308575709908196 0 0.0058916812795914751 0.034888474017543102 0 0.0092015148998211387 0.035224118212957754 0 0.00725731066846902 0.035282629903042595 0 0.006514750381364543 0.033338611167384923 0 0.0096694008167363694 0.035621242470374431 0 0.0076361595765273276 0.034160161690190191 0 0.010484108378153971 0.03518911951525508 0 0.0076361595765273276 0.034160161690190191 0 0.006498927464185446 0.036394728882734428 0 0.0058916812795914751 0.034888474017543102 0 0.00725731066846902 0.035282629903042595 0 0.0058916812795914751 0.034888474017543102 0 0.00725731066846902 0.035282629903042595 0 0.006514750381364543 0.033338611167384923 0 0.012555118704024735 0.036580487752651443 0 0.011243928974319561 0.035909691283917015 0 0.010724205728753638 0.034622059865337666 0 0.0079428721565298413 0.034438228422430599 0 0.0072312889555054593 0.032727500578037146 0 0.014705210425978716 0.0388749453397811 0 0.014681151832734003 0.038983909988356553 0 0.014241542487406259 0.03934556694957779 0 0.0080849000575825974 0.034218752367647209 0 0.0038583979942114458 0.033419654098286865 0 0.0042497410138162845 0.031569474581608435 0 0.0076361595765273276 0.034160161690190191 0 0.0032210755994579628 0.032988872484381121 0 0.0076361595765273276 0.034160161690190191 0 0.0045748943179986018 0.031794565055757472 0 0.0079428721565298413 0.034438228422430599 0 0.0072312889555054593 0.032727500578037146 0 0.0042497410138162845 0.031569474581608435 0 0.011243928974319561 0.035909691283917015 0 0.0045678217469933679 0.035888559694895988 0 0.0072312889555054593 0.032727500578037146 0 0.0028419682462692527 0.030763871128899927 0 0.0042497410138162845 0.031569474581608435 0 0.014241542487406259 0.03934556694957779 0 0.013623834291902285 0.038457707672605548 0 0.011838923904503132 0.038772940044760132 0 0.014241542487406259 0.03934556694957779 0 0.013623834291902285 0.038457707672605548 0 0.014449279930216156 0.03897059858339999 0 0.013623834291902285 0.038457707672605548 0 0.014449279930216156 0.03897059858339999 0 0.014739753099517005 0.038901332554486037 0 0.0090470440433525687 0.037090890341358131 0 0.007317070721039918 0.038457700161462501 0 0.011385869383178194 0.038821361005598111 0 0.010971342280817096 0.038534819730508228 0 0.012988070952508294 0.038923658167443843 0 0.014681151832734003 0.038983909988356553 0 0.014241542487406259 0.03934556694957779 0 0.014449279930216156 0.03897059858339999 0 0.014681151832734003 0.038983909988356553 0 0.014449279930216156 0.03897059858339999 0 0.014739753099517005 0.038901332554486037 0 0.0032210755994579628 0.032988872484381121 0 -0.00044805158972504862 0.032310447794027912 0 0.00074116063473655752 0.033264903821371768 0 0.0028289313470599739 0.032698989975433961 0 -0.00073964582237761559 0.032235405446003895 0 0.0038583979942114458 0.033419654098286865 0 0.0025106298763919151 0.032164668859162415 0 -0.00073964582237761559 0.032235405446003895 0 0.0011088189709728348 0.031657357213492082 0 0.0025106298763919151 0.032164668859162415 0 -0.00073964582237761559 0.032235405446003895 0 0.0011088189709728348 0.031657357213492082 0 -0.00087398210292173877 0.031311167815168149 0 -0.00073964582237761559 0.032235405446003895 0 0.00074116063473655752 0.033264903821371768 0 -0.00073964582237761559 0.032235405446003895 0 -0.0009762792607692554 0.033773633221786122 0 0.0016277159505310329 0.033983462416915251 0 0.00074116063473655752 0.033264903821371768 0 0.0028289313470599739 0.032698989975433961 0 0.0038583979942114458 0.033419654098286865 0 0.0025106298763919151 0.032164668859162415 0 0.0042497410138162845 0.031569474581608435 0 0.010971342280817096 0.038534819730508228 0 0.0045678217469933679 0.035888559694895988 0 0.0017958394751258924 0.034829507719914575 0 0.007317070721039918 0.038457700161462501 0 0.0028485429993009375 0.038086714405441743 0 0.0025106298763919151 0.032164668859162415 0 0.0028419682462692527 0.030763871128899927 0 0.0042497410138162845 0.031569474581608435 0 0.0011088189709728348 0.031657357213492082 0 0.0025106298763919151 0.032164668859162415 0 0.0028419682462692527 0.030763871128899927 0 0.0045678217469933679 0.035888559694895988 0 -0.0012235239482513904 0.035220143701583724 0 0.0045678217469933679 0.035888559694895988 0 -0.0015473746352647243 0.033212923910793016 0 0.0017958394751258924 0.034829507719914575 0 0.0028485429993009375 0.038086714405441743 0 -0.00071635532689135514 0.035098600967110843 0 0.0011088189709728348 0.031657357213492082 0 0.0028419682462692527 0.030763871128899927 0 -0.00087398210292173877 0.031311167815168149 0 0.00020502273804888551 0.035408093751300065 0 -0.00071635532689135514 0.035098600967110843 0 -0.0012521780299363451 0.035469264999148702 0 -0.0023027513336741595 0.034403941857277964 0 -0.0012521780299363451 0.035469264999148702 0 -0.0040567958221509846 0.034453752916953469 0 -0.0020821237534544902 0.033551095887732862 0 -0.00071635532689135514 0.035098600967110843 0 -0.0023027513336741595 0.034403941857277964 0 -0.0020821237534544902 0.033551095887732862 0 -0.0023027513336741595 0.034403941857277964 0 -0.0036101634001763599 0.033391735750582456 0 -0.00071635532689135514 0.035098600967110843 0 -0.0023027513336741595 0.034403941857277964 0 -0.0012521780299363451 0.035469264999148702 0 -0.0023027513336741595 0.034403941857277964 0 -0.0036101634001763599 0.033391735750582456 0 -0.0040567958221509846 0.034453752916953469 0 -0.0036101634001763599 0.033391735750582456 0 -0.0040567958221509846 0.034453752916953469 0 -0.0053449459285978716 0.032651734789411434 0 -0.0039002781791135795 0.031985288549130471 0 -0.0039441826582262427 0.033694534763133187 0 -0.0068525466740372003 0.032840110490771769 0 -0.0039002781791135795 0.031985288549130471 0 -0.0023864586365758304 0.032858958258735152 0 -0.0039441826582262427 0.033694534763133187 0 -0.0015473746352647243 0.033212923910793016 0 -0.0038024870514724901 0.03315743796825834 0 -0.00087398210292173877 0.031311167815168149 0 -0.0039002781791135795 0.031985288549130471 0 -0.0023864586365758304 0.032858958258735152 0 -0.00087398210292173877 0.031311167815168149 0 -0.00073964582237761559 0.032235405446003895 0 -0.0023864586365758304 0.032858958258735152 0 -0.00073964582237761559 0.032235405446003895 0 -0.0023864586365758304 0.032858958258735152 0 -0.0009762792607692554 0.033773633221786122 0 -0.00051254298668352248 0.035266973001642637 0 -0.0027035169194747711 0.034823140156007848 0 -0.0019347493482703244 0.036714619774401616 0 -0.00051254298668352248 0.035266973001642637 0 -0.0009762792607692554 0.033773633221786122 0 -0.0027035169194747711 0.034823140156007848 0 -0.0023864586365758304 0.032858958258735152 0 -0.0009762792607692554 0.033773633221786122 0 -0.0027035169194747711 0.034823140156007848 0 -0.0027035169194747711 0.034823140156007848 0 -0.0039441826582262427 0.033694534763133187 0 -0.0052633914594462138 0.035028826402972252 0 -0.0027035169194747711 0.034823140156007848 0 -0.0040386885948197511 0.03637474472769596 0 -0.0052633914594462138 0.035028826402972252 0 -0.0023864586365758304 0.032858958258735152 0 -0.0027035169194747711 0.034823140156007848 0 -0.0039441826582262427 0.033694534763133187 0 -0.0040386885948197511 0.03637474472769596 0 -0.0060276343418250678 0.036945063998247263 0 -0.0052633914594462138 0.035028826402972252 0 -0.0041813952378836521 0.038326470328069413 0 -0.0040386885948197511 0.03637474472769596 0 -0.0060276343418250678 0.036945063998247263 0 -0.0041813952378836521 0.038326470328069413 0 -0.0040386885948197511 0.03637474472769596 0 -0.0019347493482703244 0.036714619774401616 0 -0.0027035169194747711 0.034823140156007848 0 -0.0040386885948197511 0.03637474472769596 0 -0.0019347493482703244 0.036714619774401616 0 -0.0088903672070341517 0.037036037907992335 0 -0.007576866619328766 0.037015518288139856 0 -0.0079620277550883373 0.035529637730704784 0 -0.010607542253360018 0.03849968606968094 0 -0.0079620277550883373 0.035529637730704784 0 -0.010898555537980054 0.035802128999684824 0 -0.010220298031027373 0.038214562459556317 0 -0.0080078745773531964 0.035628559355378606 0 -0.0086813181712133512 0.038316299345792726 0 -0.0088903672070341517 0.037036037907992335 0 -0.007576866619328766 0.037015518288139856 0 -0.0074983015516294554 0.038387218787172578 0 -0.007576866619328766 0.037015518288139856 0 -0.0060276343418250678 0.036945063998247263 0 -0.0060276343418250678 0.036945063998247263 0 -0.0052633914594462138 0.035028826402972252 0 -0.0079620277550883373 0.035529637730704784 0 -0.007576866619328766 0.037015518288139856 0 -0.0060276343418250678 0.036945063998247263 0 -0.0079620277550883373 0.035529637730704784 0 -0.0039441826582262427 0.033694534763133187 0 -0.0052633914594462138 0.035028826402972252 0 -0.0068525466740372003 0.032840110490771769 0 -0.0052633914594462138 0.035028826402972252 0 -0.0079620277550883373 0.035529637730704784 0 -0.0068525466740372003 0.032840110490771769 0 -0.0079620277550883373 0.035529637730704784 0 -0.0091375537071694442 0.032750033493114929 0 -0.011291574402944609 0.033541845976338309 0 -0.0079620277550883373 0.035529637730704784 0 -0.0091375537071694442 0.032750033493114929 0 -0.0068525466740372003 0.032840110490771769 0 -0.0079620277550883373 0.035529637730704784 0 -0.010898555537980054 0.035802128999684824 0 -0.011291574402944609 0.033541845976338309 0 -0.0091375537071694442 0.032750033493114929 0 -0.010765574752851347 0.032159467599243145 0 -0.010247918570121686 0.030789534815505344 0 -0.0091375537071694442 0.032750033493114929 0 -0.010765574752851347 0.032159467599243145 0 -0.011291574402944609 0.033541845976338309 0 -0.0091375537071694442 0.032750033493114929 0 -0.0081749564567445612 0.031774097899269424 0 -0.0068525466740372003 0.032840110490771769 0 -0.0081749564567445612 0.031774097899269424 0 -0.010247918570121686 0.030789534815505344 0 -0.009846839294803204 0.030383845074982298 0 -0.0091375537071694442 0.032750033493114929 0 -0.0081749564567445612 0.031774097899269424 0 -0.010247918570121686 0.030789534815505344 0 -0.0081749564567445612 0.031774097899269424 0 -0.0068525466740372003 0.032840110490771769 0 -0.0053449459285978716 0.032651734789411434 0 -0.0040567958221509846 0.034453752916953469 0 -0.0068525466740372003 0.032840110490771769 0 -0.0053449459285978716 0.032651734789411434 0 -0.0038024870514724901 0.03315743796825834 0 -0.0064741966667378401 0.033012957149344949 0 -0.0049496198534390041 0.031949609160524577 0 -0.0098131532864485591 0.03346592317300541 0 -0.010806547029089206 0.038503892679712659 0 -0.011150308493804778 0.039743213773449151 0 -0.011739381087705289 0.03926343200123876 0 -0.0081749564567445612 0.031774097899269424 0 -0.0053449459285978716 0.032651734789411434 0 -0.009846839294803204 0.030383845074982298 0 -0.003998799849640737 0.041063828302192101 0 -0.0098131532864485591 0.03346592317300541 0 -0.0053449459285978716 0.032651734789411434 0 -0.0057335222594799666 0.032521118696776014 0 -0.0061719335413856994 0.032980345314486237 0 -0.0059209324676355391 0.031981831969085418 0 -0.0057335222594799666 0.032521118696776014 0 -0.0061719335413856994 0.032980345314486237 0 -0.009673586426259654 0.03223889436992762 0 -0.0098131532864485591 0.03346592317300541 0 -0.011150308493804778 0.039743213773449151 0 -0.011739381087705289 0.03926343200123876 0 -0.012222416823164576 0.04001309741487933 0 -0.010247918570121686 0.030789534815505344 0 -0.010001105661755376 0.029840742424139661 0 -0.015303075129039336 0.030167296725773295 0 -0.010247918570121686 0.030789534815505344 0 -0.012794731801790053 0.031783463125324138 0 -0.015303075129039336 0.030167296725773295 0 -0.010765574752851347 0.032159467599243145 0 -0.010247918570121686 0.030789534815505344 0 -0.012794731801790053 0.031783463125324138 0 -0.0098131532864485591 0.03346592317300541 0 -0.013831431578760076 0.035401882455239057 0 -0.012794731801790053 0.031783463125324138 0 -0.015303075129039336 0.030167296725773295 0 -0.015630350180774726 0.032305006166371393 0 -0.012794731801790053 0.031783463125324138 0 -0.013618412053958005 0.032982950817834082 0 -0.015630350180774726 0.032305006166371393 0 -0.012794731801790053 0.031783463125324138 0 -0.011291574402944609 0.033541845976338309 0 -0.013618412053958005 0.032982950817834082 0 -0.010765574752851347 0.032159467599243145 0 -0.012794731801790053 0.031783463125324138 0 -0.011291574402944609 0.033541845976338309 0 -0.017065681136631854 0.033240550118663441 0 -0.0168192821287492 0.031541831219914274 0 -0.013831431578760076 0.035401882455239057 0 -0.017065681136631854 0.033240550118663441 0 -0.019150407891422968 0.030238823406280643 0 -0.0181265521114507 0.031972424273353353 0 -0.015630350180774726 0.032305006166371393 0 -0.012222416823164576 0.04001309741487933 0 -0.012533146243394168 0.039369693044196269 0 -0.013314289896752401 0.040245234904369688 0 -0.015303075129039336 0.030167296725773295 0 -0.018825588602703523 0.031095777074514649 0 -0.015630350180774726 0.032305006166371393 0 -0.011739381087705289 0.03926343200123876 0 -0.012222416823164576 0.04001309741487933 0 -0.012533146243394168 0.039369693044196269 0 -0.012702333386079604 0.045264192792943594 0 -0.015925347692229218 0.036011471216629544 0 -0.01275392338937288 0.049594299434072994 0 -0.012869882697658147 0.049367714731574627 0 -0.012652534321061502 0.049387022854502645 0 -0.012869882697658147 0.049367714731574627 0 -0.012652534321061502 0.049387022854502645 0 -0.012723333800171596 0.049076022242291864 0 -0.012500599270117149 0.049416678826954386 0 -0.012652534321061502 0.049387022854502645 0 -0.012523433264626873 0.04920533112105184 0 -0.012652534321061502 0.049387022854502645 0 -0.012523433264626873 0.04920533112105184 0 -0.012723333800171596 0.049076022242291864 0 -0.015674694117727414 0.025939698192514102 0 -0.016868124919454833 0.020793544284622264 0 -0.013971571295518322 0.039550451450759812 0 -0.015925347692229218 0.036011471216629544 0 -0.015836642946114737 0.029450137350918067 0 -0.01589169725228429 0.029412888345459205 0 -0.015965730900024167 0.029427980950140483 0 -0.01589169725228429 0.029412888345459205 0 -0.015928781926384295 0.02935918636297383 0 -0.015761729014811862 0.029255748124794659 0 -0.015836642946114737 0.029450137350918067 0 -0.01589169725228429 0.029412888345459205 0 -0.015761729014811862 0.029255748124794659 0 -0.015451325104216037 0.013151588733502959 0 -0.015322521961810279 0.013299525652536106 0 -0.016195412183152968 0.014074320041253408 0 -0.01589169725228429 0.029412888345459205 0 -0.015922704720606872 0.029393470667809837 0 -0.015950800434392655 0.029408872863626073 0 -0.014979197551593096 0.028082674079479262 0 -0.015674694117727414 0.025939698192514102 0 -0.015674694117727414 0.025939698192514102 0 -0.015943501070468505 0.023391243723331706 0 -0.012533146243394168 0.039369693044196269 0 -0.013459210017371451 0.040189582583404222 0 -0.013314289896752401 0.040245234904369688 0 -0.01589169725228429 0.029412888345459205 0 -0.015965730900024167 0.029427980950140483 0 -0.015950800434392655 0.029408872863626073 0 -0.017025057499371915 0.031215392282350186 0 -0.017693014925106443 0.031891566226948186 0 -0.016219659790560361 0.031517543506559061 0 -0.016564952930372388 0.030186663824205075 0 -0.017065681136631854 0.033240550118663441 0 -0.020143127803637327 0.030456362302233718 0 -0.020718822112136142 0.030998779714606312 0 -0.0181265521114507 0.031972424273353353 0 -0.015925347692229218 0.036011471216629544 0 -0.017065681136631854 0.033240550118663441 0 -0.015925347692229218 0.036011471216629544 0 -0.016564952930372388 0.030186663824205075 0 -0.016748167830879571 0.027450053603101321 0 -0.015382070637567882 0.027107308984640876 0 -0.016258916510231095 0.027991040418830531 0 -0.015674694117727414 0.025939698192514102 0 -0.016564952930372388 0.030186663824205075 0 -0.016564952930372388 0.030186663824205075 0 -0.015943501070468505 0.023391243723331706 0 -0.020143127803637327 0.030456362302233718 0 -0.019150407891422968 0.030238823406280643 0 -0.0181265521114507 0.031972424273353353 0 -0.015943501070468505 0.023391243723331706 0 -0.016290904525954962 0.023842678974522514 0 -0.020718822112136142 0.030998779714606312 0 -0.0181265521114507 0.031972424273353353 0 -0.017786290143161781 0.033582753926062837 0 -0.015010988001888886 0.013557927257775179 0 -0.01369190646818157 0.015186276677298044 0 -0.015180241972405483 0.015016975470297402 0 -0.015010988001888886 0.013557927257775179 0 -0.016195412183152968 0.014074320041253408 0 -0.015180241972405483 0.015016975470297402 0 -0.015451325104216037 0.013151588733502959 0 -0.016195412183152968 0.014074320041253408 0 -0.017673836622416967 0.013393947170732015 0 -0.015943501070468505 0.023391243723331706 0 -0.014026764843000472 0.012985735199470645 0 -0.016195412183152968 0.014074320041253408 0 -0.016256374050056657 0.015029838889824015 0 -0.015180241972405483 0.015016975470297402 0 -0.016195412183152968 0.014074320041253408 0 -0.016256374050056657 0.015029838889824015 0 -0.017313301674215652 0.014593055685519602 0 -0.016256374050056657 0.015029838889824015 0 -0.015180241972405483 0.015016975470297402 0 -0.015751172404956774 0.01578531697358692 0 -0.016256374050056657 0.015029838889824015 0 -0.016842778711387535 0.015403491211318253 0 -0.015751172404956774 0.01578531697358692 0 -0.01369190646818157 0.015186276677298044 0 -0.015180241972405483 0.015016975470297402 0 -0.014439112777672724 0.01607569299989443 0 -0.015180241972405483 0.015016975470297402 0 -0.014439112777672724 0.01607569299989443 0 -0.015751172404956774 0.01578531697358692 0 -0.017786290143161781 0.033582753926062837 0 -0.017380064683292208 0.033058950579453635 0 -0.017249151587947518 0.033234765278433484 0 -0.01369190646818157 0.015186276677298044 0 -0.014439112777672724 0.01607569299989443 0 -0.012706076605032269 0.016553382395375842 0 -0.017786290143161781 0.033582753926062837 0 -0.017249151587947518 0.033234765278433484 0 -0.016283466135279138 0.033994642115965402 0 -0.016290904525954962 0.023842678974522514 0 -0.014216154772634689 0.025596486226060908 0 -0.01526002500236215 0.033460775137307157 0 -0.016136242306206933 0.035017173161386451 0 -0.014216154772634689 0.025596486226060908 0 -0.01526002500236215 0.033460775137307157 0 -0.01526002500236215 0.033460775137307157 0 -0.012966261187841943 0.030850835721382974 0 -0.013036224591513639 0.039096379933348448 0 -0.014564991999739766 0.038681371589240551 0 -0.013439482265499719 0.037081592720456164 0 -0.014605604360574967 0.028977815676457946 0 -0.01409305698844366 0.02827038338165477 0 -0.013699135439482136 0.029968380118098877 0 -0.013036224591513639 0.039096379933348448 0 -0.014564991999739766 0.038681371589240551 0 -0.014203125976954648 0.040259841587469862 0 -0.010607542253360018 0.03849968606968094 0 -0.013036224591513639 0.039096379933348448 0 -0.013439482265499719 0.037081592720456164 0 -0.010607542253360018 0.03849968606968094 0 -0.013036224591513639 0.039096379933348448 0 -0.013198435643281242 0.041376514466231973 0 -0.010607542253360018 0.03849968606968094 0 -0.010898555537980054 0.035802128999684824 0 -0.013439482265499719 0.037081592720456164 0 -0.015177441076685252 0.039454560178746954 0 -0.013439482265499719 0.037081592720456164 0 -0.016283466135279138 0.033994642115965402 0 -0.01526002500236215 0.033460775137307157 0 -0.015380867229201997 0.036649386010222204 0 -0.013439482265499719 0.037081592720456164 0 -0.012992588200295767 0.034565630233569719 0 -0.016283466135279138 0.033994642115965402 0 -0.010898555537980054 0.035802128999684824 0 -0.012992588200295767 0.034565630233569719 0 -0.011291574402944609 0.033541845976338309 0 -0.010898555537980054 0.035802128999684824 0 -0.013439482265499719 0.037081592720456164 0 -0.012992588200295767 0.034565630233569719 0 -0.012992588200295767 0.034565630233569719 0 -0.011291574402944609 0.033541845976338309 0 -0.013618412053958005 0.032982950817834082 0 -0.013618412053958005 0.032982950817834082 0 -0.015630350180774726 0.032305006166371393 0 -0.016283466135279138 0.033994642115965402 0 -0.012992588200295767 0.034565630233569719 0 -0.013618412053958005 0.032982950817834082 0 -0.016283466135279138 0.033994642115965402 0 -0.0181265521114507 0.031972424273353353 0 -0.015630350180774726 0.032305006166371393 0 -0.016283466135279138 0.033994642115965402 0 -0.0181265521114507 0.031972424273353353 0 -0.017786290143161781 0.033582753926062837 0 -0.016283466135279138 0.033994642115965402 0 -0.025077770795603787 0.022863708764017141 0 -0.024660481078358127 0.023205927176979106 0 -0.024377823000747183 0.022816975045479446 0 -0.024970869498876586 0.022583726945069812 0 -0.025077770795603787 0.022863708764017141 0 -0.024377823000747183 0.022816975045479446 0 -0.019569538138345589 0.025163823188162081 0 -0.019030903408073212 0.035041409278656815 0 -0.015557796203254665 0.029264950865794854 0 -0.015596459446615219 0.02955002106661344 0 -0.015670335259551124 0.029346342916990273 0 -0.015557796203254665 0.029264950865794854 0 -0.015670335259551124 0.029346342916990273 0 -0.015639280799069337 0.029148263908918261 0 -0.015670335259551124 0.029346342916990273 0 -0.015752501807979838 0.029387357791124676 0 -0.015761729014811862 0.029255748124794659 0 -0.015670335259551124 0.029346342916990273 0 -0.015706649937918211 0.029496402610228813 0 -0.015752501807979838 0.029387357791124676 0 -0.015596459446615219 0.02955002106661344 0 -0.015670335259551124 0.029346342916990273 0 -0.015706649937918211 0.029496402610228813 0 -0.012384702650804963 0.049449180023262686 0 -0.012270397788754965 0.049270693990807524 0 -0.012396873717485523 0.049273514001775397 0 -0.019030903408073212 0.035041409278656815 0 -0.013017517478381127 0.039900880407060815 0 -0.015836642946114737 0.029450137350918067 0 -0.015706649937918211 0.029496402610228813 0 -0.015752501807979838 0.029387357791124676 0 -0.012500599270117149 0.049416678826954386 0 -0.012384702650804963 0.049449180023262686 0 -0.012396873717485523 0.049273514001775397 0 -0.013971571295518322 0.039550451450759812 0 -0.013017517478381127 0.039900880407060815 0 -0.012500599270117149 0.049416678826954386 0 -0.012523433264626873 0.04920533112105184 0 -0.012396873717485523 0.049273514001775397 0 -0.015836642946114737 0.029450137350918067 0 -0.015752501807979838 0.029387357791124676 0 -0.015761729014811862 0.029255748124794659 0 -0.016195412183152968 0.014074320041253408 0 -0.017673836622416967 0.013393947170732015 0 -0.017313301674215652 0.014593055685519602 0 -0.017673836622416967 0.013393947170732015 0 -0.017313301674215652 0.014593055685519602 0 -0.018630656949871996 0.014483781814998807 0 -0.017313301674215652 0.014593055685519602 0 -0.018630656949871996 0.014483781814998807 0 -0.017853866458816946 0.01532046210657566 0 -0.017313301674215652 0.014593055685519602 0 -0.016842778711387535 0.015403491211318253 0 -0.017853866458816946 0.01532046210657566 0 -0.016256374050056657 0.015029838889824015 0 -0.017313301674215652 0.014593055685519602 0 -0.016842778711387535 0.015403491211318253 0 -0.017673836622416967 0.013393947170732015 0 -0.018630656949871996 0.014483781814998807 0 -0.019647170516820418 0.013540562425737961 0 -0.016868124919454833 0.020793544284622264 0 -0.016519017544149001 0.021121057284824572 0 -0.015670335259551124 0.029346342916990273 0 -0.015761729014811862 0.029255748124794659 0 -0.015639280799069337 0.029148263908918261 0 -0.018630656949871996 0.014483781814998807 0 -0.019647170516820418 0.013540562425737961 0 -0.020197295306313916 0.01446374190477526 0 -0.018630656949871996 0.014483781814998807 0 -0.020197295306313916 0.01446374190477526 0 -0.019341140857484389 0.015313932626296109 0 -0.021387628510773873 0.013833050474567727 0 -0.020197295306313916 0.01446374190477526 0 -0.021203783948872571 0.01472615537809488 0 -0.021387628510773873 0.013833050474567727 0 -0.019647170516820418 0.013540562425737961 0 -0.020197295306313916 0.01446374190477526 0 -0.02371187093007469 0.022859335084965501 0 -0.019569538138345589 0.025163823188162081 0 -0.015581207857294591 0.029033318978870442 0 -0.015557796203254665 0.029264950865794854 0 -0.015639280799069337 0.029148263908918261 0 -0.02371187093007469 0.022859335084965501 0 -0.016519017544149001 0.021121057284824572 0 -0.021612964280855407 0.015332538934459414 0 -0.020581760226759081 0.015669067152626174 0 -0.02165161970355715 0.01607746324424306 0 -0.021612964280855407 0.015332538934459414 0 -0.020581760226759081 0.015669067152626174 0 -0.020562481484286396 0.015039696826641588 0 -0.021612964280855407 0.015332538934459414 0 -0.021203783948872571 0.01472615537809488 0 -0.020562481484286396 0.015039696826641588 0 -0.020197295306313916 0.01446374190477526 0 -0.021203783948872571 0.01472615537809488 0 -0.020562481484286396 0.015039696826641588 0 -0.020197295306313916 0.01446374190477526 0 -0.020562481484286396 0.015039696826641588 0 -0.019341140857484389 0.015313932626296109 0 -0.020581760226759081 0.015669067152626174 0 -0.020562481484286396 0.015039696826641588 0 -0.019341140857484389 0.015313932626296109 0 -0.020581760226759081 0.015669067152626174 0 -0.019341140857484389 0.015313932626296109 0 -0.019399504451738488 0.01610886210117676 0 -0.020581760226759081 0.015669067152626174 0 -0.019399504451738488 0.01610886210117676 0 -0.020279315263564121 0.016204466683414607 0 -0.019341140857484389 0.015313932626296109 0 -0.019399504451738488 0.01610886210117676 0 -0.018334902334110052 0.016057128124054791 0 -0.019399504451738488 0.01610886210117676 0 -0.018334902334110052 0.016057128124054791 0 -0.018636874567382382 0.016639186366188684 0 -0.018630656949871996 0.014483781814998807 0 -0.019341140857484389 0.015313932626296109 0 -0.017853866458816946 0.01532046210657566 0 -0.019341140857484389 0.015313932626296109 0 -0.018334902334110052 0.016057128124054791 0 -0.017853866458816946 0.01532046210657566 0 -0.016842778711387535 0.015403491211318253 0 -0.017035537723506307 0.016165845420132021 0 -0.017853866458816946 0.01532046210657566 0 -0.018334902334110052 0.016057128124054791 0 -0.017035537723506307 0.016165845420132021 0 -0.017853866458816946 0.01532046210657566 0 -0.017035537723506307 0.016165845420132021 0 -0.017716659161029859 0.01665640843820447 0 -0.016981094894556105 0.017029928589889092 0 -0.018334902334110052 0.016057128124054791 0 -0.017035537723506307 0.016165845420132021 0 -0.017716659161029859 0.01665640843820447 0 -0.018334902334110052 0.016057128124054791 0 -0.017716659161029859 0.01665640843820447 0 -0.018636874567382382 0.016639186366188684 0 -0.017716659161029859 0.01665640843820447 0 -0.017783335767554476 0.017311155980122971 0 -0.016981094894556105 0.017029928589889092 0 -0.017716659161029859 0.01665640843820447 0 -0.017783335767554476 0.017311155980122971 0 -0.018636874567382382 0.016639186366188684 0 -0.017783335767554476 0.017311155980122971 0 -0.016981094894556105 0.017029928589889092 0 -0.017273407209605653 0.017689104231842653 0 -0.017783335767554476 0.017311155980122971 0 -0.017845123698491224 0.01772676769955776 0 -0.017273407209605653 0.017689104231842653 0 -0.017783335767554476 0.017311155980122971 0 -0.017845123698491224 0.01772676769955776 0 -0.018288497192267016 0.017614104919936563 0 -0.017783335767554476 0.017311155980122971 0 -0.018288497192267016 0.017614104919936563 0 -0.018597117203515652 0.017185142745059938 0 -0.018288497192267016 0.017614104919936563 0 -0.018597117203515652 0.017185142745059938 0 -0.019102979826175346 0.0174091414021731 0 -0.018597117203515652 0.017185142745059938 0 -0.019102979826175346 0.0174091414021731 0 -0.019295681602584894 0.016819542799843681 0 -0.019399504451738488 0.01610886210117676 0 -0.019295681602584894 0.016819542799843681 0 -0.018636874567382382 0.016639186366188684 0 -0.018597117203515652 0.017185142745059938 0 -0.019295681602584894 0.016819542799843681 0 -0.018636874567382382 0.016639186366188684 0 -0.017783335767554476 0.017311155980122971 0 -0.018597117203515652 0.017185142745059938 0 -0.018636874567382382 0.016639186366188684 0 -0.019399504451738488 0.01610886210117676 0 -0.019295681602584894 0.016819542799843681 0 -0.020279315263564121 0.016204466683414607 0 -0.019295681602584894 0.016819542799843681 0 -0.020279315263564121 0.016204466683414607 0 -0.020255734246941774 0.016670379033501284 0 -0.019102979826175346 0.0174091414021731 0 -0.019295681602584894 0.016819542799843681 0 -0.020255734246941774 0.016670379033501284 0 -0.019102979826175346 0.0174091414021731 0 -0.020255734246941774 0.016670379033501284 0 -0.020356294638049135 0.017333739876797701 0 -0.02248928182628674 0.016911073760797354 0 -0.020255734246941774 0.016670379033501284 0 -0.020356294638049135 0.017333739876797701 0 -0.02248928182628674 0.016911073760797354 0 -0.020255734246941774 0.016670379033501284 0 -0.02165161970355715 0.01607746324424306 0 -0.020581760226759081 0.015669067152626174 0 -0.020279315263564121 0.016204466683414607 0 -0.02165161970355715 0.01607746324424306 0 -0.020279315263564121 0.016204466683414607 0 -0.020255734246941774 0.016670379033501284 0 -0.02165161970355715 0.01607746324424306 0 -0.013233370227764038 0.023121553347241128 0 -0.013448162159310856 0.022867316847537122 0 -0.013197263323403003 0.021925400529103026 0 -0.013902360333106429 0.022800751275543742 0 -0.013233370227764038 0.023121553347241128 0 -0.014702251536008801 0.023790377322160789 0 -0.010608124227752683 0.025677338858376454 0 -0.010756547488979499 0.024747067074677779 0 -0.011758540553439811 0.024752918735682132 0 -0.012007570241899653 0.02406402406326787 0 -0.010930235536896683 0.029217367313111829 0 -0.013902360333106429 0.022800751275543742 0 -0.013233370227764038 0.023121553347241128 0 -0.013448162159310856 0.022867316847537122 0 -0.012007570241899653 0.02406402406326787 0 -0.012420584194969851 0.022827310164571128 0 -0.013902360333106429 0.022800751275543742 0 -0.013448162159310856 0.022867316847537122 0 -0.013116926982548049 0.021908454928249325 0 -0.013212791421752737 0.022594500482812179 0 -0.012420584194969851 0.022827310164571128 0 -0.010608124227752683 0.025677338858376454 0 -0.0098696288210382826 0.024759392290888634 0 -0.010756547488979499 0.024747067074677779 0 -0.0095879226371536237 0.030443691012301793 0 -0.0074380901557992438 0.032272477911648993 0 -0.0079257569787583096 0.029847529430330769 0 -0.010608124227752683 0.025677338858376454 0 -0.011370123568396376 0.026603626067436461 0 -0.011758540553439811 0.024752918735682132 0 -0.010930235536896683 0.029217367313111829 0 -0.009762680317219977 0.027572432781278636 0 -0.0095879226371536237 0.030443691012301793 0 -0.0074380901557992438 0.032272477911648993 0 -0.0076872160816729073 0.03256771543216453 0 -0.010930235536896683 0.029217367313111829 0 -0.011030829165530736 0.034726115163858304 0 -0.010220298031027373 0.038214562459556317 0 -0.011030829165530736 0.034726115163858304 0 -0.0086813181712133512 0.038316299345792726 0 -0.0088903672070341517 0.037036037907992335 0 -0.010036803302037519 0.03843908825771148 0 -0.013036224591513639 0.039096379933348448 0 -0.013198435643281242 0.041376514466231973 0 -0.014203125976954648 0.040259841587469862 0 -0.010930235536896683 0.029217367313111829 0 -0.012966261187841943 0.030850835721382974 0 -0.011948929503645456 0.032728882139757852 0 -0.011557819676316219 0.032269726980820201 0 -0.012225248906099623 0.031540520928466965 0 -0.011030829165530736 0.034726115163858304 0 -0.012966261187841943 0.030850835721382974 0 -0.014216154772634689 0.025596486226060908 0 -0.012966261187841943 0.030850835721382974 0 -0.014216154772634689 0.025596486226060908 0 -0.013506929662480287 0.019064893433362255 0 -0.013233370227764038 0.023121553347241128 0 -0.014702251536008801 0.023790377322160789 0 -0.014568743587036647 0.024405772865199338 0 -0.014439112777672724 0.01607569299989443 0 -0.012706076605032269 0.016553382395375842 0 -0.014595208482224354 0.016890013760732635 0 -0.014290315444509684 0.024714283519385993 0 -0.013233370227764038 0.023121553347241128 0 -0.014568743587036647 0.024405772865199338 0 -0.014439112777672724 0.01607569299989443 0 -0.014595208482224354 0.016890013760732635 0 -0.015848111986674469 0.016600974820082038 0 -0.014439112777672724 0.01607569299989443 0 -0.015751172404956774 0.01578531697358692 0 -0.015848111986674469 0.016600974820082038 0 -0.016842778711387535 0.015403491211318253 0 -0.017035537723506307 0.016165845420132021 0 -0.015751172404956774 0.01578531697358692 0 -0.017035537723506307 0.016165845420132021 0 -0.015751172404956774 0.01578531697358692 0 -0.015848111986674469 0.016600974820082038 0 -0.017035537723506307 0.016165845420132021 0 -0.015848111986674469 0.016600974820082038 0 -0.016981094894556105 0.017029928589889092 0 -0.015848111986674469 0.016600974820082038 0 -0.016106535383514919 0.017278451285752821 0 -0.016981094894556105 0.017029928589889092 0 -0.014595208482224354 0.016890013760732635 0 -0.015848111986674469 0.016600974820082038 0 -0.016106535383514919 0.017278451285752821 0 -0.013506929662480287 0.019064893433362255 0 -0.014207013887628713 0.019638376062202624 0 -0.013233370227764038 0.023121553347241128 0 -0.013197263323403003 0.021925400529103026 0 -0.012398735451424109 0.021723127185976937 0 -0.013197263323403003 0.021925400529103026 0 -0.012398735451424109 0.021723127185976937 0 -0.012577132163929566 0.021159338822537392 0 -0.012420584194969851 0.022827310164571128 0 -0.012688389910549578 0.020979103201931932 0 -0.016106535383514919 0.017278451285752821 0 -0.016981094894556105 0.017029928589889092 0 -0.017273407209605653 0.017689104231842653 0 -0.014207013887628713 0.019638376062202624 0 -0.015333124891173224 0.018874126935713494 0 -0.012577132163929566 0.021159338822537392 0 -0.012026219741575495 0.020443563951985148 0 -0.011638767389069837 0.020514158902996443 0 -0.012398735451424109 0.021723127185976937 0 -0.012577132163929566 0.021159338822537392 0 -0.011638767389069837 0.020514158902996443 0 -0.012688389910549578 0.020979103201931932 0 -0.014472850459186845 0.018784939158569325 0 -0.016287934097545295 0.016829766522873411 0 -0.015207577745483789 0.017047438453966259 0 -0.015896939786881704 0.017491359593766909 0 -0.014472850459186845 0.018784939158569325 0 -0.015333124891173224 0.018874126935713494 0 -0.012420584194969851 0.022827310164571128 0 -0.01215110593124382 0.020267659106898168 0 -0.013410395819394667 0.021727503571850416 0 -0.012806157780631515 0.020993660210221338 0 -0.012906487399829837 0.020123790002887266 0 -0.012806157780631515 0.020993660210221338 0 -0.012207498581341944 0.020260761402089635 0 -0.012906487399829837 0.020123790002887266 0 -0.014472850459186845 0.018784939158569325 0 -0.01215110593124382 0.020267659106898168 0 -0.0098696288210382826 0.024759392290888634 0 -0.0092932855289155764 0.022893707430675553 0 -0.010793237626666591 0.023804776857315559 0 -0.0092932855289155764 0.022893707430675553 0 -0.010793237626666591 0.023804776857315559 0 -0.010946257824151661 0.022578217558896163 0 -0.0098696288210382826 0.024759392290888634 0 -0.010793237626666591 0.023804776857315559 0 -0.010756547488979499 0.024747067074677779 0 -0.010793237626666591 0.023804776857315559 0 -0.010756547488979499 0.024747067074677779 0 -0.011758540553439811 0.024752918735682132 0 -0.009762680317219977 0.027572432781278636 0 -0.0092196274887941729 0.024075814164435626 0 -0.010793237626666591 0.023804776857315559 0 -0.012131364895768318 0.022948465925788721 0 -0.010946257824151661 0.022578217558896163 0 -0.010793237626666591 0.023804776857315559 0 -0.011758540553439811 0.024752918735682132 0 -0.012131364895768318 0.022948465925788721 0 -0.010609928091295615 0.018774696046149925 0 -0.0085116091218930875 0.019597479421465308 0 -0.0092196274887941729 0.024075814164435626 0 -0.010609928091295615 0.018774696046149925 0 -0.010002386195157319 0.014994838536973212 0 -0.010716627804611261 0.013924032406268999 0 -0.0089365582766690425 0.014290353471363412 0 -0.0089911761052425074 0.020205735843313571 0 -0.010112058117747166 0.020519555251295812 0 -0.0088612013619809235 0.020779008032915429 0 -0.010002386195157319 0.014994838536973212 0 -0.010967153481315373 0.015236939637482903 0 -0.010716627804611261 0.013924032406268999 0 -0.010002386195157319 0.014994838536973212 0 -0.0092817696064363964 0.015721912162967394 0 -0.0089365582766690425 0.014290353471363412 0 -0.010002386195157319 0.014994838536973212 0 -0.0092817696064363964 0.015721912162967394 0 -0.010099856262186643 0.015800241384040039 0 -0.010002386195157319 0.014994838536973212 0 -0.010099856262186643 0.015800241384040039 0 -0.010967153481315373 0.015236939637482903 0 -0.010099856262186643 0.015800241384040039 0 -0.010186515798055292 0.016470081311899826 0 -0.010896588467431984 0.016184011626949182 0 -0.010099856262186643 0.015800241384040039 0 -0.010186515798055292 0.016470081311899826 0 -0.0095149585674411691 0.016377913597871066 0 -0.0092817696064363964 0.015721912162967394 0 -0.0095149585674411691 0.016377913597871066 0 -0.0091062114508059233 0.016445967112687199 0 -0.0092817696064363964 0.015721912162967394 0 -0.010099856262186643 0.015800241384040039 0 -0.0095149585674411691 0.016377913597871066 0 -0.0095149585674411691 0.016377913597871066 0 -0.0091062114508059233 0.016445967112687199 0 -0.0092673120583053603 0.016759080501484194 0 -0.011833580806023552 0.015948539046999693 0 -0.012207033903083709 0.016662167600435585 0 -0.011513176033008721 0.016651215263381081 0 -0.011833580806023552 0.015948539046999693 0 -0.010896588467431984 0.016184011626949182 0 -0.011513176033008721 0.016651215263381081 0 -0.011833580806023552 0.015948539046999693 0 -0.010896588467431984 0.016184011626949182 0 -0.010967153481315373 0.015236939637482903 0 -0.010099856262186643 0.015800241384040039 0 -0.010896588467431984 0.016184011626949182 0 -0.010967153481315373 0.015236939637482903 0 -0.011833580806023552 0.015948539046999693 0 -0.010967153481315373 0.015236939637482903 0 -0.011932778957202791 0.015156086228899723 0 -0.010609928091295615 0.018774696046149925 0 -0.013523655300055842 0.016379839272048294 0 -0.01215110593124382 0.020267659106898168 0 -0.010609928091295615 0.018774696046149925 0 -0.011932778957202791 0.015156086228899723 0 -0.010716627804611261 0.013924032406268999 0 -0.013350582612142749 0.014658404323655607 0 -0.010967153481315373 0.015236939637482903 0 -0.011932778957202791 0.015156086228899723 0 -0.010716627804611261 0.013924032406268999 0 -0.012397094796534353 0.018039970218505858 0 -0.011204006331065035 0.018281355499521632 0 -0.012614275092767061 0.018680807323122925 0 -0.01215110593124382 0.020267659106898168 0 -0.013523655300055842 0.016379839272048294 0 -0.015207577745483789 0.017047438453966259 0 -0.015615968700423805 0.018234971264692573 0 -0.015896939786881704 0.017491359593766909 0 -0.015615968700423805 0.018234971264692573 0 -0.016476362485839516 0.017854336464894417 0 -0.017201319399632084 0.018624331844529475 0 -0.013523655300055842 0.016379839272048294 0 -0.016191894826767288 0.016992109359513563 0 -0.016420105776950356 0.017032488916213499 0 -0.016962918492080734 0.016921000109682269 0 -0.01740591803509161 0.018129685067688504 0 -0.016287934097545295 0.016829766522873411 0 -0.016476362485839516 0.017854336464894417 0 -0.01740591803509161 0.018129685067688504 0 -0.014472850459186845 0.018784939158569325 0 -0.017342815429628154 0.017884480887453591 0 -0.015615968700423805 0.018234971264692573 0 -0.015896939786881704 0.017491359593766909 0 -0.016476362485839516 0.017854336464894417 0 -0.016287934097545295 0.016829766522873411 0 -0.015896939786881704 0.017491359593766909 0 -0.016476362485839516 0.017854336464894417 0 -0.016476362485839516 0.017854336464894417 0 -0.017201319399632084 0.018624331844529475 0 -0.01740591803509161 0.018129685067688504 0 -0.013523655300055842 0.016379839272048294 0 -0.013869457087636979 0.015918813949723654 0 -0.013492380128732238 0.014880624079961637 0 -0.01490070905923303 0.015286347981053229 0 -0.014643886054698574 0.015985814914849635 0 -0.013492380128732238 0.014880624079961637 0 -0.014643886054698574 0.015985814914849635 0 -0.014043961821892846 0.01665212464154044 0 -0.013350582612142749 0.014658404323655607 0 -0.012802857029851011 0.016020879999870726 0 -0.014043961821892846 0.01665212464154044 0 -0.011932778957202791 0.015156086228899723 0 -0.013350582612142749 0.014658404323655607 0 -0.012802857029851011 0.016020879999870726 0 -0.011833580806023552 0.015948539046999693 0 -0.011932778957202791 0.015156086228899723 0 -0.012802857029851011 0.016020879999870726 0 -0.011833580806023552 0.015948539046999693 0 -0.012802857029851011 0.016020879999870726 0 -0.012207033903083709 0.016662167600435585 0 -0.012207033903083709 0.016662167600435585 0 -0.012829837051386028 0.017314984386664199 0 -0.011734918168669685 0.017427971568377484 0 -0.012802857029851011 0.016020879999870726 0 -0.012207033903083709 0.016662167600435585 0 -0.012829837051386028 0.017314984386664199 0 -0.012802857029851011 0.016020879999870726 0 -0.012829837051386028 0.017314984386664199 0 -0.014043961821892846 0.01665212464154044 0 -0.012829837051386028 0.017314984386664199 0 -0.01218987116317044 0.018536075147681075 0 -0.011734918168669685 0.017427971568377484 0 -0.014363133197691936 0.018991499366473295 0 -0.01586822479604829 0.017848023098116499 0 -0.014043961821892846 0.01665212464154044 0 -0.013876290653459184 0.01856962653705305 0 -0.015114590061695696 0.017097853441814758 0 -0.012829837051386028 0.017314984386664199 0 -0.014043961821892846 0.01665212464154044 0 -0.013876290653459184 0.01856962653705305 0 -0.014643886054698574 0.015985814914849635 0 -0.014043961821892846 0.01665212464154044 0 -0.015114590061695696 0.017097853441814758 0 -0.015001839998331983 0.019258235289641552 0 -0.016699695210115988 0.018581801408341012 0 -0.016487966307026373 0.019826924273875508 0 -0.015001839998331983 0.019258235289641552 0 -0.016487966307026373 0.019826924273875508 0 -0.015401540389296246 0.020881972165107475 0 -0.014363133197691936 0.018991499366473295 0 -0.012905270935933823 0.0201994741453786 0 -0.013876290653459184 0.01856962653705305 0 -0.01218987116317044 0.018536075147681075 0 -0.012774258628535139 0.020203679097117053 0 -0.012829837051386028 0.017314984386664199 0 -0.013876290653459184 0.01856962653705305 0 -0.01218987116317044 0.018536075147681075 0 -0.01218987116317044 0.018536075147681075 0 -0.01087579851674157 0.018237739812781571 0 -0.010959132790776049 0.019521206467067048 0 -0.01218987116317044 0.018536075147681075 0 -0.01087579851674157 0.018237739812781571 0 -0.011734918168669685 0.017427971568377484 0 -0.01087579851674157 0.018237739812781571 0 -0.0098585539940260897 0.018816738714267357 0 -0.010959132790776049 0.019521206467067048 0 -0.0098585539940260897 0.018816738714267357 0 -0.0085302698911416622 0.019677191526627343 0 -0.0083977321255203283 0.017993402205553597 0 -0.0098585539940260897 0.018816738714267357 0 -0.0094360818160809622 0.017809011631375628 0 -0.0087246502407487998 0.018131198516175812 0 -0.0097600395950369328 0.018812907915451548 0 -0.0078299981105409543 0.018679780015561982 0 -0.01087579851674157 0.018237739812781571 0 -0.0098585539940260897 0.018816738714267357 0 -0.010098731640822502 0.01781535854459981 0 -0.0098585539940260897 0.018816738714267357 0 -0.010098731640822502 0.01781535854459981 0 -0.0094360818160809622 0.017809011631375628 0 -0.010098731640822502 0.01781535854459981 0 -0.0097166686998017386 0.01698821067658346 0 -0.010689720066516169 0.017130946787309601 0 -0.0094360818160809622 0.017809011631375628 0 -0.0097166686998017386 0.01698821067658346 0 -0.0090973252302191058 0.017167881908291636 0 -0.010098731640822502 0.01781535854459981 0 -0.0094360818160809622 0.017809011631375628 0 -0.0097166686998017386 0.01698821067658346 0 -0.0097166686998017386 0.01698821067658346 0 -0.0092673120583053603 0.016759080501484194 0 -0.0090973252302191058 0.017167881908291636 0 -0.0095149585674411691 0.016377913597871066 0 -0.0097166686998017386 0.01698821067658346 0 -0.0092673120583053603 0.016759080501484194 0 -0.010186515798055292 0.016470081311899826 0 -0.0095149585674411691 0.016377913597871066 0 -0.0097166686998017386 0.01698821067658346 0 -0.010186515798055292 0.016470081311899826 0 -0.0097166686998017386 0.01698821067658346 0 -0.010689720066516169 0.017130946787309601 0 -0.010186515798055292 0.016470081311899826 0 -0.010896588467431984 0.016184011626949182 0 -0.010689720066516169 0.017130946787309601 0 -0.010896588467431984 0.016184011626949182 0 -0.010689720066516169 0.017130946787309601 0 -0.011513176033008721 0.016651215263381081 0 -0.010689720066516169 0.017130946787309601 0 -0.011513176033008721 0.016651215263381081 0 -0.011734918168669685 0.017427971568377484 0 -0.012207033903083709 0.016662167600435585 0 -0.011513176033008721 0.016651215263381081 0 -0.011734918168669685 0.017427971568377484 0 -0.01087579851674157 0.018237739812781571 0 -0.010098731640822502 0.01781535854459981 0 -0.010689720066516169 0.017130946787309601 0 -0.01087579851674157 0.018237739812781571 0 -0.010689720066516169 0.017130946787309601 0 -0.011734918168669685 0.017427971568377484 0 -0.02248928182628674 0.016911073760797354 0 -0.019677336047194856 0.018220814141254666 0 -0.020969706234029165 0.018905474039999461 0 -0.022538349949564721 0.016835322972414701 0 -0.022550883975776186 0.017592403400832443 0 -0.02248928182628674 0.016911073760797354 0 -0.020356294638049135 0.017333739876797701 0 -0.019677336047194856 0.018220814141254666 0 -0.020356294638049135 0.017333739876797701 0 -0.019677336047194856 0.018220814141254666 0 -0.018935392747780135 0.017946259566618286 0 -0.019102979826175346 0.0174091414021731 0 -0.020356294638049135 0.017333739876797701 0 -0.018935392747780135 0.017946259566618286 0 -0.019677336047194856 0.018220814141254666 0 -0.01923393827476895 0.01886868679401621 0 -0.020969706234029165 0.018905474039999461 0 -0.019677336047194856 0.018220814141254666 0 -0.018767548362005067 0.018489333354678616 0 -0.01923393827476895 0.01886868679401621 0 -0.018767548362005067 0.018489333354678616 0 -0.018391339715855007 0.018344794305352956 0 -0.018804031682887967 0.018162970282442448 0 -0.018767548362005067 0.018489333354678616 0 -0.018391339715855007 0.018344794305352956 0 -0.018278759359503051 0.018729123493799831 0 -0.018391339715855007 0.018344794305352956 0 -0.017960745332430045 0.018319357332250038 0 -0.018278759359503051 0.018729123493799831 0 -0.018190684482564102 0.018251203464606059 0 -0.018391339715855007 0.018344794305352956 0 -0.018181601171946671 0.018076576908871399 0 -0.018190684482564102 0.018251203464606059 0 -0.018181601171946671 0.018076576908871399 0 -0.017960745332430045 0.018319357332250038 0 -0.018190684482564102 0.018251203464606059 0 -0.018391339715855007 0.018344794305352956 0 -0.017960745332430045 0.018319357332250038 0 -0.018391339715855007 0.018344794305352956 0 -0.018181601171946671 0.018076576908871399 0 -0.018804031682887967 0.018162970282442448 0 -0.017457337316985112 0.017192566205985246 0 -0.018543954367943382 0.018005796021771318 0 -0.018181601171946671 0.018076576908871399 0 -0.018804031682887967 0.018162970282442448 0 -0.018935392747780135 0.017946259566618286 0 -0.018407901740566217 0.018832654647478984 0 -0.018935392747780135 0.017946259566618286 0 -0.018317695930628968 0.018455569199783473 0 -0.019677336047194856 0.018220814141254666 0 -0.018767548362005067 0.018489333354678616 0 -0.018804031682887967 0.018162970282442448 0 -0.019677336047194856 0.018220814141254666 0 -0.018804031682887967 0.018162970282442448 0 -0.018935392747780135 0.017946259566618286 0 -0.019102979826175346 0.0174091414021731 0 -0.018935392747780135 0.017946259566618286 0 -0.018559180568631616 0.017838217376815933 0 -0.018288497192267016 0.017614104919936563 0 -0.019102979826175346 0.0174091414021731 0 -0.018559180568631616 0.017838217376815933 0 -0.018559180568631616 0.017838217376815933 0 -0.018345557611937888 0.018154563398361894 0 -0.018138133765388944 0.017918163838207123 0 -0.018935392747780135 0.017946259566618286 0 -0.018345557611937888 0.018154563398361894 0 -0.018317695930628968 0.018455569199783473 0 -0.018935392747780135 0.017946259566618286 0 -0.018559180568631616 0.017838217376815933 0 -0.018345557611937888 0.018154563398361894 0 -0.018345557611937888 0.018154563398361894 0 -0.018317695930628968 0.018455569199783473 0 -0.018149726323055084 0.018342907047619747 0 -0.018345557611937888 0.018154563398361894 0 -0.018149726323055084 0.018342907047619747 0 -0.018020242831947884 0.018215690528882281 0 -0.018317695930628968 0.018455569199783473 0 -0.018149726323055084 0.018342907047619747 0 -0.017947672452476471 0.018492862333199966 0 -0.018149726323055084 0.018342907047619747 0 -0.017947672452476471 0.018492862333199966 0 -0.018020242831947884 0.018215690528882281 0 -0.017947672452476471 0.018492862333199966 0 -0.018020242831947884 0.018215690528882281 0 -0.017676368756171255 0.018309237596853337 0 -0.018020242831947884 0.018215690528882281 0 -0.018138133765388944 0.017918163838207123 0 -0.017825006323337611 0.018046655857590226 0 -0.018345557611937888 0.018154563398361894 0 -0.018020242831947884 0.018215690528882281 0 -0.018138133765388944 0.017918163838207123 0 -0.017845123698491224 0.01772676769955776 0 -0.018138133765388944 0.017918163838207123 0 -0.017825006323337611 0.018046655857590226 0 -0.017845123698491224 0.01772676769955776 0 -0.018288497192267016 0.017614104919936563 0 -0.018138133765388944 0.017918163838207123 0 -0.018288497192267016 0.017614104919936563 0 -0.018559180568631616 0.017838217376815933 0 -0.018138133765388944 0.017918163838207123 0 -0.015333124891173224 0.018874126935713494 0 -0.017687923296659684 0.017898248492421491 0 -0.016962918492080734 0.016921000109682269 0 -0.01740591803509161 0.018129685067688504 0 -0.017825006323337611 0.018046655857590226 0 -0.017845123698491224 0.01772676769955776 0 -0.017273407209605653 0.017689104231842653 0 -0.017825006323337611 0.018046655857590226 0 -0.017201319399632084 0.018624331844529475 0 -0.017947672452476471 0.018492862333199966 0 -0.017676368756171255 0.018309237596853337 0 -0.018020242831947884 0.018215690528882281 0 -0.017825006323337611 0.018046655857590226 0 -0.017676368756171255 0.018309237596853337 0 -0.01740591803509161 0.018129685067688504 0 -0.017825006323337611 0.018046655857590226 0 -0.017676368756171255 0.018309237596853337 0 -0.017201319399632084 0.018624331844529475 0 -0.01740591803509161 0.018129685067688504 0 -0.017676368756171255 0.018309237596853337 0 -0.016191894826767288 0.016992109359513563 0 -0.017457337316985112 0.017192566205985246 0 -0.017201319399632084 0.018624331844529475 0 -0.018407901740566217 0.018832654647478984 0 -0.017947672452476471 0.018492862333199966 0 -0.01634371369139841 0.01571061735858223 0 -0.015430870910660768 0.016142717339980642 0 -0.015114590061695696 0.017097853441814758 0 -0.018181601171946671 0.018076576908871399 0 -0.017960745332430045 0.018319357332250038 0 -0.016699695210115988 0.018581801408341012 0 -0.01490070905923303 0.015286347981053229 0 -0.01634371369139841 0.01571061735858223 0 -0.015330829690860711 0.015781685290054255 0 -0.01490070905923303 0.015286347981053229 0 -0.014643886054698574 0.015985814914849635 0 -0.015330829690860711 0.015781685290054255 0 -0.017457337316985112 0.017192566205985246 0 -0.01586822479604829 0.017848023098116499 0 -0.01634371369139841 0.01571061735858223 0 -0.015330829690860711 0.015781685290054255 0 -0.015430870910660768 0.016142717339980642 0 -0.018407901740566217 0.018832654647478984 0 -0.018317695930628968 0.018455569199783473 0 -0.017947672452476471 0.018492862333199966 0 -0.014643886054698574 0.015985814914849635 0 -0.015330829690860711 0.015781685290054255 0 -0.015430870910660768 0.016142717339980642 0 -0.014643886054698574 0.015985814914849635 0 -0.015430870910660768 0.016142717339980642 0 -0.015114590061695696 0.017097853441814758 0 -0.017592268961598198 0.018693079848602322 0 -0.017463920415321531 0.019242249776092943 0 -0.018278759359503051 0.018729123493799831 0 -0.017960745332430045 0.018319357332250038 0 -0.016699695210115988 0.018581801408341012 0 -0.017592268961598198 0.018693079848602322 0 -0.016699695210115988 0.018581801408341012 0 -0.017592268961598198 0.018693079848602322 0 -0.017463920415321531 0.019242249776092943 0 -0.017463920415321531 0.019242249776092943 0 -0.016487966307026373 0.019826924273875508 0 -0.01797763386226784 0.020630899442116015 0 -0.016699695210115988 0.018581801408341012 0 -0.017463920415321531 0.019242249776092943 0 -0.016487966307026373 0.019826924273875508 0 -0.018461988019532471 0.019402657584094596 0 -0.019359134699713943 0.019718670078134718 0 -0.01797763386226784 0.020630899442116015 0 -0.017463920415321531 0.019242249776092943 0 -0.018461988019532471 0.019402657584094596 0 -0.01797763386226784 0.020630899442116015 0 -0.017463920415321531 0.019242249776092943 0 -0.018461988019532471 0.019402657584094596 0 -0.018278759359503051 0.018729123493799831 0 -0.017960745332430045 0.018319357332250038 0 -0.017592268961598198 0.018693079848602322 0 -0.018278759359503051 0.018729123493799831 0 -0.018461988019532471 0.019402657584094596 0 -0.018278759359503051 0.018729123493799831 0 -0.01923393827476895 0.01886868679401621 0 -0.018767548362005067 0.018489333354678616 0 -0.018278759359503051 0.018729123493799831 0 -0.01923393827476895 0.01886868679401621 0 -0.01923393827476895 0.01886868679401621 0 -0.019359134699713943 0.019718670078134718 0 -0.020969706234029165 0.018905474039999461 0 -0.018461988019532471 0.019402657584094596 0 -0.01923393827476895 0.01886868679401621 0 -0.019359134699713943 0.019718670078134718 0 -0.019359134699713943 0.019718670078134718 0 -0.020158951903935161 0.020374680009077439 0 -0.01797763386226784 0.020630899442116015 0 -0.019359134699713943 0.019718670078134718 0 -0.020158951903935161 0.020374680009077439 0 -0.020969706234029165 0.018905474039999461 0 -0.024835691275934362 0.016239050596141873 0 -0.024933059135751799 0.016296537113354548 0 -0.024113471325786191 0.016470829708331632 0 -0.022551740239727447 0.0183144263009733 0 -0.022550883975776186 0.017592403400832443 0 -0.022551740239727447 0.0183144263009733 0 -0.022421045475227521 0.019346140857436977 0 -0.025307668941218463 0.016306337782696363 0 -0.024933059135751799 0.016296537113354548 0 -0.025388781152492285 0.016388211005901696 0 -0.020158951903935161 0.020374680009077439 0 -0.019472041854103724 0.0223910579602375 0 -0.01797763386226784 0.020630899442116015 0 -0.019472041854103724 0.0223910579602375 0 -0.01797763386226784 0.020630899442116015 0 -0.01818894722229545 0.022722738799285529 0 -0.01797763386226784 0.020630899442116015 0 -0.016649534295620251 0.02231985341598999 0 -0.01818894722229545 0.022722738799285529 0 -0.016487966307026373 0.019826924273875508 0 -0.01797763386226784 0.020630899442116015 0 -0.015401540389296246 0.020881972165107475 0 -0.01797763386226784 0.020630899442116015 0 -0.016649534295620251 0.02231985341598999 0 -0.015401540389296246 0.020881972165107475 0 -0.016649534295620251 0.02231985341598999 0 -0.016611496542701561 0.023603464837911342 0 -0.01818894722229545 0.022722738799285529 0 -0.016649534295620251 0.02231985341598999 0 -0.016611496542701561 0.023603464837911342 0 -0.014951497019589062 0.022379810960608374 0 -0.017839514123907736 0.023926395990895702 0 -0.017982568411051704 0.024321635914141319 0 -0.016611496542701561 0.023603464837911342 0 -0.018085042468084591 0.023786109920965266 0 -0.015710592584292485 0.025204371801335904 0 -0.018612324506931798 0.023397530228048025 0 -0.018085042468084591 0.023786109920965266 0 -0.019268154729224166 0.023603578879382827 0 -0.018085042468084591 0.023786109920965266 0 -0.018395779035801422 0.023785906380035873 0 -0.018332229293851834 0.023265474031301581 0 -0.018612324506931798 0.023397530228048025 0 -0.018085042468084591 0.023786109920965266 0 -0.018332229293851834 0.023265474031301581 0 -0.016611496542701561 0.023603464837911342 0 -0.018085042468084591 0.023786109920965266 0 -0.01818894722229545 0.022722738799285529 0 -0.018085042468084591 0.023786109920965266 0 -0.01818894722229545 0.022722738799285529 0 -0.018395779035801422 0.023785906380035873 0 -0.025307668941218463 0.016306337782696363 0 -0.025388781152492285 0.016388211005901696 0 -0.025701253425865753 0.016413207867633124 0 -0.019472041854103724 0.0223910579602375 0 -0.01818894722229545 0.022722738799285529 0 -0.018395779035801422 0.023785906380035873 0 -0.022421045475227521 0.019346140857436977 0 -0.022131011748012516 0.020023517272575675 0 -0.025843481540852517 0.016438254860283767 0 -0.025701253425865753 0.016413207867633124 0 -0.025982500681630698 0.016326458520917162 0 -0.025388781152492285 0.016388211005901696 0 -0.025843481540852517 0.016438254860283767 0 -0.025701253425865753 0.016413207867633124 0 -0.010140958131218302 0.021378104416833341 0 -0.012774258628535139 0.020203679097117053 0 -0.012749680784281911 0.0223640688324096 0 -0.010140958131218302 0.021378104416833341 0 -0.0096201763904223275 0.020127254480516926 0 -0.0085267478623252905 0.021098871619246996 0 -0.010140958131218302 0.021378104416833341 0 -0.006875265519828767 0.023085696527738037 0 -0.0067951923113194574 0.020671452423603388 0 -0.0099320087573788254 0.021348990971847046 0 -0.0076429583805450044 0.020910923947351202 0 -0.010140958131218302 0.021378104416833341 0 -0.0096201763904223275 0.020127254480516926 0 -0.010959132790776049 0.019521206467067048 0 -0.0096201763904223275 0.020127254480516926 0 -0.0085267478623252905 0.021098871619246996 0 -0.0085302698911416622 0.019677191526627343 0 -0.0098585539940260897 0.018816738714267357 0 -0.0096201763904223275 0.020127254480516926 0 -0.0085302698911416622 0.019677191526627343 0 -0.0098585539940260897 0.018816738714267357 0 -0.0096201763904223275 0.020127254480516926 0 -0.010959132790776049 0.019521206467067048 0 -0.010140958131218302 0.021378104416833341 0 -0.010959132790776049 0.019521206467067048 0 -0.012774258628535139 0.020203679097117053 0 -0.01218987116317044 0.018536075147681075 0 -0.010959132790776049 0.019521206467067048 0 -0.012774258628535139 0.020203679097117053 0 -0.015001839998331983 0.019258235289641552 0 -0.012774258628535139 0.020203679097117053 0 -0.015401540389296246 0.020881972165107475 0 -0.012774258628535139 0.020203679097117053 0 -0.015401540389296246 0.020881972165107475 0 -0.014951497019589062 0.022379810960608374 0 -0.016649534295620251 0.02231985341598999 0 -0.015401540389296246 0.020881972165107475 0 -0.014951497019589062 0.022379810960608374 0 -0.012774258628535139 0.020203679097117053 0 -0.014951497019589062 0.022379810960608374 0 -0.012749680784281911 0.0223640688324096 0 -0.012749680784281911 0.0223640688324096 0 -0.014494992512336099 0.024063096295687661 0 -0.011166059292716605 0.023998915570484051 0 -0.014951497019589062 0.022379810960608374 0 -0.012749680784281911 0.0223640688324096 0 -0.014494992512336099 0.024063096295687661 0 -0.016611496542701561 0.023603464837911342 0 -0.014951497019589062 0.022379810960608374 0 -0.014494992512336099 0.024063096295687661 0 -0.014494992512336099 0.024063096295687661 0 -0.015710592584292485 0.025204371801335904 0 -0.013448199792420351 0.025943142433619511 0 -0.016611496542701561 0.023603464837911342 0 -0.014494992512336099 0.024063096295687661 0 -0.015710592584292485 0.025204371801335904 0 -0.017982568411051704 0.024321635914141319 0 -0.014503886897266813 0.024229487890470115 0 -0.013828214070193986 0.025232765695424143 0 -0.014503886897266813 0.024229487890470115 0 -0.014494992512336099 0.024063096295687661 0 -0.011166059292716605 0.023998915570484051 0 -0.012691909540830965 0.027387765364300529 0 -0.011166059292716605 0.023998915570484051 0 -0.0093349820117930929 0.026000243133335283 0 -0.012691909540830965 0.027387765364300529 0 -0.010140958131218302 0.021378104416833341 0 -0.012749680784281911 0.0223640688324096 0 -0.011166059292716605 0.023998915570484051 0 -0.010140958131218302 0.021378104416833341 0 -0.011166059292716605 0.023998915570484051 0 -0.006875265519828767 0.023085696527738037 0 -0.011166059292716605 0.023998915570484051 0 -0.0093349820117930929 0.026000243133335283 0 -0.006875265519828767 0.023085696527738037 0 -0.0093349820117930929 0.026000243133335283 0 -0.0067323260639312633 0.026371346704461635 0 -0.006875265519828767 0.023085696527738037 0 -0.0093349820117930929 0.026000243133335283 0 -0.0067323260639312633 0.026371346704461635 0 -0.0096018977724248479 0.028447765584338119 0 -0.0059688781275759857 0.025321876186016924 0 -0.0067300740090260984 0.022935070823639457 0 -0.0054263034484765167 0.023430182563294134 0 -0.00507150048946871 0.023197107794859305 0 -0.006875265519828767 0.023085696527738037 0 -0.0054263034484765167 0.023430182563294134 0 -0.00507150048946871 0.023197107794859305 0 -0.0048557121533871674 0.0233887909184427 0 -0.00507150048946871 0.023197107794859305 0 -0.0045956417930844455 0.023381714378510721 0 -0.0048557121533871674 0.0233887909184427 0 -0.00507150048946871 0.023197107794859305 0 -0.0039477103227313947 0.02295134874254642 0 -0.0045956417930844455 0.023381714378510721 0 -0.00507150048946871 0.023197107794859305 0 -0.0046358685901522487 0.022218817659281551 0 -0.0056840759402744471 0.021991253940723328 0 -0.00507150048946871 0.023197107794859305 0 -0.0046358685901522487 0.022218817659281551 0 -0.0039477103227313947 0.02295134874254642 0 -0.00507150048946871 0.023197107794859305 0 -0.006875265519828767 0.023085696527738037 0 -0.0056840759402744471 0.021991253940723328 0 -0.0029824201744836714 0.023397607866532472 0 -0.0039477103227313947 0.02295134874254642 0 -0.0028944693833466853 0.022704751706303782 0 -0.0029824201744836714 0.023397607866532472 0 -0.0039477103227313947 0.02295134874254642 0 -0.0041494570641135518 0.023590508662548016 0 -0.0039477103227313947 0.02295134874254642 0 -0.0041494570641135518 0.023590508662548016 0 -0.0045956417930844455 0.023381714378510721 0 -0.0046358685901522487 0.022218817659281551 0 -0.0039477103227313947 0.02295134874254642 0 -0.0038809214570016994 0.022049836571904274 0 -0.0039477103227313947 0.02295134874254642 0 -0.0038809214570016994 0.022049836571904274 0 -0.0033030278578988323 0.022245937163976801 0 -0.0039477103227313947 0.02295134874254642 0 -0.0033030278578988323 0.022245937163976801 0 -0.0028944693833466853 0.022704751706303782 0 -0.0033030278578988323 0.022245937163976801 0 -0.0028944693833466853 0.022704751706303782 0 -0.0025340021690564737 0.022011708007128632 0 0.003282377896648802 0.023759095341721968 0 0.00081546586800636917 0.022789683084686183 0 0.0086530132196898299 0.025384311066897994 0 0.0077536026902060295 0.024428511521237019 0 0.00866332917207111 0.024611652575911802 0 -0.0033030278578988323 0.022245937163976801 0 -0.0025340021690564737 0.022011708007128632 0 -0.0034826565131247582 0.021480160609761934 0 -0.0025340021690564737 0.022011708007128632 0 -0.0034826565131247582 0.021480160609761934 0 -0.0033719698724441376 0.020961297866937182 0 -0.0046358685901522487 0.022218817659281551 0 -0.0038809214570016994 0.022049836571904274 0 -0.0041048210689538164 0.021086342003169861 0 -0.0034826565131247582 0.021480160609761934 0 -0.0041048210689538164 0.021086342003169861 0 -0.0033636565505793287 0.020738658184199239 0 -0.001824564581826345 0.02134546606929737 0 0.00081546586800636917 0.022789683084686183 0 -0.0038809214570016994 0.022049836571904274 0 -0.0034826565131247582 0.021480160609761934 0 -0.0041048210689538164 0.021086342003169861 0 -0.0038809214570016994 0.022049836571904274 0 -0.0033030278578988323 0.022245937163976801 0 -0.0034826565131247582 0.021480160609761934 0 0.00078521442445194007 0.023494086059640044 0 0.00039870118648621813 0.023582651445773897 0 0.00099452158280090817 0.021830345417155214 0 -0.0043703076941629853 0.020286607269577595 0 -0.0064726233798236789 0.020729910158734231 0 -0.0057535371276539555 0.018777164865447886 0 -0.0011926223808105829 0.022088816392612051 0 -0.0061736421943235677 0.020665154641323596 0 -0.0041048210689538164 0.021086342003169861 0 -0.003576565157589666 0.02049119983306066 0 -0.0049118649340415292 0.020652426373718367 0 -0.0011926223808105829 0.022088816392612051 0 -0.0034779671735637365 0.020285150919718324 0 -0.0041048210689538164 0.021086342003169861 0 -0.003576565157589666 0.02049119983306066 0 -0.0033636565505793287 0.020738658184199239 0 0.0038216664499756566 0.023076258276981537 0 0.00081546586800636917 0.022789683084686183 0 0.001189789575016772 0.023748056770719037 0 0.0021337145109948949 0.023527044865476753 0 0.0013216256855128697 0.022619129234378779 0 -0.0011926223808105829 0.022088816392612051 0 0.00081546586800636917 0.022789683084686183 0 0.0038216664499756566 0.023076258276981537 0 -0.0011926223808105829 0.022088816392612051 0 0.0077866278039698499 0.024174452123898543 0 0.00866332917207111 0.024611652575911802 0 0.0093009685949542766 0.024025976660071325 0 0.0038216664499756566 0.023076258276981537 0 0.010874943507507282 0.024109565376063589 0 0.0077866278039698499 0.024174452123898543 0 0.0077536026902060295 0.024428511521237019 0 0.00866332917207111 0.024611652575911802 0 0.0082276380026798761 0.024276029127712918 0 0.0083339022916958903 0.02358573400496649 0 0.0093009685949542766 0.024025976660071325 0 -0.0076429583805450044 0.020910923947351202 0 -0.0061736421943235677 0.020665154641323596 0 -0.0056840759402744471 0.021991253940723328 0 -0.0067951923113194574 0.020671452423603388 0 -0.0049118649340415292 0.020652426373718367 0 -0.006875265519828767 0.023085696527738037 0 -0.0056840759402744471 0.021991253940723328 0 -0.0067951923113194574 0.020671452423603388 0 -0.0046358685901522487 0.022218817659281551 0 -0.0056840759402744471 0.021991253940723328 0 -0.0049118649340415292 0.020652426373718367 0 -0.0046358685901522487 0.022218817659281551 0 -0.0041048210689538164 0.021086342003169861 0 -0.0049118649340415292 0.020652426373718367 0 -0.0064726233798236789 0.020729910158734231 0 -0.0072422951662434757 0.018894752214419927 0 -0.0057535371276539555 0.018777164865447886 0 -0.0085267478623252905 0.021098871619246996 0 -0.0064726233798236789 0.020729910158734231 0 -0.0085302698911416622 0.019677191526627343 0 -0.0064726233798236789 0.020729910158734231 0 -0.0085302698911416622 0.019677191526627343 0 -0.0072422951662434757 0.018894752214419927 0 -0.0085302698911416622 0.019677191526627343 0 -0.0072422951662434757 0.018894752214419927 0 -0.0083541342249464634 0.017999103435748676 0 -0.0084730049555175255 0.019278954453387544 0 -0.0078299981105409543 0.018679780015561982 0 -0.0072422951662434757 0.018894752214419927 0 -0.0083541342249464634 0.017999103435748676 0 -0.0070942403572960529 0.017308246699468097 0 -0.0094360818160809622 0.017809011631375628 0 -0.0087246502407487998 0.018131198516175812 0 -0.0090973252302191058 0.017167881908291636 0 -0.0064139033711375845 0.019898436746660468 0 -0.005993720474986506 0.019328007667210559 0 -0.0063599760610674105 0.019335468346650314 0 -0.0087246502407487998 0.018131198516175812 0 -0.0090973252302191058 0.017167881908291636 0 -0.0086385970661696405 0.017158993804003663 0 -0.0078299981105409543 0.018679780015561982 0 -0.0072214305630961427 0.019002172999269047 0 -0.0078299981105409543 0.018679780015561982 0 -0.0049149322716130969 0.020024161656756124 0 -0.0064139033711375845 0.019898436746660468 0 -0.005993720474986506 0.019328007667210559 0 -0.0057849877184355004 0.019558754624773154 0 -0.0045362354048938706 0.021209630625703978 0 -0.0049149322716130969 0.020024161656756124 0 -0.0045362354048938706 0.021209630625703978 0 -0.0072214305630961427 0.019002172999269047 0 -0.0060103550949079593 0.020261965008819643 0 -0.0057736591172303925 0.02034857486718307 0 -0.0061924480924152167 0.020358787851570991 0 -0.0060103550949079593 0.020261965008819643 0 -0.0057736591172303925 0.02034857486718307 0 -0.0060618359746882683 0.020035067718651496 0 -0.002721121418808546 0.025315885608900312 0 -0.0027052009251671842 0.025269822928289404 0 -0.0027666457726254652 0.025266044293412924 0 -0.005667256113657153 0.020504881835669904 0 -0.005546385780030221 0.02081952048536365 0 -0.0045362354048938706 0.021209630625703978 0 -0.005546385780030221 0.02081952048536365 0 -0.0089023021491532982 0.016816446518464489 0 -0.0086316794382224893 0.017159861012162738 0 -0.0085788816748869588 0.016497989162174653 0 -0.0072214305630961427 0.019002172999269047 0 -0.0069189950211453613 0.018871906452532155 0 -0.0060662716615139363 0.020026538253389264 0 -0.0061924480924152167 0.020358787851570991 0 -0.0061601539088915963 0.019923649412937387 0 -0.005546385780030221 0.02081952048536365 0 -0.0069189950211453613 0.018871906452532155 0 -0.0091062114508059233 0.016445967112687199 0 -0.0089023021491532982 0.016816446518464489 0 -0.0085788816748869588 0.016497989162174653 0 -0.0091062114508059233 0.016445967112687199 0 -0.0092673120583053603 0.016759080501484194 0 -0.0089023021491532982 0.016816446518464489 0 -0.0089023021491532982 0.016816446518464489 0 -0.0090973252302191058 0.017167881908291636 0 -0.0086316794382224893 0.017159861012162738 0 -0.0082871260748242932 0.018596972269336223 0 -0.0072214305630961427 0.019002172999269047 0 -0.0092673120583053603 0.016759080501484194 0 -0.0089023021491532982 0.016816446518464489 0 -0.0090973252302191058 0.017167881908291636 0 -0.0060103550949079593 0.020261965008819643 0 -0.0060662716615139363 0.020026538253389264 0 -0.0061924480924152167 0.020358787851570991 0 -0.0027052009251671842 0.025269822928289404 0 -0.0025948953186551785 0.025326642090818623 0 -0.00265796076048366 0.025244827152165524 0 -0.0045362354048938706 0.021209630625703978 0 -0.0020009435473030027 0.022788110061859657 0 -0.002721121418808546 0.025315885608900312 0 -0.0027052009251671842 0.025269822928289404 0 -0.0025948953186551785 0.025326642090818623 0 -0.0020009435473030027 0.022788110061859657 0 -0.0049149322716130969 0.020024161656756124 0 -0.0046824507854057668 0.021501427770550696 0 -0.0028048388288046027 0.021456452274878472 0 -0.0040857545271020057 0.022164468291984363 0 -0.0013580146142612934 0.020198626783638488 0 -0.0022611412724000924 0.02069343844875144 0 -0.00072912259763241287 0.02102320243148666 0 -0.0022611412724000924 0.02069343844875144 0 -0.00091926459831284473 0.022149152945187579 0 -0.00072912259763241287 0.02102320243148666 0 -0.0049149322716130969 0.020024161656756124 0 -0.0034779671735637365 0.020285150919718324 0 -0.0072422951662434757 0.018894752214419927 0 -0.0070942403572960529 0.017308246699468097 0 -0.0057535371276539555 0.018777164865447886 0 0.00039870118648621813 0.023582651445773897 0 -0.00091926459831284473 0.022149152945187579 0 0.00099452158280090817 0.021830345417155214 0 -0.00091926459831284473 0.022149152945187579 0 0.00099452158280090817 0.021830345417155214 0 0.00035796250975102196 0.021131998211593579 0 -0.00091926459831284473 0.022149152945187579 0 -0.00072912259763241287 0.02102320243148666 0 0.00035796250975102196 0.021131998211593579 0 0.0083339022916958903 0.02358573400496649 0 0.0091068658454794733 0.023376640398506593 0 0.0093009685949542766 0.024025976660071325 0 0.0038216664499756566 0.023076258276981537 0 0.0046646853431525376 0.022694518197747024 0 0.0046646853431525376 0.022694518197747024 0 0.0056321584573369018 0.022378724579578235 0 0.008368687100838209 0.022986984541619859 0 0.0084006820696768941 0.022750610129497417 0 0.0097358954491257241 0.022885864362189649 0 0.0083339022916958903 0.02358573400496649 0 0.0084085723330485935 0.022832988239472475 0 0.0091068658454794733 0.023376640398506593 0 0.0048729457826147066 0.023827937954384783 0 0.0050220638297049551 0.02258536971744883 0 0.0023877044377464884 0.023888692865782483 0 0.0056321584573369018 0.022378724579578235 0 0.004974243090985128 0.025022453851519657 0 0.00099452158280090817 0.021830345417155214 0 0.0012173691867135873 0.020150891026431372 0 0.00035796250975102196 0.021131998211593579 0 -0.0013580146142612934 0.020198626783638488 0 -0.00072912259763241287 0.02102320243148666 0 -9.5024871452015737e-05 0.020745204846550486 0 -0.00072912259763241287 0.02102320243148666 0 -9.5024871452015737e-05 0.020745204846550486 0 0.00035796250975102196 0.021131998211593579 0 -0.0013580146142612934 0.020198626783638488 0 -9.5024871452015737e-05 0.020745204846550486 0 0.00024079458343188818 0.020166718553900103 0 0.0012173691867135873 0.020150891026431372 0 0.00035796250975102196 0.021131998211593579 0 0.00037554448777233365 0.020480605786178493 0 -9.5024871452015737e-05 0.020745204846550486 0 0.00035796250975102196 0.021131998211593579 0 0.00037554448777233365 0.020480605786178493 0 -9.5024871452015737e-05 0.020745204846550486 0 0.00037554448777233365 0.020480605786178493 0 0.00024079458343188818 0.020166718553900103 0 0.004974243090985128 0.025022453851519657 0 0.0012136717912178008 0.023217784622311978 0 0.0012173691867135873 0.020150891026431372 0 0.00037554448777233365 0.020480605786178493 0 0.00024079458343188818 0.020166718553900103 0 0.0013707094413106392 0.024596193647577511 0 0.00055718222843641478 0.024987540494805473 0 0.00038107687480670396 0.024422269031471773 0 0.0056321584573369018 0.022378724579578235 0 0.0012136717912178008 0.023217784622311978 0 -0.0020009435473030027 0.022788110061859657 0 -0.0012131197854312501 0.025009109177994746 0 -0.00072003084840544006 0.024998486821640742 0 0.00055718222843641478 0.024987540494805473 0 0.00038107687480670396 0.024422269031471773 0 -0.0020009435473030027 0.022788110061859657 0 0.0012136717912178008 0.023217784622311978 0 -0.0024778576984165156 0.025289625644819357 0 -0.0024542256494377089 0.025210114923800458 0 -0.0025612039401608196 0.025235497636676221 0 -0.0012131197854312501 0.025009109177994746 0 0.0017790186640763484 0.02728453539284691 0 -0.0024778576984165156 0.025289625644819357 0 -0.0024542256494377089 0.025210114923800458 0 -0.002371118729785611 0.025260089887288485 0 -0.0024542256494377089 0.025210114923800458 0 -0.0025363354514421166 0.025173379461734098 0 -0.0025612039401608196 0.025235497636676221 0 0.0045237794753184265 0.030738016280964075 0 0.0049978653282398084 0.030427059326265937 0 0.0054700828752704354 0.030442969066499192 0 0.004974243090985128 0.025022453851519657 0 0.0070769310153474844 0.026320329577176286 0 0.0045237794753184265 0.030738016280964075 0 0.0045840824223256907 0.0303967189173752 0 0.0049978653282398084 0.030427059326265937 0 0.004974243090985128 0.025022453851519657 0 0.0017790186640763484 0.02728453539284691 0 0.0013707094413106392 0.024596193647577511 0 0.00038107687480670396 0.024422269031471773 0 0.0014599636562621916 0.023857448085242421 0 -0.0024542256494377089 0.025210114923800458 0 -0.002371118729785611 0.025260089887288485 0 -0.0023666283426595348 0.025202301652729651 0 0.0017790186640763484 0.02728453539284691 0 0.0022761939047570056 0.027852301634207283 0 0.0024461420107037735 0.028084411415218904 0 0.0024463797027872935 0.028088717339850598 0 0.0024456656122676364 0.028089976864073239 0 0.0045840824223256907 0.0303967189173752 0 0.0048609042726315719 0.03026385995623513 0 0.0049978653282398084 0.030427059326265937 0 0.0017790186640763484 0.02728453539284691 0 0.0041275831744830545 0.029128232071319243 0 0.0041275831744830545 0.029128232071319243 0 0.0022761939047570056 0.027852301634207283 0 0.0041275831744830545 0.029128232071319243 0 0.0045410822063929619 0.029497278333063141 0 0.0048740958830345155 0.030294448612090848 0 0.0049978653282398084 0.030427059326265937 0 0.0050820936348297619 0.030165628562641683 0 0.0041275831744830545 0.029128232071319243 0 0.0046635321122441972 0.029788235632717458 0 0.0046747185064580556 0.030398112138811016 0 0.0047287531904087439 0.029924558933334018 0 0.0050820936348297619 0.030165628562641683 0 0.0046747185064580556 0.030398112138811016 0 0.0047287531904087439 0.029924558933334018 0 0.0043304589280239881 0.030038933786713115 0 0.0047287531904087439 0.029924558933334018 0 0.0043304589280239881 0.030038933786713115 0 0.0043555986874357997 0.029725446111360753 0 0.0022761939047570056 0.027852301634207283 0 0.0027352303676639518 0.029103048556178342 0 0.0022761939047570056 0.027852301634207283 0 0.00015096125935023133 0.026919960184347922 0 0.0043146044098014017 0.030056997864948191 0 0.0043555986874357997 0.029725446111360753 0 0.0035991543044120518 0.029365417840628256 0 0.0041943807142146086 0.029250885934566241 0 0.0043555986874357997 0.029725446111360753 0 0.0035991543044120518 0.029365417840628256 0 0.0041943807142146086 0.029250885934566241 0 0.0043555986874357997 0.029725446111360753 0 0.0047535795514947162 0.029489927591254048 0 0.0047287531904087439 0.029924558933334018 0 0.0043555986874357997 0.029725446111360753 0 0.0047535795514947162 0.029489927591254048 0 0.0047287531904087439 0.029924558933334018 0 0.0047535795514947162 0.029489927591254048 0 0.0050781668632308803 0.029726443508051197 0 -0.0024542256494377089 0.025210114923800458 0 -0.0024616957768917873 0.025141436954888012 0 -0.0025363354514421166 0.025173379461734098 0 -0.0024616957768917873 0.025141436954888012 0 -0.0025724154569630739 0.025145061445012315 0 -0.0025363354514421166 0.025173379461734098 0 -0.0024542256494377089 0.025210114923800458 0 -0.0023666283426595348 0.025202301652729651 0 -0.0024616957768917873 0.025141436954888012 0 -0.0017652737049415434 0.025526407729372133 0 -0.0045484748573421975 0.023606277840735178 0 -0.0025724154569630739 0.025145061445012315 0 -0.0025363354514421166 0.025173379461734098 0 -0.0026670363571180528 0.025178039422253315 0 -0.0025363354514421166 0.025173379461734098 0 -0.0027674306770422295 0.025056927023996905 0 -0.0026720961302101102 0.025179171795668743 0 -0.0026641982951527074 0.025122835286869982 0 -0.0025724154569630739 0.025145061445012315 0 -0.0026670363571180528 0.025178039422253315 0 -0.0056114618687871541 0.026286438551646411 0 -0.0045484748573421975 0.023606277840735178 0 -0.0064572822682467355 0.021675888291184071 0 -0.0060431611692342386 0.021756362577558083 0 -0.0063354103767375497 0.020370082738265488 0 -0.0092196274887941729 0.024075814164435626 0 -0.0085116091218930875 0.019597479421465308 0 -0.0074243993236042423 0.024163053288580604 0 -0.0073217021685810972 0.022974515768084448 0 -0.0067622844604476587 0.023084789542660383 0 -0.0045484748573421975 0.023606277840735178 0 -0.0085116091218930875 0.019597479421465308 0 -0.0027674306770422295 0.025056927023996905 0 -0.0027780559216773523 0.025223035151095807 0 -0.0026720961302101102 0.025179171795668743 0 -0.0085116091218930875 0.019597479421465308 0 -0.0062491015764166999 0.020160378004248473 0 -0.0045484748573421975 0.023606277840735178 0 -0.0062491015764166999 0.020160378004248473 0 -0.0092817696064363964 0.015721912162967394 0 -0.0089365582766690425 0.014290353471363412 0 -0.0084832749887024453 0.01621356026801437 0 -0.0092817696064363964 0.015721912162967394 0 -0.0084832749887024453 0.01621356026801437 0 -0.0085131299546313925 0.016593209440589951 0 -0.0092817696064363964 0.015721912162967394 0 -0.0091062114508059233 0.016445967112687199 0 -0.0085788816748869588 0.016497989162174653 0 -0.0095323208806198066 0.015591169126635159 0 -0.0069189950211453613 0.018871906452532155 0 -0.0062387373746728191 0.019524087896507759 0 -0.0061549732309049152 0.019946648526797766 0 -0.0061237567683205991 0.019656000474415864 0 -0.005546385780030221 0.02081952048536365 0 -0.0062491015764166999 0.020160378004248473 0 -0.0062491015764166999 0.020160378004248473 0 -0.0069189950211453613 0.018871906452532155 0 -0.0027052009251671842 0.025269822928289404 0 -0.0027780559216773523 0.025223035151095807 0 -0.00265796076048366 0.025244827152165524 0 -0.0027780559216773523 0.025223035151095807 0 -0.00265796076048366 0.025244827152165524 0 -0.0026720961302101102 0.025179171795668743 0 -0.0027052009251671842 0.025269822928289404 0 -0.0027666457726254652 0.025266044293412924 0 -0.0027780559216773523 0.025223035151095807 0 -0.00265796076048366 0.025244827152165524 0 -0.0025612039401608196 0.025235497636676221 0 -0.0026720961302101102 0.025179171795668743 0 -0.0025948953186551785 0.025326642090818623 0 -0.0024778576984165156 0.025289625644819357 0 -0.0025612039401608196 0.025235497636676221 0 -0.0025948953186551785 0.025326642090818623 0 -0.00265796076048366 0.025244827152165524 0 -0.0025612039401608196 0.025235497636676221 0 -0.0025363354514421166 0.025173379461734098 0 -0.0025612039401608196 0.025235497636676221 0 -0.0026720961302101102 0.025179171795668743 0 0.01682925347293111 0.031198703785618283 0 0.017505699365407058 0.030642789301152589 0 0.016979441180546371 0.029723128775994936 0 0.016344317736547723 0.030423301800601033 0 0.01682925347293111 0.031198703785618283 0 0.016979441180546371 0.029723128775994936 0 0.010622873193864646 0.021920827931871029 0 0.010321098723788712 0.02250011891301754 0 0.011431693228849743 0.022777208287102543 0 0.012760632418384404 0.028772104125968329 0 0.014324343084989914 0.025820728082832495 0 0.018104594780465978 0.031068997739499553 0 0.012760632418384404 0.028772104125968329 0 0.0067809179675568211 0.029888972792974398 0 0.0056066373982332765 0.029759074019693008 0 0.0054700828752704354 0.030442969066499192 0 0.0059973045774278002 0.028964406807281753 0 0.0067809179675568211 0.029888972792974398 0 0.0056066373982332765 0.029759074019693008 0 0.011904088385710896 0.029973904248113362 0 0.012760632418384404 0.028772104125968329 0 0.0051981107821950897 0.029288952725332783 0 0.0050781668632308803 0.029726443508051197 0 0.0056066373982332765 0.029759074019693008 0 0.0051981107821950897 0.029288952725332783 0 0.0047535795514947162 0.029489927591254048 0 0.0050781668632308803 0.029726443508051197 0 0.0051981107821950897 0.029288952725332783 0 0.0059973045774278002 0.028964406807281753 0 0.0056066373982332765 0.029759074019693008 0 0.0056066373982332765 0.029759074019693008 0 0.0050820936348297619 0.030165628562641683 0 0.0054700828752704354 0.030442969066499192 0 0.0050781668632308803 0.029726443508051197 0 0.0056066373982332765 0.029759074019693008 0 0.0050820936348297619 0.030165628562641683 0 0.0047287531904087439 0.029924558933334018 0 0.0050781668632308803 0.029726443508051197 0 0.0050820936348297619 0.030165628562641683 0 0.0084006820696768941 0.022750610129497417 0 0.0095094681992512406 0.022239330871742586 0 0.0097358954491257241 0.022885864362189649 0 0.0049978653282398084 0.030427059326265937 0 0.0050820936348297619 0.030165628562641683 0 0.0054700828752704354 0.030442969066499192 0 0.010622873193864646 0.021920827931871029 0 0.0095094681992512406 0.022239330871742586 0 0.010321098723788712 0.02250011891301754 0 0.0095094681992512406 0.022239330871742586 0 0.010321098723788712 0.02250011891301754 0 0.0097358954491257241 0.022885864362189649 0 0.012760632418384404 0.028772104125968329 0 0.0070769310153474844 0.026320329577176286 0 0.010321098723788712 0.02250011891301754 0 0.010408855760157657 0.023055916997953733 0 0.0097358954491257241 0.022885864362189649 0 0.010408855760157657 0.023055916997953733 0 0.0097358954491257241 0.022885864362189649 0 0.0098598171702340212 0.023404355461299244 0 0.0084085723330485935 0.022832988239472475 0 0.0097358954491257241 0.022885864362189649 0 0.0091068658454794733 0.023376640398506593 0 0.0056321584573369018 0.022378724579578235 0 0.010835483812197533 0.023003320168187239 0 0.0097358954491257241 0.022885864362189649 0 0.0091068658454794733 0.023376640398506593 0 0.0098598171702340212 0.023404355461299244 0 0.0091068658454794733 0.023376640398506593 0 0.0098598171702340212 0.023404355461299244 0 0.0093009685949542766 0.024025976660071325 0 0.0098598171702340212 0.023404355461299244 0 0.010684228970799816 0.023732069176757891 0 0.0093009685949542766 0.024025976660071325 0 0.010408855760157657 0.023055916997953733 0 0.0098598171702340212 0.023404355461299244 0 0.010684228970799816 0.023732069176757891 0 0.012384406697366955 0.023659150727895491 0 0.010684228970799816 0.023732069176757891 0 0.012042433858118271 0.024621920808073929 0 0.012384406697366955 0.023659150727895491 0 0.010684228970799816 0.023732069176757891 0 0.011431693228849743 0.022777208287102543 0 0.010408855760157657 0.023055916997953733 0 0.010684228970799816 0.023732069176757891 0 0.011431693228849743 0.022777208287102543 0 0.010321098723788712 0.02250011891301754 0 0.010408855760157657 0.023055916997953733 0 0.011431693228849743 0.022777208287102543 0 0.014448567691606989 0.026284156393414786 0 0.014324343084989914 0.025820728082832495 0 0.010684228970799816 0.023732069176757891 0 0.012042433858118271 0.024621920808073929 0 0.011091351056261795 0.025174250399393808 0 0.010684228970799816 0.023732069176757891 0 0.011091351056261795 0.025174250399393808 0 0.0097529138304173289 0.025002030906580541 0 0.011091351056261795 0.025174250399393808 0 0.0097529138304173289 0.025002030906580541 0 0.010487384260944074 0.025877670899756473 0 0.012337951047177753 0.025732665696004312 0 0.012042433858118271 0.024621920808073929 0 0.011091351056261795 0.025174250399393808 0 0.00866332917207111 0.024611652575911802 0 0.0093009685949542766 0.024025976660071325 0 0.0097529138304173289 0.025002030906580541 0 0.010684228970799816 0.023732069176757891 0 0.0093009685949542766 0.024025976660071325 0 0.0097529138304173289 0.025002030906580541 0 0.0086530132196898299 0.025384311066897994 0 0.00866332917207111 0.024611652575911802 0 0.0097529138304173289 0.025002030906580541 0 0.003282377896648802 0.023759095341721968 0 0.0038305322872140995 0.024613762738355738 0 -0.0028944693833466853 0.022704751706303782 0 -0.0025340021690564737 0.022011708007128632 0 -0.0016379991806178761 0.022922478237247336 0 0.0086530132196898299 0.025384311066897994 0 0.0097529138304173289 0.025002030906580541 0 0.0095051047856023543 0.026373931210226572 0 0.0097529138304173289 0.025002030906580541 0 0.0095051047856023543 0.026373931210226572 0 0.010487384260944074 0.025877670899756473 0 0.0095051047856023543 0.026373931210226572 0 0.010732528069847109 0.026689195312916011 0 0.010486259016940789 0.027498364741617209 0 0.0095051047856023543 0.026373931210226572 0 0.010487384260944074 0.025877670899756473 0 0.010732528069847109 0.026689195312916011 0 0.0038305322872140995 0.024613762738355738 0 0.0054606289644300188 0.025730437651580264 0 -0.0029824201744836714 0.023397607866532472 0 -0.0016379991806178761 0.022922478237247336 0 -0.0020345851849065352 0.024188913492961959 0 -0.0029824201744836714 0.023397607866532472 0 -0.0028944693833466853 0.022704751706303782 0 -0.0016379991806178761 0.022922478237247336 0 0.012337951047177753 0.025732665696004312 0 0.012330186902775221 0.02693346003906253 0 0.011382110625398319 0.026216400828793507 0 0.012337951047177753 0.025732665696004312 0 0.011091351056261795 0.025174250399393808 0 0.011382110625398319 0.026216400828793507 0 0.011091351056261795 0.025174250399393808 0 0.011382110625398319 0.026216400828793507 0 0.010487384260944074 0.025877670899756473 0 0.011382110625398319 0.026216400828793507 0 0.010487384260944074 0.025877670899756473 0 0.010732528069847109 0.026689195312916011 0 0.011382110625398319 0.026216400828793507 0 0.010732528069847109 0.026689195312916011 0 0.011513786786188068 0.026936408252619573 0 0.010732528069847109 0.026689195312916011 0 0.011513786786188068 0.026936408252619573 0 0.01114274134520591 0.027366356142265617 0 0.012330186902775221 0.02693346003906253 0 0.011382110625398319 0.026216400828793507 0 0.011513786786188068 0.026936408252619573 0 0.012330186902775221 0.02693346003906253 0 0.011513786786188068 0.026936408252619573 0 0.011856584039602087 0.027603272002250021 0 0.012330186902775221 0.02693346003906253 0 0.011856584039602087 0.027603272002250021 0 0.012386199377969117 0.027515274602124721 0 0.011856584039602087 0.027603272002250021 0 0.011223829220777847 0.028174191524367405 0 0.012463635984894649 0.02805932507649361 0 0.011856584039602087 0.027603272002250021 0 0.01114274134520591 0.027366356142265617 0 0.011223829220777847 0.028174191524367405 0 0.011513786786188068 0.026936408252619573 0 0.011856584039602087 0.027603272002250021 0 0.01114274134520591 0.027366356142265617 0 0.0022950223492720218 0.021616001371932595 0 0.0037605057507820016 0.023219502042088551 0 0.00048618107156928698 0.023360252866547221 0 0.01126911757187128 0.02623545006154375 0 0.0054606289644300188 0.025730437651580264 0 0.010732528069847109 0.026689195312916011 0 0.01114274134520591 0.027366356142265617 0 0.010486259016940789 0.027498364741617209 0 0.01114274134520591 0.027366356142265617 0 0.010547726590511871 0.027486262458441251 0 0.011223829220777847 0.028174191524367405 0 0.0054606289644300188 0.025730437651580264 0 0.0052153052069456099 0.020954533430047943 0 0.0052153052069456099 0.020954533430047943 0 -0.00222825113096132 0.02222470167966176 0 0.0052153052069456099 0.020954533430047943 0 0.01256420285588499 0.021372650114926735 0 0.0052153052069456099 0.020954533430047943 0 0.0014961484984305422 0.018441718634931843 0 0.010011107041352614 0.015178792309814301 0 0.01070868241353381 0.015101480683963569 0 0.010593475474308766 0.015660008173274186 0 -0.0020550132498311081 0.023096258575749169 0 -0.003145279138649515 0.023537577654726728 0 0.0022950223492720218 0.021616001371932595 0 -0.0004601222577703452 0.022308353937463252 0 0.00048618107156928698 0.023360252866547221 0 -0.0016379991806178761 0.022922478237247336 0 -0.00056835139839492841 0.024006805519718268 0 -0.0020345851849065352 0.024188913492961959 0 0.0054606289644300188 0.025730437651580264 0 -0.0020550132498311081 0.023096258575749169 0 -0.0026711379626398221 0.020685350433376441 0 -0.0029305481558807279 0.020810128144308049 0 -0.0026615045414814108 0.020382076965860772 0 -0.0033209483341379831 0.021258839759877086 0 -0.0026711379626398221 0.020685350433376441 0 -0.0026615045414814108 0.020382076965860772 0 -0.0004601222577703452 0.022308353937463252 0 0.00048618107156928698 0.023360252866547221 0 -0.0026222885764093707 0.023452869200307456 0 -0.0026711379626398221 0.020685350433376441 0 -0.0029305481558807279 0.020810128144308049 0 -0.0034554035168636436 0.020859587343685104 0 -0.00222825113096132 0.02222470167966176 0 -0.0028003209761524785 0.022141027780402903 0 -0.0029305481558807279 0.020810128144308049 0 -0.0028526680758428785 0.021080905092610049 0 -0.0034448738310351051 0.021268057694440054 0 -0.0029305481558807279 0.020810128144308049 0 -0.0026615045414814108 0.020382076965860772 0 -0.0028526680758428785 0.021080905092610049 0 -0.0026615045414814108 0.020382076965860772 0 -0.0028526680758428785 0.021080905092610049 0 -0.0027984208361073711 0.019354091462630112 0 -0.00082457389743680488 0.019372953554976979 0 -0.0026591982318417019 0.01935292340939726 0 0.0019328698288266371 0.01721437659642901 0 -0.0027984208361073711 0.019354091462630112 0 -0.00058919134107807559 0.015672814779108851 0 -0.0033209483341379831 0.021258839759877086 0 -0.0027984208361073711 0.019354091462630112 0 -0.0052096943658048881 0.019919956575707956 0 -0.0033209483341379831 0.021258839759877086 0 -0.0026615045414814108 0.020382076965860772 0 -0.0027984208361073711 0.019354091462630112 0 -0.0027984208361073711 0.019354091462630112 0 -0.0034433770274992924 0.016306219934971344 0 -0.00058919134107807559 0.015672814779108851 0 -0.0027984208361073711 0.019354091462630112 0 -0.0050637351515223986 0.017650395370660932 0 -0.0034433770274992924 0.016306219934971344 0 -0.0027984208361073711 0.019354091462630112 0 -0.0050637351515223986 0.017650395370660932 0 -0.0052096943658048881 0.019919956575707956 0 -0.0034433770274992924 0.016306219934971344 0 -0.0037197627987498975 0.013203177015208827 0 -0.005926724237686266 0.015417049445388999 0 -0.0050637351515223986 0.017650395370660932 0 -0.0034433770274992924 0.016306219934971344 0 -0.005926724237686266 0.015417049445388999 0 0.0079987931041300819 -0.011363740966789724 0 -2.0183804382090497e-05 0.0081636709946075747 0 -0.0037197627987498975 0.013203177015208827 0 -0.00058919134107807559 0.015672814779108851 0 0.00012801872724702899 0.011962112767955007 0 0.0079987931041300819 -0.011363740966789724 0 0.0054171712194372003 -0.0072065510147688704 0 0.015623148837489564 -0.029301983250905054 0 0.014913726701482879 -0.027853121688904504 0 0.013837464109864589 -0.028355356884985149 0 0.011335276865272019 -0.026593381355983475 0 0.011837838152411977 -0.027193727635814343 0 0.011755288585286247 -0.027171372390921295 0 0.0079987931041300819 -0.011363740966789724 0 0.014796502921825038 -0.029523733364824986 0 -0.0034433770274992924 0.016306219934971344 0 -0.0037197627987498975 0.013203177015208827 0 -0.00058919134107807559 0.015672814779108851 0 -0.00058919134107807559 0.015672814779108851 0 0.0018954634406904757 0.015270004725542236 0 0.0013260195995230975 0.013641669819339813 0 0.0019328698288266371 0.01721437659642901 0 -0.00058919134107807559 0.015672814779108851 0 0.0018954634406904757 0.015270004725542236 0 0.00033959579969447632 0.014812899320674124 0 -0.00013644947379549938 0.015361142966440075 0 0.0019328698288266371 0.01721437659642901 0 0.0035101254329289477 0.015603099719418478 0 0.0018954634406904757 0.015270004725542236 0 0.0018954634406904757 0.015270004725542236 0 0.0030193587760314377 0.013893839365308523 0 0.0013260195995230975 0.013641669819339813 0 0.0035101254329289477 0.015603099719418478 0 0.0018954634406904757 0.015270004725542236 0 0.0030193587760314377 0.013893839365308523 0 0.005989255722840859 -0.0076542424746483912 0 0.0054171712194372003 -0.0072065510147688704 0 0.0030193587760314377 0.013893839365308523 0 0.0031600392149600306 0.011900422937341091 0 0.0045541694581964949 0.013504647478906458 0 0.0030193587760314377 0.013893839365308523 0 0.0031600392149600306 0.011900422937341091 0 0.0013260195995230975 0.013641669819339813 0 0.005989255722840859 -0.0076542424746483912 0 -0.00013644947379549938 0.015361142966440075 0 0.0049319675072905115 0.010605936810569674 0 0.00012801872724702899 0.011962112767955007 0 0.0021466969275074923 0.013404520359625704 0 -0.00058919134107807559 0.015672814779108851 0 0.00012801872724702899 0.011962112767955007 0 0.0021466969275074923 0.013404520359625704 0 0.011837838152411977 -0.027193727635814343 0 0.011809766278118245 -0.026904551006361063 0 0.011755288585286247 -0.027171372390921295 0 0.011101756982279071 -0.026423629926671622 0 0.014796502921825038 -0.029523733364824986 0 0.010697249846477918 -0.027567446830287758 0 0.011837838152411977 -0.027193727635814343 0 0.011809766278118245 -0.026904551006361063 0 0.011809766278118245 -0.026904551006361063 0 0.014061822275569654 -0.026399123003147448 0 0.013837464109864589 -0.028355356884985149 0 0.010697249846477918 -0.027567446830287758 0 0.011809766278118245 -0.026904551006361063 0 0.010305049557290124 -0.026456967776597506 0 0.011809766278118245 -0.026904551006361063 0 0.010305049557290124 -0.026456967776597506 0 0.010499825166867427 -0.025153358772590353 0 0.011809766278118245 -0.026904551006361063 0 0.010499825166867427 -0.025153358772590353 0 0.012474936569846679 -0.02478226471711311 0 0.011809766278118245 -0.026904551006361063 0 0.014061822275569654 -0.026399123003147448 0 0.012474936569846679 -0.02478226471711311 0 0.014061822275569654 -0.026399123003147448 0 0.015159723345532481 -0.025039875369978339 0 0.012474936569846679 -0.02478226471711311 0 0.014061822275569654 -0.026399123003147448 0 0.016048139228833552 -0.027206488185425762 0 0.015159723345532481 -0.025039875369978339 0 0.016048139228833552 -0.027206488185425762 0 0.015159723345532481 -0.025039875369978339 0 0.017046206905920073 -0.025993259182675144 0 0.015623148837489564 -0.029301983250905054 0 0.016048139228833552 -0.027206488185425762 0 0.01789361794375937 -0.027948798298414686 0 0.015623148837489564 -0.029301983250905054 0 0.016048139228833552 -0.027206488185425762 0 0.014913726701482879 -0.027853121688904504 0 0.014061822275569654 -0.026399123003147448 0 0.016048139228833552 -0.027206488185425762 0 0.014913726701482879 -0.027853121688904504 0 0.014061822275569654 -0.026399123003147448 0 0.014913726701482879 -0.027853121688904504 0 0.013837464109864589 -0.028355356884985149 0 0.009265855792648393 0.010444828612793616 0 0.0063358643738735737 0.011202051056691113 0 0.0079965362268483425 0.012355374169112834 0 -0.0015926979558710933 -0.0064078460367601219 0 0.007775401578182105 -0.0058234851509182291 0 0.0066661055881316626 -0.023511276227751718 0 0.0063953173486339856 -0.023790786419432386 0 0.0061822185414370998 -0.023149411044849515 0 -0.0098332918183318737 0.0039263817411791108 0 -0.0099240255004393318 0.0038991437297684582 0 -0.010022255675589032 0.0039300912542749667 0 -0.0015926979558710933 -0.0064078460367601219 0 -0.015559559075670314 -0.0049717644287467647 0 -0.01859740115206264 -0.014245175318687117 0 -0.017518567700775305 -0.015908810837583751 0 -0.018952818426980666 -0.016742071296819667 0 -0.01859740115206264 -0.014245175318687117 0 -0.017518567700775305 -0.015908810837583751 0 -0.016744445522663052 -0.014638995990209491 0 -0.0015926979558710933 -0.0064078460367601219 0 -0.0069332331518846494 -0.023085226332434247 0 0.0063953173486339856 -0.023790786419432386 0 0.0065994435459503509 -0.024260143962313588 0 0.006303968170013774 -0.024119017474392188 0 0.0066661055881316626 -0.023511276227751718 0 0.0063953173486339856 -0.023790786419432386 0 0.006303968170013774 -0.024119017474392188 0 0.0086268070067466295 -0.02779289379349887 0 0.0059017746846195809 -0.023400773548881582 0 0.0063953173486339856 -0.023790786419432386 0 0.0057339359038116279 -0.023686789289690119 0 0.0065994435459503509 -0.024260143962313588 0 0.0086198360694417896 -0.024698517515982198 0 0.0087457774168324363 -0.026496029744645898 0 0.0065994435459503509 -0.024260143962313588 0 0.010499825166867427 -0.025153358772590353 0 0.0086198360694417896 -0.024698517515982198 0 0.0095648978085256051 -0.025706703138395286 0 0.0086198360694417896 -0.024698517515982198 0 0.0095648978085256051 -0.025706703138395286 0 0.0087457774168324363 -0.026496029744645898 0 0.010305049557290124 -0.026456967776597506 0 0.010499825166867427 -0.025153358772590353 0 0.0095648978085256051 -0.025706703138395286 0 0.010305049557290124 -0.026456967776597506 0 0.0095648978085256051 -0.025706703138395286 0 0.0087457774168324363 -0.026496029744645898 0 0.005989255722840859 -0.0076542424746483912 0 0.007775401578182105 -0.0058234851509182291 0 0.0047536336032748721 -0.022540937920739513 0 0.0057339359038116279 -0.023686789289690119 0 0.0061822185414370998 -0.023149411044849515 0 0.005989255722840859 -0.0076542424746483912 0 0.0086268070067466295 -0.02779289379349887 0 0.010697249846477918 -0.027567446830287758 0 0.010305049557290124 -0.026456967776597506 0 0.0087457774168324363 -0.026496029744645898 0 0.0063953173486339856 -0.023790786419432386 0 0.0057339359038116279 -0.023686789289690119 0 0.0061822185414370998 -0.023149411044849515 0 0.0063358643738735737 0.011202051056691113 0 0.0063874228198024319 0.013349837748712807 0 0.0079965362268483425 0.012355374169112834 0 0.0063358643738735737 0.011202051056691113 0 0.0063874228198024319 0.013349837748712807 0 0.0045541694581964949 0.013504647478906458 0 0.0031600392149600306 0.011900422937341091 0 0.0063358643738735737 0.011202051056691113 0 0.0045541694581964949 0.013504647478906458 0 0.0063874228198024319 0.013349837748712807 0 0.0045541694581964949 0.013504647478906458 0 0.0054497171371861546 0.015312040802564932 0 0.0048951603545532843 0.015639853143995845 0 0.0018599802800115398 0.017220009250611668 0 0.0019328698288266371 0.01721437659642901 0 0.0035101254329289477 0.015603099719418478 0 0.0057260801147933707 0.015487412399263829 0 0.0035101254329289477 0.015603099719418478 0 0.0045541694581964949 0.013504647478906458 0 0.0054497171371861546 0.015312040802564932 0 0.0035101254329289477 0.015603099719418478 0 0.0030193587760314377 0.013893839365308523 0 0.0045541694581964949 0.013504647478906458 0 0.0018599802800115398 0.017220009250611668 0 -0.0020949682386110736 0.018867076738589804 0 0.0063874228198024319 0.013349837748712807 0 0.0054497171371861546 0.015312040802564932 0 0.0075306914581949481 0.014390823597868864 0 0.0018599802800115398 0.017220009250611668 0 0.0050537306144748497 0.015316608735779055 0 0.0026380901661845471 0.016014987523782144 0 -0.00030797886945879249 0.015850226765387779 0 -0.00020294247728242374 0.016818955709251307 0 -0.0020949682386110736 0.018867076738589804 0 -0.0065778849428486342 0.018322857673850477 0 0.0050537306144748497 0.015316608735779055 0 -0.0031428431993736992 0.013091033775980084 0 -0.00030797886945879249 0.015850226765387779 0 -0.0018288436295935137 0.016482526444864552 0 -0.00020294247728242374 0.016818955709251307 0 -0.00030797886945879249 0.015850226765387779 0 -0.0018288436295935137 0.016482526444864552 0 -0.0032972390096308877 0.015711449134304511 0 -0.0018288436295935137 0.016482526444864552 0 -0.00020294247728242374 0.016818955709251307 0 -0.0030875375341945649 0.017648350663953476 0 0.0063874228198024319 0.013349837748712807 0 0.0075306914581949481 0.014390823597868864 0 0.0079965362268483425 0.012355374169112834 0 0.009265855792648393 0.010444828612793616 0 0.0079965362268483425 0.012355374169112834 0 0.0095823364394395198 0.01359804940851524 0 0.0075306914581949481 0.014390823597868864 0 0.0079965362268483425 0.012355374169112834 0 0.0095823364394395198 0.01359804940851524 0 -0.0099240255004393318 0.0038991437297684582 0 -0.0098735290320687043 0.0039044266152804008 0 -0.010011832245574143 0.0038511740643354005 0 -0.0079801500669979247 0.011814171263556805 0 -0.011443037021323679 0.0073176374278986246 0 -0.0098332918183318737 0.0039263817411791108 0 -0.0099240255004393318 0.0038991437297684582 0 -0.00985753048050712 0.0039130441005608297 0 -0.0015926979558710933 -0.0064078460367601219 0 -0.0031428431993736992 0.013091033775980084 0 -0.0099240255004393318 0.0038991437297684582 0 -0.00985753048050712 0.0039130441005608297 0 -0.0098735290320687043 0.0039044266152804008 0 -0.0079801500669979247 0.011814171263556805 0 -0.014249596096090172 0.014487939222250773 0 -0.012339959367743994 0.010631157970690157 0 -0.012707573239178989 0.010046029844252473 0 -0.012799840764950603 0.010479013837841195 0 -0.0031428431993736992 0.013091033775980084 0 -0.0065778849428486342 0.018322857673850477 0 -0.0088566083470349669 0.01429630428344586 0 -0.0087666779211823045 0.014267996982873446 0 -0.0088244764722234022 0.01478564838816324 0 -0.0031428431993736992 0.013091033775980084 0 -0.0079801500669979247 0.011814171263556805 0 -0.0018288436295935137 0.016482526444864552 0 -0.0030875375341945649 0.017648350663953476 0 -0.0032972390096308877 0.015711449134304511 0 -0.0087666779211823045 0.014267996982873446 0 -0.0088244764722234022 0.01478564838816324 0 -0.0085052951426631829 0.014797864630353085 0 -0.0065778849428486342 0.018322857673850477 0 -0.014249596096090172 0.014487939222250773 0 -0.013258198936239602 0.019041234671614692 0 -0.012833875926540995 0.019057659203961932 0 -0.012825216312069142 0.019709544963403228 0 -0.0041284530399971616 0.02165320017132473 0 -0.0041610495712075196 0.02172021333405362 0 -0.0040065291206646553 0.021844315912629274 0 -0.013258198936239602 0.019041234671614692 0 -0.012825216312069142 0.019709544963403228 0 -0.013154320544820301 0.02025363868425558 0 -0.0065778849428486342 0.018322857673850477 0 -0.0088549375156230965 0.021153134108083057 0 -0.0041018968286881752 0.02175689891049231 0 -0.0041610495712075196 0.02172021333405362 0 -0.004127939194738057 0.021683021402206081 0 -0.0041018968286881752 0.02175689891049231 0 -0.0041284530399971616 0.02165320017132473 0 -0.0041610495712075196 0.02172021333405362 0 -0.0041610495712075196 0.02172021333405362 0 -0.0043084200743344243 0.021937194808809807 0 -0.004127939194738057 0.021683021402206081 0 -0.0041610495712075196 0.02172021333405362 0 -0.0043084200743344243 0.021937194808809807 0 -0.0040065291206646553 0.021844315912629274 0 -0.0043084200743344243 0.021937194808809807 0 -0.004127939194738057 0.021683021402206081 0 -0.0042284647780137883 0.021776792280523795 0 -0.0043084200743344243 0.021937194808809807 0 -0.0042066283454459084 0.02221197400880608 0 -0.0040065291206646553 0.021844315912629274 0 -0.0036942849482937555 0.021806499534780178 0 -0.0038368955251363553 0.021576931035700402 0 -0.0034448738310351051 0.021268057694440054 0 -0.0028526680758428785 0.021080905092610049 0 -0.0036942849482937555 0.021806499534780178 0 -0.0034448738310351051 0.021268057694440054 0 -0.00082457389743680488 0.019372953554976979 0 0.0018599802800115398 0.017220009250611668 0 -0.0041018968286881752 0.02175689891049231 0 -0.0038368955251363553 0.021576931035700402 0 -0.004127939194738057 0.021683021402206081 0 -0.0036942849482937555 0.021806499534780178 0 -0.0041018968286881752 0.02175689891049231 0 -0.0038368955251363553 0.021576931035700402 0 -0.0038368955251363553 0.021576931035700402 0 -0.004127939194738057 0.021683021402206081 0 -0.0038901188067976271 0.021409547577138161 0 -0.004127939194738057 0.021683021402206081 0 -0.0038901188067976271 0.021409547577138161 0 -0.0042284647780137883 0.021776792280523795 0 -0.0029305481558807279 0.020810128144308049 0 -0.0034448738310351051 0.021268057694440054 0 -0.0034554035168636436 0.020859587343685104 0 -0.0034448738310351051 0.021268057694440054 0 -0.0034554035168636436 0.020859587343685104 0 -0.0038901188067976271 0.021409547577138161 0 -0.0038368955251363553 0.021576931035700402 0 -0.0034448738310351051 0.021268057694440054 0 -0.0038901188067976271 0.021409547577138161 0 -0.0004601222577703452 0.022308353937463252 0 -0.0026222885764093707 0.023452869200307456 0 -0.0030636851223954892 0.022957573231873196 0 -0.003145279138649515 0.023537577654726728 0 -0.0046867903526170134 0.022852851696419499 0 -0.0034554035168636436 0.020859587343685104 0 -0.0038901188067976271 0.021409547577138161 0 -0.0042902731694855261 0.021814990241692041 0 -0.0026222885764093707 0.023452869200307456 0 -0.0030636851223954892 0.022957573231873196 0 -0.0055112670023116173 0.023526376201870605 0 -0.0028003209761524785 0.022141027780402903 0 -0.0046867903526170134 0.022852851696419499 0 -0.0034812388197552144 0.024104702362704167 0 -0.0041494570641135518 0.023590508662548016 0 -0.0045148529335381415 0.023364011234059484 0 -0.0038901188067976271 0.021409547577138161 0 -0.0042284647780137883 0.021776792280523795 0 -0.0042902731694855261 0.021814990241692041 0 -0.0029824201744836714 0.023397607866532472 0 -0.0020345851849065352 0.024188913492961959 0 -0.0034812388197552144 0.024104702362704167 0 -0.0029824201744836714 0.023397607866532472 0 -0.0034812388197552144 0.024104702362704167 0 -0.0041494570641135518 0.023590508662548016 0 -0.0042066283454459084 0.02221197400880608 0 -0.0040065291206646553 0.021844315912629274 0 -0.0039909469421127493 0.023077770478789696 0 -0.013154320544820301 0.02025363868425558 0 -0.013006495517403462 0.0213819494136986 0 -0.012490753435981394 0.020791168855582638 0 -0.0088549375156230965 0.021153134108083057 0 -0.0078818426718298557 0.023671027527960211 0 -0.0043121071041649882 0.022693820976452204 0 -0.0043612854908365922 0.023062813938871884 0 -0.0039909469421127493 0.023077770478789696 0 -0.0042066283454459084 0.02221197400880608 0 -0.0043121071041649882 0.022693820976452204 0 -0.0039909469421127493 0.023077770478789696 0 -0.0043612854908365922 0.023062813938871884 0 -0.0044293422658739758 0.022896899571295922 0 -0.0046227759737521891 0.023281700494363806 0 -0.0043121071041649882 0.022693820976452204 0 -0.0043612854908365922 0.023062813938871884 0 -0.0044293422658739758 0.022896899571295922 0 -0.005411982313476873 0.023929169803745719 0 -0.0078818426718298557 0.023671027527960211 0 -0.0042066283454459084 0.02221197400880608 0 -0.0043121071041649882 0.022693820976452204 0 -0.0044326809055191783 0.0226313427488079 0 -0.0043084200743344243 0.021937194808809807 0 -0.0042066283454459084 0.02221197400880608 0 -0.0044326809055191783 0.0226313427488079 0 -0.0043084200743344243 0.021937194808809807 0 -0.0043807240110628077 0.022035724108217674 0 -0.0044326809055191783 0.0226313427488079 0 -0.0043084200743344243 0.021937194808809807 0 -0.0042284647780137883 0.021776792280523795 0 -0.0043807240110628077 0.022035724108217674 0 -0.0042284647780137883 0.021776792280523795 0 -0.0042902731694855261 0.021814990241692041 0 -0.0043807240110628077 0.022035724108217674 0 -0.0046867903526170134 0.022852851696419499 0 -0.0042031372112269648 0.022708029145892664 0 -0.0043631138186846982 0.021830585918470233 0 -0.0043807240110628077 0.022035724108217674 0 -0.0044326809055191783 0.0226313427488079 0 -0.0046867903526170134 0.022852851696419499 0 -0.0045909356391491268 0.022781971966315703 0 -0.0044326809055191783 0.0226313427488079 0 -0.0044293422658739758 0.022896899571295922 0 -0.0046227759737521891 0.023281700494363806 0 -0.0045148529335381415 0.023364011234059484 0 -0.0044326809055191783 0.0226313427488079 0 -0.0046227759737521891 0.023281700494363806 0 -0.0043121071041649882 0.022693820976452204 0 -0.0044326809055191783 0.0226313427488079 0 -0.0044293422658739758 0.022896899571295922 0 -0.0041494570641135518 0.023590508662548016 0 -0.0046227759737521891 0.023281700494363806 0 -0.0045956417930844455 0.023381714378510721 0 -0.0041494570641135518 0.023590508662548016 0 -0.0045148529335381415 0.023364011234059484 0 -0.0046227759737521891 0.023281700494363806 0 -0.0046227759737521891 0.023281700494363806 0 -0.0045956417930844455 0.023381714378510721 0 -0.0048557121533871674 0.0233887909184427 0 -0.0059688781275759857 0.025321876186016924 0 -0.0078818426718298557 0.023671027527960211 0 -0.0054263034484765167 0.023430182563294134 0 -0.0045037934001157711 0.023207382820303327 0 -0.0048557121533871674 0.0233887909184427 0 -0.0043612854908365922 0.023062813938871884 0 -0.0045037934001157711 0.023207382820303327 0 -0.0048557121533871674 0.0233887909184427 0 -0.0043612854908365922 0.023062813938871884 0 -0.0046227759737521891 0.023281700494363806 0 -0.0048557121533871674 0.0233887909184427 0 -0.013006495517403462 0.0213819494136986 0 -0.012183091326586792 0.021636384628922398 0 -0.012110778037944515 0.021239186604484487 0 -0.0078818426718298557 0.023671027527960211 0 -0.010709608960301339 0.02521252835465284 0 -0.0067323260639312633 0.026371346704461635 0 -0.006472785782224471 0.029420413348019144 0 -0.0096018977724248479 0.028447765584338119 0 -0.013006495517403462 0.0213819494136986 0 -0.012490753435981394 0.020791168855582638 0 -0.012110778037944515 0.021239186604484487 0 -0.012490753435981394 0.020791168855582638 0 -0.011855826151884562 0.020996741224311374 0 -0.012110778037944515 0.021239186604484487 0 -0.016640478457679655 0.020779755008515484 0 -0.013578748294278346 0.019899000469510382 0 -0.010709608960301339 0.02521252835465284 0 -0.014503886897266813 0.024229487890470115 0 -0.0093349820117930929 0.026000243133335283 0 -0.0096018977724248479 0.028447765584338119 0 -0.012691909540830965 0.027387765364300529 0 -0.016640478457679655 0.020779755008515484 0 -0.014503886897266813 0.024229487890470115 0 -0.011920638322800993 0.021052245289060703 0 -0.012110778037944515 0.021239186604484487 0 -0.011481617315846683 0.021892572214572848 0 -0.012183091326586792 0.021636384628922398 0 -0.012110778037944515 0.021239186604484487 0 -0.011481617315846683 0.021892572214572848 0 -0.020802510516082871 0.022297025509755986 0 -0.020289726466781545 0.023223702488230576 0 -0.020215664209306882 0.022553838033081607 0 -0.020289726466781545 0.023223702488230576 0 -0.019597109175938595 0.022714158366969425 0 -0.020215664209306882 0.022553838033081607 0 -0.019268154729224166 0.023603578879382827 0 -0.019597109175938595 0.022714158366969425 0 -0.018869806454178829 0.022940006959718741 0 -0.019268154729224166 0.023603578879382827 0 -0.020289726466781545 0.023223702488230576 0 -0.019597109175938595 0.022714158366969425 0 -0.019597109175938595 0.022714158366969425 0 -0.018869806454178829 0.022940006959718741 0 -0.019175234443309212 0.022085943347761011 0 -0.019597109175938595 0.022714158366969425 0 -0.019941634933479058 0.021403857473870299 0 -0.019175234443309212 0.022085943347761011 0 -0.020802510516082871 0.022297025509755986 0 -0.020215664209306882 0.022553838033081607 0 -0.019941634933479058 0.021403857473870299 0 -0.019597109175938595 0.022714158366969425 0 -0.020215664209306882 0.022553838033081607 0 -0.019941634933479058 0.021403857473870299 0 -0.018605007887504407 0.018373797030028165 0 -0.015071508767471289 0.015168304182597327 0 -0.017776816822876653 0.016594392073596344 0 -0.015071508767471289 0.015168304182597327 0 -0.01076233861704301 0.011241620889588176 0 -0.016964128976602925 0.011815203378945578 0 -0.016640478457679655 0.020779755008515484 0 -0.017405816980630869 0.0185635660202783 0 -0.019941634933479058 0.021403857473870299 0 -0.019175234443309212 0.022085943347761011 0 -0.019110573462636556 0.021575610510881384 0 -0.019941634933479058 0.021403857473870299 0 -0.019110573462636556 0.021575610510881384 0 -0.018799423913389068 0.021132917825798538 0 -0.019941634933479058 0.021403857473870299 0 -0.018799423913389068 0.021132917825798538 0 -0.019074025388024659 0.020503988092234162 0 -0.017405816980630869 0.0185635660202783 0 -0.018834350270389516 0.013621188793968895 0 -0.015071508767471289 0.015168304182597327 0 -0.017776816822876653 0.016594392073596344 0 -0.016964128976602925 0.011815203378945578 0 -0.01977939524836738 0.01560989826432219 0 -0.017776816822876653 0.016594392073596344 0 -0.017824507463430183 0.013460704865565359 0 -0.018020430327690778 0.01682433375336197 0 -0.017099935247068598 0.011557709248336264 0 -0.017776816822876653 0.016594392073596344 0 -0.018147610148984847 0.011769334217275995 0 -0.016964128976602925 0.011815203378945578 0 -0.012833875926540995 0.019057659203961932 0 -0.012825216312069142 0.019709544963403228 0 -0.012329345537648147 0.020050343658708263 0 -0.02098192020716785 0.013377971370147406 0 -0.01977939524836738 0.01560989826432219 0 -0.017824507463430183 0.013460704865565359 0 -0.014249596096090172 0.014487939222250773 0 -0.01616829394715559 0.017900166399682726 0 -0.013154320544820301 0.02025363868425558 0 -0.012490753435981394 0.020791168855582638 0 -0.012329345537648147 0.020050343658708263 0 -0.012490753435981394 0.020791168855582638 0 -0.011855826151884562 0.020996741224311374 0 -0.012329345537648147 0.020050343658708263 0 -0.012825216312069142 0.019709544963403228 0 -0.013154320544820301 0.02025363868425558 0 -0.012329345537648147 0.020050343658708263 0 -0.016640478457679655 0.020779755008515484 0 -0.01616829394715559 0.017900166399682726 0 -0.018605007887504407 0.018373797030028165 0 -0.01977939524836738 0.01560989826432219 0 -0.017776816822876653 0.016594392073596344 0 -0.026077950359963534 0.016110747979733806 0 -0.026133960288852544 0.016176074896502395 0 -0.025935766885897108 0.01630558644302333 0 -0.026133960288852544 0.016176074896502395 0 -0.025982500681630698 0.016326458520917162 0 -0.025935766885897108 0.01630558644302333 0 -0.025701253425865753 0.016413207867633124 0 -0.025982500681630698 0.016326458520917162 0 -0.025935766885897108 0.01630558644302333 0 -0.022131011748012516 0.020023517272575675 0 -0.022092236522808218 0.019362568687588302 0 -0.025843481540852517 0.016438254860283767 0 -0.025982500681630698 0.016326458520917162 0 -0.026330603931069188 0.01621714642631011 0 -0.018395779035801422 0.023785906380035873 0 -0.017767261571494389 0.022564002079856992 0 -0.018332229293851834 0.023265474031301581 0 -0.026133960288852544 0.016176074896502395 0 -0.026330603931069188 0.01621714642631011 0 -0.026296132585990145 0.015913889855568394 0 -0.026133960288852544 0.016176074896502395 0 -0.025982500681630698 0.016326458520917162 0 -0.026330603931069188 0.01621714642631011 0 -0.017767261571494389 0.022564002079856992 0 -0.018538665769235758 0.022490645896966376 0 -0.018604643870308236 0.021644202301328651 0 -0.017767261571494389 0.022564002079856992 0 -0.018538665769235758 0.022490645896966376 0 -0.018332229293851834 0.023265474031301581 0 -0.018538665769235758 0.022490645896966376 0 -0.018332229293851834 0.023265474031301581 0 -0.018869806454178829 0.022940006959718741 0 -0.018612324506931798 0.023397530228048025 0 -0.019268154729224166 0.023603578879382827 0 -0.018869806454178829 0.022940006959718741 0 -0.018612324506931798 0.023397530228048025 0 -0.018332229293851834 0.023265474031301581 0 -0.018869806454178829 0.022940006959718741 0 -0.018538665769235758 0.022490645896966376 0 -0.019175234443309212 0.022085943347761011 0 -0.018604643870308236 0.021644202301328651 0 -0.018538665769235758 0.022490645896966376 0 -0.018869806454178829 0.022940006959718741 0 -0.019175234443309212 0.022085943347761011 0 -0.019175234443309212 0.022085943347761011 0 -0.019110573462636556 0.021575610510881384 0 -0.018604643870308236 0.021644202301328651 0 -0.019110573462636556 0.021575610510881384 0 -0.018799423913389068 0.021132917825798538 0 -0.018604643870308236 0.021644202301328651 0 -0.018841423253172576 0.021192581415266521 0 -0.018834768241215584 0.02128792395468879 0 -0.019772236440923397 0.020088779090104703 0 -0.017551526715982174 0.019920709825789779 0 -0.020795855195730153 0.018033682513723785 0 -0.018841423253172576 0.021192581415266521 0 -0.018834350270389516 0.013621188793968895 0 -0.019772236440923397 0.020088779090104703 0 -0.017551526715982174 0.019920709825789779 0 -0.018043058759782245 0.020601560752124718 0 -0.02204037291686586 0.017860021525509601 0 -0.020892771936617472 0.018437769800346698 0 -0.017767261571494389 0.022564002079856992 0 -0.018043058759782245 0.020601560752124718 0 -0.018604643870308236 0.021644202301328651 0 -0.022092236522808218 0.019362568687588302 0 -0.02204037291686586 0.017860021525509601 0 -0.017767261571494389 0.022564002079856992 0 -0.017764767715428433 0.02023806798546789 0 -0.018043058759782245 0.020601560752124718 0 -0.019772236440923397 0.020088779090104703 0 -0.018043058759782245 0.020601560752124718 0 -0.018604643870308236 0.021644202301328651 0 -0.026330603931069188 0.01621714642631011 0 -0.02667635644082102 0.0157366466491476 0 -0.026296132585990145 0.015913889855568394 0 -0.02667635644082102 0.0157366466491476 0 -0.026481705917830882 0.015628102876854743 0 -0.026296132585990145 0.015913889855568394 0 -0.02204037291686586 0.017860021525509601 0 -0.024772790588918986 0.012985730348557553 0 -0.02667635644082102 0.0157366466491476 0 -0.026481705917830882 0.015628102876854743 0 -0.026666543426423443 0.015291464143014136 0 -0.026481705917830882 0.015628102876854743 0 -0.026296132585990145 0.015913889855568394 0 -0.026243093799212861 0.015546832978072815 0 -0.026296132585990145 0.015913889855568394 0 -0.026038259857766574 0.015924456389323695 0 -0.026243093799212861 0.015546832978072815 0 -0.026077950359963534 0.016110747979733806 0 -0.026133960288852544 0.016176074896502395 0 -0.026296132585990145 0.015913889855568394 0 -0.026077950359963534 0.016110747979733806 0 -0.026296132585990145 0.015913889855568394 0 -0.026038259857766574 0.015924456389323695 0 -0.022957984297249663 0.010532030912597225 0 -0.024772790588918986 0.012985730348557553 0 -0.026734728659694885 0.014451877275603941 0 -0.026298692895433282 0.015129550715872984 0 -0.026666543426423443 0.015291464143014136 0 -0.026481705917830882 0.015628102876854743 0 -0.026666543426423443 0.015291464143014136 0 -0.026243093799212861 0.015546832978072815 0 -0.026298692895433282 0.015129550715872984 0 -0.026666543426423443 0.015291464143014136 0 -0.026243093799212861 0.015546832978072815 0 -0.019618540480178377 0.0074715363719116412 0 -0.022052335287642562 0.011121578602959906 0 -0.022254941401999167 0.0064142689024860901 0 -0.022052335287642562 0.011121578602959906 0 -0.025607049769443401 0.0095714667809286193 0 -0.022254941401999167 0.0064142689024860901 0 -0.021529469338090503 0.0096346712969566702 0 -0.021557569477372421 0.0052720642228753743 0 -0.02204037291686586 0.017860021525509601 0 -0.021529469338090503 0.0096346712969566702 0 -0.024547802135397843 0.014767679001898498 0 -0.022052335287642562 0.011121578602959906 0 -0.025607049769443401 0.0095714667809286193 0 -0.017551526715982174 0.019920709825789779 0 -0.018358667532907318 0.015658597481272688 0 -0.020795855195730153 0.018033682513723785 0 -0.021529469338090503 0.0096346712969566702 0 -0.018834350270389516 0.013621188793968895 0 -0.021465343496476524 0.0063034429692311019 0 -0.023263267066510215 0.0043464352663736393 0 -0.02402262180055276 0.005562110865531337 0 -0.021465343496476524 0.0063034429692311019 0 -0.02295974246442932 0.0077900601794845554 0 -0.02402262180055276 0.005562110865531337 0 -0.021465343496476524 0.0063034429692311019 0 -0.023263267066510215 0.0043464352663736393 0 -0.02206826434021452 0.0039468747834670989 0 -0.023263267066510215 0.0043464352663736393 0 -0.022838467977784525 0.0030674101564440535 0 -0.02206826434021452 0.0039468747834670989 0 -0.022838467977784525 0.0030674101564440535 0 -0.02206826434021452 0.0039468747834670989 0 -0.020993257676229522 0.0027748141834659499 0 -0.021089531341524869 0.0038374949139785698 0 -0.02206826434021452 0.0039468747834670989 0 -0.020993257676229522 0.0027748141834659499 0 -0.025688389313347867 -0.004548125413548619 0 -0.021977988830628788 -0.0051964106233384584 0 -0.021716053445557205 0.0058518903524738836 0 -0.021089531341524869 0.0038374949139785698 0 -0.02206826434021452 0.0039468747834670989 0 -0.021529469338090503 0.0096346712969566702 0 -0.022180896205624027 0.0025647149339996927 0 -0.021716053445557205 0.0058518903524738836 0 -0.021089531341524869 0.0038374949139785698 0 -0.02038383310243818 0.0045779376151724414 0 -0.021089531341524869 0.0038374949139785698 0 -0.02038383310243818 0.0045779376151724414 0 -0.020122919860208102 0.0034658510137223018 0 -0.021089531341524869 0.0038374949139785698 0 -0.020993257676229522 0.0027748141834659499 0 -0.020122919860208102 0.0034658510137223018 0 -0.020993257676229522 0.0027748141834659499 0 -0.020122919860208102 0.0034658510137223018 0 -0.019071191204767808 0.0022140473010331041 0 -0.02038383310243818 0.0045779376151724414 0 -0.020122919860208102 0.0034658510137223018 0 -0.018986926726226146 0.0034140750000683424 0 -0.020122919860208102 0.0034658510137223018 0 -0.018986926726226146 0.0034140750000683424 0 -0.019071191204767808 0.0022140473010331041 0 -0.019618540480178377 0.0074715363719116412 0 -0.022254941401999167 0.0064142689024860901 0 -0.018986926726226146 0.0034140750000683424 0 -0.021557569477372421 0.0052720642228753743 0 -0.019052652451152677 0.0035622669374936636 0 -0.019618540480178377 0.0074715363719116412 0 -0.018986926726226146 0.0034140750000683424 0 -0.017536768754331872 0.0040071521786450509 0 -0.01401097817275922 0.0075713996064244154 0 -0.011443037021323679 0.0073176374278986246 0 -0.018624083561104794 0.0063331401021162765 0 -0.017521041311546106 0.0085844713741538309 0 -0.017712142995794256 0.0068918590221909402 0 -0.018810851760259553 0.0062256260396942329 0 -0.018228326887924463 0.0060514411206168987 0 -0.017592751109009295 0.003069951653942523 0 -0.018228326887924463 0.0060514411206168987 0 -0.017712142995794256 0.0068918590221909402 0 -0.017592751109009295 0.003069951653942523 0 -0.018624083561104794 0.0063331401021162765 0 -0.018228326887924463 0.0060514411206168987 0 -0.017712142995794256 0.0068918590221909402 0 -0.01401097817275922 0.0075713996064244154 0 -0.014519054660746097 0.0076223985954207291 0 -0.012339959367743994 0.010631157970690157 0 -0.013083073312100409 0.010821271025114968 0 -0.012799840764950603 0.010479013837841195 0 -0.010166230099455598 0.0038489974159305737 0 -0.010011832245574143 0.0038511740643354005 0 -0.010022255675589032 0.0039300912542749667 0 -0.012707573239178989 0.010046029844252473 0 -0.012799840764950603 0.010479013837841195 0 -0.01393950232836476 0.0099867063059903421 0 -0.013083073312100409 0.010821271025114968 0 -0.012799840764950603 0.010479013837841195 0 -0.01393950232836476 0.0099867063059903421 0 -0.014249596096090172 0.014487939222250773 0 -0.017099935247068598 0.011557709248336264 0 -0.018624083561104794 0.0063331401021162765 0 -0.018407000557772488 0.011798550345333289 0 -0.017521041311546106 0.0085844713741538309 0 -0.01401097817275922 0.0075713996064244154 0 -0.017099935247068598 0.011557709248336264 0 -0.013908157834215474 0.011040757092739913 0 -0.013083073312100409 0.010821271025114968 0 -0.01393950232836476 0.0099867063059903421 0 -0.017099935247068598 0.011557709248336264 0 -0.017351317214373219 0.011639211008364202 0 -0.018407000557772488 0.011798550345333289 0 -0.016964128976602925 0.011815203378945578 0 -0.016937638097242719 0.010045210090943502 0 -0.016964128976602925 0.011815203378945578 0 -0.015180118203620497 0.0090827293560506381 0 -0.016937638097242719 0.010045210090943502 0 -0.01076233861704301 0.011241620889588176 0 -0.016964128976602925 0.011815203378945578 0 -0.015180118203620497 0.0090827293560506381 0 -0.015180118203620497 0.0090827293560506381 0 -0.016684277505019052 0.0089616713861293013 0 -0.016557827782564778 0.0080205671917355746 0 -0.018407000557772488 0.011798550345333289 0 -0.017521041311546106 0.0085844713741538309 0 -0.016937638097242719 0.010045210090943502 0 -0.015180118203620497 0.0090827293560506381 0 -0.016684277505019052 0.0089616713861293013 0 -0.016937638097242719 0.010045210090943502 0 -0.016684277505019052 0.0089616713861293013 0 -0.017521041311546106 0.0085844713741538309 0 -0.016937638097242719 0.010045210090943502 0 -0.01076233861704301 0.011241620889588176 0 -0.015180118203620497 0.0090827293560506381 0 -0.013017821066779098 0.0062757669875897794 0 -0.018834350270389516 0.013621188793968895 0 -0.018112618364176422 0.0066563610492631894 0 -0.017521041311546106 0.0085844713741538309 0 -0.017020862767507423 0.0074812509695094676 0 -0.017712142995794256 0.0068918590221909402 0 -0.017020862767507423 0.0074812509695094676 0 -0.016557827782564778 0.0080205671917355746 0 -0.016163458408050554 0.0067417669550430661 0 -0.017020862767507423 0.0074812509695094676 0 -0.016163458408050554 0.0067417669550430661 0 -0.017712142995794256 0.0068918590221909402 0 -0.017521041311546106 0.0085844713741538309 0 -0.017020862767507423 0.0074812509695094676 0 -0.016557827782564778 0.0080205671917355746 0 -0.016684277505019052 0.0089616713861293013 0 -0.017521041311546106 0.0085844713741538309 0 -0.016557827782564778 0.0080205671917355746 0 -0.015180118203620497 0.0090827293560506381 0 -0.013017821066779098 0.0062757669875897794 0 -0.016163458408050554 0.0067417669550430661 0 -0.015180118203620497 0.0090827293560506381 0 -0.016557827782564778 0.0080205671917355746 0 -0.016163458408050554 0.0067417669550430661 0 -0.013017821066779098 0.0062757669875897794 0 -0.016163458408050554 0.0067417669550430661 0 -0.015568384426690736 0.0052749910587921072 0 -0.016163458408050554 0.0067417669550430661 0 -0.017712142995794256 0.0068918590221909402 0 -0.015568384426690736 0.0052749910587921072 0 -0.013017821066779098 0.0062757669875897794 0 -0.015965104608552057 0.0025064295594220232 0 -0.015489272390011778 0.0011294042249793169 0 -0.013017821066779098 0.0062757669875897794 0 -0.015568384426690736 0.0052749910587921072 0 -0.015965104608552057 0.0025064295594220232 0 -0.017712142995794256 0.0068918590221909402 0 -0.015568384426690736 0.0052749910587921072 0 -0.015965104608552057 0.0025064295594220232 0 -0.017712142995794256 0.0068918590221909402 0 -0.015965104608552057 0.0025064295594220232 0 -0.016107456501337436 0.0021310303977754167 0 -0.017712142995794256 0.0068918590221909402 0 -0.017592751109009295 0.003069951653942523 0 -0.014944750932698949 -0.00027429001562403094 0 -0.017417093146235074 0.0074704723206784739 0 -0.017068163418553609 -0.0018066902778788223 0 -0.016883929611594184 -0.0012580967467826526 0 -0.017068163418553609 -0.0018066902778788223 0 -0.017592751109009295 0.003069951653942523 0 -0.014944750932698949 -0.00027429001562403094 0 -0.017038996369001923 0.00033373552948953722 0 -0.023263267066510215 0.0043464352663736393 0 -0.02402262180055276 0.005562110865531337 0 -0.024986595343655604 0.0033913418080324664 0 -0.018112618364176422 0.0066563610492631894 0 -0.020324587207422733 -0.0052539602545824734 0 -0.025823106248438882 -0.012622636742983719 0 -0.028327280450895886 -0.012108637362347201 0 -0.027818771613352514 -0.014086682045946843 0 -0.023263267066510215 0.0043464352663736393 0 -0.022838467977784525 0.0030674101564440535 0 -0.024986595343655604 0.0033913418080324664 0 -0.025688389313347867 -0.004548125413548619 0 -0.020324587207422733 -0.0052539602545824734 0 -0.013368961273125124 -0.014529185174315631 0 -0.014390327443877662 -0.015756782494185842 0 -0.014542855633535318 -0.017544342335091934 0 -0.015333401866364891 -0.01553133474542431 0 -0.016024512823989499 -0.017959415301083581 0 -0.015356747558379484 -0.016877868321297361 0 -0.020324587207422733 -0.0052539602545824734 0 -0.020765179961516611 -0.017260501243003417 0 -0.016471925689936925 -0.0087333062044639004 0 -0.015271895968265801 -0.018894689054062792 0 -0.014864460574183969 -0.015613520174762275 0 -0.015356747558379484 -0.016877868321297361 0 -0.014308577079973326 -0.017666846914690122 0 -0.016471925689936925 -0.0087333062044639004 0 -0.013563812009008001 -0.00583990022884915 0 -0.013368961273125124 -0.014529185174315631 0 -0.014390327443877662 -0.015756782494185842 0 -0.014859206264278632 -0.014196912265327885 0 -0.017038996369001923 0.00033373552948953722 0 -0.01540312035186212 -0.0015256497073322288 0 -0.018850004990676149 -0.00086330931961533337 0 -0.014944750932698949 -0.00027429001562403094 0 -0.017038996369001923 0.00033373552948953722 0 -0.01540312035186212 -0.0015256497073322288 0 -0.017068163418553609 -0.0018066902778788223 0 -0.016471925689936925 -0.0087333062044639004 0 -0.017068163418553609 -0.0018066902778788223 0 -0.020324587207422733 -0.0052539602545824734 0 -0.017273291819542548 -0.0066186986900223172 0 -0.017102225362014979 -0.0061568798114748228 0 -0.017641387004572722 -0.006060435559764191 0 -0.015965104608552057 0.0025064295594220232 0 -0.016109126521184285 0.0021204856925852843 0 -0.015489272390011778 0.0011294042249793169 0 -0.016471925689936925 -0.0087333062044639004 0 -0.020324587207422733 -0.0052539602545824734 0 -0.015333401866364891 -0.01553133474542431 0 -0.014864460574183969 -0.015613520174762275 0 -0.015356747558379484 -0.016877868321297361 0 -0.013563812009008001 -0.00583990022884915 0 -0.014891809918363025 -0.019411581468645842 0 -0.014831690697924619 -0.014978163653522747 0 -0.016744445522663052 -0.014638995990209491 0 -0.01605951885182302 -0.016012166873883047 0 -0.014831690697924619 -0.014978163653522747 0 -0.01605951885182302 -0.016012166873883047 0 -0.014849470034434625 -0.016669892319828895 0 -0.014390327443877662 -0.015756782494185842 0 -0.014859206264278632 -0.014196912265327885 0 -0.014849470034434625 -0.016669892319828895 0 -0.01401097817275922 0.0075713996064244154 0 -0.013563812009008001 -0.00583990022884915 0 -0.010166230099455598 0.0038489974159305737 0 -0.010175442863003953 0.0039047224933737891 0 -0.010022255675589032 0.0039300912542749667 0 -0.017592751109009295 0.003069951653942523 0 -0.017038996369001923 0.00033373552948953722 0 -0.018850004990676149 -0.00086330931961533337 0 -0.018810851760259553 0.0062256260396942329 0 -0.017592751109009295 0.003069951653942523 0 -0.018850004990676149 -0.00086330931961533337 0 -0.013563812009008001 -0.00583990022884915 0 -0.015559559075670314 -0.0049717644287467647 0 -0.0099240255004393318 0.0038991437297684582 0 -0.010011832245574143 0.0038511740643354005 0 -0.010022255675589032 0.0039300912542749667 0 -0.017518567700775305 -0.015908810837583751 0 -0.016744445522663052 -0.014638995990209491 0 -0.01605951885182302 -0.016012166873883047 0 -0.01605951885182302 -0.016012166873883047 0 -0.017241346371143877 -0.017950068902324201 0 -0.015769795644995369 -0.01754791237544082 0 -0.017518567700775305 -0.015908810837583751 0 -0.01605951885182302 -0.016012166873883047 0 -0.017241346371143877 -0.017950068902324201 0 -0.017241346371143877 -0.017950068902324201 0 -0.015606821656463004 -0.019790090548840469 0 -0.017744484183834154 -0.020526737184854701 0 -0.017241346371143877 -0.017950068902324201 0 -0.015769795644995369 -0.01754791237544082 0 -0.015606821656463004 -0.019790090548840469 0 -0.016024512823989499 -0.017959415301083581 0 -0.015075258419602527 -0.018941928687730751 0 -0.016491799106489617 -0.020035322960589928 0 -0.014542855633535318 -0.017544342335091934 0 -0.015769795644995369 -0.01754791237544082 0 -0.015606821656463004 -0.019790090548840469 0 -0.015271895968265801 -0.018894689054062792 0 -0.016010182231451352 -0.019653125975146776 0 -0.014542855633535318 -0.017544342335091934 0 -0.015769795644995369 -0.01754791237544082 0 -0.014849470034434625 -0.016669892319828895 0 -0.01605951885182302 -0.016012166873883047 0 -0.015769795644995369 -0.01754791237544082 0 -0.014849470034434625 -0.016669892319828895 0 -0.014390327443877662 -0.015756782494185842 0 -0.014542855633535318 -0.017544342335091934 0 -0.014849470034434625 -0.016669892319828895 0 -0.016024512823989499 -0.017959415301083581 0 -0.015356747558379484 -0.016877868321297361 0 -0.015189893662662894 -0.017876363909933329 0 -0.015356747558379484 -0.016877868321297361 0 -0.015189893662662894 -0.017876363909933329 0 -0.014308577079973326 -0.017666846914690122 0 -0.015189893662662894 -0.017876363909933329 0 -0.014308577079973326 -0.017666846914690122 0 -0.015075258419602527 -0.018941928687730751 0 -0.016024512823989499 -0.017959415301083581 0 -0.015189893662662894 -0.017876363909933329 0 -0.015075258419602527 -0.018941928687730751 0 -0.025823106248438882 -0.012622636742983719 0 -0.027818771613352514 -0.014086682045946843 0 -0.026228772043763955 -0.01464335934325766 0 -0.020765179961516611 -0.017260501243003417 0 -0.020327928864914479 -0.017706598309769898 0 -0.027818771613352514 -0.014086682045946843 0 -0.027156112484634978 -0.016142551441092286 0 -0.026228772043763955 -0.01464335934325766 0 -0.014308577079973326 -0.017666846914690122 0 -0.013803354946265776 -0.019462688420689867 0 -0.015075258419602527 -0.018941928687730751 0 -0.015075258419602527 -0.018941928687730751 0 -0.014779104027621002 -0.020215551121951468 0 -0.016491799106489617 -0.020035322960589928 0 -0.013803354946265776 -0.019462688420689867 0 -0.015075258419602527 -0.018941928687730751 0 -0.014779104027621002 -0.020215551121951468 0 -0.014779104027621002 -0.020215551121951468 0 -0.015202353044567241 -0.021515630768315835 0 -0.016491799106489617 -0.020035322960589928 0 -0.013803354946265776 -0.019462688420689867 0 -0.014779104027621002 -0.020215551121951468 0 -0.013319229527929098 -0.021059288907642051 0 -0.014779104027621002 -0.020215551121951468 0 -0.013319229527929098 -0.021059288907642051 0 -0.015202353044567241 -0.021515630768315835 0 -0.020327928864914479 -0.017706598309769898 0 -0.023045694565034101 -0.019490460872718163 0 -0.027156112484634978 -0.016142551441092286 0 -0.02644271987958419 -0.018252224339767115 0 -0.026329451009220871 -0.017402722621958203 0 -0.027156112484634978 -0.016142551441092286 0 -0.025899776456110715 -0.016790240849299518 0 -0.026329451009220871 -0.017402722621958203 0 -0.023045694565034101 -0.019490460872718163 0 -0.01975948969317547 -0.024196853657972386 0 -0.013319229527929098 -0.021059288907642051 0 -0.015202353044567241 -0.021515630768315835 0 -0.013608536810792824 -0.023070226002239021 0 -0.015202353044567241 -0.021515630768315835 0 -0.01682904051927403 -0.02180139462746809 0 -0.015315733640958331 -0.023222717493316343 0 -0.015202353044567241 -0.021515630768315835 0 -0.01682904051927403 -0.02180139462746809 0 -0.016491799106489617 -0.020035322960589928 0 -0.01682904051927403 -0.02180139462746809 0 -0.018130343034838649 -0.022344021265670522 0 -0.017744484183834154 -0.020526737184854701 0 -0.01682904051927403 -0.02180139462746809 0 -0.015606821656463004 -0.019790090548840469 0 -0.017744484183834154 -0.020526737184854701 0 -0.016779287484599763 -0.021743122424403252 0 -0.016010182231451352 -0.019653125975146776 0 -0.021894727707294767 -0.014700297647497142 0 -0.02248925857186819 -0.016669410496414506 0 -0.019077639210635579 -0.016585889167775477 0 -0.020127486191219814 -0.01357405640543022 0 -0.021894727707294767 -0.014700297647497142 0 -0.019077639210635579 -0.016585889167775477 0 -0.023110691076088652 -0.013060787126419572 0 -0.020127486191219814 -0.01357405640543022 0 -0.021894727707294767 -0.014700297647497142 0 -0.021977988830628788 -0.0051964106233384584 0 -0.018517156266001044 -0.0056275049978388803 0 -0.021894727707294767 -0.014700297647497142 0 -0.02248925857186819 -0.016669410496414506 0 -0.024808340805019119 -0.014505373332186964 0 -0.02248925857186819 -0.016669410496414506 0 -0.024808340805019119 -0.014505373332186964 0 -0.024106697474232688 -0.016977015955323797 0 -0.024808340805019119 -0.014505373332186964 0 -0.025585964137055415 -0.018052837649592979 0 -0.024106697474232688 -0.016977015955323797 0 -0.023110691076088652 -0.013060787126419572 0 -0.021894727707294767 -0.014700297647497142 0 -0.024808340805019119 -0.014505373332186964 0 -0.025823106248438882 -0.012622636742983719 0 -0.023110691076088652 -0.013060787126419572 0 -0.024808340805019119 -0.014505373332186964 0 -0.025823106248438882 -0.012622636742983719 0 -0.024808340805019119 -0.014505373332186964 0 -0.026228772043763955 -0.01464335934325766 0 -0.024861529498857369 -0.014834885612101049 0 -0.02524300550738821 -0.017477177629092414 0 -0.024808340805019119 -0.014505373332186964 0 -0.025563482986077229 -0.015911421662214952 0 -0.025020822414114425 -0.017644411874636053 0 -0.027156112484634978 -0.016142551441092286 0 -0.026228772043763955 -0.01464335934325766 0 -0.025563482986077229 -0.015911421662214952 0 -0.024808340805019119 -0.014505373332186964 0 -0.026228772043763955 -0.01464335934325766 0 -0.025563482986077229 -0.015911421662214952 0 -0.027156112484634978 -0.016142551441092286 0 -0.025563482986077229 -0.015911421662214952 0 -0.025899776456110715 -0.016790240849299518 0 -0.025563482986077229 -0.015911421662214952 0 -0.025899776456110715 -0.016790240849299518 0 -0.025020822414114425 -0.017644411874636053 0 -0.025899776456110715 -0.016790240849299518 0 -0.026329451009220871 -0.017402722621958203 0 -0.025020822414114425 -0.017644411874636053 0 -0.023045694565034101 -0.019490460872718163 0 -0.02442390849360156 -0.018047298324896311 0 -0.026480627343120806 -0.01831328121448338 0 -0.026329451009220871 -0.017402722621958203 0 -0.025020822414114425 -0.017644411874636053 0 -0.025585964137055415 -0.018052837649592979 0 -0.024666066230604841 -0.020117345361906416 0 -0.026266433051455335 -0.021862137326211617 0 -0.02524300550738821 -0.017477177629092414 0 -0.026134650056774764 -0.023008876703907249 0 -0.026480627343120806 -0.01831328121448338 0 -0.025020822414114425 -0.017644411874636053 0 -0.025457654679842005 -0.021181152340192765 0 -0.023045694565034101 -0.019490460872718163 0 -0.026134650056774764 -0.023008876703907249 0 -0.024666066230604841 -0.020117345361906416 0 -0.023528827837345109 -0.018746722938205913 0 -0.023085299331183019 -0.02176845453112914 0 -0.025585964137055415 -0.018052837649592979 0 -0.024666066230604841 -0.020117345361906416 0 -0.023528827837345109 -0.018746722938205913 0 -0.025585964137055415 -0.018052837649592979 0 -0.023528827837345109 -0.018746722938205913 0 -0.024106697474232688 -0.016977015955323797 0 -0.02248925857186819 -0.016669410496414506 0 -0.023528827837345109 -0.018746722938205913 0 -0.024106697474232688 -0.016977015955323797 0 -0.02248925857186819 -0.016669410496414506 0 -0.023528827837345109 -0.018746722938205913 0 -0.021023623357535343 -0.019103244760912162 0 -0.023528827837345109 -0.018746722938205913 0 -0.021023623357535343 -0.019103244760912162 0 -0.023085299331183019 -0.02176845453112914 0 -0.024178445539694612 -0.021068228163053721 0 -0.026116252385555375 -0.023636502284288874 0 -0.027498700288982294 -0.02351410864800841 0 -0.025504611892383188 -0.023185262898142774 0 -0.025659112876402157 -0.025224314411431841 0 -0.02248925857186819 -0.016669410496414506 0 -0.021023623357535343 -0.019103244760912162 0 -0.019077639210635579 -0.016585889167775477 0 -0.027498700288982294 -0.02351410864800841 0 -0.025705325174240706 -0.021072950547693963 0 -0.025504611892383188 -0.023185262898142774 0 -0.024178445539694612 -0.021068228163053721 0 -0.022596944630498106 -0.02033985585855138 0 -0.027281465343060505 -0.026621014129808322 0 -0.027034175578801108 -0.02883621288296322 0 -0.025386787430701444 -0.027861394266368487 0 -0.027498700288982294 -0.02351410864800841 0 -0.027281465343060505 -0.026621014129808322 0 -0.025659112876402157 -0.025224314411431841 0 -0.027281465343060505 -0.026621014129808322 0 -0.025659112876402157 -0.025224314411431841 0 -0.025386787430701444 -0.027861394266368487 0 -0.027498700288982294 -0.02351410864800841 0 -0.027281465343060505 -0.026621014129808322 0 -0.029276798360842411 -0.025861782654467383 0 -0.027281465343060505 -0.026621014129808322 0 -0.028882750061409643 -0.028438741493784267 0 -0.027034175578801108 -0.02883621288296322 0 -0.027281465343060505 -0.026621014129808322 0 -0.029276798360842411 -0.025861782654467383 0 -0.028882750061409643 -0.028438741493784267 0 -0.029276798360842411 -0.025861782654467383 0 -0.028882750061409643 -0.028438741493784267 0 -0.031177680688545734 -0.02822358394434429 0 -0.023085299331183019 -0.02176845453112914 0 -0.025343261774328229 -0.024563054352240436 0 -0.025643814290314676 -0.023704234135284816 0 -0.026116252385555375 -0.023636502284288874 0 -0.028518730328973702 -0.027605487025221209 0 -0.023085299331183019 -0.02176845453112914 0 -0.025593275594409739 -0.022611321625655059 0 -0.025643814290314676 -0.023704234135284816 0 -0.023085299331183019 -0.02176845453112914 0 -0.024994014990017233 -0.021438789401940158 0 -0.025593275594409739 -0.022611321625655059 0 -0.024666066230604841 -0.020117345361906416 0 -0.023085299331183019 -0.02176845453112914 0 -0.024994014990017233 -0.021438789401940158 0 -0.024666066230604841 -0.020117345361906416 0 -0.024994014990017233 -0.021438789401940158 0 -0.026266433051455335 -0.021862137326211617 0 -0.025593275594409739 -0.022611321625655059 0 -0.026266433051455335 -0.021862137326211617 0 -0.025655599637745115 -0.023721023816245117 0 -0.024994014990017233 -0.021438789401940158 0 -0.025593275594409739 -0.022611321625655059 0 -0.026266433051455335 -0.021862137326211617 0 -0.026134650056774764 -0.023008876703907249 0 -0.027668417396286851 -0.026126667426783098 0 -0.025859734269063919 -0.019388782979462643 0 -0.023984628290390858 -0.024739572703767556 0 -0.026680522691086096 -0.025088429212894049 0 -0.027656457977871304 -0.024842155235750445 0 -0.026873636872788761 -0.027048235504284382 0 -0.028227607543526358 -0.028929760305486624 0 -0.023984628290390858 -0.024739572703767556 0 -0.024833302829489 -0.03042421559689977 0 -0.026680522691086096 -0.025088429212894049 0 -0.026134650056774764 -0.023008876703907249 0 -0.026561879608038862 -0.030025294654292989 0 -0.026677194449829973 -0.023088550191868302 0 -0.027668417396286851 -0.026126667426783098 0 -0.030494387595709719 -0.029126576162941977 0 -0.030716259315002666 -0.028480465989372046 0 -0.030633238901302623 -0.029288814962076568 0 -0.028518730328973702 -0.027605487025221209 0 -0.027668417396286851 -0.026126667426783098 0 -0.028518730328973702 -0.027605487025221209 0 -0.028787202435898166 -0.027891433817229715 0 -0.027668417396286851 -0.026126667426783098 0 -0.029056489899340031 -0.031337870148474133 0 -0.024833302829489 -0.03042421559689977 0 -0.025640014298301053 -0.035943658103894466 0 -0.026981082147301834 -0.030718967724920519 0 -0.026561879608038862 -0.030025294654292989 0 -0.026779564456340246 -0.034486857709693008 0 -0.026873636872788761 -0.027048235504284382 0 -0.027044803595333563 -0.030956683527316745 0 -0.028227607543526358 -0.028929760305486624 0 -0.027044803595333563 -0.030956683527316745 0 -0.028227607543526358 -0.028929760305486624 0 -0.028756277601898899 -0.032892067584155679 0 -0.030716259315002666 -0.028480465989372046 0 -0.030633238901302623 -0.029288814962076568 0 -0.030843167844201054 -0.030977332498447994 0 -0.027044803595333563 -0.030956683527316745 0 -0.028756277601898899 -0.032892067584155679 0 -0.02722067252004701 -0.034705895517338346 0 -0.029056489899340031 -0.031337870148474133 0 -0.02908105822823568 -0.033837187539406184 0 -0.026779564456340246 -0.034486857709693008 0 -0.026790862840966163 -0.035581643755558515 0 -0.030202629398744893 -0.030704955168640902 0 -0.029515058068581821 -0.032344901923851005 0 -0.030843167844201054 -0.030977332498447994 0 -0.029420062111151758 -0.032573285469653365 0 -0.030889611207965503 -0.033333829724859473 0 -0.030843167844201054 -0.030977332498447994 0 -0.029945891011258597 -0.030924411679045791 0 -0.029420062111151758 -0.032573285469653365 0 -0.030633238901302623 -0.029288814962076568 0 -0.030843167844201054 -0.030977332498447994 0 -0.029945891011258597 -0.030924411679045791 0 -0.028882750061409643 -0.028438741493784267 0 -0.031177680688545734 -0.02822358394434429 0 -0.030409841751369189 -0.030320435676062654 0 -0.028518730328973702 -0.027605487025221209 0 -0.030202629398744893 -0.030704955168640902 0 -0.030497113278371228 -0.029129196199951593 0 -0.030633238901302623 -0.029288814962076568 0 -0.029945891011258597 -0.030924411679045791 0 -0.028882750061409643 -0.028438741493784267 0 -0.027974964625360858 -0.03069647486026655 0 -0.027034175578801108 -0.02883621288296322 0 -0.028882750061409643 -0.028438741493784267 0 -0.030409841751369189 -0.030320435676062654 0 -0.027974964625360858 -0.03069647486026655 0 -0.027974964625360858 -0.03069647486026655 0 -0.027649567206110448 -0.033499261118640725 0 -0.029420062111151758 -0.032573285469653365 0 -0.030409841751369189 -0.030320435676062654 0 -0.027974964625360858 -0.03069647486026655 0 -0.029420062111151758 -0.032573285469653365 0 -0.027902853315668344 -0.030788387011235815 0 -0.02599263521783373 -0.03266085404638118 0 -0.027974964625360858 -0.03069647486026655 0 -0.025665098535503292 -0.030385657052559405 0 -0.025893581105074871 -0.032279258452119534 0 -0.027974964625360858 -0.03069647486026655 0 -0.027034175578801108 -0.02883621288296322 0 -0.025665098535503292 -0.030385657052559405 0 -0.016898359974160383 -0.02373403408549157 0 -0.015315733640958331 -0.023222717493316343 0 -0.015975335871878212 -0.025806074851417324 0 -0.016898359974160383 -0.02373403408549157 0 -0.017586305284288679 -0.025643320053546984 0 -0.018731413670980409 -0.024523941880097766 0 -0.016898359974160383 -0.02373403408549157 0 -0.017598672376918954 -0.02304085539351387 0 -0.018081146160358576 -0.023947343176053539 0 -0.016113743435513115 -0.023483414940566587 0 -0.020696306572143091 -0.024741224238337346 0 -0.01682904051927403 -0.02180139462746809 0 -0.017598672376918954 -0.02304085539351387 0 -0.018130343034838649 -0.022344021265670522 0 -0.01682904051927403 -0.02180139462746809 0 -0.016898359974160383 -0.02373403408549157 0 -0.017598672376918954 -0.02304085539351387 0 -0.01682904051927403 -0.02180139462746809 0 -0.016898359974160383 -0.02373403408549157 0 -0.015315733640958331 -0.023222717493316343 0 -0.015202353044567241 -0.021515630768315835 0 -0.015315733640958331 -0.023222717493316343 0 -0.013608536810792824 -0.023070226002239021 0 -0.026680522691086096 -0.025088429212894049 0 -0.026981082147301834 -0.030718967724920519 0 -0.027451627481357578 -0.030810045982754022 0 -0.015315733640958331 -0.023222717493316343 0 -0.013608536810792824 -0.023070226002239021 0 -0.013917900801366028 -0.025203438659194104 0 -0.01975948969317547 -0.024196853657972386 0 -0.020730842937547331 -0.02796797359644896 0 -0.024833302829489 -0.03042421559689977 0 -0.026680522691086096 -0.025088429212894049 0 -0.026981082147301834 -0.030718967724920519 0 -0.015315733640958331 -0.023222717493316343 0 -0.013917900801366028 -0.025203438659194104 0 -0.015975335871878212 -0.025806074851417324 0 -0.013917900801366028 -0.025203438659194104 0 -0.014342718694854435 -0.027360531040054582 0 -0.015975335871878212 -0.025806074851417324 0 -0.026280973808580202 -0.034979588178452342 0 -0.026981082147301834 -0.030718967724920519 0 -0.027451627481357578 -0.030810045982754022 0 -0.026779564456340246 -0.034486857709693008 0 -0.02672822672962984 -0.031405344035036496 0 -0.020730842937547331 -0.02796797359644896 0 -0.021178843266581069 -0.031320864292547983 0 -0.026280973808580202 -0.034979588178452342 0 -0.027451627481357578 -0.030810045982754022 0 -0.028053679342727848 -0.03530423262143912 0 -0.026280973808580202 -0.034979588178452342 0 -0.028053679342727848 -0.03530423262143912 0 -0.026722973766444311 -0.036062928598674875 0 -0.014342718694854435 -0.027360531040054582 0 -0.015975335871878212 -0.025806074851417324 0 -0.015957001807341168 -0.027849454177586695 0 -0.015975335871878212 -0.025806074851417324 0 -0.017586305284288679 -0.025643320053546984 0 -0.017493004134348247 -0.027557134247912111 0 -0.015975335871878212 -0.025806074851417324 0 -0.017493004134348247 -0.027557134247912111 0 -0.015957001807341168 -0.027849454177586695 0 -0.016898359974160383 -0.02373403408549157 0 -0.015975335871878212 -0.025806074851417324 0 -0.017586305284288679 -0.025643320053546984 0 -0.017586305284288679 -0.025643320053546984 0 -0.018944994657800779 -0.026375755322788068 0 -0.017493004134348247 -0.027557134247912111 0 -0.018944994657800779 -0.026375755322788068 0 -0.019164916992069833 -0.028261082104414449 0 -0.017493004134348247 -0.027557134247912111 0 -0.018944994657800779 -0.026375755322788068 0 -0.020457692087156129 -0.027108135705220505 0 -0.019164916992069833 -0.028261082104414449 0 -0.0087753606074138669 -0.026205200281577405 0 -0.0076488074925849985 -0.024958898367013163 0 -0.018944994657800779 -0.026375755322788068 0 -0.020457692087156129 -0.027108135705220505 0 -0.02027816425070763 -0.025190893059069668 0 -0.017586305284288679 -0.025643320053546984 0 -0.018944994657800779 -0.026375755322788068 0 -0.018731413670980409 -0.024523941880097766 0 -0.018944994657800779 -0.026375755322788068 0 -0.02027816425070763 -0.025190893059069668 0 -0.018731413670980409 -0.024523941880097766 0 -0.0076488074925849985 -0.024958898367013163 0 -0.020696306572143091 -0.024741224238337346 0 -0.017598672376918954 -0.02304085539351387 0 -0.018081146160358576 -0.023947343176053539 0 -0.018215061963916524 -0.023255747862100128 0 -0.018081146160358576 -0.023947343176053539 0 -0.018775835299415337 -0.023532182746582232 0 -0.018215061963916524 -0.023255747862100128 0 0.0046110068779185972 -0.024378935860839716 0 0.0046552237086880128 -0.024094147683496187 0 0.0045120960856725846 -0.024218977120759513 0 -0.018997222260173852 -0.024217838846610829 0 -0.018081146160358576 -0.023947343176053539 0 -0.018775835299415337 -0.023532182746582232 0 -0.018997222260173852 -0.024217838846610829 0 -0.018775835299415337 -0.023532182746582232 0 -0.018932705379317114 -0.023330177624930754 0 -0.0076488074925849985 -0.024958898367013163 0 -0.0050229787060605911 -0.022253844679646854 0 -0.012843304911131942 -0.019670126460021923 0 -0.0050229787060605911 -0.022253844679646854 0 -0.018775835299415337 -0.023532182746582232 0 -0.019158019097645893 -0.023229661224074799 0 -0.018699915556634271 -0.022783504044430948 0 -0.0050229787060605911 -0.022253844679646854 0 -0.0068518188739745195 -0.020478330498670278 0 0.0059725252773490953 -0.017818759824742493 0 0.0058484806113509088 -0.020029777927125122 0 0.0074291278220358151 -0.019134224425128899 0 -0.019158019097645893 -0.023229661224074799 0 -0.018699915556634271 -0.022783504044430948 0 -0.019246990974429157 -0.021436589121190515 0 -0.0050229787060605911 -0.022253844679646854 0 0.0071105208360024595 -0.02208445954676945 0 -0.018699915556634271 -0.022783504044430948 0 -0.018130343034838649 -0.022344021265670522 0 -0.018215061963916524 -0.023255747862100128 0 -0.017598672376918954 -0.02304085539351387 0 -0.018130343034838649 -0.022344021265670522 0 -0.018215061963916524 -0.023255747862100128 0 -0.018775835299415337 -0.023532182746582232 0 -0.018699915556634271 -0.022783504044430948 0 -0.018215061963916524 -0.023255747862100128 0 0.0043108951304537593 -0.024121427541519313 0 0.0045334966935335229 -0.023870818538540485 0 0.0043567569900954317 -0.023863245757084615 0 0.0043108951304537593 -0.024121427541519313 0 0.0041929366058055494 -0.023878552900001983 0 0.0043567569900954317 -0.023863245757084615 0 0.0045120960856725846 -0.024218977120759513 0 0.0043108951304537593 -0.024121427541519313 0 0.0045334966935335229 -0.023870818538540485 0 0.0046552237086880128 -0.024094147683496187 0 0.0045120960856725846 -0.024218977120759513 0 0.0045334966935335229 -0.023870818538540485 0 0.0045120960856725846 -0.024218977120759513 0 0.0043108951304537593 -0.024121427541519313 0 0.0044116215242069002 -0.024557111047439295 0 0.0043108951304537593 -0.024121427541519313 0 0.0044116215242069002 -0.024557111047439295 0 0.0040811846219569303 -0.024449417171931942 0 0.0063707995217087447 -0.024486379299261431 0 0.0029949259105948637 -0.025178098862560689 0 -0.0076488074925849985 -0.024958898367013163 0 0.0063707995217087447 -0.024486379299261431 0 0.0031046670783262753 -0.02507604290346005 0 0.0029537036853013207 -0.025553524190585139 0 0.0035477292086436769 -0.025318591850683272 0 0.0046110068779185972 -0.024378935860839716 0 0.0045120960856725846 -0.024218977120759513 0 0.0044116215242069002 -0.024557111047439295 0 0.0031046670783262753 -0.02507604290346005 0 0.0035477292086436769 -0.025318591850683272 0 0.0034018277001946445 -0.024942131968109814 0 0.0035477292086436769 -0.025318591850683272 0 0.0036905761970572443 -0.024968667880260566 0 0.003979060117591921 -0.024895226118125405 0 0.0035477292086436769 -0.025318591850683272 0 0.0036905761970572443 -0.024968667880260566 0 0.0034018277001946445 -0.024942131968109814 0 0.0036905761970572443 -0.024968667880260566 0 0.003979060117591921 -0.024895226118125405 0 0.0038303912871775737 -0.024920362410160293 0 0.003979060117591921 -0.024895226118125405 0 0.0039310476746691053 -0.02497044376962022 0 0.0039227755190828504 -0.024733186428575232 0 0.003979060117591921 -0.024895226118125405 0 0.0039310476746691053 -0.02497044376962022 0 0.0038303912871775737 -0.024920362410160293 0 0.021788045014606103 -0.023484823901337003 0 0.02131395010371109 -0.022868750078147055 0 0.021302573624345518 -0.023713185392369825 0 0.01489751655872343 -0.023435880081010749 0 0.013399850104983811 -0.021560773196038181 0 0.014324358894927527 -0.020118963164399005 0 0.0039310476746691053 -0.02497044376962022 0 0.0038022647848031609 -0.024489574695314084 0 0.0039227755190828504 -0.024733186428575232 0 0.015154525433128752 -0.024287159950881813 0 0.010766002710516335 -0.019932855566607201 0 0.015154525433128752 -0.024287159950881813 0 0.01807268005886651 -0.020399742142605839 0 0.013711077767212155 -0.014423634718541242 0 0.01297785473680539 -0.015485977081176697 0 0.013843725421318858 -0.016311050402165718 0 0.01807268005886651 -0.020399742142605839 0 0.010766002710516335 -0.019932855566607201 0 0.0044116215242069002 -0.024557111047439295 0 0.003979060117591921 -0.024895226118125405 0 0.0040811846219569303 -0.024449417171931942 0 0.003979060117591921 -0.024895226118125405 0 0.0039227755190828504 -0.024733186428575232 0 0.0040811846219569303 -0.024449417171931942 0 0.0038022647848031609 -0.024489574695314084 0 0.0039227755190828504 -0.024733186428575232 0 0.0040811846219569303 -0.024449417171931942 0 0.020659517975970213 -0.022195603758341426 0 0.020707468904818567 -0.023699648137354184 0 0.019640279724696407 -0.022386089101993432 0 0.020659517975970213 -0.022195603758341426 0 0.020289135739519442 -0.021151315676670435 0 0.019640279724696407 -0.022386089101993432 0 0.02131395010371109 -0.022868750078147055 0 0.020707468904818567 -0.023699648137354184 0 0.021302573624345518 -0.023713185392369825 0 0.022045111511518313 -0.021650434823431847 0 0.020659517975970213 -0.022195603758341426 0 0.020707468904818567 -0.023699648137354184 0 0.01807268005886651 -0.020399742142605839 0 0.02175796260980687 -0.024082572259905597 0 0.022045111511518313 -0.021650434823431847 0 0.020659517975970213 -0.022195603758341426 0 0.020289135739519442 -0.021151315676670435 0 0.013711077767212155 -0.014423634718541242 0 0.015114970695859625 -0.016041938974361711 0 0.013843725421318858 -0.016311050402165718 0 0.022045111511518313 -0.021650434823431847 0 0.020289135739519442 -0.021151315676670435 0 0.020835021122421887 -0.020221254420916716 0 0.01807268005886651 -0.020399742142605839 0 0.017813011284700263 -0.017745119133227863 0 0.020289135739519442 -0.021151315676670435 0 0.019709399230363408 -0.020046475573091443 0 0.020835021122421887 -0.020221254420916716 0 0.020289135739519442 -0.021151315676670435 0 0.019709399230363408 -0.020046475573091443 0 0.019274105355851737 -0.020979354369260933 0 0.015114970695859625 -0.016041938974361711 0 0.01466195348123984 -0.017796953680101195 0 0.016769467583896365 -0.017764175003760419 0 0.017813011284700263 -0.017745119133227863 0 0.018242909578575706 -0.018662374059125984 0 0.019709399230363408 -0.020046475573091443 0 0.020835021122421887 -0.020221254420916716 0 0.019553619571964533 -0.019194717840640634 0 0.015114970695859625 -0.016041938974361711 0 0.013843725421318858 -0.016311050402165718 0 0.01466195348123984 -0.017796953680101195 0 0.013843725421318858 -0.016311050402165718 0 0.01466195348123984 -0.017796953680101195 0 0.013192363914834145 -0.017434324969915392 0 0.01466195348123984 -0.017796953680101195 0 0.013192363914834145 -0.017434324969915392 0 0.013362526569699988 -0.019697697987407777 0 0.01466195348123984 -0.017796953680101195 0 0.016769467583896365 -0.017764175003760419 0 0.015720960538425768 -0.019876484699366481 0 0.0043108951304537593 -0.024121427541519313 0 0.0040811846219569303 -0.024449417171931942 0 0.0040162011980627663 -0.024120770004137239 0 0.0038022647848031609 -0.024489574695314084 0 0.0040811846219569303 -0.024449417171931942 0 0.0040162011980627663 -0.024120770004137239 0 0.010766002710516335 -0.019932855566607201 0 0.013021184244917461 -0.017268532302096445 0 0.010766002710516335 -0.019932855566607201 0 0.0075917023450845214 -0.021419248819678188 0 0.012373104060605355 -0.017309895309132298 0 0.011793490310896855 -0.01810425367718525 0 0.012716248462891652 -0.01830997997995534 0 0.01297785473680539 -0.015485977081176697 0 0.013843725421318858 -0.016311050402165718 0 0.013192363914834145 -0.017434324969915392 0 0.012716248462891652 -0.01830997997995534 0 0.012043328617590866 -0.019048217148771664 0 0.013362526569699988 -0.019697697987407777 0 0.013021184244917461 -0.017268532302096445 0 0.013338072634896177 -0.019834322980826855 0 0.011793490310896855 -0.01810425367718525 0 0.012716248462891652 -0.01830997997995534 0 0.012043328617590866 -0.019048217148771664 0 0.0075917023450845214 -0.021419248819678188 0 0.0074652537127578092 -0.021651348061118094 0 0.0043108951304537593 -0.024121427541519313 0 0.0040162011980627663 -0.024120770004137239 0 0.0041929366058055494 -0.023878552900001983 0 0.011793490310896855 -0.01810425367718525 0 0.012043328617590866 -0.019048217148771664 0 0.010820783153001451 -0.019206899242738745 0 0.010820783153001451 -0.019206899242738745 0 0.011474578767257763 -0.020254345167445592 0 0.0097887331478027934 -0.020629109204960566 0 0.012043328617590866 -0.019048217148771664 0 0.010820783153001451 -0.019206899242738745 0 0.011474578767257763 -0.020254345167445592 0 0.012043328617590866 -0.019048217148771664 0 0.011474578767257763 -0.020254345167445592 0 0.013362526569699988 -0.019697697987407777 0 0.011474578767257763 -0.020254345167445592 0 0.013362526569699988 -0.019697697987407777 0 0.012221203028634447 -0.021290031578187648 0 0.012221203028634447 -0.021290031578187648 0 0.01370576619314133 -0.021762667078457712 0 0.011840396592871692 -0.022927750593048721 0 0.013362526569699988 -0.019697697987407777 0 0.012221203028634447 -0.021290031578187648 0 0.01370576619314133 -0.021762667078457712 0 0.012221203028634447 -0.021290031578187648 0 0.010855830801652156 -0.021758865078558752 0 0.011840396592871692 -0.022927750593048721 0 0.011474578767257763 -0.020254345167445592 0 0.012221203028634447 -0.021290031578187648 0 0.010855830801652156 -0.021758865078558752 0 0.011474578767257763 -0.020254345167445592 0 0.010855830801652156 -0.021758865078558752 0 0.0097887331478027934 -0.020629109204960566 0 0.016769467583896365 -0.017764175003760419 0 0.015720960538425768 -0.019876484699366481 0 0.018692758189034479 -0.019744199762145784 0 0.013362526569699988 -0.019697697987407777 0 0.015720960538425768 -0.019876484699366481 0 0.01370576619314133 -0.021762667078457712 0 0.01466195348123984 -0.017796953680101195 0 0.013362526569699988 -0.019697697987407777 0 0.015720960538425768 -0.019876484699366481 0 0.015720960538425768 -0.019876484699366481 0 0.01370576619314133 -0.021762667078457712 0 0.015796069950905978 -0.02192768287810419 0 0.015720960538425768 -0.019876484699366481 0 0.015796069950905978 -0.02192768287810419 0 0.018130427807508336 -0.021940845496867298 0 0.015796069950905978 -0.02192768287810419 0 0.015365641059357183 -0.023448526405317083 0 0.017428221518610967 -0.024050558698093184 0 0.01370576619314133 -0.021762667078457712 0 0.015796069950905978 -0.02192768287810419 0 0.015365641059357183 -0.023448526405317083 0 0.01370576619314133 -0.021762667078457712 0 0.015365641059357183 -0.023448526405317083 0 0.01365867947076342 -0.023439030496965368 0 0.01365867947076342 -0.023439030496965368 0 0.015159723345532481 -0.025039875369978339 0 0.012474936569846679 -0.02478226471711311 0 0.015365641059357183 -0.023448526405317083 0 0.01365867947076342 -0.023439030496965368 0 0.015159723345532481 -0.025039875369978339 0 0.015365641059357183 -0.023448526405317083 0 0.015159723345532481 -0.025039875369978339 0 0.017428221518610967 -0.024050558698093184 0 0.015159723345532481 -0.025039875369978339 0 0.017046206905920073 -0.025993259182675144 0 0.017428221518610967 -0.024050558698093184 0 0.010314547131594199 -0.021499645136723158 0 0.011840396592871692 -0.022927750593048721 0 0.010420824138013388 -0.023673129329296771 0 0.010746352839767945 -0.021758661127366345 0 0.011678264647150953 -0.022755379115626483 0 0.01370576619314133 -0.021762667078457712 0 0.01365867947076342 -0.023439030496965368 0 0.011840396592871692 -0.022927750593048721 0 0.01365867947076342 -0.023439030496965368 0 0.011840396592871692 -0.022927750593048721 0 0.012474936569846679 -0.02478226471711311 0 0.011840396592871692 -0.022927750593048721 0 0.012474936569846679 -0.02478226471711311 0 0.010420824138013388 -0.023673129329296771 0 0.010499825166867427 -0.025153358772590353 0 0.012474936569846679 -0.02478226471711311 0 0.010420824138013388 -0.023673129329296771 0 0.010499825166867427 -0.025153358772590353 0 0.0086198360694417896 -0.024698517515982198 0 0.0088105479157805124 -0.023437945039685711 0 0.010499825166867427 -0.025153358772590353 0 0.010420824138013388 -0.023673129329296771 0 0.0088105479157805124 -0.023437945039685711 0 0.010420824138013388 -0.023673129329296771 0 0.0088105479157805124 -0.023437945039685711 0 0.0090570391736734812 -0.022363181001331923 0 0.010314547131594199 -0.021499645136723158 0 0.010420824138013388 -0.023673129329296771 0 0.0090570391736734812 -0.022363181001331923 0 0.0088105479157805124 -0.023437945039685711 0 0.0090570391736734812 -0.022363181001331923 0 0.0074887805292737737 -0.022465188386367355 0 0.0090570391736734812 -0.022363181001331923 0 0.0074887805292737737 -0.022465188386367355 0 0.0083408304130949112 -0.021147206210762871 0 0.0088105479157805124 -0.023437945039685711 0 0.0074887805292737737 -0.022465188386367355 0 0.0075546892566988834 -0.023620125397966409 0 0.0074887805292737737 -0.022465188386367355 0 0.0075546892566988834 -0.023620125397966409 0 0.0066741243507997565 -0.023442303826342333 0 0.0086198360694417896 -0.024698517515982198 0 0.0075546892566988834 -0.023620125397966409 0 0.0065994435459503509 -0.024260143962313588 0 0.0075546892566988834 -0.023620125397966409 0 0.0065994435459503509 -0.024260143962313588 0 0.0066741243507997565 -0.023442303826342333 0 0.0086198360694417896 -0.024698517515982198 0 0.0088105479157805124 -0.023437945039685711 0 0.0075546892566988834 -0.023620125397966409 0 -0.0069332331518846494 -0.023085226332434247 0 -0.0065602331850605749 -0.020224561305423935 0 0.006303968170013774 -0.024119017474392188 0 0.0066741243507997565 -0.023442303826342333 0 0.0057908209268953117 -0.022322275949755301 0 0.0065994435459503509 -0.024260143962313588 0 0.006303968170013774 -0.024119017474392188 0 0.0066741243507997565 -0.023442303826342333 0 -0.017518567700775305 -0.015908810837583751 0 -0.017241346371143877 -0.017950068902324201 0 -0.018952818426980666 -0.016742071296819667 0 -0.017241346371143877 -0.017950068902324201 0 -0.018952818426980666 -0.016742071296819667 0 -0.019195333226888909 -0.019220714367593497 0 -0.017241346371143877 -0.017950068902324201 0 -0.019195333226888909 -0.019220714367593497 0 -0.017744484183834154 -0.020526737184854701 0 0.0074887805292737737 -0.022465188386367355 0 0.0057908209268953117 -0.022322275949755301 0 0.0069003519209166371 -0.021177168343579158 0 0.0074887805292737737 -0.022465188386367355 0 0.0066741243507997565 -0.023442303826342333 0 0.0057908209268953117 -0.022322275949755301 0 0.0057908209268953117 -0.022322275949755301 0 0.0058484806113509088 -0.020029777927125122 0 0.0069003519209166371 -0.021177168343579158 0 -0.0065602331850605749 -0.020224561305423935 0 -0.0068518188739745195 -0.020478330498670278 0 0.0058484806113509088 -0.020029777927125122 0 0.0075675985394365181 -0.020322408137115201 0 0.0069003519209166371 -0.021177168343579158 0 -0.019195333226888909 -0.019220714367593497 0 -0.017744484183834154 -0.020526737184854701 0 -0.019246990974429157 -0.021436589121190515 0 -0.018130343034838649 -0.022344021265670522 0 -0.017744484183834154 -0.020526737184854701 0 -0.019246990974429157 -0.021436589121190515 0 -0.018699915556634271 -0.022783504044430948 0 -0.018130343034838649 -0.022344021265670522 0 -0.019246990974429157 -0.021436589121190515 0 0.0058484806113509088 -0.020029777927125122 0 0.0074291278220358151 -0.019134224425128899 0 0.0075675985394365181 -0.020322408137115201 0 0.0074291278220358151 -0.019134224425128899 0 0.0075675985394365181 -0.020322408137115201 0 0.0088000573292391984 -0.020432418145211947 0 0.0071105208360024595 -0.02208445954676945 0 0.0073830528391079717 -0.02121833732004157 0 0.0041929366058055494 -0.023878552900001983 0 0.0043567569900954317 -0.023863245757084615 0 0.0043667522465623875 -0.023631869892744767 0 0.0074652537127578092 -0.021651348061118094 0 0.0073830528391079717 -0.02121833732004157 0 0.0045334966935335229 -0.023870818538540485 0 0.0043567569900954317 -0.023863245757084615 0 0.0043667522465623875 -0.023631869892744767 0 0.010314547131594199 -0.021499645136723158 0 0.0090570391736734812 -0.022363181001331923 0 0.0083408304130949112 -0.021147206210762871 0 0.010314547131594199 -0.021499645136723158 0 0.0089315817251130695 -0.020231845566019757 0 0.0083408304130949112 -0.021147206210762871 0 0.0073830528391079717 -0.02121833732004157 0 0.008321057286585009 -0.020637227860860696 0 0.010746352839767945 -0.021758661127366345 0 0.0073830528391079717 -0.02121833732004157 0 0.0074887805292737737 -0.022465188386367355 0 0.0083408304130949112 -0.021147206210762871 0 0.0069003519209166371 -0.021177168343579158 0 0.0075675985394365181 -0.020322408137115201 0 0.0088000573292391984 -0.020432418145211947 0 0.0083408304130949112 -0.021147206210762871 0 0.0075675985394365181 -0.020322408137115201 0 0.0083408304130949112 -0.021147206210762871 0 0.0069003519209166371 -0.021177168343579158 0 -0.046158201800200124 -0.0099453469729575261 0 -0.046757727914975351 -0.0082820281708321074 0 -0.045928173404535005 -0.010040146348710781 0 -0.047337674798760519 -0.010232872404941669 0 -0.046480576427285855 -0.0084366948871632784 0 -0.046379262491789891 -0.0098475329544857326 0 -0.047104314544972589 -0.0080473273347849376 0 -0.044999982216713225 -0.0084101841247464469 0 -0.046379262491789891 -0.0098475329544857326 0 -0.044999891177761576 -0.010932753176366336 0 -0.044999982216713225 -0.0084101841247464469 0 -0.046158201800200124 -0.0099453469729575261 0 -0.045614815842561073 -0.01141116709264074 0 -0.045928173404535005 -0.010040146348710781 0 -0.046330127192379215 -0.010910120068087873 0 -0.045570185425943925 -0.011564432652338216 0 -0.046379262491789891 -0.0098475329544857326 0 -0.044999891177761576 -0.010932753176366336 0 -0.045570185425943925 -0.011564432652338216 0 -0.046330127192379215 -0.010910120068087873 0 -0.047337674798760519 -0.010232872404941669 0 -0.046519696671812827 -0.011712883765824512 0 -0.047055001363502276 -0.0088612321690646079 0 -0.046502811408758407 -0.011440155496907415 0 -0.045928173404535005 -0.010040146348710781 0 -0.046330127192379215 -0.010910120068087873 0 -0.047337674798760519 -0.010232872404941669 0 -0.046710597131448699 -0.007584726207592294 0 -0.04764409830402571 -0.0099628701385602036 0 -0.046519696671812827 -0.011712883765824512 0 -0.048269270043008738 -0.0085162977161378772 0 -0.046710597131448699 -0.007584726207592294 0 -0.047532933208731976 -0.0058423420668769635 0 -0.048269270043008738 -0.0085162977161378772 0 -0.049078844997285632 -0.010168498279307903 0 -0.04764409830402571 -0.0099628701385602036 0 -0.048269270043008738 -0.0085162977161378772 0 -0.046710597131448699 -0.007584726207592294 0 -0.04764409830402571 -0.0099628701385602036 0 -0.048269270043008738 -0.0085162977161378772 0 -0.050716088814097504 -0.0092224554151310763 0 -0.049078844997285632 -0.010168498279307903 0 -0.048269270043008738 -0.0085162977161378772 0 -0.050716088814097504 -0.0092224554151310763 0 -0.047532933208731976 -0.0058423420668769635 0 -0.049137510712404242 -0.007234982387212362 0 -0.047642460810825682 -0.0058540229500155675 0 -0.047630663130250127 -0.0051594801933676857 0 -0.047569509831946979 -0.0053991117831008279 0 -0.04760761620338947 -0.0052163084666361006 0 -0.047630663130250127 -0.0051594801933676857 0 -0.047569509831946979 -0.0053991117831008279 0 -0.047532933208731976 -0.0058423420668769635 0 -0.047569509831946979 -0.0053991117831008279 0 -0.047532933208731976 -0.0058423420668769635 0 -0.047511350286823448 -0.0048534599399487526 0 -0.047569509831946979 -0.0053991117831008279 0 -0.047511350286823448 -0.0048534599399487526 0 -0.04760761620338947 -0.0052163084666361006 0 -0.047055001363502276 -0.0088612321690646079 0 -0.047880845794131308 -0.0066286859163615808 0 -0.047337674798760519 -0.010232872404941669 0 -0.048156369719471265 -0.0083281160864376973 0 -0.046480576427285855 -0.0084366948871632784 0 -0.046710597131448699 -0.007584726207592294 0 -0.047532933208731976 -0.0058423420668769635 0 -0.047228532116917674 -0.0044614789876997706 0 -0.048156369719471265 -0.0083281160864376973 0 -0.047108495228388253 -0.006785133537720995 0 -0.046480576427285855 -0.0084366948871632784 0 -0.047511350286823448 -0.0048534599399487526 0 -0.047413863586377898 -0.0043373518643434038 0 -0.047609431574265955 -0.0048835957393231991 0 -0.047532933208731976 -0.0058423420668769635 0 -0.047228532116917674 -0.0044614789876997706 0 -0.047511350286823448 -0.0048534599399487526 0 -0.047228532116917674 -0.0044614789876997706 0 -0.047511350286823448 -0.0048534599399487526 0 -0.047251441732343274 -0.0042830977659649039 0 -0.047511350286823448 -0.0048534599399487526 0 -0.047251441732343274 -0.0042830977659649039 0 -0.047413863586377898 -0.0043373518643434038 0 -0.047880845794131308 -0.0066286859163615808 0 -0.04626299981048608 -0.0039075018568196316 0 -0.047123006638082339 -0.0040718616350884623 0 -0.047234449418623474 -0.0042016251372140124 0 -0.044862867544956782 -0.0032340829351854249 0 -0.047228532116917674 -0.0044614789876997706 0 -0.047251441732343274 -0.0042830977659649039 0 -0.047234449418623474 -0.0042016251372140124 0 -0.047251441732343274 -0.0042830977659649039 0 -0.047413863586377898 -0.0043373518643434038 0 -0.047123006638082339 -0.0040718616350884623 0 -0.047251441732343274 -0.0042830977659649039 0 -0.047123006638082339 -0.0040718616350884623 0 -0.047234449418623474 -0.0042016251372140124 0 -0.049431901880893393 -0.0055455300104125292 0 -0.047696685179202794 -0.0058758616683206831 0 -0.048616564449111291 -0.0051173586503518711 0 -0.04626299981048608 -0.0039075018568196316 0 -0.04786462620670754 -0.0063545856756838572 0 -0.048156369719471265 -0.0083281160864376973 0 -0.048938558464721706 -0.0064018844619696145 0 -0.047108495228388253 -0.006785133537720995 0 -0.047705831076068399 -0.0061553601338820074 0 -0.046111559516448818 -0.0065661916553803532 0 -0.046145213142578995 -0.0052588503501514406 0 -0.047828118582138743 -0.0062354206918784965 0 -0.047104314544972589 -0.0080473273347849376 0 -0.046111559516448818 -0.0065661916553803532 0 -0.04786462620670754 -0.0063545856756838572 0 -0.046228762951220762 -0.0065176997111156256 0 -0.04786462620670754 -0.0063545856756838572 0 -0.046757727914975351 -0.0082820281708321074 0 -0.047104314544972589 -0.0080473273347849376 0 -0.044999982216713225 -0.0084101841247464469 0 -0.046111559516448818 -0.0065661916553803532 0 -0.044999982216713225 -0.0084101841247464469 0 -0.046111559516448818 -0.0065661916553803532 0 -0.044999943878821051 -0.0058874684754602292 0 -0.046111559516448818 -0.0065661916553803532 0 -0.044999943878821051 -0.0058874684754602292 0 -0.046145213142578995 -0.0052588503501514406 0 -0.044999943878821051 -0.0058874684754602292 0 -0.046145213142578995 -0.0052588503501514406 0 -0.044999947066423185 -0.003364888602426968 0 -0.046145213142578995 -0.0052588503501514406 0 -0.046903696700836064 -0.0043283190084128413 0 -0.044999947066423185 -0.003364888602426968 0 -0.047705831076068399 -0.0061553601338820074 0 -0.046145213142578995 -0.0052588503501514406 0 -0.046903696700836064 -0.0043283190084128413 0 -0.047705831076068399 -0.0061553601338820074 0 -0.046903696700836064 -0.0043283190084128413 0 -0.04824301822310334 -0.0045540126594690207 0 -0.046903696700836064 -0.0043283190084128413 0 -0.046584747384964084 -0.0029930857096404969 0 -0.047794907682777193 -0.0032979040670465432 0 -0.046903696700836064 -0.0043283190084128413 0 -0.046584747384964084 -0.0029930857096404969 0 -0.044999947066423185 -0.003364888602426968 0 -0.044999947066423185 -0.003364888602426968 0 -0.046135442862975981 -0.0016075532455348924 0 -0.044999935884404887 -0.00084261164609761242 0 -0.046584747384964084 -0.0029930857096404969 0 -0.044999947066423185 -0.003364888602426968 0 -0.046135442862975981 -0.0016075532455348924 0 -0.046135442862975981 -0.0016075532455348924 0 -0.04744297870928494 -0.0019913132169240727 0 -0.047255867446164147 -0.00094451980569174119 0 -0.046584747384964084 -0.0029930857096404969 0 -0.046135442862975981 -0.0016075532455348924 0 -0.04744297870928494 -0.0019913132169240727 0 -0.046584747384964084 -0.0029930857096404969 0 -0.04744297870928494 -0.0019913132169240727 0 -0.047794907682777193 -0.0032979040670465432 0 -0.046135442862975981 -0.0016075532455348924 0 -0.047255867446164147 -0.00094451980569174119 0 -0.047251154716345604 -0.0005788143743216611 0 -0.047561136476553467 -0.0012736525072164656 0 -0.047255867446164147 -0.00094451980569174119 0 -0.047242290734656293 -0.00058581142109581804 0 -0.04744297870928494 -0.0019913132169240727 0 -0.047561136476553467 -0.0012736525072164656 0 -0.047255867446164147 -0.00094451980569174119 0 -0.045771479254185982 0.00090814799916493708 0 -0.045441889071144416 0.0026932492720413625 0 -0.046240708554812923 0.0009010918761465902 0 -0.047443465096618002 -0.00020605214600117255 0 -0.044999898355990824 -0.0008421926917014991 0 -0.046135442862975981 -0.0016075532455348924 0 -0.047251154716345604 -0.0005788143743216611 0 -0.044999935884404887 -0.00084261164609761242 0 -0.045441889071144416 0.0026932492720413625 0 -0.045002917161776561 -0.00084375865466831577 0 -0.049898357357067095 -0.00015328384123019262 0 -0.049333176349877821 -0.0014610952983347971 0 -0.050959655991260018 -0.0018141191142948794 0 -0.049898357357067095 -0.00015328384123019262 0 -0.048572623106007559 -0.00038277594845542587 0 -0.049333176349877821 -0.0014610952983347971 0 -0.045557050676382167 0.007456719669545077 0 -0.046797599047591933 0.0047151371883795033 0 -0.045441889071144416 0.0026932492720413625 0 -0.046797599047591933 0.0047151371883795033 0 -0.047242290734656293 -0.00058581142109581804 0 -0.048572623106007559 -0.00038277594845542587 0 -0.048170950903033742 -0.0013689250050794828 0 -0.047561136476553467 -0.0012736525072164656 0 -0.047242290734656293 -0.00058581142109581804 0 -0.048170950903033742 -0.0013689250050794828 0 -0.048572623106007559 -0.00038277594845542587 0 -0.048170950903033742 -0.0013689250050794828 0 -0.049333176349877821 -0.0014610952983347971 0 -0.048170950903033742 -0.0013689250050794828 0 -0.048638262527208202 -0.0024322554449244969 0 -0.049333176349877821 -0.0014610952983347971 0 -0.04744297870928494 -0.0019913132169240727 0 -0.047561136476553467 -0.0012736525072164656 0 -0.048170950903033742 -0.0013689250050794828 0 -0.04744297870928494 -0.0019913132169240727 0 -0.048170950903033742 -0.0013689250050794828 0 -0.048638262527208202 -0.0024322554449244969 0 -0.04744297870928494 -0.0019913132169240727 0 -0.048638262527208202 -0.0024322554449244969 0 -0.047794907682777193 -0.0032979040670465432 0 -0.048638262527208202 -0.0024322554449244969 0 -0.049333176349877821 -0.0014610952983347971 0 -0.049608075812927546 -0.0025852774354426268 0 -0.049333176349877821 -0.0014610952983347971 0 -0.049608075812927546 -0.0025852774354426268 0 -0.050959655991260018 -0.0018141191142948794 0 -0.049608075812927546 -0.0025852774354426268 0 -0.048905245477691102 -0.0034942903678268984 0 -0.05020801233433015 -0.0037189700867096614 0 -0.048905245477691102 -0.0034942903678268984 0 -0.049115053988230316 -0.0044803832225696304 0 -0.05020801233433015 -0.0037189700867096614 0 -0.048638262527208202 -0.0024322554449244969 0 -0.049608075812927546 -0.0025852774354426268 0 -0.048905245477691102 -0.0034942903678268984 0 -0.046903696700836064 -0.0043283190084128413 0 -0.047794907682777193 -0.0032979040670465432 0 -0.04824301822310334 -0.0045540126594690207 0 -0.048638262527208202 -0.0024322554449244969 0 -0.048905245477691102 -0.0034942903678268984 0 -0.047794907682777193 -0.0032979040670465432 0 -0.048905245477691102 -0.0034942903678268984 0 -0.047794907682777193 -0.0032979040670465432 0 -0.04824301822310334 -0.0045540126594690207 0 -0.04786462620670754 -0.0063545856756838572 0 -0.048214509712136554 -0.0046157338371579345 0 -0.047696685179202794 -0.0058758616683206831 0 -0.04824301822310334 -0.0045540126594690207 0 -0.048616564449111291 -0.0051173586503518711 0 -0.04824301822310334 -0.0045540126594690207 0 -0.048616564449111291 -0.0051173586503518711 0 -0.049115053988230316 -0.0044803832225696304 0 -0.048905245477691102 -0.0034942903678268984 0 -0.04824301822310334 -0.0045540126594690207 0 -0.049115053988230316 -0.0044803832225696304 0 -0.04626299981048608 -0.0039075018568196316 0 -0.045101007575036704 -0.0015031918832658984 0 -0.039442195395531128 -0.0010020081714992241 0 -0.040025617461955994 -0.00051774956836139296 0 -0.040031713766918678 0.00055667355890956646 0 -0.049431901880893393 -0.0055455300104125292 0 -0.049115053988230316 -0.0044803832225696304 0 -0.05020801233433015 -0.0037189700867096614 0 -0.049431901880893393 -0.0055455300104125292 0 -0.048616564449111291 -0.0051173586503518711 0 -0.049115053988230316 -0.0044803832225696304 0 -0.039442195395531128 -0.0010020081714992241 0 -0.040025617461955994 -0.00051774956836139296 0 -0.040600105682196019 -0.00077668283857811548 0 -0.040025617461955994 -0.00051774956836139296 0 -0.040600105682196019 -0.00077668283857811548 0 -0.040449428684397722 -0.0004047030538662877 0 -0.040025617461955994 -0.00051774956836139296 0 -0.040449428684397722 -0.0004047030538662877 0 -0.040450524954223896 -2.9400373396283392e-05 0 -0.040600105682196019 -0.00077668283857811548 0 -0.040738265650656726 -0.00029201431097370138 0 -0.041280867648947138 -0.00030947007168183257 0 -0.040600105682196019 -0.00077668283857811548 0 -0.040738265650656726 -0.00029201431097370138 0 -0.040449428684397722 -0.0004047030538662877 0 -0.040450524954223896 -2.9400373396283392e-05 0 -0.041048701693564824 0.00018226659807537752 0 -0.040031713766918678 0.00055667355890956646 0 -0.040738265650656726 -0.00029201431097370138 0 -0.040450524954223896 -2.9400373396283392e-05 0 -0.041048701693564824 0.00018226659807537752 0 -0.040738265650656726 -0.00029201431097370138 0 -0.040449428684397722 -0.0004047030538662877 0 -0.040450524954223896 -2.9400373396283392e-05 0 -0.040738265650656726 -0.00029201431097370138 0 -0.041280867648947138 -0.00030947007168183257 0 -0.041048701693564824 0.00018226659807537752 0 -0.040025617461955994 -0.00051774956836139296 0 -0.040450524954223896 -2.9400373396283392e-05 0 -0.040031713766918678 0.00055667355890956646 0 -0.042425782296639278 -0.00071288776382415165 0 -0.041816738335085119 -5.4781748941793188e-05 0 -0.044257903958920784 -0.0025435038180185244 0 -0.040600105682196019 -0.00077668283857811548 0 -0.042425782296639278 -0.00071288776382415165 0 -0.041280867648947138 -0.00030947007168183257 0 -0.044862867544956782 -0.0032340829351854249 0 -0.042425782296639278 -0.00071288776382415165 0 -0.044257903958920784 -0.0025435038180185244 0 -0.04539733871831441 -0.0052594353454437524 0 -0.045818882999038045 -0.0047056338049425326 0 -0.046747080934048973 -0.0047390334206038574 0 -0.044141520607052981 -0.0030883426875544058 0 -0.045210099137388077 -0.0036367703113757842 0 -0.042378200478005931 -0.0019023071573784835 0 -0.042901010562996972 -0.0010192298281438042 0 -0.042425782296639278 -0.00071288776382415165 0 -0.041280867648947138 -0.00030947007168183257 0 -0.041713744901156438 -6.832912929372269e-05 0 -0.041280867648947138 -0.00030947007168183257 0 -0.041048701693564824 0.00018226659807537752 0 -0.041713744901156438 -6.832912929372269e-05 0 -0.041713744901156438 -6.832912929372269e-05 0 -0.041793658653482578 0.00059997838064364685 0 -0.041998970546509272 -9.5249623730129152e-07 0 -0.041048701693564824 0.00018226659807537752 0 -0.041713744901156438 -6.832912929372269e-05 0 -0.041793658653482578 0.00059997838064364685 0 -0.042425782296639278 -0.00071288776382415165 0 -0.041713744901156438 -6.832912929372269e-05 0 -0.041998970546509272 -9.5249623730129152e-07 0 -0.041048701693564824 0.00018226659807537752 0 -0.041793658653482578 0.00059997838064364685 0 -0.041261168215957079 0.0010554621835709213 0 -0.041793658653482578 0.00059997838064364685 0 -0.041261168215957079 0.0010554621835709213 0 -0.041689859792170575 0.0014922951451029987 0 -0.041048701693564824 0.00018226659807537752 0 -0.041261168215957079 0.0010554621835709213 0 -0.040031713766918678 0.00055667355890956646 0 -0.041261168215957079 0.0010554621835709213 0 -0.040031713766918678 0.00055667355890956646 0 -0.040658301131067727 0.0020010556450287776 0 -0.045101007575036704 -0.0015031918832658984 0 -0.04431520684410048 0.0002452728664460443 0 -0.049608075812927546 -0.0025852774354426268 0 -0.05020801233433015 -0.0037189700867096614 0 -0.050959655991260018 -0.0018141191142948794 0 -0.040481544402856048 0.0020918939746812433 0 -0.04431520684410048 0.0002452728664460443 0 -0.040792330743767417 0.0018932262795615749 0 -0.041377658166321572 0.0018675884488904681 0 -0.041496079182420161 0.0024020536977436041 0 -0.041261168215957079 0.0010554621835709213 0 -0.040792330743767417 0.0018932262795615749 0 -0.041377658166321572 0.0018675884488904681 0 -0.041261168215957079 0.0010554621835709213 0 -0.041377658166321572 0.0018675884488904681 0 -0.041689859792170575 0.0014922951451029987 0 -0.041377658166321572 0.0018675884488904681 0 -0.041778132408846237 0.0021789804645937494 0 -0.041689859792170575 0.0014922951451029987 0 -0.041249336071569422 0.0028002209790995878 0 -0.040792330743767417 0.0018932262795615749 0 -0.041496079182420161 0.0024020536977436041 0 -0.041377658166321572 0.0018675884488904681 0 -0.041496079182420161 0.0024020536977436041 0 -0.041778132408846237 0.0021789804645937494 0 -0.041583764262508087 0.0027895288794833146 0 -0.041496079182420161 0.0024020536977436041 0 -0.041770612086261087 0.0025494220543381026 0 -0.041249336071569422 0.0028002209790995878 0 -0.041583764262508087 0.0027895288794833146 0 -0.041496079182420161 0.0024020536977436041 0 -0.045557050676382167 0.007456719669545077 0 -0.04431520684410048 0.0002452728664460443 0 -0.042127240184484903 0.0066885101796248523 0 -0.04431520684410048 0.0002452728664460443 0 -0.044885988607443097 0.0053657507030460587 0 -0.043008068801514907 0.0050848557292577402 0 -0.044079722406422057 0.0033953616382339609 0 -0.042238995477146039 0.002782232334634622 0 -0.042082164990672424 0.0025408134859990637 0 -0.04112289750077644 0.0022440925380991057 0 -0.042238995477146039 0.002782232334634622 0 -0.042082164990672424 0.0025408134859990637 0 -0.041982147635138453 0.0024804849048334497 0 -0.040322149780549404 0.0053780253891681142 0 -0.03652418806453283 0.0097431915253001228 0 -0.042082164990672424 0.0025408134859990637 0 -0.042017876632292325 0.0026967706897467981 0 -0.042182806567220683 0.0023242308636225477 0 -0.042082164990672424 0.0025408134859990637 0 -0.042059377943656044 0.0022402513784593341 0 -0.042182806567220683 0.0023242308636225477 0 -0.042082164990672424 0.0025408134859990637 0 -0.042017876632292325 0.0026967706897467981 0 -0.04112289750077644 0.0022440925380991057 0 -0.042238995477146039 0.002782232334634622 0 -0.041982147635138453 0.0024804849048334497 0 -0.041770612086261087 0.0025494220543381026 0 -0.041496079182420161 0.0024020536977436041 0 -0.041770612086261087 0.0025494220543381026 0 -0.041778132408846237 0.0021789804645937494 0 -0.041982147635138453 0.0024804849048334497 0 -0.041770612086261087 0.0025494220543381026 0 -0.041778132408846237 0.0021789804645937494 0 -0.041982147635138453 0.0024804849048334497 0 -0.041778132408846237 0.0021789804645937494 0 -0.042059377943656044 0.0022402513784593341 0 -0.042082164990672424 0.0025408134859990637 0 -0.041982147635138453 0.0024804849048334497 0 -0.042059377943656044 0.0022402513784593341 0 -0.042018216808655098 0.0017565968894366483 0 -0.042729338938063202 0.001524920461134229 0 -0.042040252567322363 0.0011902317862239541 0 -0.041778132408846237 0.0021789804645937494 0 -0.042059377943656044 0.0022402513784593341 0 -0.042018216808655098 0.0017565968894366483 0 -0.041778132408846237 0.0021789804645937494 0 -0.041689859792170575 0.0014922951451029987 0 -0.042018216808655098 0.0017565968894366483 0 -0.041689859792170575 0.0014922951451029987 0 -0.042018216808655098 0.0017565968894366483 0 -0.042040252567322363 0.0011902317862239541 0 -0.042081545750845432 0.0025376848738904397 0 -0.04239897244328629 0.0057004748079752246 0 -0.042017876632292325 0.0026967706897467981 0 -0.04112289750077644 0.0022440925380991057 0 -0.041978367680863979 0.0083099571273364051 0 -0.042059377943656044 0.0022402513784593341 0 -0.042018216808655098 0.0017565968894366483 0 -0.042729338938063202 0.001524920461134229 0 -0.042017876632292325 0.0026967706897467981 0 -0.042182806567220683 0.0023242308636225477 0 -0.042729338938063202 0.001524920461134229 0 -0.042059377943656044 0.0022402513784593341 0 -0.042182806567220683 0.0023242308636225477 0 -0.042729338938063202 0.001524920461134229 0 -0.041978367680863979 0.0083099571273364051 0 -0.041857701187346337 0.013712387813062853 0 -0.037232499413225748 0.011061941015331282 0 -0.042729338938063202 0.001524920461134229 0 -0.042201922122778984 0.00054650314360383417 0 -0.042835822987641395 0.00040011341740319768 0 -0.04239897244328629 0.0057004748079752246 0 -0.039535624240418281 0.002474604543274811 0 -0.042729338938063202 0.001524920461134229 0 -0.042040252567322363 0.0011902317862239541 0 -0.042201922122778984 0.00054650314360383417 0 -0.041793658653482578 0.00059997838064364685 0 -0.041689859792170575 0.0014922951451029987 0 -0.042040252567322363 0.0011902317862239541 0 -0.041793658653482578 0.00059997838064364685 0 -0.042201922122778984 0.00054650314360383417 0 -0.041998970546509272 -9.5249623730129152e-07 0 -0.041793658653482578 0.00059997838064364685 0 -0.042040252567322363 0.0011902317862239541 0 -0.042201922122778984 0.00054650314360383417 0 -0.04539733871831441 -0.0052594353454437524 0 -0.044031396017584996 -0.005641390640134857 0 -0.044960681864528167 -0.0045217143063758444 0 -0.044141520607052981 -0.0030883426875544058 0 -0.039535624240418281 0.002474604543274811 0 -0.042201922122778984 0.00054650314360383417 0 -0.041816738335085119 -5.4781748941793188e-05 0 -0.042835822987641395 0.00040011341740319768 0 -0.042201922122778984 0.00054650314360383417 0 -0.041998970546509272 -9.5249623730129152e-07 0 -0.041816738335085119 -5.4781748941793188e-05 0 -0.042425782296639278 -0.00071288776382415165 0 -0.041998970546509272 -9.5249623730129152e-07 0 -0.041816738335085119 -5.4781748941793188e-05 0 -0.039535624240418281 0.002474604543274811 0 -0.035948916999349649 0.00023446190033888034 0 -0.02862364157829337 0.0057918877277672778 0 -0.028571251502946766 0.0053645985704372868 0 -0.028804443967111577 0.0056023832254389521 0 -0.044031396017584996 -0.005641390640134857 0 -0.044109029397338628 -0.0042475462773485309 0 -0.044960681864528167 -0.0045217143063758444 0 -0.044109029397338628 -0.0042475462773485309 0 -0.045016448869894657 -0.0038253371129281944 0 -0.044136769819222654 -0.0027429627603951954 0 -0.028571251502946766 0.0053645985704372868 0 -0.028562147867174245 0.0049099751493886399 0 -0.028824143536267971 0.0052131528736787443 0 -0.035948916999349649 0.00023446190033888034 0 -0.03800000622097905 0.00019737219518154228 0 -0.048804369115083894 -0.0049058076676228076 0 -0.03800000622097905 0.00019737219518154228 0 -0.045016448869894657 -0.0038253371129281944 0 -0.046051664704259455 -0.0033347005156287588 0 -0.044136769819222654 -0.0027429627603951954 0 -0.045016448869894657 -0.0038253371129281944 0 -0.045791328115699324 -0.0042385724418850775 0 -0.046051664704259455 -0.0033347005156287588 0 -0.045016448869894657 -0.0038253371129281944 0 -0.044960681864528167 -0.0045217143063758444 0 -0.045791328115699324 -0.0042385724418850775 0 -0.044109029397338628 -0.0042475462773485309 0 -0.045016448869894657 -0.0038253371129281944 0 -0.044960681864528167 -0.0045217143063758444 0 -0.044960681864528167 -0.0045217143063758444 0 -0.045818882999038045 -0.0047056338049425326 0 -0.045791328115699324 -0.0042385724418850775 0 -0.04539733871831441 -0.0052594353454437524 0 -0.044960681864528167 -0.0045217143063758444 0 -0.045818882999038045 -0.0047056338049425326 0 -0.045818882999038045 -0.0047056338049425326 0 -0.046220410696027558 -0.0044949590675108352 0 -0.045791328115699324 -0.0042385724418850775 0 -0.046220410696027558 -0.0044949590675108352 0 -0.046527798233182649 -0.0041934574541512368 0 -0.046747080934048973 -0.0047390334206038574 0 -0.045818882999038045 -0.0047056338049425326 0 -0.046220410696027558 -0.0044949590675108352 0 -0.046747080934048973 -0.0047390334206038574 0 -0.046220410696027558 -0.0044949590675108352 0 -0.046527798233182649 -0.0041934574541512368 0 -0.045791328115699324 -0.0042385724418850775 0 -0.046832289556988344 -0.0039418298307092731 0 -0.045210099137388077 -0.0036367703113757842 0 -0.047123006638082339 -0.0040718616350884623 0 -0.044862867544956782 -0.0032340829351854249 0 -0.044257903958920784 -0.0025435038180185244 0 -0.04626299981048608 -0.0039075018568196316 0 -0.042378200478005931 -0.0019023071573784835 0 -0.047413863586377898 -0.0043373518643434038 0 -0.046527798233182649 -0.0041934574541512368 0 -0.04701203348193226 -0.0043351070997868614 0 -0.047123006638082339 -0.0040718616350884623 0 -0.046747080934048973 -0.0047390334206038574 0 -0.04701203348193226 -0.0043351070997868614 0 -0.046527798233182649 -0.0041934574541512368 0 -0.046747080934048973 -0.0047390334206038574 0 -0.04701203348193226 -0.0043351070997868614 0 -0.047413863586377898 -0.0043373518643434038 0 -0.047123006638082339 -0.0040718616350884623 0 -0.04701203348193226 -0.0043351070997868614 0 -0.047413863586377898 -0.0043373518643434038 0 -0.046527798233182649 -0.0041934574541512368 0 -0.046051664704259455 -0.0033347005156287588 0 -0.04649635084428709 -0.0040302525875679351 0 -0.048804369115083894 -0.0049058076676228076 0 -0.047413863586377898 -0.0043373518643434038 0 -0.047609431574265955 -0.0048835957393231991 0 -0.047796272817832018 -0.0049796574916612119 0 -0.046527798233182649 -0.0041934574541512368 0 -0.045791328115699324 -0.0042385724418850775 0 -0.046051664704259455 -0.0033347005156287588 0 -0.047700671951645318 -0.0050720627776055715 0 -0.047668818340756952 -0.0051000788050703317 0 -0.04769115063908573 -0.0050313718454538282 0 -0.047796272817832018 -0.0049796574916612119 0 -0.047700671951645318 -0.0050720627776055715 0 -0.04769115063908573 -0.0050313718454538282 0 -0.047609431574265955 -0.0048835957393231991 0 -0.047796272817832018 -0.0049796574916612119 0 -0.047700671951645318 -0.0050720627776055715 0 -0.047609431574265955 -0.0048835957393231991 0 -0.047700671951645318 -0.0050720627776055715 0 -0.04760761620338947 -0.0052163084666361006 0 -0.047700671951645318 -0.0050720627776055715 0 -0.04760761620338947 -0.0052163084666361006 0 -0.047640015021988162 -0.0051472416104870553 0 -0.047511350286823448 -0.0048534599399487526 0 -0.047609431574265955 -0.0048835957393231991 0 -0.04760761620338947 -0.0052163084666361006 0 -0.047630663130250127 -0.0051594801933676857 0 -0.04760761620338947 -0.0052163084666361006 0 -0.047640015021988162 -0.0051472416104870553 0 -0.047630663130250127 -0.0051594801933676857 0 -0.047640015021988162 -0.0051472416104870553 0 -0.047646695886973942 -0.0051367815475798217 0 -0.047700671951645318 -0.0050720627776055715 0 -0.047640015021988162 -0.0051472416104870553 0 -0.047668818340756952 -0.0051000788050703317 0 -0.047640015021988162 -0.0051472416104870553 0 -0.047646695886973942 -0.0051367815475798217 0 -0.047668818340756952 -0.0051000788050703317 0 -0.047646695886973942 -0.0051367815475798217 0 -0.047668818340756952 -0.0051000788050703317 0 -0.047648099185242127 -0.0051230292908912489 0 -0.047668818340756952 -0.0051000788050703317 0 -0.047647932707150481 -0.0050789352244574489 0 -0.047648099185242127 -0.0051230292908912489 0 -0.047668818340756952 -0.0051000788050703317 0 -0.047647932707150481 -0.0050789352244574489 0 -0.04769115063908573 -0.0050313718454538282 0 -0.047647932707150481 -0.0050789352244574489 0 -0.047622689678558879 -0.0050191022775979725 0 -0.04769115063908573 -0.0050313718454538282 0 -0.047647932707150481 -0.0050789352244574489 0 -0.047622689678558879 -0.0050191022775979725 0 -0.047616622065049095 -0.0050851619621756347 0 -0.028748686033766718 0.0044924672809470894 0 -0.028803171266437895 0.004721895903040456 0 -0.028942954753515791 0.0048004027289533097 0 -0.03818725631055786 -0.00060975706620313732 0 -0.03800000622097905 0.00019737219518154228 0 -0.047622689678558879 -0.0050191022775979725 0 -0.047591135827383835 -0.0050193636830755985 0 -0.04769115063908573 -0.0050313718454538282 0 -0.047796272817832018 -0.0049796574916612119 0 -0.047591135827383835 -0.0050193636830755985 0 -0.04769115063908573 -0.0050313718454538282 0 -0.028942954753515791 0.0048004027289533097 0 -0.029357745104160941 0.0047790381266847089 0 -0.029154695280464254 0.0051995026024431335 0 -0.028942954753515791 0.0048004027289533097 0 -0.029357745104160941 0.0047790381266847089 0 -0.029181650576854568 0.0043918887084093156 0 -0.03800000622097905 0.00019737219518154228 0 -0.025053971411877977 0.0061426281555249955 0 -0.028748686033766718 0.0044924672809470894 0 -0.028942954753515791 0.0048004027289533097 0 -0.028935717837394008 0.0043463257993369576 0 -0.028942954753515791 0.0048004027289533097 0 -0.029181650576854568 0.0043918887084093156 0 -0.028935717837394008 0.0043463257993369576 0 -0.029504651169707189 0.0044580176867480741 0 -0.029357745104160941 0.0047790381266847089 0 -0.029766991980714908 0.0049068262864058344 0 -0.029357745104160941 0.0047790381266847089 0 -0.029524394148015446 0.005301348120986646 0 -0.029766991980714908 0.0049068262864058344 0 -0.029504651169707189 0.0044580176867480741 0 -0.029357745104160941 0.0047790381266847089 0 -0.029181650576854568 0.0043918887084093156 0 -0.029357745104160941 0.0047790381266847089 0 -0.029154695280464254 0.0051995026024431335 0 -0.029524394148015446 0.005301348120986646 0 -0.025482246418019099 0.01494848715559168 0 -0.025221246696854008 0.015369454903794039 0 -0.02563051169066478 0.015301024509544134 0 -0.027499887406845985 0.010127519777128072 0 -0.026955783744544427 0.010271056776164335 0 -0.029154695280464254 0.0051995026024431335 0 -0.029524394148015446 0.005301348120986646 0 -0.029270480017955021 0.0057042206415253444 0 -0.029154695280464254 0.0051995026024431335 0 -0.029002416978599593 0.0054876110339729615 0 -0.029270480017955021 0.0057042206415253444 0 -0.029154695280464254 0.0051995026024431335 0 -0.029002416978599593 0.0054876110339729615 0 -0.028824143536267971 0.0052131528736787443 0 -0.028942954753515791 0.0048004027289533097 0 -0.029154695280464254 0.0051995026024431335 0 -0.028824143536267971 0.0052131528736787443 0 -0.028562147867174245 0.0049099751493886399 0 -0.028942954753515791 0.0048004027289533097 0 -0.028824143536267971 0.0052131528736787443 0 -0.029002416978599593 0.0054876110339729615 0 -0.028824143536267971 0.0052131528736787443 0 -0.028804443967111577 0.0056023832254389521 0 -0.028571251502946766 0.0053645985704372868 0 -0.028824143536267971 0.0052131528736787443 0 -0.028804443967111577 0.0056023832254389521 0 -0.02862364157829337 0.0057918877277672778 0 -0.028804443967111577 0.0056023832254389521 0 -0.028829806096332875 0.0059233955697567866 0 -0.028804443967111577 0.0056023832254389521 0 -0.028979299488298572 0.0057636464921945159 0 -0.028829806096332875 0.0059233955697567866 0 -0.039535624240418281 0.002474604543274811 0 -0.033204512290798745 0.0089652723343148708 0 -0.029002416978599593 0.0054876110339729615 0 -0.028979299488298572 0.0057636464921945159 0 -0.029270480017955021 0.0057042206415253444 0 -0.028979299488298572 0.0057636464921945159 0 -0.02900999040408609 0.0060861329115826143 0 -0.029270480017955021 0.0057042206415253444 0 -0.029002416978599593 0.0054876110339729615 0 -0.028804443967111577 0.0056023832254389521 0 -0.028979299488298572 0.0057636464921945159 0 -0.028979299488298572 0.0057636464921945159 0 -0.02900999040408609 0.0060861329115826143 0 -0.028829806096332875 0.0059233955697567866 0 -0.029261546199851222 0.012905513998605364 0 -0.033204512290798745 0.0089652723343148708 0 -0.029261546199851222 0.012905513998605364 0 -0.032177872684284958 0.014590385445881485 0 -0.041857701187346337 0.013712387813062853 0 -0.037330776644847678 0.012108312499283853 0 -0.037232499413225748 0.011061941015331282 0 -0.035768709245917477 0.011234255165103008 0 -0.037330776644847678 0.012108312499283853 0 -0.037232499413225748 0.011061941015331282 0 -0.035768709245917477 0.011234255165103008 0 -0.037232499413225748 0.011061941015331282 0 -0.036828312808985131 0.01069859117279074 0 -0.036755500182932166 0.010453897039987833 0 -0.037232499413225748 0.011061941015331282 0 -0.036828312808985131 0.01069859117279074 0 -0.04112289750077644 0.0022440925380991057 0 -0.041978367680863979 0.0083099571273364051 0 -0.037232499413225748 0.011061941015331282 0 -0.03652418806453283 0.0097431915253001228 0 -0.03816587505029901 0.0094320646635521407 0 -0.03652418806453283 0.0097431915253001228 0 -0.032177872684284958 0.014590385445881485 0 -0.028149448131712815 0.017646605660941454 0 -0.028623409067242481 0.017120276195126637 0 -0.027785298313931516 0.017029691463006265 0 -0.028623409067242481 0.017120276195126637 0 -0.027785298313931516 0.017029691463006265 0 -0.0283667111409589 0.016741098759243383 0 -0.027801574352802682 0.016421180842155259 0 -0.027785298313931516 0.017029691463006265 0 -0.0283667111409589 0.016741098759243383 0 -0.028719737727466544 0.016359757787638183 0 -0.029016313258099578 0.016765776725865825 0 -0.0283667111409589 0.016741098759243383 0 -0.029016313258099578 0.016765776725865825 0 -0.028623409067242481 0.017120276195126637 0 -0.0283667111409589 0.016741098759243383 0 -0.027801574352802682 0.016421180842155259 0 -0.027785298313931516 0.017029691463006265 0 -0.026739488454810705 0.016587748663130675 0 -0.027785298313931516 0.017029691463006265 0 -0.026739488454810705 0.016587748663130675 0 -0.027002272262633954 0.017370805874592912 0 -0.028149448131712815 0.017646605660941454 0 -0.027785298313931516 0.017029691463006265 0 -0.027002272262633954 0.017370805874592912 0 -0.025715988779352359 0.017088198744866168 0 -0.026121695445332004 0.016543386629298794 0 -0.026739488454810705 0.016587748663130675 0 -0.027002272262633954 0.017370805874592912 0 -0.025919931681977662 0.016577908296607193 0 -0.025284714689382485 0.0160650730119016 0 -0.025221246696854008 0.015369454903794039 0 -0.025645338572925142 0.015736506990269943 0 -0.024983418116774549 0.015746322848497838 0 -0.025284714689382485 0.0160650730119016 0 -0.025221246696854008 0.015369454903794039 0 -0.029261546199851222 0.012905513998605364 0 -0.025715988779352359 0.017088198744866168 0 -0.029261546199851222 0.012905513998605364 0 -0.026955783744544427 0.010271056776164335 0 -0.025221246696854008 0.015369454903794039 0 -0.025645338572925142 0.015736506990269943 0 -0.02563051169066478 0.015301024509544134 0 -0.025645338572925142 0.015736506990269943 0 -0.025835559766005708 0.015381852105127516 0 -0.02563051169066478 0.015301024509544134 0 -0.025645338572925142 0.015736506990269943 0 -0.025914332747993034 0.01597210120515636 0 -0.025835559766005708 0.015381852105127516 0 -0.025645338572925142 0.015736506990269943 0 -0.025914332747993034 0.01597210120515636 0 -0.025919931681977662 0.016577908296607193 0 -0.025284714689382485 0.0160650730119016 0 -0.025645338572925142 0.015736506990269943 0 -0.025919931681977662 0.016577908296607193 0 -0.025914332747993034 0.01597210120515636 0 -0.025919931681977662 0.016577908296607193 0 -0.025916459205879663 0.016276352679625791 0 -0.025919931681977662 0.016577908296607193 0 -0.025864024734625835 0.01645422492795242 0 -0.025916459205879663 0.016276352679625791 0 -0.026094983528743444 0.016425637817824041 0 -0.025919931681977662 0.016577908296607193 0 -0.025864024734625835 0.01645422492795242 0 -0.026094983528743444 0.016425637817824041 0 -0.026739488454810705 0.016587748663130675 0 -0.025919931681977662 0.016577908296607193 0 -0.025935766885897108 0.01630558644302333 0 -0.025818653476318263 0.01639328067690201 0 -0.025916459205879663 0.016276352679625791 0 -0.025701253425865753 0.016413207867633124 0 -0.025935766885897108 0.01630558644302333 0 -0.025818653476318263 0.01639328067690201 0 -0.025864024734625835 0.01645422492795242 0 -0.025818653476318263 0.01639328067690201 0 -0.025916459205879663 0.016276352679625791 0 -0.026077950359963534 0.016110747979733806 0 -0.025935766885897108 0.01630558644302333 0 -0.025916459205879663 0.016276352679625791 0 -0.026077950359963534 0.016110747979733806 0 -0.025916459205879663 0.016276352679625791 0 -0.026038259857766574 0.015924456389323695 0 -0.025914332747993034 0.01597210120515636 0 -0.025916459205879663 0.016276352679625791 0 -0.026038259857766574 0.015924456389323695 0 -0.025914332747993034 0.01597210120515636 0 -0.026038259857766574 0.015924456389323695 0 -0.025984042672578794 0.015628001203570916 0 -0.025914332747993034 0.01597210120515636 0 -0.025984042672578794 0.015628001203570916 0 -0.025835559766005708 0.015381852105127516 0 -0.026038259857766574 0.015924456389323695 0 -0.025984042672578794 0.015628001203570916 0 -0.026243093799212861 0.015546832978072815 0 -0.026298692895433282 0.015129550715872984 0 -0.026243093799212861 0.015546832978072815 0 -0.025982744970117374 0.015173948333939017 0 -0.025984042672578794 0.015628001203570916 0 -0.026243093799212861 0.015546832978072815 0 -0.025982744970117374 0.015173948333939017 0 -0.026734728659694885 0.014451877275603941 0 -0.026298692895433282 0.015129550715872984 0 -0.025962358733174165 0.014868475105950999 0 -0.026298692895433282 0.015129550715872984 0 -0.025962358733174165 0.014868475105950999 0 -0.025982744970117374 0.015173948333939017 0 -0.026734728659694885 0.014451877275603941 0 -0.025962358733174165 0.014868475105950999 0 -0.025853185279542518 0.013680416739112352 0 -0.025957511182237634 0.014834265828576892 0 -0.025818542813691805 0.014960363185867333 0 -0.025899028496683223 0.014649142360746619 0 -0.025962358733174165 0.014868475105950999 0 -0.025957511182237634 0.014834265828576892 0 -0.025982744970117374 0.015173948333939017 0 -0.025957511182237634 0.014834265828576892 0 -0.025982744970117374 0.015173948333939017 0 -0.025818542813691805 0.014960363185867333 0 -0.025984042672578794 0.015628001203570916 0 -0.025982744970117374 0.015173948333939017 0 -0.025835559766005708 0.015381852105127516 0 -0.025982744970117374 0.015173948333939017 0 -0.025835559766005708 0.015381852105127516 0 -0.025818542813691805 0.014960363185867333 0 -0.025835559766005708 0.015381852105127516 0 -0.02563051169066478 0.015301024509544134 0 -0.025818542813691805 0.014960363185867333 0 -0.025482246418019099 0.01494848715559168 0 -0.02563051169066478 0.015301024509544134 0 -0.025818542813691805 0.014960363185867333 0 -0.025482246418019099 0.01494848715559168 0 -0.025818542813691805 0.014960363185867333 0 -0.025689615095736609 0.014548481981629981 0 -0.027499887406845985 0.010127519777128072 0 -0.028030551480170824 0.0099755919233882051 0 -0.025818542813691805 0.014960363185867333 0 -0.025899028496683223 0.014649142360746619 0 -0.025689615095736609 0.014548481981629981 0 -0.029504651169707189 0.0044580176867480741 0 -0.029766991980714908 0.0049068262864058344 0 -0.02977081644349298 0.0044702818624301269 0 -0.025899028496683223 0.014649142360746619 0 -0.025689615095736609 0.014548481981629981 0 -0.025958724895992571 0.01410499360868383 0 -0.029766991980714908 0.0049068262864058344 0 -0.030030677162285108 0.0044828241012168334 0 -0.02977081644349298 0.0044702818624301269 0 -0.028030551480170824 0.0099755919233882051 0 -0.025693781457827674 0.0073702443954038769 0 -0.024324454924276956 0.011028560982505712 0 -0.024489038998671282 0.01306567097817087 0 -0.022867719285344444 0.010092821058208115 0 -0.025899028496683223 0.014649142360746619 0 -0.026077534493088198 0.014570859478897271 0 -0.025958724895992571 0.01410499360868383 0 -0.024324454924276956 0.011028560982505712 0 -0.025973126339804472 0.012107768998888413 0 -0.024023405346974436 0.0086698389701116239 0 -0.025419247097254558 0.014574803858496488 0 -0.025693781457827674 0.0073702443954038769 0 -0.022128714789806523 0.010248194579086236 0 -0.02182494497931621 -0.0075785033526424078 0 -0.017536768754331872 0.0040071521786450509 0 -0.017532623356843205 0.0024934839139391586 0 -0.016078735839028739 0.0013712881606292829 0 -0.018986926726226146 0.0034140750000683424 0 -0.017536768754331872 0.0040071521786450509 0 -0.017532623356843205 0.0024934839139391586 0 -0.018986926726226146 0.0034140750000683424 0 -0.019071191204767808 0.0022140473010331041 0 -0.017532623356843205 0.0024934839139391586 0 -0.024324454924276956 0.011028560982505712 0 -0.025973126339804472 0.012107768998888413 0 -0.024489038998671282 0.01306567097817087 0 -0.025973126339804472 0.012107768998888413 0 -0.025853185279542518 0.013680416739112352 0 -0.024489038998671282 0.01306567097817087 0 -0.026734728659694885 0.014451877275603941 0 -0.025973126339804472 0.012107768998888413 0 -0.025853185279542518 0.013680416739112352 0 -0.025764522258848767 0.014477316562867895 0 -0.025419247097254558 0.014574803858496488 0 -0.022957984297249663 0.010532030912597225 0 -0.022128714789806523 0.010248194579086236 0 -0.025962358733174165 0.014868475105950999 0 -0.025853185279542518 0.013680416739112352 0 -0.024489038998671282 0.01306567097817087 0 -0.025962358733174165 0.014868475105950999 0 -0.025957511182237634 0.014834265828576892 0 -0.026077534493088198 0.014570859478897271 0 -0.025957511182237634 0.014834265828576892 0 -0.025899028496683223 0.014649142360746619 0 -0.026077534493088198 0.014570859478897271 0 -0.02364062324302027 -0.019915827606316574 0 -0.023787046295914441 -0.01859176363270754 0 -0.022520696370746884 -0.02040382071788446 0 -0.02364062324302027 -0.019915827606316574 0 -0.025705325174240706 -0.021072950547693963 0 -0.023787046295914441 -0.01859176363270754 0 -0.02364062324302027 -0.019915827606316574 0 -0.025705325174240706 -0.021072950547693963 0 -0.023970231578342036 -0.021591800205939191 0 -0.02182494497931621 -0.0075785033526424078 0 -0.02153048863929841 -0.022758607892899678 0 -0.02364062324302027 -0.019915827606316574 0 -0.022520696370746884 -0.02040382071788446 0 -0.023970231578342036 -0.021591800205939191 0 -0.022596944630498106 -0.02033985585855138 0 -0.02182494497931621 -0.0075785033526424078 0 -0.018517156266001044 -0.0056275049978388803 0 -0.02182494497931621 -0.0075785033526424078 0 -0.020127486191219814 -0.01357405640543022 0 -0.019077639210635579 -0.016585889167775477 0 -0.01713649847408253 -0.014122094960056586 0 -0.019071191204767808 0.0022140473010331041 0 -0.017532623356843205 0.0024934839139391586 0 -0.016078735839028739 0.0013712881606292829 0 -0.024136679987213822 -0.018132449428051933 0 -0.022372223746587871 -0.01854393424312719 0 -0.022520696370746884 -0.02040382071788446 0 -0.02182494497931621 -0.0075785033526424078 0 -0.027319759064150156 -0.0098351528097387932 0 -0.024324454924276956 0.011028560982505712 0 -0.024023405346974436 0.0086698389701116239 0 -0.022867719285344444 0.010092821058208115 0 -0.025576911624413057 -0.0033388066017733301 0 -0.024159856584993204 -0.0016056721183784761 0 -0.023084422835354838 -0.0038393526355833801 0 -0.02182494497931621 -0.0075785033526424078 0 -0.025693781457827674 0.0073702443954038769 0 -0.030030677162285108 0.0044828241012168334 0 -0.029946652929676968 0.0042504869392255822 0 -0.02977081644349298 0.0044702818624301269 0 -0.025693781457827674 0.0073702443954038769 0 -0.027319759064150156 -0.0098351528097387932 0 -0.029946652929676968 0.0042504869392255822 0 -0.02977081644349298 0.0044702818624301269 0 -0.029616192100299945 0.0041688729933696033 0 -0.027319759064150156 -0.0098351528097387932 0 -0.031682480596390609 -0.0059770344611585133 0 -0.029504651169707189 0.0044580176867480741 0 -0.02977081644349298 0.0044702818624301269 0 -0.029616192100299945 0.0041688729933696033 0 -0.032265899797000064 -0.017050830595163893 0 -0.031895072246225301 -0.016650665152328787 0 -0.032650337383887361 -0.016483416020483463 0 -0.022372223746587871 -0.01854393424312719 0 -0.022520696370746884 -0.02040382071788446 0 -0.0210471117079509 -0.021636628732339503 0 -0.031586649894506734 -0.017103083514608604 0 -0.032265899797000064 -0.017050830595163893 0 -0.031895072246225301 -0.016650665152328787 0 -0.027319759064150156 -0.0098351528097387932 0 -0.026100379367516049 -0.020711023079957227 0 -0.022520696370746884 -0.02040382071788446 0 -0.022540475518849239 -0.022053579539840999 0 -0.0210471117079509 -0.021636628732339503 0 -0.022540475518849239 -0.022053579539840999 0 -0.021798981906921595 -0.023371642961495274 0 -0.023641923067164398 -0.023716361637982145 0 -0.022540475518849239 -0.022053579539840999 0 -0.0210471117079509 -0.021636628732339503 0 -0.021798981906921595 -0.023371642961495274 0 -0.031895072246225301 -0.016650665152328787 0 -0.032205722311340973 -0.016131460642440726 0 -0.032650337383887361 -0.016483416020483463 0 -0.026100379367516049 -0.020711023079957227 0 -0.02607272481589307 -0.019858164795711512 0 -0.0210471117079509 -0.021636628732339503 0 -0.019953495353820717 -0.024257940448452014 0 -0.021798981906921595 -0.023371642961495274 0 -0.019953495353820717 -0.024257940448452014 0 -0.021798981906921595 -0.023371642961495274 0 -0.021847294824767535 -0.025134603522884141 0 -0.021798981906921595 -0.023371642961495274 0 -0.023641923067164398 -0.023716361637982145 0 -0.021847294824767535 -0.025134603522884141 0 -0.022540475518849239 -0.022053579539840999 0 -0.023641923067164398 -0.023716361637982145 0 -0.023970231578342036 -0.021591800205939191 0 -0.023641923067164398 -0.023716361637982145 0 -0.023970231578342036 -0.021591800205939191 0 -0.025504611892383188 -0.023185262898142774 0 -0.022520696370746884 -0.02040382071788446 0 -0.022540475518849239 -0.022053579539840999 0 -0.023970231578342036 -0.021591800205939191 0 -0.025705325174240706 -0.021072950547693963 0 -0.023970231578342036 -0.021591800205939191 0 -0.025504611892383188 -0.023185262898142774 0 -0.023641923067164398 -0.023716361637982145 0 -0.025504611892383188 -0.023185262898142774 0 -0.025659112876402157 -0.025224314411431841 0 -0.025659112876402157 -0.025224314411431841 0 -0.023670109301920286 -0.026109204860171688 0 -0.025386787430701444 -0.027861394266368487 0 -0.023641923067164398 -0.023716361637982145 0 -0.023670109301920286 -0.026109204860171688 0 -0.021847294824767535 -0.025134603522884141 0 -0.023641923067164398 -0.023716361637982145 0 -0.025659112876402157 -0.025224314411431841 0 -0.023670109301920286 -0.026109204860171688 0 -0.023108292177858432 -0.028161316040996382 0 -0.025386787430701444 -0.027861394266368487 0 -0.02424626671792153 -0.029459768646356976 0 -0.023670109301920286 -0.026109204860171688 0 -0.023108292177858432 -0.028161316040996382 0 -0.021981787121591413 -0.026837882525102445 0 -0.023670109301920286 -0.026109204860171688 0 -0.023108292177858432 -0.028161316040996382 0 -0.025386787430701444 -0.027861394266368487 0 -0.025386787430701444 -0.027861394266368487 0 -0.02424626671792153 -0.029459768646356976 0 -0.025665098535503292 -0.030385657052559405 0 -0.027034175578801108 -0.02883621288296322 0 -0.025386787430701444 -0.027861394266368487 0 -0.025665098535503292 -0.030385657052559405 0 -0.023108292177858432 -0.028161316040996382 0 -0.02424626671792153 -0.029459768646356976 0 -0.022648790701252537 -0.029920153637366935 0 -0.02424626671792153 -0.029459768646356976 0 -0.024241658887183142 -0.030837173068140773 0 -0.022648790701252537 -0.029920153637366935 0 -0.024241658887183142 -0.030837173068140773 0 -0.022648790701252537 -0.029920153637366935 0 -0.023420943102932846 -0.031924748707296446 0 -0.024241658887183142 -0.030837173068140773 0 -0.024750060773878424 -0.03187324147213319 0 -0.023420943102932846 -0.031924748707296446 0 -0.025665098535503292 -0.030385657052559405 0 -0.025893581105074871 -0.032279258452119534 0 -0.024750060773878424 -0.03187324147213319 0 -0.024241658887183142 -0.030837173068140773 0 -0.025665098535503292 -0.030385657052559405 0 -0.024750060773878424 -0.03187324147213319 0 -0.02424626671792153 -0.029459768646356976 0 -0.024241658887183142 -0.030837173068140773 0 -0.025665098535503292 -0.030385657052559405 0 -0.021710538629210147 -0.031173804025307238 0 -0.021021618981232618 -0.029892012832286399 0 -0.020096793222955208 -0.031066616130311978 0 -0.021710538629210147 -0.031173804025307238 0 -0.020096793222955208 -0.031066616130311978 0 -0.020581335626036205 -0.032161679805915069 0 -0.021710538629210147 -0.031173804025307238 0 -0.022648790701252537 -0.029920153637366935 0 -0.023420943102932846 -0.031924748707296446 0 -0.021710538629210147 -0.031173804025307238 0 -0.022648790701252537 -0.029920153637366935 0 -0.021021618981232618 -0.029892012832286399 0 -0.023108292177858432 -0.028161316040996382 0 -0.022648790701252537 -0.029920153637366935 0 -0.020882008850190256 -0.028232488005062794 0 -0.022574610570139902 -0.029914936020266243 0 -0.020551377305094154 -0.029726853789952691 0 -0.022648790701252537 -0.029920153637366935 0 -0.020476915882831993 -0.02957523558017152 0 -0.020882008850190256 -0.028232488005062794 0 -0.020476915882831993 -0.02957523558017152 0 -0.019631917566348134 -0.02852879134871894 0 -0.020882008850190256 -0.028232488005062794 0 -0.020476915882831993 -0.02957523558017152 0 -0.019631917566348134 -0.02852879134871894 0 -0.018372797125445064 -0.029307510768590977 0 -0.019631917566348134 -0.02852879134871894 0 -0.019752477809453734 -0.027512258898370761 0 -0.020882008850190256 -0.028232488005062794 0 -0.019752477809453734 -0.027512258898370761 0 -0.020472733507442813 -0.02661107208881584 0 -0.018852916913112694 -0.026804495023551735 0 -0.019752477809453734 -0.027512258898370761 0 -0.020882008850190256 -0.028232488005062794 0 -0.020472733507442813 -0.02661107208881584 0 -0.023108292177858432 -0.028161316040996382 0 -0.020882008850190256 -0.028232488005062794 0 -0.021981787121591413 -0.026837882525102445 0 -0.020882008850190256 -0.028232488005062794 0 -0.021981787121591413 -0.026837882525102445 0 -0.020472733507442813 -0.02661107208881584 0 -0.023670109301920286 -0.026109204860171688 0 -0.021981787121591413 -0.026837882525102445 0 -0.021847294824767535 -0.025134603522884141 0 -0.021981787121591413 -0.026837882525102445 0 -0.021847294824767535 -0.025134603522884141 0 -0.020472733507442813 -0.02661107208881584 0 -0.019953495353820717 -0.024257940448452014 0 -0.021847294824767535 -0.025134603522884141 0 -0.020472733507442813 -0.02661107208881584 0 -0.019953495353820717 -0.024257940448452014 0 -0.020472733507442813 -0.02661107208881584 0 -0.018852916913112694 -0.026804495023551735 0 -0.032205722311340973 -0.016131460642440726 0 -0.03276487891575925 -0.015884127059446123 0 -0.032524647873761706 -0.01555784636098752 0 -0.02607272481589307 -0.019858164795711512 0 -0.026677933964061477 -0.021435042597351749 0 -0.032851682611562176 -0.015693099688441365 0 -0.032524647873761706 -0.01555784636098752 0 -0.032766725847913382 -0.015540531058984572 0 -0.03276487891575925 -0.015884127059446123 0 -0.032851682611562176 -0.015693099688441365 0 -0.032524647873761706 -0.01555784636098752 0 -0.03276487891575925 -0.015884127059446123 0 -0.033211417981089092 -0.015859822759621212 0 -0.03307357604224833 -0.015675949463682403 0 -0.03276487891575925 -0.015884127059446123 0 -0.032851682611562176 -0.015693099688441365 0 -0.03307357604224833 -0.015675949463682403 0 -0.032851682611562176 -0.015693099688441365 0 -0.032982875609866021 -0.015496554599378558 0 -0.032766725847913382 -0.015540531058984572 0 -0.032851682611562176 -0.015693099688441365 0 -0.03307357604224833 -0.015675949463682403 0 -0.032982875609866021 -0.015496554599378558 0 -0.03307357604224833 -0.015675949463682403 0 -0.033215802840291936 -0.015475985066558928 0 -0.033422822067902543 -0.015638942568000091 0 -0.033211417981089092 -0.015859822759621212 0 -0.03307357604224833 -0.015675949463682403 0 -0.033422822067902543 -0.015638942568000091 0 -0.032890085128851172 -0.01535706624292861 0 -0.032524647873761706 -0.01555784636098752 0 -0.033088807900112212 -0.014932252346755376 0 -0.033215802840291936 -0.015475985066558928 0 -0.032982875609866021 -0.015496554599378558 0 -0.033128436563976085 -0.015218987833790752 0 -0.03307357604224833 -0.015675949463682403 0 -0.033215802840291936 -0.015475985066558928 0 -0.032982875609866021 -0.015496554599378558 0 -0.032982875609866021 -0.015496554599378558 0 -0.032890085128851172 -0.01535706624292861 0 -0.033128436563976085 -0.015218987833790752 0 -0.032982875609866021 -0.015496554599378558 0 -0.032890085128851172 -0.01535706624292861 0 -0.032766725847913382 -0.015540531058984572 0 -0.032890085128851172 -0.01535706624292861 0 -0.033128436563976085 -0.015218987833790752 0 -0.033088807900112212 -0.014932252346755376 0 -0.033128436563976085 -0.015218987833790752 0 -0.033088807900112212 -0.014932252346755376 0 -0.033443642359321554 -0.015296995206893286 0 -0.033215802840291936 -0.015475985066558928 0 -0.033128436563976085 -0.015218987833790752 0 -0.033443642359321554 -0.015296995206893286 0 -0.018852916913112694 -0.026804495023551735 0 -0.018973015468291988 -0.027460537231990469 0 -0.018090750016818744 -0.02881714749092679 0 -0.026677933964061477 -0.021435042597351749 0 -0.034236208296743224 -0.023233968535719914 0 -0.026677933964061477 -0.021435042597351749 0 -0.026054663403290424 -0.027784075728361144 0 -0.019752477809453734 -0.027512258898370761 0 -0.018852916913112694 -0.026804495023551735 0 -0.018973015468291988 -0.027460537231990469 0 -0.032890085128851172 -0.01535706624292861 0 -0.032524647873761706 -0.01555784636098752 0 -0.032766725847913382 -0.015540531058984572 0 -0.019631917566348134 -0.02852879134871894 0 -0.019752477809453734 -0.027512258898370761 0 -0.018973015468291988 -0.027460537231990469 0 -0.018973015468291988 -0.027460537231990469 0 -0.018657239685432189 -0.028867305923244536 0 -0.018090750016818744 -0.02881714749092679 0 -0.021021618981232618 -0.029892012832286399 0 -0.019454412388512275 -0.029768850455651169 0 -0.020096793222955208 -0.031066616130311978 0 -0.020551377305094154 -0.029726853789952691 0 -0.020197265103672077 -0.029263407203157434 0 -0.018903140071719171 -0.027765104858056708 0 -0.020197265103672077 -0.029263407203157434 0 -0.019631917566348134 -0.02852879134871894 0 -0.018973015468291988 -0.027460537231990469 0 -0.018372797125445064 -0.029307510768590977 0 -0.020197265103672077 -0.029263407203157434 0 -0.026054663403290424 -0.027784075728361144 0 -0.028767444534787266 -0.023397000186749773 0 -0.028360350915424694 -0.024027618844921415 0 -0.028534898276554903 -0.024045378439115417 0 -0.03330424183971132 -0.028034494318000428 0 -0.033244657198861223 -0.027838160085441873 0 -0.03427685463628604 -0.026984506684837813 0 -0.034236208296743224 -0.023233968535719914 0 -0.026054663403290424 -0.027784075728361144 0 -0.034236208296743224 -0.023233968535719914 0 -0.034243286296653547 -0.023485838525524501 0 -0.032865296655000306 -0.028009664236277293 0 -0.033244657198861223 -0.027838160085441873 0 -0.033129060893845833 -0.027495657964411408 0 -0.026054663403290424 -0.027784075728361144 0 -0.030035083195334551 -0.028627735971665399 0 -0.025508615158212861 -0.028942586176495751 0 -0.025089904364008174 -0.028896694420382844 0 -0.024835289280438152 -0.029434902875264526 0 -0.033310716317584706 -0.028038591025850455 0 -0.032865296655000306 -0.028009664236277293 0 -0.03317993083493935 -0.02800541985794958 0 -0.032865296655000306 -0.028009664236277293 0 -0.03317993083493935 -0.02800541985794958 0 -0.033244657198861223 -0.027838160085441873 0 -0.03330424183971132 -0.028034494318000428 0 -0.03317993083493935 -0.02800541985794958 0 -0.033244657198861223 -0.027838160085441873 0 -0.030979035553616561 -0.028389381590856088 0 -0.030035083195334551 -0.028627735971665399 0 -0.025508615158212861 -0.028942586176495751 0 -0.024835289280438152 -0.029434902875264526 0 -0.025120279281322162 -0.030321866440119936 0 -0.033244657198861223 -0.027838160085441873 0 -0.033161941492338809 -0.027548292792978202 0 -0.03427685463628604 -0.026984506684837813 0 -0.033161941492338809 -0.027548292792978202 0 -0.033552776480379534 -0.026839827148278376 0 -0.03427685463628604 -0.026984506684837813 0 -0.030035083195334551 -0.028627735971665399 0 -0.033653760702760632 -0.031322518179229646 0 -0.029766354784259871 -0.030526497022290898 0 -0.02963868854006356 -0.030810878432310163 0 -0.029846264622455352 -0.030822748556634319 0 -0.030035083195334551 -0.028627735971665399 0 -0.025912494105074561 -0.031492051996234192 0 -0.020197265103672077 -0.029263407203157434 0 -0.025912494105074561 -0.031492051996234192 0 -0.020096793222955208 -0.031066616130311978 0 -0.018935033290569777 -0.031607054776237903 0 -0.018987490219415874 -0.031770315392284823 0 -0.019454412388512275 -0.029768850455651169 0 -0.020096793222955208 -0.031066616130311978 0 -0.018935033290569777 -0.031607054776237903 0 -0.039895192472641887 -0.026043755422870817 0 -0.039498768638444877 -0.025967856874244702 0 -0.040498489058943279 -0.025597719628427211 0 -0.039895192472641887 -0.026043755422870817 0 -0.039434503881492687 -0.025935004849267751 0 -0.040100763478941009 -0.026865822991843029 0 -0.040335237514466639 -0.026177021429841026 0 -0.039895192472641887 -0.026043755422870817 0 -0.040100763478941009 -0.026865822991843029 0 -0.040335237514466639 -0.026177021429841026 0 -0.040100763478941009 -0.026865822991843029 0 -0.040837917154896645 -0.026238728901662456 0 -0.040335237514466639 -0.026177021429841026 0 -0.040837917154896645 -0.026238728901662456 0 -0.040498489058943279 -0.025597719628427211 0 -0.040335237514466639 -0.026177021429841026 0 -0.039895192472641887 -0.026043755422870817 0 -0.040498489058943279 -0.025597719628427211 0 -0.038169215176691244 -0.027290079952225592 0 -0.039434503881492687 -0.025935004849267751 0 -0.040100763478941009 -0.026865822991843029 0 -0.039210784858499825 -0.027463362450098488 0 -0.038051884465218726 -0.028042886636723677 0 -0.034236208296743224 -0.023233968535719914 0 -0.038051884465218726 -0.028042886636723677 0 -0.033653760702760632 -0.031322518179229646 0 -0.038051884465218726 -0.028042886636723677 0 -0.034236208296743224 -0.023233968535719914 0 -0.038751404539915171 -0.023895047820820695 0 -0.034236208296743224 -0.023233968535719914 0 -0.034881197202965217 -0.01796663842089152 0 -0.033088807900112212 -0.014932252346755376 0 -0.033905135329132717 -0.014959497297536742 0 -0.033443642359321554 -0.015296995206893286 0 -0.033520843742110944 -0.021671904737009196 0 -0.038281417355486951 -0.022132552531321872 0 -0.038462077552601726 -0.020422092978821169 0 -0.038281417355486951 -0.022132552531321872 0 -0.038462077552601726 -0.020422092978821169 0 -0.043092634621678644 -0.022618898043975717 0 -0.033905135329132717 -0.014959497297536742 0 -0.034264698647127168 -0.015391204616046197 0 -0.03380527178576509 -0.015524886494219287 0 -0.033905135329132717 -0.014959497297536742 0 -0.03380527178576509 -0.015524886494219287 0 -0.033443642359321554 -0.015296995206893286 0 -0.03380527178576509 -0.015524886494219287 0 -0.033443642359321554 -0.015296995206893286 0 -0.033422822067902543 -0.015638942568000091 0 -0.033215802840291936 -0.015475985066558928 0 -0.033443642359321554 -0.015296995206893286 0 -0.033422822067902543 -0.015638942568000091 0 -0.03380527178576509 -0.015524886494219287 0 -0.033422822067902543 -0.015638942568000091 0 -0.033586267521371678 -0.015949246524038511 0 -0.033211417981089092 -0.015859822759621212 0 -0.033422822067902543 -0.015638942568000091 0 -0.033586267521371678 -0.015949246524038511 0 -0.03380527178576509 -0.015524886494219287 0 -0.034134642256836226 -0.015858883841594215 0 -0.033586267521371678 -0.015949246524038511 0 -0.034264698647127168 -0.015391204616046197 0 -0.03380527178576509 -0.015524886494219287 0 -0.034134642256836226 -0.015858883841594215 0 -0.034134642256836226 -0.015858883841594215 0 -0.033860521942461058 -0.016359139022654578 0 -0.03460354180133491 -0.016188601044861702 0 -0.034134642256836226 -0.015858883841594215 0 -0.033860521942461058 -0.016359139022654578 0 -0.033586267521371678 -0.015949246524038511 0 -0.033860521942461058 -0.016359139022654578 0 -0.033775081439393513 -0.016864233588241427 0 -0.034569078189171154 -0.016711332484772707 0 -0.033860521942461058 -0.016359139022654578 0 -0.033319730513965279 -0.016509570413564215 0 -0.03350759258910118 -0.016252106538435278 0 -0.033860521942461058 -0.016359139022654578 0 -0.033319730513965279 -0.016509570413564215 0 -0.033775081439393513 -0.016864233588241427 0 -0.033860521942461058 -0.016359139022654578 0 -0.03350759258910118 -0.016252106538435278 0 -0.033586267521371678 -0.015949246524038511 0 -0.033319730513965279 -0.016509570413564215 0 -0.03350759258910118 -0.016252106538435278 0 -0.033177987684146128 -0.016152948343728785 0 -0.03350759258910118 -0.016252106538435278 0 -0.033586267521371678 -0.015949246524038511 0 -0.033177987684146128 -0.016152948343728785 0 -0.033211417981089092 -0.015859822759621212 0 -0.033586267521371678 -0.015949246524038511 0 -0.033177987684146128 -0.016152948343728785 0 -0.03276487891575925 -0.015884127059446123 0 -0.033211417981089092 -0.015859822759621212 0 -0.033177987684146128 -0.016152948343728785 0 -0.03276487891575925 -0.015884127059446123 0 -0.033177987684146128 -0.016152948343728785 0 -0.032650337383887361 -0.016483416020483463 0 -0.032205722311340973 -0.016131460642440726 0 -0.03276487891575925 -0.015884127059446123 0 -0.032650337383887361 -0.016483416020483463 0 -0.033319730513965279 -0.016509570413564215 0 -0.033177987684146128 -0.016152948343728785 0 -0.032650337383887361 -0.016483416020483463 0 -0.033319730513965279 -0.016509570413564215 0 -0.032650337383887361 -0.016483416020483463 0 -0.032997679070127101 -0.016972454810034152 0 -0.031682480596390609 -0.0059770344611585133 0 -0.031338644848425259 -0.0065023175731600512 0 -0.032265899797000064 -0.017050830595163893 0 -0.032650337383887361 -0.016483416020483463 0 -0.032997679070127101 -0.016972454810034152 0 -0.029504651169707189 0.0044580176867480741 0 -0.029616192100299945 0.0041688729933696033 0 -0.029312065463501562 0.0040590307288113471 0 -0.029504651169707189 0.0044580176867480741 0 -0.029312065463501562 0.0040590307288113471 0 -0.029181650576854568 0.0043918887084093156 0 -0.029181650576854568 0.0043918887084093156 0 -0.028935717837394008 0.0043463257993369576 0 -0.029041471988205822 0.0039268574582379803 0 -0.028935717837394008 0.0043463257993369576 0 -0.029041471988205822 0.0039268574582379803 0 -0.028744172708823641 0.0041382453318825644 0 -0.0297350988696558 -0.0064050506158791235 0 -0.039699948456537494 -0.0082220321557762831 0 -0.031338644848425259 -0.0065023175731600512 0 -0.0297350988696558 -0.0064050506158791235 0 -0.029312065463501562 0.0040590307288113471 0 -0.029181650576854568 0.0043918887084093156 0 -0.029041471988205822 0.0039268574582379803 0 -0.033319730513965279 -0.016509570413564215 0 -0.032997679070127101 -0.016972454810034152 0 -0.033775081439393513 -0.016864233588241427 0 -0.047620389921289551 -0.0051427452863284963 0 -0.047616622065049095 -0.0050851619621756347 0 -0.047634546590770495 -0.0051224856332741887 0 -0.047620389921289551 -0.0051427452863284963 0 -0.047593298704005318 -0.005155616418406608 0 -0.047638626914989123 -0.0051663985380461718 0 -0.047620389921289551 -0.0051427452863284963 0 -0.047634546590770495 -0.0051224856332741887 0 -0.047638726148569614 -0.0051521650303364688 0 -0.047620389921289551 -0.0051427452863284963 0 -0.047638726148569614 -0.0051521650303364688 0 -0.047638626914989123 -0.0051663985380461718 0 -0.047620389921289551 -0.0051427452863284963 0 -0.047593298704005318 -0.005155616418406608 0 -0.047616622065049095 -0.0050851619621756347 0 -0.029041471988205822 0.0039268574582379803 0 -0.028783556059408733 0.0037671280631845776 0 -0.028744172708823641 0.0041382453318825644 0 -0.039699948456537494 -0.0082220321557762831 0 -0.038152581488045151 0.00099853075945943465 0 -0.028748686033766718 0.0044924672809470894 0 -0.028935717837394008 0.0043463257993369576 0 -0.028744172708823641 0.0041382453318825644 0 -0.03818725631055786 -0.00060975706620313732 0 -0.038152581488045151 0.00099853075945943465 0 -0.047647932707150481 -0.0050789352244574489 0 -0.047616622065049095 -0.0050851619621756347 0 -0.047634546590770495 -0.0051224856332741887 0 -0.047647932707150481 -0.0050789352244574489 0 -0.047634546590770495 -0.0051224856332741887 0 -0.047648099185242127 -0.0051230292908912489 0 -0.047646695886973942 -0.0051367815475798217 0 -0.047648099185242127 -0.0051230292908912489 0 -0.047654317466833823 -0.0051477386136870064 0 -0.047648099185242127 -0.0051230292908912489 0 -0.047654317466833823 -0.0051477386136870064 0 -0.047643995148753136 -0.0051355743042464166 0 -0.047634546590770495 -0.0051224856332741887 0 -0.047648099185242127 -0.0051230292908912489 0 -0.047643995148753136 -0.0051355743042464166 0 -0.047630663130250127 -0.0051594801933676857 0 -0.047646695886973942 -0.0051367815475798217 0 -0.047654317466833823 -0.0051477386136870064 0 -0.049137510712404242 -0.007234982387212362 0 -0.049875069229530528 -0.0080293319401344623 0 -0.050716088814097504 -0.0092224554151310763 0 -0.052404675471122833 -0.01147087019645672 0 -0.051372180912399569 -0.011913749016775098 0 -0.052404675471122833 -0.01147087019645672 0 -0.051372180912399569 -0.011913749016775098 0 -0.053095489627513835 -0.013386783699134677 0 -0.051420565184559903 -0.012080906401100962 0 -0.052044677226581286 -0.014222586969964781 0 -0.047654317466833823 -0.0051477386136870064 0 -0.047638726148569614 -0.0051521650303364688 0 -0.047638626914989123 -0.0051663985380461718 0 -0.049875069229530528 -0.0080293319401344623 0 -0.051306702335346802 -0.010577242725135608 0 -0.052404675471122833 -0.01147087019645672 0 -0.053095489627513835 -0.013386783699134677 0 -0.053884390014158706 -0.013222452801668146 0 -0.047654317466833823 -0.0051477386136870064 0 -0.047643995148753136 -0.0051355743042464166 0 -0.047638726148569614 -0.0051521650303364688 0 -0.047634546590770495 -0.0051224856332741887 0 -0.047643995148753136 -0.0051355743042464166 0 -0.047638726148569614 -0.0051521650303364688 0 -0.052044677226581286 -0.014222586969964781 0 -0.051306702335346802 -0.010577242725135608 0 -0.05130930827573315 -0.015512428250646649 0 -0.051673645623559646 -0.01672566367501882 0 -0.050737392473359316 -0.016403511560235454 0 -0.05130930827573315 -0.015512428250646649 0 -0.050737392473359316 -0.016403511560235454 0 -0.049305132292443807 -0.015798751590104729 0 -0.051226950972410333 -0.012332665912695351 0 -0.05324807415132244 -0.014217612178543726 0 -0.050031901483733994 -0.014824066288255496 0 -0.052044677226581286 -0.014222586969964781 0 -0.049711117301078155 -0.015392643593222986 0 -0.049931471973916786 -0.017038365527171626 0 -0.050737392473359316 -0.016403511560235454 0 -0.049305132292443807 -0.015798751590104729 0 -0.049931471973916786 -0.017038365527171626 0 -0.050737392473359316 -0.016403511560235454 0 -0.050939659773836708 -0.017272987513624202 0 -0.051673645623559646 -0.01672566367501882 0 -0.050737392473359316 -0.016403511560235454 0 -0.050939659773836708 -0.017272987513624202 0 -0.051673645623559646 -0.01672566367501882 0 -0.050939659773836708 -0.017272987513624202 0 -0.051905464446637753 -0.017795128940095748 0 -0.051673645623559646 -0.01672566367501882 0 -0.052299586270793619 -0.017374490884722683 0 -0.052605286784894144 -0.016752318840917827 0 -0.051673645623559646 -0.01672566367501882 0 -0.052299586270793619 -0.017374490884722683 0 -0.051905464446637753 -0.017795128940095748 0 -0.05130930827573315 -0.015512428250646649 0 -0.051673645623559646 -0.01672566367501882 0 -0.052605286784894144 -0.016752318840917827 0 -0.052605286784894144 -0.016752318840917827 0 -0.052534437461411773 -0.015517608722178172 0 -0.053115183485414129 -0.01657004082316494 0 -0.053187382070981122 -0.014176457121042919 0 -0.052534437461411773 -0.015517608722178172 0 -0.0512982609912324 -0.01455206554012794 0 -0.039699948456537494 -0.0082220321557762831 0 -0.051306702335346802 -0.010577242725135608 0 -0.050283332786388919 -0.014748047188518586 0 -0.052605286784894144 -0.016752318840917827 0 -0.0512982609912324 -0.01455206554012794 0 -0.052044677226581286 -0.014222586969964781 0 -0.052160669039105517 -0.016856732615407606 0 -0.052605286784894144 -0.016752318840917827 0 -0.052534437461411773 -0.015517608722178172 0 -0.0512982609912324 -0.01455206554012794 0 -0.053187382070981122 -0.014176457121042919 0 -0.052534437461411773 -0.015517608722178172 0 -0.053115183485414129 -0.01657004082316494 0 -0.039699948456537494 -0.0082220321557762831 0 -0.044101010261317332 -0.017833339182832277 0 -0.033860521942461058 -0.016359139022654578 0 -0.034569078189171154 -0.016711332484772707 0 -0.03460354180133491 -0.016188601044861702 0 -0.052605286784894144 -0.016752318840917827 0 -0.053115183485414129 -0.01657004082316494 0 -0.053059152773722501 -0.018261180740808226 0 -0.034134642256836226 -0.015858883841594215 0 -0.03460354180133491 -0.016188601044861702 0 -0.034672988645090858 -0.015649071798712347 0 -0.034264698647127168 -0.015391204616046197 0 -0.034134642256836226 -0.015858883841594215 0 -0.034672988645090858 -0.015649071798712347 0 -0.044101010261317332 -0.017833339182832277 0 -0.043888157648962173 -0.016495543639245831 0 -0.052299586270793619 -0.017374490884722683 0 -0.053059152773722501 -0.018261180740808226 0 -0.051905464446637753 -0.017795128940095748 0 -0.052299586270793619 -0.017374490884722683 0 -0.052605286784894144 -0.016752318840917827 0 -0.053059152773722501 -0.018261180740808226 0 -0.053059152773722501 -0.018261180740808226 0 -0.051905464446637753 -0.017795128940095748 0 -0.052557906475076896 -0.018990289986227756 0 -0.053059152773722501 -0.018261180740808226 0 -0.052557906475076896 -0.018990289986227756 0 -0.053015044512750201 -0.019896680788839251 0 -0.051905464446637753 -0.017795128940095748 0 -0.052557906475076896 -0.018990289986227756 0 -0.051589150936679727 -0.019011228489278047 0 -0.052557906475076896 -0.018990289986227756 0 -0.053015044512750201 -0.019896680788839251 0 -0.052786902288348377 -0.019876485621833664 0 -0.052557906475076896 -0.018990289986227756 0 -0.052127138808595187 -0.019678124786833229 0 -0.052786902288348377 -0.019876485621833664 0 -0.052557906475076896 -0.018990289986227756 0 -0.052127138808595187 -0.019678124786833229 0 -0.051589150936679727 -0.019011228489278047 0 -0.033905135329132717 -0.014959497297536742 0 -0.034264698647127168 -0.015391204616046197 0 -0.034764575855087208 -0.015040651484327773 0 -0.043888157648962173 -0.016495543639245831 0 -0.043546362806895458 -0.018355392783189445 0 -0.034264698647127168 -0.015391204616046197 0 -0.034672988645090858 -0.015649071798712347 0 -0.034764575855087208 -0.015040651484327773 0 -0.034881197202965217 -0.01796663842089152 0 -0.043546362806895458 -0.018355392783189445 0 -0.043546362806895458 -0.018355392783189445 0 -0.046659492562988417 -0.022774878116955159 0 -0.038462077552601726 -0.020422092978821169 0 -0.043092634621678644 -0.022618898043975717 0 -0.043249802698083928 -0.019443518723106533 0 -0.043546362806895458 -0.018355392783189445 0 -0.04659931354001156 -0.018730025170041815 0 -0.053012405753235438 -0.019905502375713924 0 -0.052314300031611666 -0.020465647483813236 0 -0.052961333949595797 -0.021212043052122848 0 -0.053012405753235438 -0.019905502375713924 0 -0.052786902288348377 -0.019876485621833664 0 -0.052314300031611666 -0.020465647483813236 0 -0.052127138808595187 -0.019678124786833229 0 -0.052786902288348377 -0.019876485621833664 0 -0.052314300031611666 -0.020465647483813236 0 -0.052127138808595187 -0.019678124786833229 0 -0.052314300031611666 -0.020465647483813236 0 -0.05146134840099071 -0.020172693811976155 0 -0.052314300031611666 -0.020465647483813236 0 -0.052961333949595797 -0.021212043052122848 0 -0.051575656695148707 -0.021579883031626671 0 -0.046659492562988417 -0.022774878116955159 0 -0.052370469192997086 -0.021621451999719304 0 -0.051689704721811995 -0.022000960216397802 0 -0.050926498300892006 -0.022127399081031344 0 -0.051673622610788353 -0.022890656336204167 0 -0.046659492562988417 -0.022774878116955159 0 -0.046741457102090482 -0.023848280245952293 0 -0.038751404539915171 -0.023895047820820695 0 -0.046659492562988417 -0.022774878116955159 0 -0.04174656649304901 -0.026485172204632111 0 -0.040837917154896645 -0.026238728901662456 0 -0.041766818743941649 -0.025218340542474845 0 -0.040100763478941009 -0.026865822991843029 0 -0.04174656649304901 -0.026485172204632111 0 -0.040837917154896645 -0.026238728901662456 0 -0.050061032249681212 -0.022107407052897675 0 -0.051575656695148707 -0.021579883031626671 0 -0.050523228518571738 -0.020751898447826215 0 -0.050061032249681212 -0.022107407052897675 0 -0.050523228518571738 -0.020751898447826215 0 -0.04936215667675075 -0.020470768837068224 0 -0.050061032249681212 -0.022107407052897675 0 -0.050926498300892006 -0.022127399081031344 0 -0.050760542999557595 -0.022794168321382667 0 -0.049697578704014179 -0.022179852799130727 0 -0.052370469192997086 -0.021621451999719304 0 -0.052314300031611666 -0.020465647483813236 0 -0.051575656695148707 -0.021579883031626671 0 -0.05146134840099071 -0.020172693811976155 0 -0.051575656695148707 -0.021579883031626671 0 -0.05146134840099071 -0.020172693811976155 0 -0.050523228518571738 -0.020751898447826215 0 -0.05146134840099071 -0.020172693811976155 0 -0.050523228518571738 -0.020751898447826215 0 -0.050429577417115144 -0.019340750644136734 0 -0.050523228518571738 -0.020751898447826215 0 -0.050429577417115144 -0.019340750644136734 0 -0.04936215667675075 -0.020470768837068224 0 -0.050429577417115144 -0.019340750644136734 0 -0.050926266825975099 -0.018292254535277438 0 -0.050029133940759321 -0.018080965696628475 0 -0.050429577417115144 -0.019340750644136734 0 -0.050029133940759321 -0.018080965696628475 0 -0.049273922415172179 -0.01907243497583971 0 -0.050429577417115144 -0.019340750644136734 0 -0.049273922415172179 -0.01907243497583971 0 -0.04936215667675075 -0.020470768837068224 0 -0.05146134840099071 -0.020172693811976155 0 -0.050429577417115144 -0.019340750644136734 0 -0.051589150936679727 -0.019011228489278047 0 -0.050429577417115144 -0.019340750644136734 0 -0.051589150936679727 -0.019011228489278047 0 -0.050926266825975099 -0.018292254535277438 0 -0.052127138808595187 -0.019678124786833229 0 -0.05146134840099071 -0.020172693811976155 0 -0.051589150936679727 -0.019011228489278047 0 -0.051905464446637753 -0.017795128940095748 0 -0.051589150936679727 -0.019011228489278047 0 -0.050926266825975099 -0.018292254535277438 0 -0.050939659773836708 -0.017272987513624202 0 -0.051905464446637753 -0.017795128940095748 0 -0.050926266825975099 -0.018292254535277438 0 -0.050939659773836708 -0.017272987513624202 0 -0.050926266825975099 -0.018292254535277438 0 -0.050029133940759321 -0.018080965696628475 0 -0.049931471973916786 -0.017038365527171626 0 -0.050939659773836708 -0.017272987513624202 0 -0.050029133940759321 -0.018080965696628475 0 -0.049931471973916786 -0.017038365527171626 0 -0.050029133940759321 -0.018080965696628475 0 -0.048633231973424451 -0.017649278616110264 0 -0.050029133940759321 -0.018080965696628475 0 -0.048633231973424451 -0.017649278616110264 0 -0.049273922415172179 -0.01907243497583971 0 -0.048633231973424451 -0.017649278616110264 0 -0.047897058586971415 -0.019840350197096457 0 -0.04673362066250538 -0.017955428311397889 0 -0.048633231973424451 -0.017649278616110264 0 -0.049273922415172179 -0.01907243497583971 0 -0.047897058586971415 -0.019840350197096457 0 -0.04936215667675075 -0.020470768837068224 0 -0.047897058586971415 -0.019840350197096457 0 -0.048355399062409814 -0.02157568476589284 0 -0.049273922415172179 -0.01907243497583971 0 -0.04936215667675075 -0.020470768837068224 0 -0.047897058586971415 -0.019840350197096457 0 -0.047897058586971415 -0.019840350197096457 0 -0.048355399062409814 -0.02157568476589284 0 -0.046585628752115735 -0.021591420863026921 0 -0.050061032249681212 -0.022107407052897675 0 -0.04936215667675075 -0.020470768837068224 0 -0.048355399062409814 -0.02157568476589284 0 -0.050061032249681212 -0.022107407052897675 0 -0.048355399062409814 -0.02157568476589284 0 -0.048889463181177858 -0.023004734861607316 0 -0.046585628752115735 -0.021591420863026921 0 -0.044999854447380881 -0.02067337939613113 0 -0.044999810213567859 -0.023021205393583526 0 -0.048355399062409814 -0.02157568476589284 0 -0.046585628752115735 -0.021591420863026921 0 -0.046996745530474116 -0.023604386839897944 0 -0.047897058586971415 -0.019840350197096457 0 -0.046585628752115735 -0.021591420863026921 0 -0.04625958682317316 -0.019676965129898284 0 -0.046585628752115735 -0.021591420863026921 0 -0.044999854447380881 -0.02067337939613113 0 -0.04625958682317316 -0.019676965129898284 0 -0.044999854447380881 -0.02067337939613113 0 -0.044999832893028162 -0.018325649842234542 0 -0.04625958682317316 -0.019676965129898284 0 -0.044999832893028162 -0.018325649842234542 0 -0.04625958682317316 -0.019676965129898284 0 -0.04673362066250538 -0.017955428311397889 0 -0.047897058586971415 -0.019840350197096457 0 -0.04625958682317316 -0.019676965129898284 0 -0.04673362066250538 -0.017955428311397889 0 -0.044999832893028162 -0.018325649842234542 0 -0.04673362066250538 -0.017955428311397889 0 -0.044999980815563001 -0.015978841142869328 0 -0.045000245597885798 -0.015977930154904306 0 -0.04716728647273339 -0.015636533402570884 0 -0.044999824143169387 -0.015977484418444963 0 -0.044999605947813742 -0.013454958997088276 0 -0.046469760454205596 -0.013426314241427199 0 -0.047162397690359022 -0.015283464523882186 0 -0.04851056901544442 -0.013101633359122795 0 -0.046469760454205596 -0.013426314241427199 0 -0.044999824143169387 -0.015977484418444963 0 -0.047162397690359022 -0.015283464523882186 0 -0.046469760454205596 -0.013426314241427199 0 -0.04673362066250538 -0.017955428311397889 0 -0.044999980815563001 -0.015978841142869328 0 -0.047224520111953133 -0.015994550851379873 0 -0.048633231973424451 -0.017649278616110264 0 -0.047224520111953133 -0.015994550851379873 0 -0.049305132292443807 -0.015798751590104729 0 -0.048633231973424451 -0.017649278616110264 0 -0.04673362066250538 -0.017955428311397889 0 -0.047224520111953133 -0.015994550851379873 0 -0.049931471973916786 -0.017038365527171626 0 -0.048633231973424451 -0.017649278616110264 0 -0.049305132292443807 -0.015798751590104729 0 -0.04716728647273339 -0.015636533402570884 0 -0.049711117301078155 -0.015392643593222986 0 -0.047162397690359022 -0.015283464523882186 0 -0.050031901483733994 -0.014824066288255496 0 -0.04851056901544442 -0.013101633359122795 0 -0.04851056901544442 -0.013101633359122795 0 -0.047758440656526985 -0.011623588086631845 0 -0.046469760454205596 -0.013426314241427199 0 -0.051226950972410333 -0.012332665912695351 0 -0.050031901483733994 -0.014824066288255496 0 -0.04851056901544442 -0.013101633359122795 0 -0.051226950972410333 -0.012332665912695351 0 -0.04851056901544442 -0.013101633359122795 0 -0.049078844997285632 -0.010168498279307903 0 -0.051420565184559903 -0.012080906401100962 0 -0.04915190500148809 -0.010252596294209621 0 -0.050716088814097504 -0.0092224554151310763 0 -0.051372180912399569 -0.011913749016775098 0 -0.049078844997285632 -0.010168498279307903 0 -0.04851056901544442 -0.013101633359122795 0 -0.049078844997285632 -0.010168498279307903 0 -0.047758440656526985 -0.011623588086631845 0 -0.049078844997285632 -0.010168498279307903 0 -0.047758440656526985 -0.011623588086631845 0 -0.04764409830402571 -0.0099628701385602036 0 -0.047758440656526985 -0.011623588086631845 0 -0.04764409830402571 -0.0099628701385602036 0 -0.046519696671812827 -0.011712883765824512 0 -0.046330127192379215 -0.010910120068087873 0 -0.046519696671812827 -0.011712883765824512 0 -0.045570185425943925 -0.011564432652338216 0 -0.044999891177761576 -0.010932753176366336 0 -0.045570185425943925 -0.011564432652338216 0 -0.044999605947813742 -0.013454958997088276 0 -0.045570185425943925 -0.011564432652338216 0 -0.044999605947813742 -0.013454958997088276 0 -0.045889446585513492 -0.012515897094027692 0 -0.046519696671812827 -0.011712883765824512 0 -0.045570185425943925 -0.011564432652338216 0 -0.045889446585513492 -0.012515897094027692 0 -0.044999605947813742 -0.013454958997088276 0 -0.045889446585513492 -0.012515897094027692 0 -0.046469760454205596 -0.013426314241427199 0 -0.046519696671812827 -0.011712883765824512 0 -0.045889446585513492 -0.012515897094027692 0 -0.046469760454205596 -0.013426314241427199 0 -0.047758440656526985 -0.011623588086631845 0 -0.046519696671812827 -0.011712883765824512 0 -0.046469760454205596 -0.013426314241427199 0 -0.047049940963115558 -0.031565157144492414 0 -0.044999991772738328 -0.032330139531073609 0 -0.044999996400801393 -0.030009702822078686 0 -0.047000414823080816 -0.031755525682577355 0 -0.045000335668638362 -0.032330050543126959 0 -0.046881085947714438 -0.031828215062530169 0 -0.044999974254960551 -0.032330610317206791 0 -0.046527797954574783 -0.033424155703054306 0 -0.044999974254960551 -0.032330610317206791 0 -0.046527797954574783 -0.033424155703054306 0 -0.044999908618045002 -0.034726665955472809 0 -0.046881085947714438 -0.031828215062530169 0 -0.046527797954574783 -0.033424155703054306 0 -0.048169202394990687 -0.032927173537808843 0 -0.046527797954574783 -0.033424155703054306 0 -0.048169202394990687 -0.032927173537808843 0 -0.047913575451073047 -0.034534727994196358 0 -0.048169202394990687 -0.032927173537808843 0 -0.049216189458326426 -0.033984267347714925 0 -0.047913575451073047 -0.034534727994196358 0 -0.04970128456566781 -0.032591399187419386 0 -0.050667517130162855 -0.033984444084807053 0 -0.049216189458326426 -0.033984267347714925 0 -0.048169202394990687 -0.032927173537808843 0 -0.04970128456566781 -0.032591399187419386 0 -0.049216189458326426 -0.033984267347714925 0 -0.04900306996692981 -0.030991602854905497 0 -0.049260127095441628 -0.03002737612509972 0 -0.048085207577021616 -0.029691141447490986 0 -0.048169202394990687 -0.032927173537808843 0 -0.04970128456566781 -0.032591399187419386 0 -0.048694608253052191 -0.031208620354059153 0 -0.049325554426373167 -0.031820832827498452 0 -0.048536994053568858 -0.030349978190933675 0 -0.046881085947714438 -0.031828215062530169 0 -0.048169202394990687 -0.032927173537808843 0 -0.048694608253052191 -0.031208620354059153 0 -0.047000414823080816 -0.031755525682577355 0 -0.048536994053568858 -0.030349978190933675 0 -0.048167597003622407 -0.029640866264763508 0 -0.048319144077232666 -0.028431341433331998 0 -0.047128291413033194 -0.0281481251152375 0 -0.047049940963115558 -0.031565157144492414 0 -0.049087080934529015 -0.030811924994247349 0 -0.047730398864914481 -0.029008587153679127 0 -0.048536994053568858 -0.030349978190933675 0 -0.047439213439129879 -0.028563846225527177 0 -0.048167597003622407 -0.029640866264763508 0 -0.04880356196511014 -0.029418274164257262 0 -0.048319144077232666 -0.028431341433331998 0 -0.049260127095441628 -0.03002737612509972 0 -0.048085207577021616 -0.029691141447490986 0 -0.04880356196511014 -0.029418274164257262 0 -0.049260127095441628 -0.03002737612509972 0 -0.04880356196511014 -0.029418274164257262 0 -0.049650171659690885 -0.029028701827914005 0 -0.048536994053568858 -0.030349978190933675 0 -0.048715528538853081 -0.02978286123460766 0 -0.04880356196511014 -0.029418274164257262 0 -0.049062424978385845 -0.028760230292685911 0 -0.048319144077232666 -0.028431341433331998 0 -0.049062424978385845 -0.028760230292685911 0 -0.04931025215645244 -0.028123918551994222 0 -0.049650171659690885 -0.029028701827914005 0 -0.04880356196511014 -0.029418274164257262 0 -0.049062424978385845 -0.028760230292685911 0 -0.049650171659690885 -0.029028701827914005 0 -0.049062424978385845 -0.028760230292685911 0 -0.04931025215645244 -0.028123918551994222 0 -0.048319144077232666 -0.028431341433331998 0 -0.048319144077232666 -0.028431341433331998 0 -0.048093510432951167 -0.02730032039720777 0 -0.048985179247258238 -0.027381241832616823 0 -0.04931025215645244 -0.028123918551994222 0 -0.048985179247258238 -0.027381241832616823 0 -0.049862609226815936 -0.027497321067727811 0 -0.04931025215645244 -0.028123918551994222 0 -0.048319144077232666 -0.028431341433331998 0 -0.048985179247258238 -0.027381241832616823 0 -0.048319144077232666 -0.028431341433331998 0 -0.047128291413033194 -0.0281481251152375 0 -0.048093510432951167 -0.02730032039720777 0 -0.047730398864914481 -0.029008587153679127 0 -0.04623074517883604 -0.029094905708548311 0 -0.046369143082192123 -0.027191239091435289 0 -0.047049940963115558 -0.031565157144492414 0 -0.047730398864914481 -0.029008587153679127 0 -0.04623074517883604 -0.029094905708548311 0 -0.047049940963115558 -0.031565157144492414 0 -0.044999996400801393 -0.030009702822078686 0 -0.04623074517883604 -0.029094905708548311 0 -0.044999996400801393 -0.030009702822078686 0 -0.04623074517883604 -0.029094905708548311 0 -0.044999991934806617 -0.027689246939892935 0 -0.046369143082192123 -0.027191239091435289 0 -0.044999991934806617 -0.027689246939892935 0 -0.044999998761312561 -0.025368785120744215 0 -0.04623074517883604 -0.029094905708548311 0 -0.046369143082192123 -0.027191239091435289 0 -0.044999991934806617 -0.027689246939892935 0 -0.047439213439129879 -0.028563846225527177 0 -0.046218411559452353 -0.026931049134468053 0 -0.047128291413033194 -0.0281481251152375 0 -0.046080006053390132 -0.026657818633450597 0 -0.047319263157169375 -0.026482403443436834 0 -0.046080006053390132 -0.026657818633450597 0 -0.04658854352130147 -0.025434583001330904 0 -0.047319263157169375 -0.026482403443436834 0 -0.046080006053390132 -0.026657818633450597 0 -0.04658854352130147 -0.025434583001330904 0 -0.04499984950967615 -0.025367883082117473 0 -0.046218411559452353 -0.026931049134468053 0 -0.045000234134719319 -0.025369057241775763 0 -0.04499984950967615 -0.025367883082117473 0 -0.046996745530474116 -0.023604386839897944 0 -0.044999810213567859 -0.023021205393583526 0 -0.04658854352130147 -0.025434583001330904 0 -0.04499984950967615 -0.025367883082117473 0 -0.046996745530474116 -0.023604386839897944 0 -0.04658854352130147 -0.025434583001330904 0 -0.046996745530474116 -0.023604386839897944 0 -0.047934761056684545 -0.025386060345165235 0 -0.046585628752115735 -0.021591420863026921 0 -0.046996745530474116 -0.023604386839897944 0 -0.044999810213567859 -0.023021205393583526 0 -0.049030170941641318 -0.023064786667906192 0 -0.049919960821491922 -0.023467046133355127 0 -0.048889463181177858 -0.023004734861607316 0 -0.048617103273193248 -0.024340176758589495 0 -0.050168479979098464 -0.023867895358242554 0 -0.048355399062409814 -0.02157568476589284 0 -0.046996745530474116 -0.023604386839897944 0 -0.048889463181177858 -0.023004734861607316 0 -0.046996745530474116 -0.023604386839897944 0 -0.048889463181177858 -0.023004734861607316 0 -0.048617103273193248 -0.024340176758589495 0 -0.046996745530474116 -0.023604386839897944 0 -0.048617103273193248 -0.024340176758589495 0 -0.047934761056684545 -0.025386060345165235 0 -0.048617103273193248 -0.024340176758589495 0 -0.049249089176978504 -0.025358253880860559 0 -0.047934761056684545 -0.025386060345165235 0 -0.048617103273193248 -0.024340176758589495 0 -0.049249089176978504 -0.025358253880860559 0 -0.050168479979098464 -0.023867895358242554 0 -0.049249089176978504 -0.025358253880860559 0 -0.048669289288836792 -0.026275336390309795 0 -0.049663832601820064 -0.026641316521291526 0 -0.049249089176978504 -0.025358253880860559 0 -0.047934761056684545 -0.025386060345165235 0 -0.048669289288836792 -0.026275336390309795 0 -0.047934761056684545 -0.025386060345165235 0 -0.047319263157169375 -0.026482403443436834 0 -0.048669289288836792 -0.026275336390309795 0 -0.04658854352130147 -0.025434583001330904 0 -0.047934761056684545 -0.025386060345165235 0 -0.047319263157169375 -0.026482403443436834 0 -0.047128291413033194 -0.0281481251152375 0 -0.047319263157169375 -0.026482403443436834 0 -0.048093510432951167 -0.02730032039720777 0 -0.047319263157169375 -0.026482403443436834 0 -0.048093510432951167 -0.02730032039720777 0 -0.048669289288836792 -0.026275336390309795 0 -0.048669289288836792 -0.026275336390309795 0 -0.048985179247258238 -0.027381241832616823 0 -0.049663832601820064 -0.026641316521291526 0 -0.048093510432951167 -0.02730032039720777 0 -0.048669289288836792 -0.026275336390309795 0 -0.048985179247258238 -0.027381241832616823 0 -0.048985179247258238 -0.027381241832616823 0 -0.049663832601820064 -0.026641316521291526 0 -0.049862609226815936 -0.027497321067727811 0 -0.049663832601820064 -0.026641316521291526 0 -0.050629485327695081 -0.027265577019407728 0 -0.050428469348440592 -0.025656430333443194 0 -0.049663832601820064 -0.026641316521291526 0 -0.050629485327695081 -0.027265577019407728 0 -0.049862609226815936 -0.027497321067727811 0 -0.050629485327695081 -0.027265577019407728 0 -0.051429238233033622 -0.026258723219536914 0 -0.051574126415412862 -0.027757226036583166 0 -0.050629485327695081 -0.027265577019407728 0 -0.051429238233033622 -0.026258723219536914 0 -0.050428469348440592 -0.025656430333443194 0 -0.051429238233033622 -0.026258723219536914 0 -0.050428469348440592 -0.025656430333443194 0 -0.051387756490811655 -0.02455247844026217 0 -0.049249089176978504 -0.025358253880860559 0 -0.049663832601820064 -0.026641316521291526 0 -0.050428469348440592 -0.025656430333443194 0 -0.049249089176978504 -0.025358253880860559 0 -0.050428469348440592 -0.025656430333443194 0 -0.050168479979098464 -0.023867895358242554 0 -0.0519961084591785 -0.024172069510236587 0 -0.049919960821491922 -0.023467046133355127 0 -0.050428469348440592 -0.025656430333443194 0 -0.051387756490811655 -0.02455247844026217 0 -0.050168479979098464 -0.023867895358242554 0 -0.050914375229714932 -0.023468958338047571 0 -0.050760542999557595 -0.022794168321382667 0 -0.050101200597243649 -0.023229202404681917 0 -0.050061032249681212 -0.022107407052897675 0 -0.050760542999557595 -0.022794168321382667 0 -0.050101200597243649 -0.023229202404681917 0 -0.050061032249681212 -0.022107407052897675 0 -0.048889463181177858 -0.023004734861607316 0 -0.050101200597243649 -0.023229202404681917 0 -0.041766818743941649 -0.025218340542474845 0 -0.040514780571163721 -0.024901633242528736 0 -0.040498489058943279 -0.025597719628427211 0 -0.041766818743941649 -0.025218340542474845 0 -0.041329044193355251 -0.024609225476995709 0 -0.040514780571163721 -0.024901633242528736 0 -0.040837917154896645 -0.026238728901662456 0 -0.041766818743941649 -0.025218340542474845 0 -0.040498489058943279 -0.025597719628427211 0 -0.050926498300892006 -0.022127399081031344 0 -0.050760542999557595 -0.022794168321382667 0 -0.051673622610788353 -0.022890656336204167 0 -0.050914375229714932 -0.023468958338047571 0 -0.050760542999557595 -0.022794168321382667 0 -0.051673622610788353 -0.022890656336204167 0 -0.0519961084591785 -0.024172069510236587 0 -0.046529640764456516 -0.026463829413977773 0 -0.046741457102090482 -0.023848280245952293 0 -0.046529640764456516 -0.026463829413977773 0 -0.050914375229714932 -0.023468958338047571 0 -0.051673622610788353 -0.022890656336204167 0 -0.051611790856784669 -0.023797914953104481 0 -0.041329044193355251 -0.024609225476995709 0 -0.041458251389090137 -0.023897131327485787 0 -0.040514780571163721 -0.024901633242528736 0 -0.041329044193355251 -0.024609225476995709 0 -0.041458251389090137 -0.023897131327485787 0 -0.04180817667750495 -0.024045833717620407 0 -0.041766818743941649 -0.025218340542474845 0 -0.041329044193355251 -0.024609225476995709 0 -0.04180817667750495 -0.024045833717620407 0 -0.041144422534604756 -0.028692193582311863 0 -0.040020090444280031 -0.028144024860095228 0 -0.039662390519005136 -0.031339397069108134 0 -0.039747736731897507 -0.031355800859832854 0 -0.039716682374975991 -0.031107129245036929 0 -0.039520215911787226 -0.031250918700744541 0 -0.039662390519005136 -0.031339397069108134 0 -0.039716682374975991 -0.031107129245036929 0 -0.039520215911787226 -0.031250918700744541 0 -0.039662390519005136 -0.031339397069108134 0 -0.039321785905535381 -0.031248978496833345 0 -0.041144422534604756 -0.028692193582311863 0 -0.038995466629473043 -0.031669651024973711 0 -0.041144422534604756 -0.028692193582311863 0 -0.046529640764456516 -0.026463829413977773 0 -0.051429238233033622 -0.026258723219536914 0 -0.051387756490811655 -0.02455247844026217 0 -0.052648478812711237 -0.0251696232744891 0 -0.046529640764456516 -0.026463829413977773 0 -0.046056825389091414 -0.029558522662905089 0 -0.051429238233033622 -0.026258723219536914 0 -0.052648478812711237 -0.0251696232744891 0 -0.052555501299573121 -0.027078368581848367 0 -0.051429238233033622 -0.026258723219536914 0 -0.052555501299573121 -0.027078368581848367 0 -0.051574126415412862 -0.027757226036583166 0 -0.039520215911787226 -0.031250918700744541 0 -0.039716682374975991 -0.031107129245036929 0 -0.0395175977287393 -0.031061611177763213 0 -0.039716682374975991 -0.031107129245036929 0 -0.039723402507298174 -0.030983385992876599 0 -0.0395175977287393 -0.031061611177763213 0 -0.034302182800655195 -0.034633735953284908 0 -0.035475514506362653 -0.033600380811169742 0 -0.039658129269829999 -0.030977245931658008 0 -0.039723402507298174 -0.030983385992876599 0 -0.0395175977287393 -0.031061611177763213 0 -0.039658129269829999 -0.030977245931658008 0 -0.039723402507298174 -0.030983385992876599 0 -0.039794762836566251 -0.030919571412126166 0 -0.052555501299573121 -0.027078368581848367 0 -0.052416765094552946 -0.029033211566867823 0 -0.051574126415412862 -0.027757226036583166 0 -0.046056825389091414 -0.029558522662905089 0 -0.046351831231935495 -0.029612365278645598 0 -0.052416765094552946 -0.029033211566867823 0 -0.050548095274024464 -0.028471282526315415 0 -0.051574126415412862 -0.027757226036583166 0 -0.050629485327695081 -0.027265577019407728 0 -0.050548095274024464 -0.028471282526315415 0 -0.051574126415412862 -0.027757226036583166 0 -0.050629485327695081 -0.027265577019407728 0 -0.050548095274024464 -0.028471282526315415 0 -0.049862609226815936 -0.027497321067727811 0 -0.04931025215645244 -0.028123918551994222 0 -0.050548095274024464 -0.028471282526315415 0 -0.049862609226815936 -0.027497321067727811 0 -0.04931025215645244 -0.028123918551994222 0 -0.050548095274024464 -0.028471282526315415 0 -0.049650171659690885 -0.029028701827914005 0 -0.050548095274024464 -0.028471282526315415 0 -0.049650171659690885 -0.029028701827914005 0 -0.050155328465028404 -0.030005208453540599 0 -0.049260127095441628 -0.03002737612509972 0 -0.049650171659690885 -0.029028701827914005 0 -0.050155328465028404 -0.030005208453540599 0 -0.052416765094552946 -0.029033211566867823 0 -0.050548095274024464 -0.028471282526315415 0 -0.051355736073938306 -0.030031313967869115 0 -0.050548095274024464 -0.028471282526315415 0 -0.051355736073938306 -0.030031313967869115 0 -0.050155328465028404 -0.030005208453540599 0 -0.051355736073938306 -0.030031313967869115 0 -0.050155328465028404 -0.030005208453540599 0 -0.050779575323721272 -0.031262635138254863 0 -0.051355736073938306 -0.030031313967869115 0 -0.050779575323721272 -0.031262635138254863 0 -0.05224230554448852 -0.03101832745496564 0 -0.04900306996692981 -0.030991602854905497 0 -0.050155328465028404 -0.030005208453540599 0 -0.050779575323721272 -0.031262635138254863 0 -0.04900306996692981 -0.030991602854905497 0 -0.049260127095441628 -0.03002737612509972 0 -0.050155328465028404 -0.030005208453540599 0 -0.04900306996692981 -0.030991602854905497 0 -0.050779575323721272 -0.031262635138254863 0 -0.049880139920874408 -0.032274690889637338 0 -0.049325554426373167 -0.031820832827498452 0 -0.050541969910601281 -0.032867765016518606 0 -0.050779575323721272 -0.031262635138254863 0 -0.051356003876736354 -0.032495528389069307 0 -0.049880139920874408 -0.032274690889637338 0 -0.043702097577826088 -0.032309231177572992 0 -0.053001657781417633 -0.031240771607377919 0 -0.043702097577826088 -0.032309231177572992 0 -0.038516508026884361 -0.040769336401831328 0 -0.050779575323721272 -0.031262635138254863 0 -0.05224230554448852 -0.03101832745496564 0 -0.051356003876736354 -0.032495528389069307 0 -0.031204030256085844 -0.037091530993010331 0 -0.031302127240937776 -0.037131574610171976 0 -0.03129779484783865 -0.037249164392654056 0 -0.034302182800655195 -0.034633735953284908 0 -0.043702097577826088 -0.032309231177572992 0 -0.03113234350359699 -0.036908321492350162 0 -0.031204030256085844 -0.037091530993010331 0 -0.031302127240937776 -0.037131574610171976 0 -0.046351831231935495 -0.029612365278645598 0 -0.043702097577826088 -0.032309231177572992 0 -0.052416765094552946 -0.029033211566867823 0 -0.051355736073938306 -0.030031313967869115 0 -0.05224230554448852 -0.03101832745496564 0 -0.031419109878620108 -0.037128329474958574 0 -0.031302127240937776 -0.037131574610171976 0 -0.031335741891094844 -0.037169173468221142 0 -0.031419109878620108 -0.037128329474958574 0 -0.031302127240937776 -0.037131574610171976 0 -0.031265715568634382 -0.03690254123222033 0 -0.031302127240937776 -0.037131574610171976 0 -0.031329557673607893 -0.037205539511963093 0 -0.03129779484783865 -0.037249164392654056 0 -0.031302127240937776 -0.037131574610171976 0 -0.031335741891094844 -0.037169173468221142 0 -0.031329557673607893 -0.037205539511963093 0 -0.031335741891094844 -0.037169173468221142 0 -0.031190813307475074 -0.037159831933973528 0 -0.031329557673607893 -0.037205539511963093 0 -0.031335741891094844 -0.037169173468221142 0 -0.031190813307475074 -0.037159831933973528 0 -0.031216090503622545 -0.037226057619798886 0 -0.031190813307475074 -0.037159831933973528 0 -0.031216090503622545 -0.037226057619798886 0 -0.030973923255068366 -0.037218952674825223 0 -0.031419109878620108 -0.037128329474958574 0 -0.031335741891094844 -0.037169173468221142 0 -0.031216090503622545 -0.037226057619798886 0 -0.031419109878620108 -0.037128329474958574 0 -0.031216090503622545 -0.037226057619798886 0 -0.031240222574248189 -0.037397076793784664 0 -0.031419109878620108 -0.037128329474958574 0 -0.03188243997144341 -0.036751129415018353 0 -0.03144494533108684 -0.036653023421988472 0 -0.031275321246339617 -0.037235254741370412 0 -0.032004730870244975 -0.036888363067972989 0 -0.031216090503622545 -0.037226057619798886 0 -0.031240222574248189 -0.037397076793784664 0 -0.031023421508078367 -0.037333069996106326 0 -0.032004730870244975 -0.036888363067972989 0 -0.028934209397464553 -0.037014000725151139 0 -0.03188243997144341 -0.036751129415018353 0 -0.032264570855933358 -0.036374418055139142 0 -0.032014493852639998 -0.036228997535441947 0 -0.031240222574248189 -0.037397076793784664 0 -0.031066049698215605 -0.037540182890542492 0 -0.031023421508078367 -0.037333069996106326 0 -0.03188243997144341 -0.036751129415018353 0 -0.031744180735043974 -0.036296326767174029 0 -0.032014493852639998 -0.036228997535441947 0 -0.03188243997144341 -0.036751129415018353 0 -0.03144494533108684 -0.036653023421988472 0 -0.031744180735043974 -0.036296326767174029 0 -0.03144494533108684 -0.036653023421988472 0 -0.031415280414281065 -0.036283195503621211 0 -0.031744180735043974 -0.036296326767174029 0 -0.031419109878620108 -0.037128329474958574 0 -0.03144494533108684 -0.036653023421988472 0 -0.031265715568634382 -0.03690254123222033 0 -0.03113234350359699 -0.036908321492350162 0 -0.031302127240937776 -0.037131574610171976 0 -0.031265715568634382 -0.03690254123222033 0 -0.03113234350359699 -0.036908321492350162 0 -0.031265715568634382 -0.03690254123222033 0 -0.031093715918868309 -0.036499554517079758 0 -0.03144494533108684 -0.036653023421988472 0 -0.031093715918868309 -0.036499554517079758 0 -0.031415280414281065 -0.036283195503621211 0 -0.03144494533108684 -0.036653023421988472 0 -0.031265715568634382 -0.03690254123222033 0 -0.031093715918868309 -0.036499554517079758 0 -0.031093715918868309 -0.036499554517079758 0 -0.031415280414281065 -0.036283195503621211 0 -0.031198880516519381 -0.035935602424373658 0 -0.039520215911787226 -0.031250918700744541 0 -0.0395175977287393 -0.031061611177763213 0 -0.039321785905535381 -0.031248978496833345 0 -0.035475514506362653 -0.033600380811169742 0 -0.0352180589578968 -0.033588357004315061 0 -0.0395175977287393 -0.031061611177763213 0 -0.039321785905535381 -0.031248978496833345 0 -0.039296280467617031 -0.031249171013845896 0 -0.031415280414281065 -0.036283195503621211 0 -0.031198880516519381 -0.035935602424373658 0 -0.031662091146166256 -0.03600903632163583 0 -0.031415280414281065 -0.036283195503621211 0 -0.031662091146166256 -0.03600903632163583 0 -0.031744180735043974 -0.036296326767174029 0 -0.031198880516519381 -0.035935602424373658 0 -0.031716148303594517 -0.035695414570095195 0 -0.031662091146166256 -0.03600903632163583 0 -0.0352180589578968 -0.033588357004315061 0 -0.035364106325703762 -0.033630149341235205 0 -0.031198880516519381 -0.035935602424373658 0 -0.031393995710452705 -0.035283157399815475 0 -0.031716148303594517 -0.035695414570095195 0 -0.039296280467617031 -0.031249171013845896 0 -0.039318807440207382 -0.031350042444241548 0 -0.039071898058231636 -0.031456457408456179 0 -0.039528603134990375 -0.031300959719233155 0 -0.039321785905535381 -0.031248978496833345 0 -0.039318807440207382 -0.031350042444241548 0 -0.039321785905535381 -0.031248978496833345 0 -0.039296280467617031 -0.031249171013845896 0 -0.039318807440207382 -0.031350042444241548 0 -0.039528603134990375 -0.031300959719233155 0 -0.039318807440207382 -0.031350042444241548 0 -0.039344328294077413 -0.031523275214590182 0 -0.039318807440207382 -0.031350042444241548 0 -0.039344328294077413 -0.031523275214590182 0 -0.039071898058231636 -0.031456457408456179 0 -0.03884922407964668 -0.031753317690601773 0 -0.039074038647683905 -0.0317871261696904 0 -0.039071898058231636 -0.031456457408456179 0 -0.039074038647683905 -0.0317871261696904 0 -0.039344328294077413 -0.031523275214590182 0 -0.039071898058231636 -0.031456457408456179 0 -0.033653760702760632 -0.031322518179229646 0 -0.035364106325703762 -0.033630149341235205 0 -0.039498768638444877 -0.025967856874244702 0 -0.040514780571163721 -0.024901633242528736 0 -0.040498489058943279 -0.025597719628427211 0 -0.038051884465218726 -0.028042886636723677 0 -0.040020090444280031 -0.028144024860095228 0 -0.020096793222955208 -0.031066616130311978 0 -0.018987490219415874 -0.031770315392284823 0 -0.020581335626036205 -0.032161679805915069 0 -0.022728324039730834 -0.033207847282918201 0 -0.022829091462243978 -0.03363809083525663 0 -0.023131929774330949 -0.033279671915033129 0 -0.026701118383467476 -0.032859997952598037 0 -0.020726119052039416 -0.032535729431412017 0 -0.026701118383467476 -0.032859997952598037 0 -0.027478380509528593 -0.034843807748386336 0 -0.031726600628202602 -0.034461530076720259 0 -0.031393995710452705 -0.035283157399815475 0 -0.031863337672875677 -0.034796489249405024 0 -0.031726600628202602 -0.034461530076720259 0 -0.032147564090310672 -0.034554947291195057 0 -0.031863337672875677 -0.034796489249405024 0 -0.032147564090310672 -0.034554947291195057 0 -0.031863337672875677 -0.034796489249405024 0 -0.031934779511899478 -0.03514537662246589 0 -0.02963868854006356 -0.030810878432310163 0 -0.029846264622455352 -0.030822748556634319 0 -0.0298565007793315 -0.030863107420772331 0 -0.025912494105074561 -0.031492051996234192 0 -0.026701118383467476 -0.032859997952598037 0 -0.026701118383467476 -0.032859997952598037 0 -0.031823161144608952 -0.035261854999158251 0 -0.033653760702760632 -0.031322518179229646 0 -0.026701118383467476 -0.032859997952598037 0 -0.031816828807021656 -0.035046731150653411 0 -0.031736494558974038 -0.035419221249097202 0 -0.031983103339977087 -0.035500526873216469 0 -0.031736494558974038 -0.035419221249097202 0 -0.031847406890400047 -0.035554396832650763 0 -0.031983103339977087 -0.035500526873216469 0 -0.031736494558974038 -0.035419221249097202 0 -0.031847406890400047 -0.035554396832650763 0 -0.031716148303594517 -0.035695414570095195 0 -0.031823161144608952 -0.035261854999158251 0 -0.031729813329734381 -0.035642225326255904 0 -0.031393995710452705 -0.035283157399815475 0 -0.031934779511899478 -0.03514537662246589 0 -0.031716148303594517 -0.035695414570095195 0 -0.031393995710452705 -0.035283157399815475 0 -0.031863337672875677 -0.034796489249405024 0 -0.031934779511899478 -0.03514537662246589 0 -0.031847406890400047 -0.035554396832650763 0 -0.031716148303594517 -0.035695414570095195 0 -0.031875054746219614 -0.035654934768742604 0 -0.022829091462243978 -0.03363809083525663 0 -0.022951679577309488 -0.034132284892548721 0 -0.023273534370227521 -0.033717152348225969 0 -0.031945610471314459 -0.035563264065966535 0 -0.031983103339977087 -0.035500526873216469 0 -0.031831636636142052 -0.035665916344236395 0 -0.031847406890400047 -0.035554396832650763 0 -0.031945610471314459 -0.035563264065966535 0 -0.031875054746219614 -0.035654934768742604 0 -0.027478380509528593 -0.034843807748386336 0 -0.02748883214132004 -0.034667717540900991 0 -0.031847406890400047 -0.035554396832650763 0 -0.031945610471314459 -0.035563264065966535 0 -0.031983103339977087 -0.035500526873216469 0 -0.031945610471314459 -0.035563264065966535 0 -0.032157851317075381 -0.035961001918542027 0 -0.031904397806664327 -0.035805636599537963 0 -0.031947177043794163 -0.035622990239600506 0 -0.031994306703017131 -0.03581565793787931 0 -0.031945610471314459 -0.035563264065966535 0 -0.031831636636142052 -0.035665916344236395 0 -0.031789065391738709 -0.035698808853098785 0 -0.031945610471314459 -0.035563264065966535 0 -0.031875054746219614 -0.035654934768742604 0 -0.031904397806664327 -0.035805636599537963 0 -0.032157851317075381 -0.035961001918542027 0 -0.031904397806664327 -0.035805636599537963 0 -0.031909168690446556 -0.036053674205467845 0 -0.031716148303594517 -0.035695414570095195 0 -0.031875054746219614 -0.035654934768742604 0 -0.031904397806664327 -0.035805636599537963 0 -0.031904397806664327 -0.035805636599537963 0 -0.031662091146166256 -0.03600903632163583 0 -0.031909168690446556 -0.036053674205467845 0 -0.031716148303594517 -0.035695414570095195 0 -0.031904397806664327 -0.035805636599537963 0 -0.031662091146166256 -0.03600903632163583 0 -0.031662091146166256 -0.03600903632163583 0 -0.031909168690446556 -0.036053674205467845 0 -0.031744180735043974 -0.036296326767174029 0 -0.031909168690446556 -0.036053674205467845 0 -0.031744180735043974 -0.036296326767174029 0 -0.032014493852639998 -0.036228997535441947 0 -0.031681458954641938 -0.035814379307336192 0 -0.031789065391738709 -0.035698808853098785 0 -0.031701456274049147 -0.035799612019297773 0 -0.031831636636142052 -0.035665916344236395 0 -0.031789065391738709 -0.035698808853098785 0 -0.031701456274049147 -0.035799612019297773 0 -0.028934209397464553 -0.037014000725151139 0 -0.031994306703017131 -0.03581565793787931 0 -0.032264570855933358 -0.036374418055139142 0 -0.032157851317075381 -0.035961001918542027 0 -0.032014493852639998 -0.036228997535441947 0 -0.02748883214132004 -0.034667717540900991 0 -0.024552712471773642 -0.036820840432645482 0 -0.032157851317075381 -0.035961001918542027 0 -0.031909168690446556 -0.036053674205467845 0 -0.032014493852639998 -0.036228997535441947 0 -0.02087522419681391 -0.038066618309166161 0 -0.022487190924289691 -0.038072340917582811 0 -0.022884966153771235 -0.036359625747599614 0 -0.028934209397464553 -0.037014000725151139 0 -0.024552712471773642 -0.036820840432645482 0 -0.022951679577309488 -0.034132284892548721 0 -0.02310778938385058 -0.034633960345653754 0 -0.023570574316715866 -0.034163779211004767 0 -0.02087522419681391 -0.038066618309166161 0 -0.022487190924289691 -0.038072340917582811 0 -0.021015101118722793 -0.038576454965881767 0 -0.024552712471773642 -0.036820840432645482 0 -0.022785796404619564 -0.03531877245964557 0 -0.022487190924289691 -0.038072340917582811 0 -0.022884966153771235 -0.036359625747599614 0 -0.024170730619918368 -0.037755534465549197 0 -0.022951679577309488 -0.034132284892548721 0 -0.023570574316715866 -0.034163779211004767 0 -0.023273534370227521 -0.033717152348225969 0 -0.022829091462243978 -0.03363809083525663 0 -0.023273534370227521 -0.033717152348225969 0 -0.023131929774330949 -0.033279671915033129 0 -0.023633965998928169 -0.033723118668996195 0 -0.023584729310181029 -0.033292550632995389 0 -0.024148401032426634 -0.03369906371356151 0 -0.023570574316715866 -0.034163779211004767 0 -0.023273534370227521 -0.033717152348225969 0 -0.023633965998928169 -0.033723118668996195 0 -0.023570574316715866 -0.034163779211004767 0 -0.023633965998928169 -0.033723118668996195 0 -0.024148401032426634 -0.03369906371356151 0 -0.023273534370227521 -0.033717152348225969 0 -0.023633965998928169 -0.033723118668996195 0 -0.023584729310181029 -0.033292550632995389 0 -0.021710538629210147 -0.031173804025307238 0 -0.022355057194266933 -0.032670313961030255 0 -0.023420943102932846 -0.031924748707296446 0 -0.021710538629210147 -0.031173804025307238 0 -0.022355057194266933 -0.032670313961030255 0 -0.020581335626036205 -0.032161679805915069 0 -0.02325876570312161 -0.033015335565305545 0 -0.020726119052039416 -0.032535729431412017 0 -0.023273534370227521 -0.033717152348225969 0 -0.023584729310181029 -0.033292550632995389 0 -0.023131929774330949 -0.033279671915033129 0 -0.02599263521783373 -0.03266085404638118 0 -0.024463770728856509 -0.034230959409418053 0 -0.025893581105074871 -0.032279258452119534 0 -0.024387971605974407 -0.033138832214741273 0 -0.024148401032426634 -0.03369906371356151 0 -0.025893581105074871 -0.032279258452119534 0 -0.024750060773878424 -0.03187324147213319 0 -0.024387971605974407 -0.033138832214741273 0 -0.024750060773878424 -0.03187324147213319 0 -0.023420943102932846 -0.031924748707296446 0 -0.024387971605974407 -0.033138832214741273 0 -0.02325876570312161 -0.033015335565305545 0 -0.024191032626908866 -0.033136409087901837 0 -0.022355057194266933 -0.032670313961030255 0 -0.023420943102932846 -0.031924748707296446 0 -0.024387971605974407 -0.033138832214741273 0 -0.023584729310181029 -0.033292550632995389 0 -0.024387971605974407 -0.033138832214741273 0 -0.024148401032426634 -0.03369906371356151 0 -0.026015753141834661 -0.033128627489262298 0 -0.025589730809508215 -0.034762490813924581 0 -0.02632836103200482 -0.035050237975613879 0 -0.024609459208189646 -0.034865641804863672 0 -0.025589730809508215 -0.034762490813924581 0 -0.025410445752528779 -0.035925477812199728 0 -0.026015753141834661 -0.033128627489262298 0 -0.024609459208189646 -0.034865641804863672 0 -0.025589730809508215 -0.034762490813924581 0 -0.025589730809508215 -0.034762490813924581 0 -0.025410445752528779 -0.035925477812199728 0 -0.02632836103200482 -0.035050237975613879 0 -0.025410445752528779 -0.035925477812199728 0 -0.02632836103200482 -0.035050237975613879 0 -0.026428497848799141 -0.036060372481874992 0 -0.025410445752528779 -0.035925477812199728 0 -0.024470620489184941 -0.036389620580049312 0 -0.025741004691385027 -0.037098419797356827 0 -0.025741004691385027 -0.037098419797356827 0 -0.026944151007200337 -0.036867797385388451 0 -0.026428497848799141 -0.036060372481874992 0 -0.025410445752528779 -0.035925477812199728 0 -0.025741004691385027 -0.037098419797356827 0 -0.026428497848799141 -0.036060372481874992 0 -0.022785796404619564 -0.03531877245964557 0 -0.024463770728856509 -0.034230959409418053 0 -0.022884966153771235 -0.036359625747599614 0 -0.024470620489184941 -0.036389620580049312 0 -0.024170730619918368 -0.037755534465549197 0 -0.022884966153771235 -0.036359625747599614 0 -0.024609459208189646 -0.034865641804863672 0 -0.024470620489184941 -0.036389620580049312 0 -0.024609459208189646 -0.034865641804863672 0 -0.025410445752528779 -0.035925477812199728 0 -0.024470620489184941 -0.036389620580049312 0 -0.024470620489184941 -0.036389620580049312 0 -0.024170730619918368 -0.037755534465549197 0 -0.025741004691385027 -0.037098419797356827 0 -0.024170730619918368 -0.037755534465549197 0 -0.025741004691385027 -0.037098419797356827 0 -0.026067789884300398 -0.038884624960601633 0 -0.025741004691385027 -0.037098419797356827 0 -0.026067789884300398 -0.038884624960601633 0 -0.027039854892481816 -0.037684974362200883 0 -0.026067789884300398 -0.038884624960601633 0 -0.026382846504285271 -0.041021954528186869 0 -0.028240445520263464 -0.039431475342661462 0 -0.026067789884300398 -0.038884624960601633 0 -0.026382846504285271 -0.041021954528186869 0 -0.025091485715080901 -0.04047361717761553 0 -0.026382846504285271 -0.041021954528186869 0 -0.025091485715080901 -0.04047361717761553 0 -0.025462811351454142 -0.041990806959047895 0 -0.025091485715080901 -0.04047361717761553 0 -0.023804580465403836 -0.039509435725484258 0 -0.024005992870804928 -0.041786036444310941 0 -0.025091485715080901 -0.04047361717761553 0 -0.025462811351454142 -0.041990806959047895 0 -0.024005992870804928 -0.041786036444310941 0 -0.026067789884300398 -0.038884624960601633 0 -0.025091485715080901 -0.04047361717761553 0 -0.023804580465403836 -0.039509435725484258 0 -0.024170730619918368 -0.037755534465549197 0 -0.026067789884300398 -0.038884624960601633 0 -0.023804580465403836 -0.039509435725484258 0 -0.022487190924289691 -0.038072340917582811 0 -0.024170730619918368 -0.037755534465549197 0 -0.023804580465403836 -0.039509435725484258 0 -0.022487190924289691 -0.038072340917582811 0 -0.023804580465403836 -0.039509435725484258 0 -0.022271458428744988 -0.039510495932310014 0 -0.028934209397464553 -0.037014000725151139 0 -0.025646090653026463 -0.038659609101809392 0 -0.022271458428744988 -0.039510495932310014 0 -0.021015101118722793 -0.038576454965881767 0 -0.021156391280567146 -0.041168793943595967 0 -0.020587378488052591 -0.038303321271785498 0 -0.021015101118722793 -0.038576454965881767 0 -0.021156391280567146 -0.041168793943595967 0 -0.024552712471773642 -0.036820840432645482 0 -0.023727841118564953 -0.037371868129964604 0 -0.020587378488052591 -0.038303321271785498 0 -0.020869791851251925 -0.03804109282899238 0 -0.021015101118722793 -0.038576454965881767 0 -0.022487190924289691 -0.038072340917582811 0 -0.022271458428744988 -0.039510495932310014 0 -0.021015101118722793 -0.038576454965881767 0 -0.022271458428744988 -0.039510495932310014 0 -0.021156391280567146 -0.041168793943595967 0 -0.02280336310514804 -0.040798281190654956 0 -0.021156391280567146 -0.041168793943595967 0 -0.02280336310514804 -0.040798281190654956 0 -0.022678237819348447 -0.042365697617467717 0 -0.023804580465403836 -0.039509435725484258 0 -0.02280336310514804 -0.040798281190654956 0 -0.024005992870804928 -0.041786036444310941 0 -0.023804580465403836 -0.039509435725484258 0 -0.022271458428744988 -0.039510495932310014 0 -0.02280336310514804 -0.040798281190654956 0 -0.02280336310514804 -0.040798281190654956 0 -0.022678237819348447 -0.042365697617467717 0 -0.024005992870804928 -0.041786036444310941 0 -0.022678237819348447 -0.042365697617467717 0 -0.023563609963701229 -0.043992982168615094 0 -0.024005992870804928 -0.041786036444310941 0 -0.025646090653026463 -0.038659609101809392 0 -0.026181106432718277 -0.044248768432236303 0 -0.031216090503622545 -0.037226057619798886 0 -0.031023421508078367 -0.037333069996106326 0 -0.030973923255068366 -0.037218952674825223 0 -0.021156391280567146 -0.041168793943595967 0 -0.022678237819348447 -0.042365697617467717 0 -0.021857408041566599 -0.044300287065865633 0 -0.029993194749915512 -0.045759640763743614 0 -0.026181106432718277 -0.044248768432236303 0 -0.022678237819348447 -0.042365697617467717 0 -0.021857408041566599 -0.044300287065865633 0 -0.023563609963701229 -0.043992982168615094 0 -0.026181106432718277 -0.044248768432236303 0 -0.023055433769185483 -0.04444130783402668 0 -0.021605027970411368 -0.045116519992046605 0 -0.023843325444297802 -0.044626611061820247 0 -0.02353164872100983 -0.046498541196537596 0 -0.023843325444297802 -0.044626611061820247 0 -0.025100166602634939 -0.04618681341585263 0 -0.02353164872100983 -0.046498541196537596 0 -0.023843325444297802 -0.044626611061820247 0 -0.025400208003983377 -0.043804411616363892 0 -0.025100166602634939 -0.04618681341585263 0 -0.023055433769185483 -0.04444130783402668 0 -0.025450632018779482 -0.043839282637607044 0 -0.025400208003983377 -0.043804411616363892 0 -0.02595036282296204 -0.045269899733207511 0 -0.025100166602634939 -0.04618681341585263 0 -0.02595036282296204 -0.045269899733207511 0 -0.026564376532707004 -0.044724727085970306 0 -0.026635876039485827 -0.046187660869171782 0 -0.026564376532707004 -0.044724727085970306 0 -0.026635876039485827 -0.046187660869171782 0 -0.027701848548845193 -0.044814113292311407 0 -0.026564376532707004 -0.044724727085970306 0 -0.027701848548845193 -0.044814113292311407 0 -0.027502300046703815 -0.043886004321956829 0 -0.026564376532707004 -0.044724727085970306 0 -0.026434371254357381 -0.043043029265834337 0 -0.027502300046703815 -0.043886004321956829 0 -0.025400208003983377 -0.043804411616363892 0 -0.02595036282296204 -0.045269899733207511 0 -0.026564376532707004 -0.044724727085970306 0 -0.025400208003983377 -0.043804411616363892 0 -0.026564376532707004 -0.044724727085970306 0 -0.026434371254357381 -0.043043029265834337 0 -0.025400208003983377 -0.043804411616363892 0 -0.026434371254357381 -0.043043029265834337 0 -0.025462811351454142 -0.041990806959047895 0 -0.026434371254357381 -0.043043029265834337 0 -0.027502300046703815 -0.043886004321956829 0 -0.027474007337186319 -0.042078023339449544 0 -0.026382846504285271 -0.041021954528186869 0 -0.026434371254357381 -0.043043029265834337 0 -0.027474007337186319 -0.042078023339449544 0 -0.026382846504285271 -0.041021954528186869 0 -0.026434371254357381 -0.043043029265834337 0 -0.025462811351454142 -0.041990806959047895 0 -0.025400208003983377 -0.043804411616363892 0 -0.025462811351454142 -0.041990806959047895 0 -0.024005992870804928 -0.041786036444310941 0 -0.023563609963701229 -0.043992982168615094 0 -0.025400208003983377 -0.043804411616363892 0 -0.024005992870804928 -0.041786036444310941 0 -0.027579771546932301 -0.048722761518276529 0 -0.024259435520827145 -0.048459362028962061 0 -0.024722805447140755 -0.050886191578763104 0 -0.023762133910679044 -0.051495972820475362 0 -0.024722805447140755 -0.050886191578763104 0 -0.024315802884129704 -0.051040390718921511 0 -0.023762133910679044 -0.051495972820475362 0 -0.023140293499397134 -0.052772621205333631 0 -0.024722805447140755 -0.050886191578763104 0 -0.025404039482262823 -0.050645153455605968 0 -0.024640941862070422 -0.050976514716652224 0 -0.024722805447140755 -0.050886191578763104 0 -0.02460259313054888 -0.051038580426945979 0 -0.024315802884129704 -0.051040390718921511 0 -0.023762133910679044 -0.051495972820475362 0 -0.02301726216445012 -0.051892894340155191 0 -0.023148970831512163 -0.051240858963677971 0 -0.02301726216445012 -0.051892894340155191 0 -0.022553663852328026 -0.051640389509407449 0 -0.023148970831512163 -0.051240858963677971 0 -0.02301726216445012 -0.051892894340155191 0 -0.022553663852328026 -0.051640389509407449 0 -0.022361851275580984 -0.052289874382276155 0 -0.02301726216445012 -0.051892894340155191 0 -0.023140293499397134 -0.052772621205333631 0 -0.022361851275580984 -0.052289874382276155 0 -0.023762133910679044 -0.051495972820475362 0 -0.02301726216445012 -0.051892894340155191 0 -0.023140293499397134 -0.052772621205333631 0 -0.02595036282296204 -0.045269899733207511 0 -0.026635876039485827 -0.046187660869171782 0 -0.025100166602634939 -0.04618681341585263 0 -0.026668048361642299 -0.047223453965844826 0 -0.024422067986168215 -0.048307427667343701 0 -0.027579771546932301 -0.048722761518276529 0 -0.027448648279522495 -0.047926387297484101 0 -0.024259435520827145 -0.048459362028962061 0 -0.026635876039485827 -0.046187660869171782 0 -0.025100166602634939 -0.04618681341585263 0 -0.024259435520827145 -0.048459362028962061 0 -0.025100166602634939 -0.04618681341585263 0 -0.02353164872100983 -0.046498541196537596 0 -0.024259435520827145 -0.048459362028962061 0 -0.026181106432718277 -0.044248768432236303 0 -0.024133629024045644 -0.051590813249087292 0 -0.021605027970411368 -0.045116519992046605 0 -0.02353164872100983 -0.046498541196537596 0 -0.022535989153259998 -0.048342415261267264 0 -0.02353164872100983 -0.046498541196537596 0 -0.022535989153259998 -0.048342415261267264 0 -0.024259435520827145 -0.048459362028962061 0 -0.025950013225693826 -0.054532032442947319 0 -0.025452697895919377 -0.053061450321958359 0 -0.026952986636875256 -0.05295793620099512 0 -0.028040204184913674 -0.054058320446582014 0 -0.025950013225693826 -0.054532032442947319 0 -0.026952986636875256 -0.05295793620099512 0 -0.025452697895919377 -0.053061450321958359 0 -0.026952986636875256 -0.05295793620099512 0 -0.026085952299099824 -0.052016656871273902 0 -0.026952986636875256 -0.05295793620099512 0 -0.026085952299099824 -0.052016656871273902 0 -0.027320229067254221 -0.0516663866670867 0 -0.026085952299099824 -0.052016656871273902 0 -0.026007947882954977 -0.050947299919650586 0 -0.027320229067254221 -0.0516663866670867 0 -0.022535989153259998 -0.048342415261267264 0 -0.024593959916817724 -0.051307113916822522 0 -0.024722805447140755 -0.050886191578763104 0 -0.024133629024045644 -0.051590813249087292 0 -0.024351185341261069 -0.050820324765464504 0 -0.025452697895919377 -0.053061450321958359 0 -0.026085952299099824 -0.052016656871273902 0 -0.024593959916817724 -0.051307113916822522 0 -0.022535989153259998 -0.048342415261267264 0 -0.024259435520827145 -0.048459362028962061 0 -0.024722805447140755 -0.050886191578763104 0 -0.026085952299099824 -0.052016656871273902 0 -0.024593959916817724 -0.051307113916822522 0 -0.026007947882954977 -0.050947299919650586 0 -0.024593959916817724 -0.051307113916822522 0 -0.024722805447140755 -0.050886191578763104 0 -0.02460259313054888 -0.051038580426945979 0 -0.02460259313054888 -0.051038580426945979 0 -0.024890595122746186 -0.050850415626451893 0 -0.02448406666986087 -0.050664823555715013 0 -0.024593959916817724 -0.051307113916822522 0 -0.02460259313054888 -0.051038580426945979 0 -0.024890595122746186 -0.050850415626451893 0 -0.024593959916817724 -0.051307113916822522 0 -0.024890595122746186 -0.050850415626451893 0 -0.026007947882954977 -0.050947299919650586 0 -0.024890595122746186 -0.050850415626451893 0 -0.026007947882954977 -0.050947299919650586 0 -0.025410499423266477 -0.050262334272666846 0 -0.024890595122746186 -0.050850415626451893 0 -0.025410499423266477 -0.050262334272666846 0 -0.02448406666986087 -0.050664823555715013 0 -0.026007947882954977 -0.050947299919650586 0 -0.027329053356336949 -0.050687980411926653 0 -0.027320229067254221 -0.0516663866670867 0 -0.026007947882954977 -0.050947299919650586 0 -0.026531060370076021 -0.050113852096479207 0 -0.025410499423266477 -0.050262334272666846 0 -0.026007947882954977 -0.050947299919650586 0 -0.026531060370076021 -0.050113852096479207 0 -0.027329053356336949 -0.050687980411926653 0 -0.026531060370076021 -0.050113852096479207 0 -0.026144312993376953 -0.049196098260642009 0 -0.027943203947673193 -0.049426393097955941 0 -0.026531060370076021 -0.050113852096479207 0 -0.025410499423266477 -0.050262334272666846 0 -0.026144312993376953 -0.049196098260642009 0 -0.025410499423266477 -0.050262334272666846 0 -0.024802927006750918 -0.049762978675978793 0 -0.026144312993376953 -0.049196098260642009 0 -0.025410499423266477 -0.050262334272666846 0 -0.024802927006750918 -0.049762978675978793 0 -0.02448406666986087 -0.050664823555715013 0 -0.023858577168154746 -0.050101766785537932 0 -0.023221616659809319 -0.049056011274009104 0 -0.024271926033059624 -0.048937421064061945 0 -0.024802927006750918 -0.049762978675978793 0 -0.023858577168154746 -0.050101766785537932 0 -0.024271926033059624 -0.048937421064061945 0 -0.024802927006750918 -0.049762978675978793 0 -0.023858577168154746 -0.050101766785537932 0 -0.02448406666986087 -0.050664823555715013 0 -0.023858577168154746 -0.050101766785537932 0 -0.02448406666986087 -0.050664823555715013 0 -0.023839688182899256 -0.050884050421132303 0 -0.023762133910679044 -0.051495972820475362 0 -0.023839688182899256 -0.050884050421132303 0 -0.024315802884129704 -0.051040390718921511 0 -0.02448406666986087 -0.050664823555715013 0 -0.023839688182899256 -0.050884050421132303 0 -0.024315802884129704 -0.051040390718921511 0 -0.02460259313054888 -0.051038580426945979 0 -0.02448406666986087 -0.050664823555715013 0 -0.024315802884129704 -0.051040390718921511 0 -0.023148970831512163 -0.051240858963677971 0 -0.023209337966921758 -0.050662720590173863 0 -0.022370066690520402 -0.050888104826243917 0 -0.022553663852328026 -0.051640389509407449 0 -0.023148970831512163 -0.051240858963677971 0 -0.022370066690520402 -0.050888104826243917 0 -0.023762133910679044 -0.051495972820475362 0 -0.023839688182899256 -0.050884050421132303 0 -0.023148970831512163 -0.051240858963677971 0 -0.023839688182899256 -0.050884050421132303 0 -0.023148970831512163 -0.051240858963677971 0 -0.023209337966921758 -0.050662720590173863 0 -0.023858577168154746 -0.050101766785537932 0 -0.023839688182899256 -0.050884050421132303 0 -0.023209337966921758 -0.050662720590173863 0 -0.023209337966921758 -0.050662720590173863 0 -0.022806992783988601 -0.049985432543198836 0 -0.022370066690520402 -0.050888104826243917 0 -0.023858577168154746 -0.050101766785537932 0 -0.022806992783988601 -0.049985432543198836 0 -0.023221616659809319 -0.049056011274009104 0 -0.023858577168154746 -0.050101766785537932 0 -0.023209337966921758 -0.050662720590173863 0 -0.022806992783988601 -0.049985432543198836 0 -0.022806992783988601 -0.049985432543198836 0 -0.023221616659809319 -0.049056011274009104 0 -0.022066966368971524 -0.049061457462043274 0 -0.023221616659809319 -0.049056011274009104 0 -0.023670251857070109 -0.048062805710393217 0 -0.022411030554455789 -0.048118690574162362 0 -0.023221616659809319 -0.049056011274009104 0 -0.024271926033059624 -0.048937421064061945 0 -0.023670251857070109 -0.048062805710393217 0 -0.023221616659809319 -0.049056011274009104 0 -0.022411030554455789 -0.048118690574162362 0 -0.022066966368971524 -0.049061457462043274 0 -0.024802927006750918 -0.049762978675978793 0 -0.024271926033059624 -0.048937421064061945 0 -0.025228206102110681 -0.048746475283677787 0 -0.024271926033059624 -0.048937421064061945 0 -0.024872305536407444 -0.048033625462292499 0 -0.023670251857070109 -0.048062805710393217 0 -0.024271926033059624 -0.048937421064061945 0 -0.024872305536407444 -0.048033625462292499 0 -0.025228206102110681 -0.048746475283677787 0 -0.024872305536407444 -0.048033625462292499 0 -0.023670251857070109 -0.048062805710393217 0 -0.02468598450983912 -0.046767438368879359 0 -0.023670251857070109 -0.048062805710393217 0 -0.022907825999167457 -0.047033822922439114 0 -0.02468598450983912 -0.046767438368879359 0 -0.023670251857070109 -0.048062805710393217 0 -0.022907825999167457 -0.047033822922439114 0 -0.022411030554455789 -0.048118690574162362 0 -0.022907825999167457 -0.047033822922439114 0 -0.02468598450983912 -0.046767438368879359 0 -0.023130246097017523 -0.044999809692023295 0 -0.02468598450983912 -0.046767438368879359 0 -0.023130246097017523 -0.044999809692023295 0 -0.025469441465090021 -0.044999798736279642 0 -0.022907825999167457 -0.047033822922439114 0 -0.023130246097017523 -0.044999809692023295 0 -0.021600891220100123 -0.046238879378538982 0 -0.0278090134839988 -0.044999695949226426 0 -0.026553799763730023 -0.046339071793198149 0 -0.027842614706842614 -0.046300652854152309 0 -0.02468598450983912 -0.046767438368879359 0 -0.025469441465090021 -0.044999798736279642 0 -0.026553799763730023 -0.046339071793198149 0 -0.0278090134839988 -0.044999695949226426 0 -0.025469441465090021 -0.044999798736279642 0 -0.026553799763730023 -0.046339071793198149 0 -0.02468598450983912 -0.046767438368879359 0 -0.026553799763730023 -0.046339071793198149 0 -0.026059762695027976 -0.047782410498144176 0 -0.026553799763730023 -0.046339071793198149 0 -0.027363376820156764 -0.047340906538597259 0 -0.026059762695027976 -0.047782410498144176 0 -0.026553799763730023 -0.046339071793198149 0 -0.027842614706842614 -0.046300652854152309 0 -0.027363376820156764 -0.047340906538597259 0 -0.027363376820156764 -0.047340906538597259 0 -0.026059762695027976 -0.047782410498144176 0 -0.027142289802898109 -0.048303800815575199 0 -0.024872305536407444 -0.048033625462292499 0 -0.02468598450983912 -0.046767438368879359 0 -0.026059762695027976 -0.047782410498144176 0 -0.024872305536407444 -0.048033625462292499 0 -0.026059762695027976 -0.047782410498144176 0 -0.025228206102110681 -0.048746475283677787 0 -0.026059762695027976 -0.047782410498144176 0 -0.025228206102110681 -0.048746475283677787 0 -0.026144312993376953 -0.049196098260642009 0 -0.024802927006750918 -0.049762978675978793 0 -0.025228206102110681 -0.048746475283677787 0 -0.026144312993376953 -0.049196098260642009 0 -0.026144312993376953 -0.049196098260642009 0 -0.027142289802898109 -0.048303800815575199 0 -0.027943203947673193 -0.049426393097955941 0 -0.026059762695027976 -0.047782410498144176 0 -0.026144312993376953 -0.049196098260642009 0 -0.027142289802898109 -0.048303800815575199 0 -0.027142289802898109 -0.048303800815575199 0 -0.028508781218255553 -0.04795531085120866 0 -0.027943203947673193 -0.049426393097955941 0 -0.029692218431567122 -0.048544740411842154 0 -0.028508781218255553 -0.04795531085120866 0 -0.027943203947673193 -0.049426393097955941 0 -0.02976934967627964 -0.047374066341140914 0 -0.028508781218255553 -0.04795531085120866 0 -0.029048092246784427 -0.046768740378705327 0 -0.029692218431567122 -0.048544740411842154 0 -0.02976934967627964 -0.047374066341140914 0 -0.028508781218255553 -0.04795531085120866 0 -0.027363376820156764 -0.047340906538597259 0 -0.028508781218255553 -0.04795531085120866 0 -0.029048092246784427 -0.046768740378705327 0 -0.027363376820156764 -0.047340906538597259 0 -0.027142289802898109 -0.048303800815575199 0 -0.028508781218255553 -0.04795531085120866 0 -0.027842614706842614 -0.046300652854152309 0 -0.027363376820156764 -0.047340906538597259 0 -0.029048092246784427 -0.046768740378705327 0 -0.02976934967627964 -0.047374066341140914 0 -0.029048092246784427 -0.046768740378705327 0 -0.030553105976504361 -0.046418742635160055 0 -0.03014831776715567 -0.04500022742313195 0 -0.031101890765916712 -0.046578445804097077 0 -0.029048092246784427 -0.046768740378705327 0 -0.030146395934397923 -0.045000058955425942 0 -0.030553105976504361 -0.046418742635160055 0 -0.0278090134839988 -0.044999695949226426 0 -0.027842614706842614 -0.046300652854152309 0 -0.030146395934397923 -0.045000058955425942 0 -0.027842614706842614 -0.046300652854152309 0 -0.029048092246784427 -0.046768740378705327 0 -0.030146395934397923 -0.045000058955425942 0 -0.032160694822399992 -0.044999954256086112 0 -0.033852582649920526 -0.046795799463066959 0 -0.034172963656615894 -0.044999949636140832 0 -0.032160694822399992 -0.044999954256086112 0 -0.031649469876725893 -0.04678904720055365 0 -0.033852582649920526 -0.046795799463066959 0 -0.03014831699563152 -0.044999997444071294 0 -0.032160694822399992 -0.044999954256086112 0 -0.031649469876725893 -0.04678904720055365 0 -0.031649469876725893 -0.04678904720055365 0 -0.033117663908802809 -0.048454755744102546 0 -0.033852582649920526 -0.046795799463066959 0 -0.031101890765916712 -0.046578445804097077 0 -0.03232213984346706 -0.048042345229776108 0 -0.029692218431567122 -0.048544740411842154 0 -0.02976934967627964 -0.047374066341140914 0 -0.031481469288505072 -0.047764824627346998 0 -0.02976934967627964 -0.047374066341140914 0 -0.030553105976504361 -0.046418742635160055 0 -0.031481469288505072 -0.047764824627346998 0 -0.029692218431567122 -0.048544740411842154 0 -0.030860337934324834 -0.049154026097957979 0 -0.029628640792785793 -0.04971235534593843 0 -0.029692218431567122 -0.048544740411842154 0 -0.031481469288505072 -0.047764824627346998 0 -0.030860337934324834 -0.049154026097957979 0 -0.031481469288505072 -0.047764824627346998 0 -0.030860337934324834 -0.049154026097957979 0 -0.032605290394374466 -0.049169918682532801 0 -0.03232213984346706 -0.048042345229776108 0 -0.033238839333628638 -0.049968502981443084 0 -0.030860337934324834 -0.049154026097957979 0 -0.03091818079203899 -0.050621827979112514 0 -0.032605290394374466 -0.049169918682532801 0 -0.03091818079203899 -0.050621827979112514 0 -0.03239169148896253 -0.05142546807205764 0 -0.032605290394374466 -0.049169918682532801 0 -0.03091818079203899 -0.050621827979112514 0 -0.030304172410445814 -0.052073427416535631 0 -0.03239169148896253 -0.05142546807205764 0 -0.03091818079203899 -0.050621827979112514 0 -0.028750399650558145 -0.050815529698790107 0 -0.030304172410445814 -0.052073427416535631 0 -0.03091818079203899 -0.050621827979112514 0 -0.029628640792785793 -0.04971235534593843 0 -0.028750399650558145 -0.050815529698790107 0 -0.030860337934324834 -0.049154026097957979 0 -0.03091818079203899 -0.050621827979112514 0 -0.029628640792785793 -0.04971235534593843 0 -0.029692218431567122 -0.048544740411842154 0 -0.029628640792785793 -0.04971235534593843 0 -0.027943203947673193 -0.049426393097955941 0 -0.029628640792785793 -0.04971235534593843 0 -0.027943203947673193 -0.049426393097955941 0 -0.028750399650558145 -0.050815529698790107 0 -0.026531060370076021 -0.050113852096479207 0 -0.027943203947673193 -0.049426393097955941 0 -0.027329053356336949 -0.050687980411926653 0 -0.027329053356336949 -0.050687980411926653 0 -0.028750399650558145 -0.050815529698790107 0 -0.027320229067254221 -0.0516663866670867 0 -0.027943203947673193 -0.049426393097955941 0 -0.027329053356336949 -0.050687980411926653 0 -0.028750399650558145 -0.050815529698790107 0 -0.028750399650558145 -0.050815529698790107 0 -0.028590941253653964 -0.052505363199164892 0 -0.030304172410445814 -0.052073427416535631 0 -0.028750399650558145 -0.050815529698790107 0 -0.028590941253653964 -0.052505363199164892 0 -0.027320229067254221 -0.0516663866670867 0 -0.026952986636875256 -0.05295793620099512 0 -0.028590941253653964 -0.052505363199164892 0 -0.027320229067254221 -0.0516663866670867 0 -0.028040204184913674 -0.054058320446582014 0 -0.026952986636875256 -0.05295793620099512 0 -0.028590941253653964 -0.052505363199164892 0 -0.028040204184913674 -0.054058320446582014 0 -0.028590941253653964 -0.052505363199164892 0 -0.03004486489738506 -0.053510888610616938 0 -0.028590941253653964 -0.052505363199164892 0 -0.03004486489738506 -0.053510888610616938 0 -0.030304172410445814 -0.052073427416535631 0 -0.029993194749915512 -0.045759640763743614 0 -0.03088900574832399 -0.045252816586296166 0 -0.03004486489738506 -0.053510888610616938 0 -0.031906744789745346 -0.052977142528286253 0 -0.030304172410445814 -0.052073427416535631 0 -0.03088900574832399 -0.045252816586296166 0 -0.030235829865395962 -0.045720136871293088 0 -0.031906744789745346 -0.052977142528286253 0 -0.030304172410445814 -0.052073427416535631 0 -0.03239169148896253 -0.05142546807205764 0 -0.03239169148896253 -0.05142546807205764 0 -0.033725417258392419 -0.052469388484231695 0 -0.033774515635826757 -0.050606194135882007 0 -0.041520268032934002 -0.041694598758149043 0 -0.04006254186588027 -0.042016513408926939 0 -0.041400070397088151 -0.043909966155166187 0 -0.038516508026884361 -0.040769336401831328 0 -0.037485155893844976 -0.047981540288662292 0 -0.031906744789745346 -0.052977142528286253 0 -0.03239169148896253 -0.05142546807205764 0 -0.033725417258392419 -0.052469388484231695 0 -0.031204030256085844 -0.037091530993010331 0 -0.03129779484783865 -0.037249164392654056 0 -0.031267561362046892 -0.037270704588687281 0 -0.030235829865395962 -0.045720136871293088 0 -0.038516508026884361 -0.040769336401831328 0 -0.051687002318859351 -0.033030344945937574 0 -0.051356003876736354 -0.032495528389069307 0 -0.050703199498886603 -0.033380784790793178 0 -0.051577853994831092 -0.031736085452819536 0 -0.051687002318859351 -0.033030344945937574 0 -0.051356003876736354 -0.032495528389069307 0 -0.051356003876736354 -0.032495528389069307 0 -0.049880139920874408 -0.032274690889637338 0 -0.050703199498886603 -0.033380784790793178 0 -0.050541969910601281 -0.032867765016518606 0 -0.046731484049432434 -0.037952856050838812 0 -0.050667517130162855 -0.033984444084807053 0 -0.051603085263499264 -0.035324524577645657 0 -0.049478581406987424 -0.035826366599545897 0 -0.046731484049432434 -0.037952856050838812 0 -0.045787929436054663 -0.039355738539873723 0 -0.046731484049432434 -0.037952856050838812 0 -0.037485155893844976 -0.047981540288662292 0 -0.038516508026884361 -0.040769336401831328 0 -0.046731484049432434 -0.037952856050838812 0 -0.041578465474088763 -0.042865609636352373 0 -0.041534908851361498 -0.04257419370294812 0 -0.041314564275933822 -0.042794465115594496 0 -0.041578465474088763 -0.042865609636352373 0 -0.041534908851361498 -0.04257419370294812 0 -0.042214595632927593 -0.042605142500277811 0 -0.041534908851361498 -0.04257419370294812 0 -0.041314564275933822 -0.042794465115594496 0 -0.041008547156841636 -0.043194978331967206 0 -0.03239169148896253 -0.05142546807205764 0 -0.033774515635826757 -0.050606194135882007 0 -0.032605290394374466 -0.049169918682532801 0 -0.037485155893844976 -0.047981540288662292 0 -0.038458584634272243 -0.046088794414552631 0 -0.035603816389665442 -0.051345923151161356 0 -0.034452275844190708 -0.049950586374752796 0 -0.035702297406929699 -0.049438110197213239 0 -0.037485155893844976 -0.047981540288662292 0 -0.033238839333628638 -0.049968502981443084 0 -0.034452275844190708 -0.049950586374752796 0 -0.035702297406929699 -0.049438110197213239 0 -0.034612128146034898 -0.04847835447505662 0 -0.033117663908802809 -0.048454755744102546 0 -0.034452275844190708 -0.049950586374752796 0 -0.034612128146034898 -0.04847835447505662 0 -0.038458584634272243 -0.046088794414552631 0 -0.03767149286582356 -0.045657296176410421 0 -0.035702297406929699 -0.049438110197213239 0 -0.034612128146034898 -0.04847835447505662 0 -0.03590858455165559 -0.047327257229752992 0 -0.033117663908802809 -0.048454755744102546 0 -0.034612128146034898 -0.04847835447505662 0 -0.033852582649920526 -0.046795799463066959 0 -0.033852582649920526 -0.046795799463066959 0 -0.03590858455165559 -0.047327257229752992 0 -0.035029807604076812 -0.046043814794868791 0 -0.034612128146034898 -0.04847835447505662 0 -0.033852582649920526 -0.046795799463066959 0 -0.03590858455165559 -0.047327257229752992 0 -0.03590858455165559 -0.047327257229752992 0 -0.036185065163961985 -0.044999986524711703 0 -0.035029807604076812 -0.046043814794868791 0 -0.03767149286582356 -0.045657296176410421 0 -0.036185956668290532 -0.044999455287323915 0 -0.036185065163961985 -0.044999986524711703 0 -0.035029807604076812 -0.046043814794868791 0 -0.034172963656615894 -0.044999949636140832 0 -0.033852582649920526 -0.046795799463066959 0 -0.035029807604076812 -0.046043814794868791 0 -0.034172963656615894 -0.044999949636140832 0 -0.036194556080742707 -0.044997735611969666 0 -0.039722269633290896 -0.044495091085246914 0 -0.041307089009615099 -0.044996303903072327 0 -0.03960454870216007 -0.044225329399642146 0 -0.036194556080742707 -0.044997735611969666 0 -0.039722269633290896 -0.044495091085246914 0 -0.03960454870216007 -0.044225329399642146 0 -0.039722269633290896 -0.044495091085246914 0 -0.040762721262633486 -0.043456127699161816 0 -0.039722269633290896 -0.044495091085246914 0 -0.040762721262633486 -0.043456127699161816 0 -0.041631557405683195 -0.043701109113857897 0 -0.041534908851361498 -0.04257419370294812 0 -0.041008547156841636 -0.043194978331967206 0 -0.040762721262633486 -0.043456127699161816 0 -0.041534908851361498 -0.04257419370294812 0 -0.040762721262633486 -0.043456127699161816 0 -0.042087839561174289 -0.042657518318418158 0 -0.041008547156841636 -0.043194978331967206 0 -0.03960454870216007 -0.044225329399642146 0 -0.040762721262633486 -0.043456127699161816 0 -0.042087839561174289 -0.042657518318418158 0 -0.043636608588021923 -0.042840768329575465 0 -0.043840453988053314 -0.040845101699556338 0 -0.044997172129616868 -0.044998913439531031 0 -0.043636608588021923 -0.042840768329575465 0 -0.044996255595729825 -0.039174150187773926 0 -0.042087839561174289 -0.042657518318418158 0 -0.041631557405683195 -0.043701109113857897 0 -0.043636608588021923 -0.042840768329575465 0 -0.040762721262633486 -0.043456127699161816 0 -0.042087839561174289 -0.042657518318418158 0 -0.041631557405683195 -0.043701109113857897 0 -0.041631557405683195 -0.043701109113857897 0 -0.041307089009615099 -0.044996303903072327 0 -0.043636608588021923 -0.042840768329575465 0 -0.039722269633290896 -0.044495091085246914 0 -0.041631557405683195 -0.043701109113857897 0 -0.041307089009615099 -0.044996303903072327 0 -0.041307089009615099 -0.044996303903072327 0 -0.044997172129616868 -0.044998913439531031 0 -0.043636608588021923 -0.042840768329575465 0 -0.043636608588021923 -0.042840768329575465 0 -0.044996255595729825 -0.039174150187773926 0 -0.043840453988053314 -0.040845101699556338 0 -0.044996255595729825 -0.039174150187773926 0 -0.045000751697776759 -0.037130768080455762 0 -0.043840453988053314 -0.040845101699556338 0 -0.044999468832945269 -0.037124073577201482 0 -0.045324092065771052 -0.038678482759857538 0 -0.045000751697776759 -0.037130768080455762 0 -0.043840453988053314 -0.040845101699556338 0 -0.043651220997270895 -0.041093979364710459 0 -0.042087839561174289 -0.042657518318418158 0 -0.043840453988053314 -0.040845101699556338 0 -0.042587760312956399 -0.041858552363682876 0 -0.041534908851361498 -0.04257419370294812 0 -0.042087839561174289 -0.042657518318418158 0 -0.042587760312956399 -0.041858552363682876 0 -0.041534908851361498 -0.04257419370294812 0 -0.042587760312956399 -0.041858552363682876 0 -0.042214595632927593 -0.042605142500277811 0 -0.042587760312956399 -0.041858552363682876 0 -0.042214595632927593 -0.042605142500277811 0 -0.043651220997270895 -0.041093979364710459 0 -0.043840453988053314 -0.040845101699556338 0 -0.042587760312956399 -0.041858552363682876 0 -0.043651220997270895 -0.041093979364710459 0 -0.045787929436054663 -0.039355738539873723 0 -0.045324092065771052 -0.038678482759857538 0 -0.049478581406987424 -0.035826366599545897 0 -0.047913575451073047 -0.034534727994196358 0 -0.047303533638056977 -0.03640858876658444 0 -0.050667517130162855 -0.033984444084807053 0 -0.049478581406987424 -0.035826366599545897 0 -0.049216189458326426 -0.033984267347714925 0 -0.049478581406987424 -0.035826366599545897 0 -0.049216189458326426 -0.033984267347714925 0 -0.047913575451073047 -0.034534727994196358 0 -0.046527797954574783 -0.033424155703054306 0 -0.047913575451073047 -0.034534727994196358 0 -0.046368352760946183 -0.03522881035929927 0 -0.046527797954574783 -0.033424155703054306 0 -0.044999908618045002 -0.034726665955472809 0 -0.046368352760946183 -0.03522881035929927 0 -0.044999965547997171 -0.037123042225765353 0 -0.047303533638056977 -0.03640858876658444 0 -0.046368352760946183 -0.03522881035929927 0 -0.044999965547997171 -0.037123042225765353 0 -0.044999908618045002 -0.034726665955472809 0 -0.046368352760946183 -0.03522881035929927 0 -0.047913575451073047 -0.034534727994196358 0 -0.047303533638056977 -0.03640858876658444 0 -0.046368352760946183 -0.03522881035929927 0 -0.0010793986392455728 -0.036376908957944022 0 -0.0013084252834836001 -0.036997735140733352 0 -0.001911063603152445 -0.03586772094074029 0 -0.0022673177985385829 -0.038551385473083101 0 -0.0032914603345172311 -0.036831687486440091 0 -0.001911063603152445 -0.03586772094074029 0 -0.0024369773056574793 -0.03712649610106885 0 -0.0018158972434298016 -0.036232731524690823 0 -0.0013084252834836001 -0.036997735140733352 0 -0.0016595712634615899 -0.037111495260917123 0 -0.001911063603152445 -0.03586772094074029 0 0.023024630003393897 -0.030558176755186621 0 0.022588041528873955 -0.03046418601721685 0 0.022987264530575011 -0.030509940140754501 0 0.011722075773416373 -0.032850022557808993 0 0.011434537290459406 -0.03431201182883177 0 -0.0010793986392455728 -0.036376908957944022 0 -0.0005326498960264174 -0.037288540063124681 0 -0.0013084252834836001 -0.036997735140733352 0 -0.0010793986392455728 -0.036376908957944022 0 -0.00017783381154282515 -0.036083777589085014 0 -0.0005326498960264174 -0.037288540063124681 0 -0.0005326498960264174 -0.037288540063124681 0 -0.0011042921159993854 -0.037442377332378131 0 -0.0013084252834836001 -0.036997735140733352 0 -0.0024369773056574793 -0.03712649610106885 0 -0.0030686572430401095 -0.031925911811903351 0 -0.0011042921159993854 -0.037442377332378131 0 -0.0015049501198661566 -0.037061793081391618 0 -0.0015133078570171992 -0.037720177459026435 0 -0.0011042921159993854 -0.037442377332378131 0 -0.0013084252834836001 -0.036997735140733352 0 -0.0015049501198661566 -0.037061793081391618 0 -0.0016037625569539028 -0.036943472384061968 0 -0.0024369773056574793 -0.03712649610106885 0 -0.0022673177985385829 -0.038551385473083101 0 -0.0048640712316465225 -0.039276115812968908 0 -0.0038188505171194739 -0.037907895578791442 0 -0.0024369773056574793 -0.03712649610106885 0 -0.0080903087844486164 -0.035300485404146618 0 -0.0040542783468284511 -0.034142851483443627 0 -0.0058728440882109441 -0.03471017396118356 0 -0.0041975508978755035 -0.035517730885072873 0 -0.0080903087844486164 -0.035300485404146618 0 -0.013269257620781807 -0.037730970827355222 0 -0.0048640712316465225 -0.039276115812968908 0 -0.0048728679504700806 -0.037012920136496812 0 -0.0065858186618242788 -0.038366257033497199 0 -0.012536662687493302 -0.036246989612949795 0 -0.012442366572340774 -0.036211873722636782 0 -0.012733565487187379 -0.036125012815883047 0 -0.015790872694659813 -0.035059504437481251 0 -0.0080903087844486164 -0.035300485404146618 0 -0.015790872694659813 -0.035059504437481251 0 -0.013269257620781807 -0.037730970827355222 0 -0.0048728679504700806 -0.037012920136496812 0 -0.0064378490128986464 -0.036896196322981599 0 -0.0065858186618242788 -0.038366257033497199 0 -0.0048640712316465225 -0.039276115812968908 0 -0.0048728679504700806 -0.037012920136496812 0 -0.0038188505171194739 -0.037907895578791442 0 -0.0022673177985385829 -0.038551385473083101 0 -0.0038188505171194739 -0.037907895578791442 0 -0.0032914603345172311 -0.036831687486440091 0 -0.0048728679504700806 -0.037012920136496812 0 -0.0038188505171194739 -0.037907895578791442 0 -0.0032914603345172311 -0.036831687486440091 0 -0.0039971897430432814 -0.035424422370608076 0 -0.0026256165673181546 -0.034069517264134451 0 -0.001911063603152445 -0.03586772094074029 0 -0.0032914603345172311 -0.036831687486440091 0 -0.0039971897430432814 -0.035424422370608076 0 -0.001911063603152445 -0.03586772094074029 0 -0.0048728679504700806 -0.037012920136496812 0 -0.0032914603345172311 -0.036831687486440091 0 -0.0039971897430432814 -0.035424422370608076 0 -0.0048728679504700806 -0.037012920136496812 0 -0.0039971897430432814 -0.035424422370608076 0 -0.0066161001446071828 -0.035532289758437689 0 -0.0048728679504700806 -0.037012920136496812 0 -0.0064378490128986464 -0.036896196322981599 0 -0.0066161001446071828 -0.035532289758437689 0 -0.0049887283999790451 -0.033787918799214257 0 -0.0067553208481597 -0.035660603117059618 0 -0.0039971897430432814 -0.035424422370608076 0 -0.0047232733584968599 -0.033868069502133072 0 -0.0066161001446071828 -0.035532289758437689 0 -0.0047232733584968599 -0.033868069502133072 0 -0.0026256165673181546 -0.034069517264134451 0 -0.0028726970789404865 -0.032549464831525113 0 -0.0039971897430432814 -0.035424422370608076 0 -0.0047232733584968599 -0.033868069502133072 0 -0.0026256165673181546 -0.034069517264134451 0 -0.0026256165673181546 -0.034069517264134451 0 -0.0010237647928751092 -0.034978355792115064 0 -0.0012286017516772016 -0.033395376045970412 0 -0.0010793986392455728 -0.036376908957944022 0 -0.001911063603152445 -0.03586772094074029 0 -0.0010237647928751092 -0.034978355792115064 0 -0.0026256165673181546 -0.034069517264134451 0 -0.001911063603152445 -0.03586772094074029 0 -0.0010237647928751092 -0.034978355792115064 0 -0.00017783381154282515 -0.036083777589085014 0 -0.0010237647928751092 -0.034978355792115064 0 0.00024877262883908819 -0.034192376137140629 0 -0.0010793986392455728 -0.036376908957944022 0 -0.00017783381154282515 -0.036083777589085014 0 -0.0010237647928751092 -0.034978355792115064 0 0.011722075773416373 -0.032850022557808993 0 0.00802078304946785 -0.034559984553768054 0 -0.0010237647928751092 -0.034978355792115064 0 0.00024877262883908819 -0.034192376137140629 0 -0.0012286017516772016 -0.033395376045970412 0 0.0040547922547826722 -0.038001611521214784 0 0.0044163046100881807 -0.040053059948387933 0 -0.00012111251800899203 -0.037963439577137353 0 0.00802078304946785 -0.034559984553768054 0 -0.0014628514124653709 -0.035312167478296665 0 0.0030166647224202205 -0.041287127157696911 0 0.0030689446755121923 -0.040948784923829223 0 0.0024489253606090953 -0.040884968567223949 0 0.0040547922547826722 -0.038001611521214784 0 0.0045446898309485758 -0.038901382796503431 0 0.0044163046100881807 -0.040053059948387933 0 0.0031054398845980287 -0.041251349391209856 0 0.0055031572524428746 -0.039243114000335297 0 0.0046622483747335575 -0.040677263940653269 0 0.0048572405384333288 -0.04072550115516755 0 0.0048300183659712292 -0.040979745604653589 0 0.0019803125095524013 -0.041070140199004214 0 0.0012759551923035681 -0.040252898310406959 0 0.0018529995251390693 -0.042367599244678408 0 0.0031054398845980287 -0.041251349391209856 0 0.0036650153876058543 -0.04160490025808556 0 0.0036650153876058543 -0.04160490025808556 0 0.0055031572524428746 -0.039243114000335297 0 0.0030166647224202205 -0.041287127157696911 0 0.0024489253606090953 -0.040884968567223949 0 0.0023246344378182043 -0.041420818636827464 0 0.0024489253606090953 -0.040884968567223949 0 0.0027223467101760591 -0.040236041965105405 0 0.0020012517245184772 -0.040422457581263012 0 0.0030689446755121923 -0.040948784923829223 0 0.0024489253606090953 -0.040884968567223949 0 0.0027223467101760591 -0.040236041965105405 0 0.0055031572524428746 -0.039243114000335297 0 0.00802078304946785 -0.034559984553768054 0 0.008434867026538697 -0.035971768332740621 0 0.0082998067006081495 -0.037229447372819933 0 0.0094076407532557721 -0.037746613167417169 0 0.0055031572524428746 -0.039243114000335297 0 0.010132819730018514 -0.036156071369622518 0 0.010132819730018514 -0.036156071369622518 0 0.013873722734780549 -0.03332380987183084 0 0.022821122400334692 -0.031548959043215946 0 0.022686389674193869 -0.031470277219499923 0 0.022748188199573714 -0.031164393775973655 0 0.022686389674193869 -0.031470277219499923 0 0.022748188199573714 -0.031164393775973655 0 0.022597044214216978 -0.031150994198537042 0 0.00802078304946785 -0.034559984553768054 0 0.010132819730018514 -0.036156071369622518 0 0.010132819730018514 -0.036156071369622518 0 0.012867182525782232 -0.035411508302414789 0 0.012006790438206674 -0.034827388299773422 0 0.012755124658345466 -0.035173596723455394 0 0.012391562205082597 -0.035523667673293464 0 0.0027223467101760591 -0.040236041965105405 0 0.0017896345445682065 -0.039758855651147514 0 0.0020012517245184772 -0.040422457581263012 0 0.012867182525782232 -0.035411508302414789 0 0.018754148724241169 -0.034503387471895505 0 0.0017896345445682065 -0.039758855651147514 0 0.0020012517245184772 -0.040422457581263012 0 0.0012759551923035681 -0.040252898310406959 0 0.012867182525782232 -0.035411508302414789 0 0.013252866169444563 -0.037124528248161766 0 0.0020012517245184772 -0.040422457581263012 0 0.0019803125095524013 -0.041070140199004214 0 0.0012759551923035681 -0.040252898310406959 0 0.0024489253606090953 -0.040884968567223949 0 0.0020012517245184772 -0.040422457581263012 0 0.0019803125095524013 -0.041070140199004214 0 0.0024489253606090953 -0.040884968567223949 0 0.0019803125095524013 -0.041070140199004214 0 0.0023246344378182043 -0.041420818636827464 0 0.013252866169444563 -0.037124528248161766 0 0.017257187170766984 -0.0364769121802146 0 0.023382654853982623 -0.034282309655992112 0 0.02338216779578638 -0.033744103191026095 0 0.021970092860000043 -0.033985096445269168 0 0.023382654853982623 -0.034282309655992112 0 0.021970092860000043 -0.033985096445269168 0 0.021962587470577853 -0.035719079839765674 0 0.013252866169444563 -0.037124528248161766 0 0.018754148724241169 -0.034503387471895505 0 0.013952780958249832 -0.037014143497737226 0 0.012505182287080356 -0.03841559175883115 0 0.012509901361160184 -0.03631911733683927 0 0.018754148724241169 -0.034503387471895505 0 0.021785357885383043 -0.031740428073820548 0 0.022325854368999035 -0.031788480389092814 0 0.021757431167174823 -0.030860725357058895 0 0.02234286929587069 -0.030476715915111242 0 0.022264110402183481 -0.031250414750911455 0 0.02246602366611429 -0.03094405032716506 0 0.02234286929587069 -0.030476715915111242 0 0.018754148724241169 -0.034503387471895505 0 0.02251745353907595 -0.029521830339678895 0 0.022325854368999035 -0.031788480389092814 0 0.021757431167174823 -0.030860725357058895 0 0.020705962533585174 -0.031119240917473853 0 0.022584166342833951 -0.030746709683827755 0 0.02246602366611429 -0.03094405032716506 0 0.02234286929587069 -0.030476715915111242 0 0.023024630003393897 -0.030558176755186621 0 0.022821122400334692 -0.031548959043215946 0 0.022748188199573714 -0.031164393775973655 0 0.022584166342833951 -0.030746709683827755 0 0.02246602366611429 -0.03094405032716506 0 0.022597654482736356 -0.030941680777408453 0 0.022584166342833951 -0.030746709683827755 0 0.022795097061291063 -0.030692348572974863 0 0.022597654482736356 -0.030941680777408453 0 0.022584166342833951 -0.030746709683827755 0 0.022795097061291063 -0.030692348572974863 0 0.022684378131756673 -0.030456311462569656 0 0.023024630003393897 -0.030558176755186621 0 0.022745181627598452 -0.03091258724634157 0 0.022748188199573714 -0.031164393775973655 0 0.023024630003393897 -0.030558176755186621 0 0.022795097061291063 -0.030692348572974863 0 0.022745181627598452 -0.03091258724634157 0 0.022795097061291063 -0.030692348572974863 0 0.022745181627598452 -0.03091258724634157 0 0.022597654482736356 -0.030941680777408453 0 0.022745181627598452 -0.03091258724634157 0 0.022748188199573714 -0.031164393775973655 0 0.022597044214216978 -0.031150994198537042 0 0.012867182525782232 -0.035411508302414789 0 0.013873722734780549 -0.03332380987183084 0 0.022597044214216978 -0.031150994198537042 0 0.022473745151485331 -0.03116375775988391 0 0.022548012274194618 -0.031042101523669936 0 0.022264110402183481 -0.031250414750911455 0 0.022473745151485331 -0.03116375775988391 0 0.02246602366611429 -0.03094405032716506 0 0.022431626514935098 -0.031334746193944385 0 0.022597044214216978 -0.031150994198537042 0 0.022473745151485331 -0.03116375775988391 0 0.022431626514935098 -0.031334746193944385 0 0.022264110402183481 -0.031250414750911455 0 0.022473745151485331 -0.03116375775988391 0 0.022473745151485331 -0.03116375775988391 0 0.02246602366611429 -0.03094405032716506 0 0.022548012274194618 -0.031042101523669936 0 0.02246602366611429 -0.03094405032716506 0 0.022597654482736356 -0.030941680777408453 0 0.022548012274194618 -0.031042101523669936 0 0.022745181627598452 -0.03091258724634157 0 0.022597654482736356 -0.030941680777408453 0 0.022610215441243763 -0.031033182399434703 0 0.022745181627598452 -0.03091258724634157 0 0.022597044214216978 -0.031150994198537042 0 0.022610215441243763 -0.031033182399434703 0 0.022597044214216978 -0.031150994198537042 0 0.022610215441243763 -0.031033182399434703 0 0.022548012274194618 -0.031042101523669936 0 0.022597654482736356 -0.030941680777408453 0 0.022610215441243763 -0.031033182399434703 0 0.022548012274194618 -0.031042101523669936 0 0.020693589931896659 -0.034660389082486975 0 0.019607177544853645 -0.035800041147863025 0 0.019484136003659693 -0.034263504010514895 0 0.020693589931896659 -0.034660389082486975 0 0.020481665925505179 -0.033577502651058133 0 0.019484136003659693 -0.034263504010514895 0 0.020693589931896659 -0.034660389082486975 0 0.021970092860000043 -0.033985096445269168 0 0.021962587470577853 -0.035719079839765674 0 0.020693589931896659 -0.034660389082486975 0 0.021970092860000043 -0.033985096445269168 0 0.020481665925505179 -0.033577502651058133 0 0.021970092860000043 -0.033985096445269168 0 0.02132881956590511 -0.032579248021911263 0 0.020481665925505179 -0.033577502651058133 0 0.02338216779578638 -0.033744103191026095 0 0.021970092860000043 -0.033985096445269168 0 0.02132881956590511 -0.032579248021911263 0 0.02132881956590511 -0.032579248021911263 0 0.019476069636341003 -0.032799761115955353 0 0.019040257683962437 -0.031035289115479394 0 0.02132881956590511 -0.032579248021911263 0 0.020481665925505179 -0.033577502651058133 0 0.019476069636341003 -0.032799761115955353 0 0.020481665925505179 -0.033577502651058133 0 0.019484136003659693 -0.034263504010514895 0 0.019476069636341003 -0.032799761115955353 0 0.020705962533585174 -0.031119240917473853 0 0.019985636680757403 -0.029958506127188991 0 0.019040257683962437 -0.031035289115479394 0 0.021785357885383043 -0.031740428073820548 0 0.018776597878244379 -0.031012043294463155 0 0.020705962533585174 -0.031119240917473853 0 0.019985636680757403 -0.029958506127188991 0 0.021651459968841404 -0.030023901981026512 0 0.021757431167174823 -0.030860725357058895 0 0.020705962533585174 -0.031119240917473853 0 0.021651459968841404 -0.030023901981026512 0 0.01996761064430053 -0.029327530957433665 0 0.021609867809026871 -0.030004167777127243 0 0.021073649542566218 -0.028507286333205404 0 0.019788598523948174 -0.028653068998726685 0 0.021651459968841404 -0.030023901981026512 0 0.021073649542566218 -0.028507286333205404 0 0.019788598523948174 -0.028653068998726685 0 0.020540296236123377 -0.02775032610052414 0 0.021073649542566218 -0.028507286333205404 0 0.021944783192154069 -0.028599662194670816 0 0.021491785461368335 -0.027491197221853118 0 0.019788598523948174 -0.028653068998726685 0 0.019458518219560229 -0.027597405362730643 0 0.020540296236123377 -0.02775032610052414 0 0.02273506065254691 -0.029694003486698633 0 0.022987264530575011 -0.030509940140754501 0 0.023506980856760791 -0.02829008618828462 0 0.023024630003393897 -0.030558176755186621 0 0.022795097061291063 -0.030692348572974863 0 0.022987264530575011 -0.030509940140754501 0 0.022795097061291063 -0.030692348572974863 0 0.022987264530575011 -0.030509940140754501 0 0.022684378131756673 -0.030456311462569656 0 0.02273506065254691 -0.029694003486698633 0 0.022987264530575011 -0.030509940140754501 0 0.022684378131756673 -0.030456311462569656 0 0.02273506065254691 -0.029694003486698633 0 0.022684378131756673 -0.030456311462569656 0 0.02234286929587069 -0.030476715915111242 0 0.022584166342833951 -0.030746709683827755 0 0.022684378131756673 -0.030456311462569656 0 0.02234286929587069 -0.030476715915111242 0 0.021757431167174823 -0.030860725357058895 0 0.02234286929587069 -0.030476715915111242 0 0.021651459968841404 -0.030023901981026512 0 0.02273506065254691 -0.029694003486698633 0 0.02234286929587069 -0.030476715915111242 0 0.02226857554868614 -0.029517833416153244 0 0.02234286929587069 -0.030476715915111242 0 0.021651459968841404 -0.030023901981026512 0 0.02226857554868614 -0.029517833416153244 0 0.02273506065254691 -0.029694003486698633 0 0.02226857554868614 -0.029517833416153244 0 0.022682874185621829 -0.028691683024255669 0 0.02226857554868614 -0.029517833416153244 0 0.021944783192154069 -0.028599662194670816 0 0.022682874185621829 -0.028691683024255669 0 0.021073649542566218 -0.028507286333205404 0 0.021651459968841404 -0.030023901981026512 0 0.021944783192154069 -0.028599662194670816 0 0.021651459968841404 -0.030023901981026512 0 0.02226857554868614 -0.029517833416153244 0 0.021944783192154069 -0.028599662194670816 0 0.021944783192154069 -0.028599662194670816 0 0.022682874185621829 -0.028691683024255669 0 0.022573500082258061 -0.027371261138525008 0 0.022861549056910294 -0.030128382985134396 0 0.023499867284050669 -0.029891518235323298 0 0.02273506065254691 -0.029694003486698633 0 0.022682874185621829 -0.028691683024255669 0 0.023506980856760791 -0.02829008618828462 0 0.022588041528873955 -0.03046418601721685 0 0.022987264530575011 -0.030509940140754501 0 0.022454545928980718 -0.030409300859081351 0 0.023506980856760791 -0.02829008618828462 0 0.022573500082258061 -0.027371261138525008 0 0.023400038345302399 -0.025962995725756603 0 0.022454545928980718 -0.030409300859081351 0 0.022237836064751375 -0.029997784233118215 0 0.022469203016224688 -0.030144712088136304 0 0.023499867284050669 -0.029891518235323298 0 0.018536748654375056 -0.025700353607896881 0 0.022682874185621829 -0.028691683024255669 0 0.023506980856760791 -0.02829008618828462 0 0.022573500082258061 -0.027371261138525008 0 0.021944783192154069 -0.028599662194670816 0 0.022573500082258061 -0.027371261138525008 0 0.021491785461368335 -0.027491197221853118 0 0.022573500082258061 -0.027371261138525008 0 0.022010772424839831 -0.026437614539399426 0 0.021491785461368335 -0.027491197221853118 0 0.022573500082258061 -0.027371261138525008 0 0.022010772424839831 -0.026437614539399426 0 0.023400038345302399 -0.025962995725756603 0 0.022010772424839831 -0.026437614539399426 0 0.020928090567232282 -0.026206290730963928 0 0.022260483104066177 -0.025353291543648692 0 0.022010772424839831 -0.026437614539399426 0 0.023400038345302399 -0.025962995725756603 0 0.022260483104066177 -0.025353291543648692 0 0.018536748654375056 -0.025700353607896881 0 0.022460236034573873 -0.025373884721856851 0 0.018536748654375056 -0.025700353607896881 0 0.0063313329210183357 -0.032198434689612358 0 0.02000249340863634 -0.027028061195979204 0 0.019923013404230149 -0.026084942049815058 0 0.018958222242157711 -0.026873940702345889 0 0.019458518219560229 -0.027597405362730643 0 0.02000249340863634 -0.027028061195979204 0 0.020540296236123377 -0.02775032610052414 0 0.019458518219560229 -0.027597405362730643 0 0.02000249340863634 -0.027028061195979204 0 0.018958222242157711 -0.026873940702345889 0 0.02000249340863634 -0.027028061195979204 0 0.020540296236123377 -0.02775032610052414 0 0.020928090567232282 -0.026206290730963928 0 0.020540296236123377 -0.02775032610052414 0 0.021491785461368335 -0.027491197221853118 0 0.020928090567232282 -0.026206290730963928 0 0.021073649542566218 -0.028507286333205404 0 0.020540296236123377 -0.02775032610052414 0 0.021491785461368335 -0.027491197221853118 0 0.022010772424839831 -0.026437614539399426 0 0.021491785461368335 -0.027491197221853118 0 0.020928090567232282 -0.026206290730963928 0 0.020928090567232282 -0.026206290730963928 0 0.021162687239194032 -0.024666668123472114 0 0.022260483104066177 -0.025353291543648692 0 0.02000249340863634 -0.027028061195979204 0 0.020928090567232282 -0.026206290730963928 0 0.019923013404230149 -0.026084942049815058 0 0.020928090567232282 -0.026206290730963928 0 0.019923013404230149 -0.026084942049815058 0 0.020231960143882729 -0.0249716239378397 0 0.019923013404230149 -0.026084942049815058 0 0.020231960143882729 -0.0249716239378397 0 0.019188792711653573 -0.025507246179483824 0 0.020231960143882729 -0.0249716239378397 0 0.020707468904818567 -0.023699648137354184 0 0.019303917905521058 -0.0239875342501444 0 0.020231960143882729 -0.0249716239378397 0 0.019303917905521058 -0.0239875342501444 0 0.019188792711653573 -0.025507246179483824 0 0.020231960143882729 -0.0249716239378397 0 0.021162687239194032 -0.024666668123472114 0 0.020707468904818567 -0.023699648137354184 0 0.020928090567232282 -0.026206290730963928 0 0.020231960143882729 -0.0249716239378397 0 0.021162687239194032 -0.024666668123472114 0 0.021162687239194032 -0.024666668123472114 0 0.020707468904818567 -0.023699648137354184 0 0.021302573624345518 -0.023713185392369825 0 0.021162687239194032 -0.024666668123472114 0 0.021302573624345518 -0.023713185392369825 0 0.021560851110536686 -0.024092068768931114 0 0.020707468904818567 -0.023699648137354184 0 0.019303917905521058 -0.0239875342501444 0 0.019640279724696407 -0.022386089101993432 0 0.018536748654375056 -0.025700353607896881 0 0.0089818912270448331 -0.024715658861354614 0 0.0039947619061228663 -0.024549453391885953 0 0.0038208895266809376 -0.024798791647302122 0 0.0037268580587458641 -0.024675886579105744 0 0.022153277627320708 -0.025052607199168766 0 0.021765920093412161 -0.024392415631580771 0 0.022122808349287426 -0.024006527178664645 0 0.0039947619061228663 -0.024549453391885953 0 0.0038208895266809376 -0.024798791647302122 0 0.0040391809332954469 -0.025002752093137327 0 0.0037881625019409921 -0.023851550443445446 0 0.0089818912270448331 -0.024715658861354614 0 0.021162687239194032 -0.024666668123472114 0 0.021765920093412161 -0.024392415631580771 0 0.021560851110536686 -0.024092068768931114 0 0.021162687239194032 -0.024666668123472114 0 0.02165844317023969 -0.024783292945731471 0 0.021765920093412161 -0.024392415631580771 0 0.022153277627320708 -0.025052607199168766 0 0.02165844317023969 -0.024783292945731471 0 0.021765920093412161 -0.024392415631580771 0 0.021074902234734277 -0.024627592257402853 0 0.022460236034573873 -0.025373884721856851 0 0.021765920093412161 -0.024392415631580771 0 0.021848846757119424 -0.023872098444280797 0 0.021560851110536686 -0.024092068768931114 0 0.021765920093412161 -0.024392415631580771 0 0.021848846757119424 -0.023872098444280797 0 0.022122808349287426 -0.024006527178664645 0 0.021302573624345518 -0.023713185392369825 0 0.021848846757119424 -0.023872098444280797 0 0.021560851110536686 -0.024092068768931114 0 0.015154525433128752 -0.024287159950881813 0 0.018448470228024778 -0.024300425226407522 0 0.021788045014606103 -0.023484823901337003 0 0.021302573624345518 -0.023713185392369825 0 0.021848846757119424 -0.023872098444280797 0 0.0039310476746691053 -0.02497044376962022 0 0.0038303912871775737 -0.024920362410160293 0 0.0038915361073236648 -0.024884857822579456 0 0.021764657000852096 -0.023540819802521096 0 0.021848846757119424 -0.023872098444280797 0 0.022122808349287426 -0.024006527178664645 0 0.015154525433128752 -0.024287159950881813 0 0.0089818912270448331 -0.024715658861354614 0 0.0038208895266809376 -0.024798791647302122 0 0.0038303912871775737 -0.024920362410160293 0 0.0038915361073236648 -0.024884857822579456 0 0.0038208895266809376 -0.024798791647302122 0 0.0038303912871775737 -0.024920362410160293 0 0.0036065158123865424 -0.024832905867977421 0 0.0036905761970572443 -0.024968667880260566 0 0.0036065158123865424 -0.024832905867977421 0 0.0034018277001946445 -0.024942131968109814 0 0.0036905761970572443 -0.024968667880260566 0 0.0038303912871775737 -0.024920362410160293 0 0.0036065158123865424 -0.024832905867977421 0 0.0036065158123865424 -0.024832905867977421 0 0.0034018277001946445 -0.024942131968109814 0 0.0032315037514085918 -0.024792045265260094 0 0.0031046670783262753 -0.02507604290346005 0 0.0034018277001946445 -0.024942131968109814 0 0.0032315037514085918 -0.024792045265260094 0 -0.0085314338022971468 -0.027801446469041483 0 -0.0086856277076404406 -0.026826261334194919 0 0.003543990841363883 -0.024687146222902672 0 0.0034127889159504521 -0.024607443281084908 0 0.0032315037514085918 -0.024792045265260094 0 0.0036065158123865424 -0.024832905867977421 0 0.003543990841363883 -0.024687146222902672 0 0.0032315037514085918 -0.024792045265260094 0 0.0038208895266809376 -0.024798791647302122 0 0.0036065158123865424 -0.024832905867977421 0 0.0036723877038633019 -0.024750387692527649 0 0.0036065158123865424 -0.024832905867977421 0 0.003543990841363883 -0.024687146222902672 0 0.0036723877038633019 -0.024750387692527649 0 0.003543990841363883 -0.024687146222902672 0 0.0037268580587458641 -0.024675886579105744 0 0.0036723877038633019 -0.024750387692527649 0 0.0038208895266809376 -0.024798791647302122 0 0.0037268580587458641 -0.024675886579105744 0 0.0036723877038633019 -0.024750387692527649 0 0.0039947619061228663 -0.024549453391885953 0 0.0037268580587458641 -0.024675886579105744 0 0.0036736722986143015 -0.024590405503230384 0 0.0039947619061228663 -0.024549453391885953 0 0.0036736722986143015 -0.024590405503230384 0 0.0036705505006960747 -0.024477108896015128 0 0.0036705505006960747 -0.024477108896015128 0 0.0035548861265897336 -0.024514199224155608 0 0.0034539942510150275 -0.024497722524702708 0 0.0036736722986143015 -0.024590405503230384 0 0.0036705505006960747 -0.024477108896015128 0 0.0036072572281377179 -0.024541002257432949 0 0.0036705505006960747 -0.024477108896015128 0 0.0035548861265897336 -0.024514199224155608 0 0.0036072572281377179 -0.024541002257432949 0 0.0035548861265897336 -0.024514199224155608 0 0.0036072572281377179 -0.024541002257432949 0 0.0035369723795597853 -0.0245784640659037 0 0.0035548861265897336 -0.024514199224155608 0 0.0035369723795597853 -0.0245784640659037 0 0.0034594450261195239 -0.024550240195181448 0 0.003543990841363883 -0.024687146222902672 0 0.0037268580587458641 -0.024675886579105744 0 0.0036736722986143015 -0.024590405503230384 0 0.003543990841363883 -0.024687146222902672 0 0.0036736722986143015 -0.024590405503230384 0 0.0035369723795597853 -0.0245784640659037 0 0.0036736722986143015 -0.024590405503230384 0 0.0036072572281377179 -0.024541002257432949 0 0.0035369723795597853 -0.0245784640659037 0 0.003543990841363883 -0.024687146222902672 0 0.0035369723795597853 -0.0245784640659037 0 0.0034127889159504521 -0.024607443281084908 0 0.0034127889159504521 -0.024607443281084908 0 0.0032746311275752746 -0.024556146593090626 0 0.0032315037514085918 -0.024792045265260094 0 0.0035369723795597853 -0.0245784640659037 0 0.0034127889159504521 -0.024607443281084908 0 0.0034594450261195239 -0.024550240195181448 0 0.0034127889159504521 -0.024607443281084908 0 0.0032746311275752746 -0.024556146593090626 0 0.0033570088879617296 -0.024530676457615835 0 0.0034127889159504521 -0.024607443281084908 0 0.0033570088879617296 -0.024530676457615835 0 0.0034594450261195239 -0.024550240195181448 0 0.0033570088879617296 -0.024530676457615835 0 0.0034594450261195239 -0.024550240195181448 0 0.0034539942510150275 -0.024497722524702708 0 0.0035548861265897336 -0.024514199224155608 0 0.0034594450261195239 -0.024550240195181448 0 0.0034539942510150275 -0.024497722524702708 0 0.0036705505006960747 -0.024477108896015128 0 0.0034539942510150275 -0.024497722524702708 0 0.0032611314509950959 -0.024407204789118727 0 -0.0011042921159993854 -0.037442377332378131 0 -0.00065843152321636705 -0.038084511266884266 0 -0.0015133078570171992 -0.037720177459026435 0 0.0063313329210183357 -0.032198434689612358 0 -0.0030686572430401095 -0.031925911811903351 0 -0.0085314338022971468 -0.027801446469041483 0 -0.0030686572430401095 -0.031925911811903351 0 0.0032746311275752746 -0.024556146593090626 0 0.0033570088879617296 -0.024530676457615835 0 0.0032611314509950959 -0.024407204789118727 0 0.0033570088879617296 -0.024530676457615835 0 0.0034539942510150275 -0.024497722524702708 0 0.0032611314509950959 -0.024407204789118727 0 0.022588041528873955 -0.03046418601721685 0 0.022454545928980718 -0.030409300859081351 0 0.022469203016224688 -0.030144712088136304 0 -0.0005326498960264174 -0.037288540063124681 0 -0.0011042921159993854 -0.037442377332378131 0 -0.00065843152321636705 -0.038084511266884266 0 0.011434537290459406 -0.03431201182883177 0 0.0063313329210183357 -0.032198434689612358 0 -0.01892853327081765 -0.032325627122689105 0 -0.019793162591950134 -0.031553874686650822 0 -0.018573216665745122 -0.031085716218729093 0 -0.015790872694659813 -0.035059504437481251 0 -0.015058303976571917 -0.03139195405555946 0 -0.0098568724238148019 -0.031740390380687045 0 -0.0097048245584867767 -0.031687351358274926 0 -0.0094997864174089768 -0.031978158392834147 0 -0.0080903087844486164 -0.035300485404146618 0 -0.0030686572430401095 -0.031925911811903351 0 -0.0097048245584867767 -0.031687351358274926 0 -0.0091139338696812292 -0.03190734023797679 0 -0.0094997864174089768 -0.031978158392834147 0 -0.0085314338022971468 -0.027801446469041483 0 -0.015058303976571917 -0.03139195405555946 0 -0.0091562198111130363 -0.032213302195201604 0 -0.0091139338696812292 -0.03190734023797679 0 -0.0094997864174089768 -0.031978158392834147 0 -0.020690079687995987 -0.030728666642598025 0 -0.019538724212096192 -0.030147667737914927 0 -0.020588084752796217 -0.028972469249565626 0 -0.020690079687995987 -0.030728666642598025 0 -0.019793162591950134 -0.031553874686650822 0 -0.019538724212096192 -0.030147667737914927 0 -0.019793162591950134 -0.031553874686650822 0 -0.018573216665745122 -0.031085716218729093 0 -0.019538724212096192 -0.030147667737914927 0 -0.018573216665745122 -0.031085716218729093 0 -0.019538724212096192 -0.030147667737914927 0 -0.018291673942466422 -0.029630915153676038 0 -0.019538724212096192 -0.030147667737914927 0 -0.019164916992069833 -0.028261082104414449 0 -0.018291673942466422 -0.029630915153676038 0 -0.019538724212096192 -0.030147667737914927 0 -0.020588084752796217 -0.028972469249565626 0 -0.019164916992069833 -0.028261082104414449 0 -0.0087753606074138669 -0.026205200281577405 0 -0.0086856277076404406 -0.026826261334194919 0 -0.020457692087156129 -0.027108135705220505 0 -0.020588084752796217 -0.028972469249565626 0 -0.019164916992069833 -0.028261082104414449 0 -0.019164916992069833 -0.028261082104414449 0 -0.017493004134348247 -0.027557134247912111 0 -0.018291673942466422 -0.029630915153676038 0 -0.017493004134348247 -0.027557134247912111 0 -0.018291673942466422 -0.029630915153676038 0 -0.016608513779311829 -0.029440210811635732 0 -0.018291673942466422 -0.029630915153676038 0 -0.016608513779311829 -0.029440210811635732 0 -0.017263140310877754 -0.030695802314161792 0 -0.017493004134348247 -0.027557134247912111 0 -0.016608513779311829 -0.029440210811635732 0 -0.015957001807341168 -0.027849454177586695 0 -0.014342718694854435 -0.027360531040054582 0 -0.015957001807341168 -0.027849454177586695 0 -0.014869712662168993 -0.029431323893149404 0 -0.028053679342727848 -0.03530423262143912 0 -0.02796653967285263 -0.038071318963545715 0 -0.026722973766444311 -0.036062928598674875 0 -0.021178843266581069 -0.031320864292547983 0 -0.021362717164941931 -0.033597308739018172 0 -0.02796653967285263 -0.038071318963545715 0 -0.026397912020458644 -0.037175901439434778 0 -0.026722973766444311 -0.036062928598674875 0 -0.02796653967285263 -0.038071318963545715 0 -0.026397912020458644 -0.037175901439434778 0 -0.027086641027728384 -0.038264152286425823 0 -0.02796653967285263 -0.038071318963545715 0 -0.027313881943137292 -0.03879608617662738 0 -0.027086641027728384 -0.038264152286425823 0 -0.016608513779311829 -0.029440210811635732 0 -0.015957001807341168 -0.027849454177586695 0 -0.014869712662168993 -0.029431323893149404 0 -0.016608513779311829 -0.029440210811635732 0 -0.014869712662168993 -0.029431323893149404 0 -0.015474778888117465 -0.031403647097527486 0 -0.02796653967285263 -0.038071318963545715 0 -0.027313881943137292 -0.03879608617662738 0 -0.027146817569928903 -0.039141264669454043 0 -0.021362717164941931 -0.033597308739018172 0 -0.021509852567559874 -0.035576818028841224 0 -0.027313881943137292 -0.03879608617662738 0 -0.027086641027728384 -0.038264152286425823 0 -0.02715287463059075 -0.038793081039579361 0 -0.027313881943137292 -0.03879608617662738 0 -0.02724012113086062 -0.039021868515610431 0 -0.027146817569928903 -0.039141264669454043 0 -0.027313881943137292 -0.03879608617662738 0 -0.02715287463059075 -0.038793081039579361 0 -0.02736166569424503 -0.038965936295094372 0 -0.027313881943137292 -0.03879608617662738 0 -0.02724012113086062 -0.039021868515610431 0 -0.02736166569424503 -0.038965936295094372 0 -0.02724012113086062 -0.039021868515610431 0 -0.027434342450001075 -0.038869048082232988 0 -0.02736166569424503 -0.038965936295094372 0 -0.02724012113086062 -0.039021868515610431 0 -0.027022796613166224 -0.0390824837107605 0 -0.027434342450001075 -0.038869048082232988 0 -0.02724012113086062 -0.039021868515610431 0 -0.027022796613166224 -0.0390824837107605 0 -0.027146817569928903 -0.039141264669454043 0 -0.027022796613166224 -0.0390824837107605 0 -0.026304341611546555 -0.039082391648791001 0 -0.027117523172255124 -0.038475466693328145 0 -0.027022796613166224 -0.0390824837107605 0 -0.027434342450001075 -0.038869048082232988 0 -0.027117523172255124 -0.038475466693328145 0 -0.027434342450001075 -0.038869048082232988 0 -0.027789303646437651 -0.038333789024792585 0 -0.027117523172255124 -0.038475466693328145 0 -0.026274666401392938 -0.040384711082816278 0 -0.022246022758267918 -0.03940068699367319 0 -0.024570264281294218 -0.038519116348928045 0 -0.021509852567559874 -0.035576818028841224 0 -0.020244264538221309 -0.03574840706319822 0 -0.021509852567559874 -0.035576818028841224 0 -0.024253387011455862 -0.03946056665891106 0 -0.027022796613166224 -0.0390824837107605 0 -0.027146817569928903 -0.039141264669454043 0 -0.026304341611546555 -0.039082391648791001 0 -0.026274666401392938 -0.040384711082816278 0 -0.026304341611546555 -0.039082391648791001 0 -0.024570264281294218 -0.038519116348928045 0 -0.026304341611546555 -0.039082391648791001 0 -0.02595888757377943 -0.038081969642361227 0 -0.027117523172255124 -0.038475466693328145 0 -0.026304341611546555 -0.039082391648791001 0 -0.024570264281294218 -0.038519116348928045 0 -0.02595888757377943 -0.038081969642361227 0 -0.015474778888117465 -0.031403647097527486 0 -0.01732384427473016 -0.031869266064191867 0 -0.017263140310877754 -0.030695802314161792 0 -0.015790872694659813 -0.035059504437481251 0 -0.020244264538221309 -0.03574840706319822 0 -0.018573216665745122 -0.031085716218729093 0 -0.01732384427473016 -0.031869266064191867 0 -0.017263140310877754 -0.030695802314161792 0 -0.01892853327081765 -0.032325627122689105 0 -0.018573216665745122 -0.031085716218729093 0 -0.01732384427473016 -0.031869266064191867 0 -0.018573216665745122 -0.031085716218729093 0 -0.018291673942466422 -0.029630915153676038 0 -0.017263140310877754 -0.030695802314161792 0 -0.016608513779311829 -0.029440210811635732 0 -0.015474778888117465 -0.031403647097527486 0 -0.017263140310877754 -0.030695802314161792 0 -0.027340030142253589 -0.035114189486237797 0 -0.02682521100740352 -0.034207494352411605 0 -0.027649567206110448 -0.033499261118640725 0 -0.02632836103200482 -0.035050237975613879 0 -0.027340030142253589 -0.035114189486237797 0 -0.02686860165186683 -0.035632693039070303 0 -0.02632836103200482 -0.035050237975613879 0 -0.02686860165186683 -0.035632693039070303 0 -0.026428497848799141 -0.036060372481874992 0 -0.02632836103200482 -0.035050237975613879 0 -0.027340030142253589 -0.035114189486237797 0 -0.02682521100740352 -0.034207494352411605 0 -0.026015753141834661 -0.033128627489262298 0 -0.02632836103200482 -0.035050237975613879 0 -0.02682521100740352 -0.034207494352411605 0 -0.027974964625360858 -0.03069647486026655 0 -0.026015753141834661 -0.033128627489262298 0 -0.027649567206110448 -0.033499261118640725 0 -0.026015753141834661 -0.033128627489262298 0 -0.02682521100740352 -0.034207494352411605 0 -0.027649567206110448 -0.033499261118640725 0 -0.027649567206110448 -0.033499261118640725 0 -0.028477148873111844 -0.034775616035889398 0 -0.029420062111151758 -0.032573285469653365 0 -0.027340030142253589 -0.035114189486237797 0 -0.027649567206110448 -0.033499261118640725 0 -0.028477148873111844 -0.034775616035889398 0 -0.027340030142253589 -0.035114189486237797 0 -0.028477148873111844 -0.034775616035889398 0 -0.028174080556794847 -0.035888425795812015 0 -0.028477148873111844 -0.034775616035889398 0 -0.029310755906358826 -0.035683092142818763 0 -0.028174080556794847 -0.035888425795812015 0 -0.028477148873111844 -0.034775616035889398 0 -0.029310755906358826 -0.035683092142818763 0 -0.02973600293071189 -0.034456173338063376 0 -0.029310755906358826 -0.035683092142818763 0 -0.02973600293071189 -0.034456173338063376 0 -0.030644348930795918 -0.035915729117419463 0 -0.02973600293071189 -0.034456173338063376 0 -0.029420062111151758 -0.032573285469653365 0 -0.030889611207965503 -0.033333829724859473 0 -0.028477148873111844 -0.034775616035889398 0 -0.02973600293071189 -0.034456173338063376 0 -0.029420062111151758 -0.032573285469653365 0 -0.028756277601898899 -0.032892067584155679 0 -0.028039941315029682 -0.035623047349129473 0 -0.02722067252004701 -0.034705895517338346 0 -0.026524141551215189 -0.035309763305572922 0 -0.026397912020458644 -0.037175901439434778 0 -0.026722973766444311 -0.036062928598674875 0 -0.026779564456340246 -0.034486857709693008 0 -0.027219637213046995 -0.036451737372184045 0 -0.02908105822823568 -0.033837187539406184 0 -0.028459055853245242 -0.03754396745969249 0 -0.02973600293071189 -0.034456173338063376 0 -0.030889611207965503 -0.033333829724859473 0 -0.030644348930795918 -0.035915729117419463 0 -0.028039941315029682 -0.035623047349129473 0 -0.02722067252004701 -0.034705895517338346 0 -0.027389414454210267 -0.038274847978739243 0 -0.026397912020458644 -0.037175901439434778 0 -0.027086641027728384 -0.038264152286425823 0 -0.026695078722926029 -0.038565038910326331 0 -0.027219637213046995 -0.036451737372184045 0 -0.028459055853245242 -0.03754396745969249 0 -0.028459055853245242 -0.03754396745969249 0 -0.029475475530614019 -0.037677141275966566 0 -0.028459055853245242 -0.03754396745969249 0 -0.02821576474590435 -0.038550364414627551 0 -0.02715287463059075 -0.038793081039579361 0 -0.026695078722926029 -0.038565038910326331 0 -0.027486161525583301 -0.03899307960305877 0 -0.029002360662796101 -0.038165286794241693 0 -0.029009947933059277 -0.038100831780060601 0 -0.029040201683481311 -0.038068208041789599 0 -0.027086641027728384 -0.038264152286425823 0 -0.02715287463059075 -0.038793081039579361 0 -0.026695078722926029 -0.038565038910326331 0 -0.02715287463059075 -0.038793081039579361 0 -0.02736166569424503 -0.038965936295094372 0 -0.027486161525583301 -0.03899307960305877 0 -0.029009947933059277 -0.038100831780060601 0 -0.029040201683481311 -0.038068208041789599 0 -0.02838444985114974 -0.038317220018304635 0 -0.02736166569424503 -0.038965936295094372 0 -0.0276856456168285 -0.038773558483450751 0 -0.027486161525583301 -0.03899307960305877 0 -0.027434342450001075 -0.038869048082232988 0 -0.02736166569424503 -0.038965936295094372 0 -0.0276856456168285 -0.038773558483450751 0 -0.02821576474590435 -0.038550364414627551 0 -0.028326602730271148 -0.038189424965059629 0 -0.0276856456168285 -0.038773558483450751 0 -0.027486161525583301 -0.03899307960305877 0 -0.02838444985114974 -0.038317220018304635 0 -0.027434342450001075 -0.038869048082232988 0 -0.0276856456168285 -0.038773558483450751 0 -0.027789303646437651 -0.038333789024792585 0 -0.0276856456168285 -0.038773558483450751 0 -0.02838444985114974 -0.038317220018304635 0 -0.027789303646437651 -0.038333789024792585 0 -0.029040201683481311 -0.038068208041789599 0 -0.028719440334219942 -0.03827473219806786 0 -0.02838444985114974 -0.038317220018304635 0 -0.029040201683481311 -0.038068208041789599 0 -0.02866374562195146 -0.03785874537196162 0 -0.029080339997538934 -0.037276469016128716 0 -0.029040201683481311 -0.038068208041789599 0 -0.02866374562195146 -0.03785874537196162 0 -0.028719440334219942 -0.03827473219806786 0 -0.02866374562195146 -0.03785874537196162 0 -0.029080339997538934 -0.037276469016128716 0 -0.028612449921381348 -0.036779918322798241 0 -0.029080339997538934 -0.037276469016128716 0 -0.029360240314315323 -0.036426833472594823 0 -0.028612449921381348 -0.036779918322798241 0 -0.030644348930795918 -0.035915729117419463 0 -0.029040201683481311 -0.038068208041789599 0 -0.029080339997538934 -0.037276469016128716 0 -0.030644348930795918 -0.035915729117419463 0 -0.029080339997538934 -0.037276469016128716 0 -0.029360240314315323 -0.036426833472594823 0 -0.029310755906358826 -0.035683092142818763 0 -0.030644348930795918 -0.035915729117419463 0 -0.029360240314315323 -0.036426833472594823 0 -0.029310755906358826 -0.035683092142818763 0 -0.029360240314315323 -0.036426833472594823 0 -0.028612449921381348 -0.036779918322798241 0 -0.028174080556794847 -0.035888425795812015 0 -0.028040209219422581 -0.036546837439290901 0 -0.028612449921381348 -0.036779918322798241 0 -0.029310755906358826 -0.035683092142818763 0 -0.028174080556794847 -0.035888425795812015 0 -0.028612449921381348 -0.036779918322798241 0 -0.027340030142253589 -0.035114189486237797 0 -0.028174080556794847 -0.035888425795812015 0 -0.027386989740145994 -0.036290826962889822 0 -0.028174080556794847 -0.035888425795812015 0 -0.028040209219422581 -0.036546837439290901 0 -0.027386989740145994 -0.036290826962889822 0 -0.028040209219422581 -0.036546837439290901 0 -0.027941720927441595 -0.037193950911098207 0 -0.027386989740145994 -0.036290826962889822 0 -0.028040209219422581 -0.036546837439290901 0 -0.028612449921381348 -0.036779918322798241 0 -0.027941720927441595 -0.037193950911098207 0 -0.02866374562195146 -0.03785874537196162 0 -0.028612449921381348 -0.036779918322798241 0 -0.027941720927441595 -0.037193950911098207 0 -0.02866374562195146 -0.03785874537196162 0 -0.028189016510119749 -0.038117460671471738 0 -0.027941720927441595 -0.037193950911098207 0 -0.02866374562195146 -0.03785874537196162 0 -0.028189016510119749 -0.038117460671471738 0 -0.028552651654758912 -0.038426334228779904 0 -0.027941720927441595 -0.037193950911098207 0 -0.027039854892481816 -0.037684974362200883 0 -0.026944151007200337 -0.036867797385388451 0 -0.028189016510119749 -0.038117460671471738 0 -0.027941720927441595 -0.037193950911098207 0 -0.027039854892481816 -0.037684974362200883 0 -0.028189016510119749 -0.038117460671471738 0 -0.027039854892481816 -0.037684974362200883 0 -0.027713104717744592 -0.038519469358169869 0 -0.025741004691385027 -0.037098419797356827 0 -0.027039854892481816 -0.037684974362200883 0 -0.026944151007200337 -0.036867797385388451 0 -0.026944151007200337 -0.036867797385388451 0 -0.027386989740145994 -0.036290826962889822 0 -0.026428497848799141 -0.036060372481874992 0 -0.027941720927441595 -0.037193950911098207 0 -0.026944151007200337 -0.036867797385388451 0 -0.027386989740145994 -0.036290826962889822 0 -0.027340030142253589 -0.035114189486237797 0 -0.027386989740145994 -0.036290826962889822 0 -0.02686860165186683 -0.035632693039070303 0 -0.027386989740145994 -0.036290826962889822 0 -0.02686860165186683 -0.035632693039070303 0 -0.026428497848799141 -0.036060372481874992 0 -0.026382846504285271 -0.041021954528186869 0 -0.028240445520263464 -0.039431475342661462 0 -0.027474007337186319 -0.042078023339449544 0 -0.026067789884300398 -0.038884624960601633 0 -0.027039854892481816 -0.037684974362200883 0 -0.027713104717744592 -0.038519469358169869 0 -0.026067789884300398 -0.038884624960601633 0 -0.028240445520263464 -0.039431475342661462 0 -0.027713104717744592 -0.038519469358169869 0 -0.028240445520263464 -0.039431475342661462 0 -0.027713104717744592 -0.038519469358169869 0 -0.028313611535407002 -0.038710153014568476 0 -0.028189016510119749 -0.038117460671471738 0 -0.027713104717744592 -0.038519469358169869 0 -0.028313611535407002 -0.038710153014568476 0 -0.028189016510119749 -0.038117460671471738 0 -0.028313611535407002 -0.038710153014568476 0 -0.028552651654758912 -0.038426334228779904 0 -0.028313611535407002 -0.038710153014568476 0 -0.028382024927112334 -0.038620519586182012 0 -0.028552651654758912 -0.038426334228779904 0 -0.028386967278270777 -0.039562268815898083 0 -0.029724240417705029 -0.039517142998304486 0 -0.028240445520263464 -0.039431475342661462 0 -0.028382024927112334 -0.038620519586182012 0 -0.028389460001550643 -0.038503602693522015 0 -0.028240445520263464 -0.039431475342661462 0 -0.028313611535407002 -0.038710153014568476 0 -0.028382024927112334 -0.038620519586182012 0 -0.028382024927112334 -0.038620519586182012 0 -0.028441300605878614 -0.038302577671809605 0 -0.028195568112813263 -0.03829345655506302 0 -0.028382024927112334 -0.038620519586182012 0 -0.028195568112813263 -0.03829345655506302 0 -0.028222616682345894 -0.038352926158094096 0 -0.028382024927112334 -0.038620519586182012 0 -0.028222616682345894 -0.038352926158094096 0 -0.028389460001550643 -0.038503602693522015 0 -0.028382024927112334 -0.038620519586182012 0 -0.028552651654758912 -0.038426334228779904 0 -0.028441300605878614 -0.038302577671809605 0 -0.02866374562195146 -0.03785874537196162 0 -0.028552651654758912 -0.038426334228779904 0 -0.028719440334219942 -0.03827473219806786 0 -0.028552651654758912 -0.038426334228779904 0 -0.028719440334219942 -0.03827473219806786 0 -0.028441300605878614 -0.038302577671809605 0 -0.028441300605878614 -0.038302577671809605 0 -0.02838444985114974 -0.038317220018304635 0 -0.028098379637457011 -0.038090268648762901 0 -0.028719440334219942 -0.03827473219806786 0 -0.028441300605878614 -0.038302577671809605 0 -0.02838444985114974 -0.038317220018304635 0 -0.02838444985114974 -0.038317220018304635 0 -0.028098379637457011 -0.038090268648762901 0 -0.027789303646437651 -0.038333789024792585 0 -0.028098379637457011 -0.038090268648762901 0 -0.028195568112813263 -0.03829345655506302 0 -0.027955138390452761 -0.038135027914900491 0 -0.028441300605878614 -0.038302577671809605 0 -0.028098379637457011 -0.038090268648762901 0 -0.028195568112813263 -0.03829345655506302 0 -0.028195568112813263 -0.03829345655506302 0 -0.028089710963453959 -0.038248344743395377 0 -0.027955138390452761 -0.038135027914900491 0 -0.022784181038502382 -0.045773481627409698 0 -0.025894148864171258 -0.040948711256071336 0 -0.028089710963453959 -0.038248344743395377 0 -0.028110662809906591 -0.038225125871733219 0 -0.02799222282320259 -0.038216023380310347 0 -0.022784181038502382 -0.045773481627409698 0 -0.018560582950269577 -0.04938521064401992 0 -0.022257305879699717 -0.044602614051174772 0 -0.021950499091565864 -0.044583743464646809 0 -0.021964569003835008 -0.04461855855225684 0 -0.028089710963453959 -0.038248344743395377 0 -0.027955138390452761 -0.038135027914900491 0 -0.02799222282320259 -0.038216023380310347 0 -0.028195568112813263 -0.03829345655506302 0 -0.028089710963453959 -0.038248344743395377 0 -0.028222616682345894 -0.038352926158094096 0 -0.028089710963453959 -0.038248344743395377 0 -0.028110662809906591 -0.038225125871733219 0 -0.028222616682345894 -0.038352926158094096 0 -0.017373542727391889 -0.053348351991569329 0 -0.017552697601494357 -0.053259515991517029 0 -0.017199273649860909 -0.052997639321945185 0 -0.017054525265232601 -0.053243543198970629 0 -0.017373542727391889 -0.053348351991569329 0 -0.016882038166600149 -0.053479954665410147 0 -0.017054525265232601 -0.053243543198970629 0 -0.017373542727391889 -0.053348351991569329 0 -0.017199273649860909 -0.052997639321945185 0 -0.017054525265232601 -0.053243543198970629 0 -0.016843179401730676 -0.053040531279630578 0 -0.017199273649860909 -0.052997639321945185 0 -0.02541545863222236 -0.047531676331122881 0 -0.017649145608135023 -0.053408828860155494 0 -0.018985382044328928 -0.054937086447607211 0 -0.020120490822796225 -0.053758192883601584 0 -0.019300167365051159 -0.053485441690909838 0 -0.018985382044328928 -0.054937086447607211 0 -0.019300167365051159 -0.053485441690909838 0 -0.017994481808866921 -0.053935926080396601 0 -0.022784181038502382 -0.045773481627409698 0 -0.02541545863222236 -0.047531676331122881 0 -0.02541545863222236 -0.047531676331122881 0 -0.029724240417705029 -0.039517142998304486 0 -0.032507344402769152 -0.044134394713848155 0 -0.030644007112561877 -0.041877080339450881 0 -0.030462235331498846 -0.043749439741062324 0 -0.028188185364948663 -0.038200169095307109 0 -0.028222616682345894 -0.038352926158094096 0 -0.028389460001550643 -0.038503602693522015 0 -0.028110662809906591 -0.038225125871733219 0 -0.028188185364948663 -0.038200169095307109 0 -0.028222616682345894 -0.038352926158094096 0 -0.028240445520263464 -0.039431475342661462 0 -0.030644007112561877 -0.041877080339450881 0 -0.028912707670827195 -0.042899738337962463 0 -0.030644007112561877 -0.041877080339450881 0 -0.030462235331498846 -0.043749439741062324 0 -0.028912707670827195 -0.042899738337962463 0 -0.02541545863222236 -0.047531676331122881 0 -0.024334758197615155 -0.051522224905854196 0 -0.02541545863222236 -0.047531676331122881 0 -0.030109749358583904 -0.046009107194243698 0 -0.018985382044328928 -0.054937086447607211 0 -0.021035206437949788 -0.053949739567037518 0 -0.020120490822796225 -0.053758192883601584 0 -0.028612667242053046 -0.047625807610590543 0 -0.028587203651164943 -0.047709877729084804 0 -0.028617417754876084 -0.047829169054939787 0 -0.032507344402769152 -0.044134394713848155 0 -0.030462235331498846 -0.043749439741062324 0 -0.029293618145877151 -0.045005920810837395 0 -0.030462235331498846 -0.043749439741062324 0 -0.02929295232481894 -0.043985377933802278 0 -0.028912707670827195 -0.042899738337962463 0 -0.030462235331498846 -0.043749439741062324 0 -0.029293618145877151 -0.045005920810837395 0 -0.02929295232481894 -0.043985377933802278 0 -0.026635876039485827 -0.046187660869171782 0 -0.029293618145877151 -0.045005920810837395 0 -0.027701848548845193 -0.044814113292311407 0 -0.029293618145877151 -0.045005920810837395 0 -0.02929295232481894 -0.043985377933802278 0 -0.028528157882219438 -0.04423974989618909 0 -0.02929295232481894 -0.043985377933802278 0 -0.028528157882219438 -0.04423974989618909 0 -0.028912707670827195 -0.042899738337962463 0 -0.028528157882219438 -0.04423974989618909 0 -0.027502300046703815 -0.043886004321956829 0 -0.028912707670827195 -0.042899738337962463 0 -0.029293618145877151 -0.045005920810837395 0 -0.028528157882219438 -0.04423974989618909 0 -0.027701848548845193 -0.044814113292311407 0 -0.028528157882219438 -0.04423974989618909 0 -0.027701848548845193 -0.044814113292311407 0 -0.027502300046703815 -0.043886004321956829 0 -0.027502300046703815 -0.043886004321956829 0 -0.028912707670827195 -0.042899738337962463 0 -0.027474007337186319 -0.042078023339449544 0 -0.028240445520263464 -0.039431475342661462 0 -0.028912707670827195 -0.042899738337962463 0 -0.027474007337186319 -0.042078023339449544 0 -0.020080776849415432 -0.036583076256009976 0 -0.021299643529538233 -0.038923791963369758 0 -0.016013733534120039 -0.038378188246372465 0 -0.017346021817537881 -0.037758177551731588 0 -0.01680569083023712 -0.03721288109311776 0 -0.016013733534120039 -0.038378188246372465 0 -0.015742921067221069 -0.038103555344515865 0 -0.01680569083023712 -0.03721288109311776 0 -0.011505672198008052 -0.037761404403520743 0 -0.014066934552368677 -0.040062653207212098 0 -0.0077326316423617187 -0.037152508577515536 0 -0.0064378490128986464 -0.036896196322981599 0 -0.0073409983270664959 -0.036042478337653727 0 -0.020080776849415432 -0.036583076256009976 0 -0.013269257620781807 -0.037730970827355222 0 -0.016013733534120039 -0.038378188246372465 0 -0.015742921067221069 -0.038103555344515865 0 -0.01464320975058425 -0.038984603004533595 0 -0.011505672198008052 -0.037761404403520743 0 -0.013269257620781807 -0.037730970827355222 0 -0.0077326316423617187 -0.037152508577515536 0 -0.0064378490128986464 -0.036896196322981599 0 -0.0065858186618242788 -0.038366257033497199 0 -0.01838736245797145 -0.038192467933072356 0 -0.022246022758267918 -0.03940068699367319 0 -0.020077980857971304 -0.036750944741044012 0 -0.022246022758267918 -0.03940068699367319 0 -0.020077980857971304 -0.036750944741044012 0 -0.023067662295998308 -0.037343478966304661 0 -0.022635219491836781 -0.035577203565850604 0 -0.020077980857971304 -0.036750944741044012 0 -0.023067662295998308 -0.037343478966304661 0 -0.022635219491836781 -0.035577203565850604 0 -0.023067662295998308 -0.037343478966304661 0 -0.02496703678194977 -0.036987093406371151 0 -0.022246022758267918 -0.03940068699367319 0 -0.023067662295998308 -0.037343478966304661 0 -0.024570264281294218 -0.038519116348928045 0 -0.023067662295998308 -0.037343478966304661 0 -0.024570264281294218 -0.038519116348928045 0 -0.02496703678194977 -0.036987093406371151 0 -0.024570264281294218 -0.038519116348928045 0 -0.02595888757377943 -0.038081969642361227 0 -0.02496703678194977 -0.036987093406371151 0 -0.02595888757377943 -0.038081969642361227 0 -0.026240275524580071 -0.037253036908683028 0 -0.027117523172255124 -0.038475466693328145 0 -0.02595888757377943 -0.038081969642361227 0 -0.026240275524580071 -0.037253036908683028 0 -0.02496703678194977 -0.036987093406371151 0 -0.027789303646437651 -0.038333789024792585 0 -0.027117523172255124 -0.038475466693328145 0 -0.027716777795420831 -0.03780243091554239 0 -0.026240275524580071 -0.037253036908683028 0 -0.027117523172255124 -0.038475466693328145 0 -0.027716777795420831 -0.03780243091554239 0 -0.026240275524580071 -0.037253036908683028 0 -0.027716777795420831 -0.03780243091554239 0 -0.026297716950525157 -0.035662823549591417 0 -0.028098379637457011 -0.038090268648762901 0 -0.027789303646437651 -0.038333789024792585 0 -0.027716777795420831 -0.03780243091554239 0 -0.028098379637457011 -0.038090268648762901 0 -0.027716777795420831 -0.03780243091554239 0 -0.027955138390452761 -0.038135027914900491 0 -0.027646122028169125 -0.037845026900395005 0 -0.025000423302794655 -0.03818524667268041 0 -0.027716777795420831 -0.03780243091554239 0 -0.027955138390452761 -0.038135027914900491 0 -0.028033105344442082 -0.038082199501814143 0 -0.027997710716931065 -0.038156710944663302 0 -0.027955138390452761 -0.038135027914900491 0 -0.028033105344442082 -0.038082199501814143 0 -0.027997710716931065 -0.038156710944663302 0 -0.028033105344442082 -0.038082199501814143 0 -0.028023027091559006 -0.038172130975108548 0 -0.022635219491836781 -0.035577203565850604 0 -0.02496703678194977 -0.036987093406371151 0 -0.025165783640380728 -0.034440375109259215 0 -0.026240275524580071 -0.037253036908683028 0 -0.026297716950525157 -0.035662823549591417 0 -0.025165783640380728 -0.034440375109259215 0 -0.026240275524580071 -0.037253036908683028 0 -0.02496703678194977 -0.036987093406371151 0 -0.025165783640380728 -0.034440375109259215 0 -0.023386087891064382 -0.039077901410834483 0 -0.023331405560770749 -0.039037321735476999 0 -0.023362236419508561 -0.039024445959447755 0 -0.025000423302794655 -0.03818524667268041 0 -0.021299643529538233 -0.038923791963369758 0 -0.025000423302794655 -0.03818524667268041 0 -0.022510275091257803 -0.040688004524726547 0 -0.021299643529538233 -0.038923791963369758 0 -0.022510275091257803 -0.040688004524726547 0 -0.019110551138764656 -0.042780169598075367 0 -0.018075889599187718 -0.043127202834797762 0 -0.018353517246849971 -0.044078837525353201 0 -0.018630913080007312 -0.042076570410678013 0 -0.019110551138764656 -0.042780169598075367 0 -0.019503457992419412 -0.043012469886354952 0 -0.021299643529538233 -0.038923791963369758 0 -0.014066934552368677 -0.040062653207212098 0 -0.019110551138764656 -0.042780169598075367 0 -0.019503457992419412 -0.043012469886354952 0 -0.018353517246849971 -0.044078837525353201 0 -0.019238624439928489 -0.044277436955579168 0 -0.0195208491630889 -0.04528387817370947 0 -0.019110551138764656 -0.042780169598075367 0 -0.01848591397155783 -0.042581089358656371 0 -0.018200455247806203 -0.043059754277867186 0 -0.018630913080007312 -0.042076570410678013 0 -0.019110551138764656 -0.042780169598075367 0 -0.01848591397155783 -0.042581089358656371 0 -0.018630913080007312 -0.042076570410678013 0 -0.01848591397155783 -0.042581089358656371 0 -0.018009991492281323 -0.04240484199306719 0 -0.022510275091257803 -0.040688004524726547 0 -0.0195208491630889 -0.04528387817370947 0 -0.01848591397155783 -0.042581089358656371 0 -0.018009991492281323 -0.04240484199306719 0 -0.018200455247806203 -0.043059754277867186 0 -0.0195208491630889 -0.04528387817370947 0 -0.016139042117283692 -0.049013774607996621 0 -0.016549815975878037 -0.053504886939952201 0 -0.016516592364197214 -0.053407799709717679 0 -0.016638657923209645 -0.053306127841311127 0 -0.014066934552368677 -0.040062653207212098 0 -0.016139042117283692 -0.049013774607996621 0 -0.021666496843543361 -0.044623437261037992 0 -0.021950499091565864 -0.044583743464646809 0 -0.021964569003835008 -0.04461855855225684 0 -0.0195208491630889 -0.04528387817370947 0 -0.018560582950269577 -0.04938521064401992 0 -0.021693975785035239 -0.044693942090090755 0 -0.021666496843543361 -0.044623437261037992 0 -0.021964569003835008 -0.04461855855225684 0 -0.022510275091257803 -0.040688004524726547 0 -0.025894148864171258 -0.040948711256071336 0 -0.016549815975878037 -0.053504886939952201 0 -0.016882038166600149 -0.053479954665410147 0 -0.016638657923209645 -0.053306127841311127 0 -0.027997710716931065 -0.038156710944663302 0 -0.028023027091559006 -0.038172130975108548 0 -0.02799222282320259 -0.038216023380310347 0 -0.027997710716931065 -0.038156710944663302 0 -0.027955138390452761 -0.038135027914900491 0 -0.02799222282320259 -0.038216023380310347 0 -0.017054525265232601 -0.053243543198970629 0 -0.016638657923209645 -0.053306127841311127 0 -0.016843179401730676 -0.053040531279630578 0 -0.017054525265232601 -0.053243543198970629 0 -0.016882038166600149 -0.053479954665410147 0 -0.016638657923209645 -0.053306127841311127 0 -0.016638657923209645 -0.053306127841311127 0 -0.016448246914726999 -0.053069943231577925 0 -0.016843179401730676 -0.053040531279630578 0 -0.016330396726988727 -0.053538970654936763 0 -0.016638657923209645 -0.053306127841311127 0 -0.016448246914726999 -0.053069943231577925 0 -0.016139042117283692 -0.049013774607996621 0 -0.013515612684948948 -0.048842643754949545 0 -0.016330396726988727 -0.053538970654936763 0 -0.016448246914726999 -0.053069943231577925 0 -0.016069295529248639 -0.052969764162196085 0 -0.016139042117283692 -0.049013774607996621 0 -0.015622067973365359 -0.05310493947704336 0 -0.011493030195802494 -0.045733559545237439 0 -0.010678977386190336 -0.045369402311996147 0 -0.011296600077382191 -0.045180718571954458 0 -0.0077326316423617187 -0.037152508577515536 0 -0.0086801330148628241 -0.036158266989519863 0 -0.0073409983270664959 -0.036042478337653727 0 -0.0086801330148628241 -0.036158266989519863 0 -0.0073409983270664959 -0.036042478337653727 0 -0.0070767522114295964 -0.034950576612636924 0 -0.014066934552368677 -0.040062653207212098 0 -0.0080547413320707327 -0.039365919934190509 0 -0.011261547229379673 -0.04591195123530234 0 -0.011493030195802494 -0.045733559545237439 0 -0.010678977386190336 -0.045369402311996147 0 -0.0073409983270664959 -0.036042478337653727 0 -0.0066161001446071828 -0.035532289758437689 0 -0.0070767522114295964 -0.034950576612636924 0 -0.0064378490128986464 -0.036896196322981599 0 -0.0073409983270664959 -0.036042478337653727 0 -0.0066161001446071828 -0.035532289758437689 0 -0.0061812336710092312 -0.035049891912814282 0 -0.0066161001446071828 -0.035532289758437689 0 -0.0070767522114295964 -0.034950576612636924 0 -0.010678977386190336 -0.045369402311996147 0 -0.010618980154572084 -0.044714182036056219 0 -0.01094992143663375 -0.044961978627898871 0 -0.0080547413320707327 -0.039365919934190509 0 -0.0082061973252356962 -0.044310214747671599 0 -0.010678977386190336 -0.045369402311996147 0 -0.010618980154572084 -0.044714182036056219 0 -0.010099885403720412 -0.04481628995992052 0 -0.01063974190036529 -0.050073025945187789 0 -0.010097287583873182 -0.049302679601418042 0 -0.0098149045172164062 -0.050273432469660158 0 -0.010615583257802265 -0.047401042041514123 0 -0.0082061973252356962 -0.044310214747671599 0 -0.01063974190036529 -0.050073025945187789 0 -0.010828898976216019 -0.049422765746050798 0 -0.010097287583873182 -0.049302679601418042 0 -0.01063974190036529 -0.050073025945187789 0 -0.011436619388984826 -0.049876104013813274 0 -0.010828898976216019 -0.049422765746050798 0 -0.010615583257802265 -0.047401042041514123 0 -0.012974231892396553 -0.050007019182476339 0 -0.010618980154572084 -0.044714182036056219 0 -0.011118322164974348 -0.044630595759840137 0 -0.01094992143663375 -0.044961978627898871 0 -0.010678977386190336 -0.045369402311996147 0 -0.01094992143663375 -0.044961978627898871 0 -0.011296600077382191 -0.045180718571954458 0 -0.011118322164974348 -0.044630595759840137 0 -0.01094992143663375 -0.044961978627898871 0 -0.011296600077382191 -0.045180718571954458 0 -0.012974231892396553 -0.050007019182476339 0 -0.013515612684948948 -0.048842643754949545 0 -0.015780183463998496 -0.052338262730695161 0 -0.016069295529248639 -0.052969764162196085 0 -0.016353058679051995 -0.052694145830044593 0 -0.016448246914726999 -0.053069943231577925 0 -0.016069295529248639 -0.052969764162196085 0 -0.016353058679051995 -0.052694145830044593 0 -0.016843179401730676 -0.053040531279630578 0 -0.016987002504510285 -0.052799822909024109 0 -0.017199273649860909 -0.052997639321945185 0 -0.016448246914726999 -0.053069943231577925 0 -0.016353058679051995 -0.052694145830044593 0 -0.016843179401730676 -0.053040531279630578 0 -0.016353058679051995 -0.052694145830044593 0 -0.016843179401730676 -0.053040531279630578 0 -0.016987002504510285 -0.052799822909024109 0 -0.016987002504510285 -0.052799822909024109 0 -0.016346307505647768 -0.052105001480564309 0 -0.01758546956595625 -0.051811423275585737 0 -0.016353058679051995 -0.052694145830044593 0 -0.016987002504510285 -0.052799822909024109 0 -0.016346307505647768 -0.052105001480564309 0 -0.01448856057258719 -0.052612396984727527 0 -0.016346307505647768 -0.052105001480564309 0 -0.015371092453031287 -0.051264975703968159 0 -0.015780183463998496 -0.052338262730695161 0 -0.016353058679051995 -0.052694145830044593 0 -0.016346307505647768 -0.052105001480564309 0 -0.012974231892396553 -0.050007019182476339 0 -0.016932377699817178 -0.052403739882396487 0 -0.015371092453031287 -0.051264975703968159 0 -0.016730109048539842 -0.051025796958349627 0 -0.015971369533501496 -0.049940944470869213 0 -0.016346307505647768 -0.052105001480564309 0 -0.015371092453031287 -0.051264975703968159 0 -0.016730109048539842 -0.051025796958349627 0 -0.016346307505647768 -0.052105001480564309 0 -0.016730109048539842 -0.051025796958349627 0 -0.01758546956595625 -0.051811423275585737 0 -0.016730109048539842 -0.051025796958349627 0 -0.015971369533501496 -0.049940944470869213 0 -0.018291239291149668 -0.050062456621812003 0 -0.015371092453031287 -0.051264975703968159 0 -0.015971369533501496 -0.049940944470869213 0 -0.013826622658206051 -0.050658127847789759 0 -0.015971369533501496 -0.049940944470869213 0 -0.013826622658206051 -0.050658127847789759 0 -0.014639124618088039 -0.048971448532457308 0 -0.012485570490410281 -0.049949943591438659 0 -0.011904854239707394 -0.048160330982686642 0 -0.011093789800998025 -0.048721959201280744 0 -0.010825088855897714 -0.04759210930502783 0 -0.0099418769794890807 -0.048435080325518583 0 -0.011093789800998025 -0.048721959201280744 0 -0.0099418769794890807 -0.048435080325518583 0 -0.010097287583873182 -0.049302679601418042 0 -0.011093789800998025 -0.048721959201280744 0 -0.010828898976216019 -0.049422765746050798 0 -0.010097287583873182 -0.049302679601418042 0 -0.011436619388984826 -0.049876104013813274 0 -0.011093789800998025 -0.048721959201280744 0 -0.010828898976216019 -0.049422765746050798 0 -0.01448856057258719 -0.052612396984727527 0 -0.015371092453031287 -0.051264975703968159 0 -0.013826622658206051 -0.050658127847789759 0 -0.012974231892396553 -0.050007019182476339 0 -0.012485570490410281 -0.049949943591438659 0 -0.022553663852328026 -0.051640389509407449 0 -0.021771388941420246 -0.051667732570045893 0 -0.022361851275580984 -0.052289874382276155 0 -0.021771388941420246 -0.051667732570045893 0 -0.021551029410598652 -0.052470447018095716 0 -0.020551652030364673 -0.051948068110053973 0 -0.021771388941420246 -0.051667732570045893 0 -0.021551029410598652 -0.052470447018095716 0 -0.022361851275580984 -0.052289874382276155 0 -0.021551029410598652 -0.052470447018095716 0 -0.022361851275580984 -0.052289874382276155 0 -0.021849421493884573 -0.052925453988168558 0 -0.023140293499397134 -0.052772621205333631 0 -0.022361851275580984 -0.052289874382276155 0 -0.021849421493884573 -0.052925453988168558 0 -0.027579771546932301 -0.048722761518276529 0 -0.027448648279522495 -0.047926387297484101 0 -0.028617417754876084 -0.047829169054939787 0 -0.025404039482262823 -0.050645153455605968 0 -0.024334758197615155 -0.051522224905854196 0 -0.027448648279522495 -0.047926387297484101 0 -0.028587203651164943 -0.047709877729084804 0 -0.028617417754876084 -0.047829169054939787 0 -0.023140293499397134 -0.052772621205333631 0 -0.021849421493884573 -0.052925453988168558 0 -0.021035206437949788 -0.053949739567037518 0 -0.026668048361642299 -0.047223453965844826 0 -0.030109749358583904 -0.046009107194243698 0 -0.021551029410598652 -0.052470447018095716 0 -0.021849421493884573 -0.052925453988168558 0 -0.021165732185487646 -0.053159949446605112 0 -0.021849421493884573 -0.052925453988168558 0 -0.021165732185487646 -0.053159949446605112 0 -0.021035206437949788 -0.053949739567037518 0 -0.021551029410598652 -0.052470447018095716 0 -0.021165732185487646 -0.053159949446605112 0 -0.0205046205500658 -0.052936040796919243 0 -0.021165732185487646 -0.053159949446605112 0 -0.020727860298538896 -0.053453965938835023 0 -0.0205046205500658 -0.052936040796919243 0 -0.021165732185487646 -0.053159949446605112 0 -0.021035206437949788 -0.053949739567037518 0 -0.020727860298538896 -0.053453965938835023 0 -0.021035206437949788 -0.053949739567037518 0 -0.020727860298538896 -0.053453965938835023 0 -0.020120490822796225 -0.053758192883601584 0 -0.020727860298538896 -0.053453965938835023 0 -0.020120490822796225 -0.053758192883601584 0 -0.0205046205500658 -0.052936040796919243 0 -0.020120490822796225 -0.053758192883601584 0 -0.0205046205500658 -0.052936040796919243 0 -0.019300167365051159 -0.053485441690909838 0 -0.0205046205500658 -0.052936040796919243 0 -0.020551652030364673 -0.051948068110053973 0 -0.019570263052817751 -0.052594248845514363 0 -0.021551029410598652 -0.052470447018095716 0 -0.0205046205500658 -0.052936040796919243 0 -0.020551652030364673 -0.051948068110053973 0 -0.020551652030364673 -0.051948068110053973 0 -0.019035615908255841 -0.05186092644928559 0 -0.019570263052817751 -0.052594248845514363 0 -0.019035615908255841 -0.05186092644928559 0 -0.019570263052817751 -0.052594248845514363 0 -0.018419385934979982 -0.05274970151258257 0 -0.0205046205500658 -0.052936040796919243 0 -0.019570263052817751 -0.052594248845514363 0 -0.019300167365051159 -0.053485441690909838 0 -0.019570263052817751 -0.052594248845514363 0 -0.019300167365051159 -0.053485441690909838 0 -0.018419385934979982 -0.05274970151258257 0 -0.016987002504510285 -0.052799822909024109 0 -0.017994481808866921 -0.053935926080396601 0 -0.018419385934979982 -0.05274970151258257 0 -0.019300167365051159 -0.053485441690909838 0 -0.017994481808866921 -0.053935926080396601 0 -0.018419385934979982 -0.05274970151258257 0 -0.017062842341203491 -0.052880779747739214 0 -0.017649145608135023 -0.053408828860155494 0 -0.016987002504510285 -0.052799822909024109 0 -0.01758546956595625 -0.051811423275585737 0 -0.018419385934979982 -0.05274970151258257 0 -0.019035615908255841 -0.05186092644928559 0 -0.01758546956595625 -0.051811423275585737 0 -0.018419385934979982 -0.05274970151258257 0 -0.016730109048539842 -0.051025796958349627 0 -0.01758546956595625 -0.051811423275585737 0 -0.018291239291149668 -0.050062456621812003 0 -0.019035615908255841 -0.05186092644928559 0 -0.01758546956595625 -0.051811423275585737 0 -0.018291239291149668 -0.050062456621812003 0 -0.015971369533501496 -0.049940944470869213 0 -0.018291239291149668 -0.050062456621812003 0 -0.01729912187881999 -0.048879358444032461 0 -0.018291239291149668 -0.050062456621812003 0 -0.019878011795798917 -0.050906128952287001 0 -0.020367017561350998 -0.049740560410077017 0 -0.019035615908255841 -0.05186092644928559 0 -0.018291239291149668 -0.050062456621812003 0 -0.019878011795798917 -0.050906128952287001 0 -0.020551652030364673 -0.051948068110053973 0 -0.019035615908255841 -0.05186092644928559 0 -0.019878011795798917 -0.050906128952287001 0 -0.019878011795798917 -0.050906128952287001 0 -0.021099518251995214 -0.050882004259754809 0 -0.020367017561350998 -0.049740560410077017 0 -0.020551652030364673 -0.051948068110053973 0 -0.019878011795798917 -0.050906128952287001 0 -0.021099518251995214 -0.050882004259754809 0 -0.021771388941420246 -0.051667732570045893 0 -0.020551652030364673 -0.051948068110053973 0 -0.021099518251995214 -0.050882004259754809 0 -0.021099518251995214 -0.050882004259754809 0 -0.020367017561350998 -0.049740560410077017 0 -0.02171063262681559 -0.050129056466677299 0 -0.020367017561350998 -0.049740560410077017 0 -0.02171063262681559 -0.050129056466677299 0 -0.022066966368971524 -0.049061457462043274 0 -0.022806992783988601 -0.049985432543198836 0 -0.02171063262681559 -0.050129056466677299 0 -0.022066966368971524 -0.049061457462043274 0 -0.022806992783988601 -0.049985432543198836 0 -0.02171063262681559 -0.050129056466677299 0 -0.022370066690520402 -0.050888104826243917 0 -0.021099518251995214 -0.050882004259754809 0 -0.02171063262681559 -0.050129056466677299 0 -0.022370066690520402 -0.050888104826243917 0 -0.021771388941420246 -0.051667732570045893 0 -0.021099518251995214 -0.050882004259754809 0 -0.022370066690520402 -0.050888104826243917 0 -0.022553663852328026 -0.051640389509407449 0 -0.021771388941420246 -0.051667732570045893 0 -0.022370066690520402 -0.050888104826243917 0 -0.022907825999167457 -0.047033822922439114 0 -0.021621748886708592 -0.047228599740073228 0 -0.022411030554455789 -0.048118690574162362 0 -0.021621748886708592 -0.047228599740073228 0 -0.022411030554455789 -0.048118690574162362 0 -0.021007364266093589 -0.048166348256277719 0 -0.022411030554455789 -0.048118690574162362 0 -0.022066966368971524 -0.049061457462043274 0 -0.021007364266093589 -0.048166348256277719 0 -0.020367017561350998 -0.049740560410077017 0 -0.022066966368971524 -0.049061457462043274 0 -0.021007364266093589 -0.048166348256277719 0 -0.020367017561350998 -0.049740560410077017 0 -0.021007364266093589 -0.048166348256277719 0 -0.019421900820154901 -0.048178011028543029 0 -0.021621748886708592 -0.047228599740073228 0 -0.021007364266093589 -0.048166348256277719 0 -0.020284833304905513 -0.04660977588581286 0 -0.021007364266093589 -0.048166348256277719 0 -0.019421900820154901 -0.048178011028543029 0 -0.020284833304905513 -0.04660977588581286 0 -0.01911241089764994 -0.048416589498607193 0 -0.01999973829857726 -0.04672615433197904 0 -0.018822845731229249 -0.048579005014448721 0 -0.017492111841541411 -0.046980471535249535 0 -0.019719729358130045 -0.046896952554635697 0 -0.018342370914211016 -0.049986098890948898 0 -0.01911241089764994 -0.048416589498607193 0 -0.018291239291149668 -0.050062456621812003 0 -0.020367017561350998 -0.049740560410077017 0 -0.019421900820154901 -0.048178011028543029 0 -0.018291239291149668 -0.050062456621812003 0 -0.018822845731229249 -0.048579005014448721 0 -0.01729912187881999 -0.048879358444032461 0 -0.018822845731229249 -0.048579005014448721 0 -0.01729912187881999 -0.048879358444032461 0 -0.017492111841541411 -0.046980471535249535 0 -0.017492111841541411 -0.046980471535249535 0 -0.018342843009055181 -0.044999925967976348 0 -0.015894796992492133 -0.04499985652963321 0 -0.018342843009055181 -0.044999925967976348 0 -0.019719729358130045 -0.046896952554635697 0 -0.020790778381651609 -0.044999913758850305 0 -0.017492111841541411 -0.046980471535249535 0 -0.018342843009055181 -0.044999925967976348 0 -0.019719729358130045 -0.046896952554635697 0 -0.021621748886708592 -0.047228599740073228 0 -0.020284833304905513 -0.04660977588581286 0 -0.021600891220100123 -0.046238879378538982 0 -0.020284833304905513 -0.04660977588581286 0 -0.020791885860345131 -0.044999784657209357 0 -0.021600891220100123 -0.046238879378538982 0 -0.01999973829857726 -0.04672615433197904 0 -0.020790979508458665 -0.045000280230923631 0 -0.023130246097017523 -0.044999809692023295 0 -0.020791885860345131 -0.044999784657209357 0 -0.021600891220100123 -0.046238879378538982 0 -0.022907825999167457 -0.047033822922439114 0 -0.021621748886708592 -0.047228599740073228 0 -0.021600891220100123 -0.046238879378538982 0 -0.01301844309839828 -0.048881995557120889 0 -0.014639124618088039 -0.048971448532457308 0 -0.014129161006871817 -0.047419594246665787 0 -0.01301844309839828 -0.048881995557120889 0 -0.014129161006871817 -0.047419594246665787 0 -0.012048808310805898 -0.047021873686910201 0 -0.011904854239707394 -0.048160330982686642 0 -0.011390198289508482 -0.046680886896367561 0 -0.010825088855897714 -0.04759210930502783 0 -0.010725337396170148 -0.046436932150804869 0 -0.0096264736916563138 -0.047559815611173561 0 -0.013826622658206051 -0.050658127847789759 0 -0.01301844309839828 -0.048881995557120889 0 -0.014639124618088039 -0.048971448532457308 0 -0.015971369533501496 -0.049940944470869213 0 -0.014639124618088039 -0.048971448532457308 0 -0.0158742955767633 -0.047950797533714937 0 -0.015971369533501496 -0.049940944470869213 0 -0.01729912187881999 -0.048879358444032461 0 -0.0158742955767633 -0.047950797533714937 0 -0.01729912187881999 -0.048879358444032461 0 -0.017492111841541411 -0.046980471535249535 0 -0.0158742955767633 -0.047950797533714937 0 -0.014639124618088039 -0.048971448532457308 0 -0.0158742955767633 -0.047950797533714937 0 -0.014129161006871817 -0.047419594246665787 0 -0.015521069093847172 -0.046487665353947001 0 -0.013446669883969094 -0.044999895645847776 0 -0.014129161006871817 -0.047419594246665787 0 -0.0158742955767633 -0.047950797533714937 0 -0.015521069093847172 -0.046487665353947001 0 -0.014129161006871817 -0.047419594246665787 0 -0.017492111841541411 -0.046980471535249535 0 -0.0158742955767633 -0.047950797533714937 0 -0.015521069093847172 -0.046487665353947001 0 -0.017492111841541411 -0.046980471535249535 0 -0.015521069093847172 -0.046487665353947001 0 -0.015894796992492133 -0.04499985652963321 0 -0.015521069093847172 -0.046487665353947001 0 -0.015894796992492133 -0.04499985652963321 0 -0.013446669883969094 -0.044999895645847776 0 -0.013446669883969094 -0.044999895645847776 0 -0.014129161006871817 -0.047419594246665787 0 -0.012048808310805898 -0.047021873686910201 0 -0.011390198289508482 -0.046680886896367561 0 -0.010998136246798126 -0.045000135929117877 0 -0.013446669883969094 -0.044999895645847776 0 -0.012048808310805898 -0.047021873686910201 0 -0.010998648023283026 -0.044999887971904962 0 -0.010995473163770053 -0.044999870601017102 0 -0.0085676641611558465 -0.044999666642831816 0 -0.0095031995496250975 -0.046297114381850017 0 -0.0085676641611558465 -0.044999666642831816 0 -0.0095031995496250975 -0.046297114381850017 0 -0.0081902588577876748 -0.046127984511452842 0 -0.0095031995496250975 -0.046297114381850017 0 -0.0081902588577876748 -0.046127984511452842 0 -0.0087157079852102012 -0.046999033267832016 0 -0.010725337396170148 -0.046436932150804869 0 -0.010995473163770053 -0.044999870601017102 0 -0.0095031995496250975 -0.046297114381850017 0 -0.0065612181640888724 -0.045516332413253736 0 -0.0069685997897641567 -0.04499999787866537 0 -0.0053717559566320919 -0.044999991552334362 0 -0.0085654977098984456 -0.044999999454990003 0 -0.0065612181640888724 -0.045516332413253736 0 -0.0069685997897641567 -0.04499999787866537 0 -0.0085676641611558465 -0.044999666642831816 0 -0.0075230622442315218 -0.045317002024294242 0 -0.0081902588577876748 -0.046127984511452842 0 -0.0085650553673651351 -0.045000115021976719 0 -0.0071400316940250595 -0.045415355418215425 0 -0.0075230622442315218 -0.045317002024294242 0 -0.0081902588577876748 -0.046127984511452842 0 -0.0073383094567102203 -0.046211214626303072 0 -0.0081902588577876748 -0.046127984511452842 0 -0.0073383094567102203 -0.046211214626303072 0 -0.0076551561859473068 -0.046883939948204681 0 -0.0073383094567102203 -0.046211214626303072 0 -0.0076551561859473068 -0.046883939948204681 0 -0.0067190232835538403 -0.046674473501193393 0 -0.0075230622442315218 -0.045317002024294242 0 -0.0073383094567102203 -0.046211214626303072 0 -0.0066079415630630814 -0.046040868786535141 0 -0.0076551561859473068 -0.046883939948204681 0 -0.0081269784505890574 -0.047437953313481121 0 -0.0075667727132563483 -0.047667475413518262 0 -0.0076551561859473068 -0.046883939948204681 0 -0.0075667727132563483 -0.047667475413518262 0 -0.0069397093395844253 -0.047424828934348767 0 -0.0076551561859473068 -0.046883939948204681 0 -0.0069397093395844253 -0.047424828934348767 0 -0.0067190232835538403 -0.046674473501193393 0 -0.0081902588577876748 -0.046127984511452842 0 -0.0076551561859473068 -0.046883939948204681 0 -0.0087157079852102012 -0.046999033267832016 0 -0.0076551561859473068 -0.046883939948204681 0 -0.0081269784505890574 -0.047437953313481121 0 -0.0087157079852102012 -0.046999033267832016 0 -0.0081269784505890574 -0.047437953313481121 0 -0.0075667727132563483 -0.047667475413518262 0 -0.0079991098210692915 -0.048225417967364577 0 -0.0081269784505890574 -0.047437953313481121 0 -0.0086610482560851385 -0.047812159290244433 0 -0.0079991098210692915 -0.048225417967364577 0 -0.0081269784505890574 -0.047437953313481121 0 -0.0087157079852102012 -0.046999033267832016 0 -0.0086610482560851385 -0.047812159290244433 0 -0.0075667727132563483 -0.047667475413518262 0 -0.0079991098210692915 -0.048225417967364577 0 -0.0072399324070560531 -0.048119257675180521 0 -0.0075667727132563483 -0.047667475413518262 0 -0.0072399324070560531 -0.048119257675180521 0 -0.0069397093395844253 -0.047424828934348767 0 -0.010725337396170148 -0.046436932150804869 0 -0.0095031995496250975 -0.046297114381850017 0 -0.0096264736916563138 -0.047559815611173561 0 -0.0095031995496250975 -0.046297114381850017 0 -0.0087157079852102012 -0.046999033267832016 0 -0.0096264736916563138 -0.047559815611173561 0 -0.0086610482560851385 -0.047812159290244433 0 -0.0096264736916563138 -0.047559815611173561 0 -0.0093042957987583483 -0.048167464562145622 0 -0.0087157079852102012 -0.046999033267832016 0 -0.0086610482560851385 -0.047812159290244433 0 -0.0096264736916563138 -0.047559815611173561 0 -0.010825088855897714 -0.04759210930502783 0 -0.0096264736916563138 -0.047559815611173561 0 -0.0099418769794890807 -0.048435080325518583 0 -0.0096264736916563138 -0.047559815611173561 0 -0.0099418769794890807 -0.048435080325518583 0 -0.0093042957987583483 -0.048167464562145622 0 -0.0099418769794890807 -0.048435080325518583 0 -0.0092053472139167966 -0.048609449060893616 0 -0.0093042957987583483 -0.048167464562145622 0 -0.0099418769794890807 -0.048435080325518583 0 -0.0094900676212186647 -0.049050735391610034 0 -0.0092053472139167966 -0.048609449060893616 0 -0.0099418769794890807 -0.048435080325518583 0 -0.010097287583873182 -0.049302679601418042 0 -0.0094900676212186647 -0.049050735391610034 0 -0.010097287583873182 -0.049302679601418042 0 -0.0094900676212186647 -0.049050735391610034 0 -0.0091620557435698399 -0.049634341257505751 0 -0.0090193757704162651 -0.048961901784978702 0 -0.0084589835348547106 -0.048728944502694195 0 -0.0091620557435698399 -0.049634341257505751 0 -0.0082840646524585723 -0.048576259547824539 0 -0.0089237750135055301 -0.049482426519676243 0 -0.0094900676212186647 -0.049050735391610034 0 -0.0090193757704162651 -0.048961901784978702 0 -0.0091620557435698399 -0.049634341257505751 0 -0.0094900676212186647 -0.049050735391610034 0 -0.0090193757704162651 -0.048961901784978702 0 -0.0092053472139167966 -0.048609449060893616 0 -0.0090193757704162651 -0.048961901784978702 0 -0.0087410433223393622 -0.048700467808312629 0 -0.0092053472139167966 -0.048609449060893616 0 -0.0090193757704162651 -0.048961901784978702 0 -0.0087410433223393622 -0.048700467808312629 0 -0.0084589835348547106 -0.048728944502694195 0 -0.0087410433223393622 -0.048700467808312629 0 -0.008752838540588519 -0.048347901202246107 0 -0.0084235184491307669 -0.048774777537116093 0 -0.0087410433223393622 -0.048700467808312629 0 -0.0092053472139167966 -0.048609449060893616 0 -0.008752838540588519 -0.048347901202246107 0 -0.0092053472139167966 -0.048609449060893616 0 -0.0093042957987583483 -0.048167464562145622 0 -0.008752838540588519 -0.048347901202246107 0 -0.0086610482560851385 -0.047812159290244433 0 -0.0093042957987583483 -0.048167464562145622 0 -0.008752838540588519 -0.048347901202246107 0 -0.008752838540588519 -0.048347901202246107 0 -0.0079991098210692915 -0.048225417967364577 0 -0.0084235184491307669 -0.048774777537116093 0 -0.0086610482560851385 -0.047812159290244433 0 -0.008752838540588519 -0.048347901202246107 0 -0.0079991098210692915 -0.048225417967364577 0 -0.0078504410283051843 -0.048681389919291551 0 -0.0084235184491307669 -0.048774777537116093 0 -0.007594721559644379 -0.04909267320461147 0 -0.0079991098210692915 -0.048225417967364577 0 -0.0078504410283051843 -0.048681389919291551 0 -0.0084235184491307669 -0.048774777537116093 0 -0.0072399324070560531 -0.048119257675180521 0 -0.0074015557197907251 -0.048626765879002221 0 -0.0067868841330473561 -0.048625045034433038 0 -0.0079991098210692915 -0.048225417967364577 0 -0.0072399324070560531 -0.048119257675180521 0 -0.0074015557197907251 -0.048626765879002221 0 -0.0078504410283051843 -0.048681389919291551 0 -0.0074015557197907251 -0.048626765879002221 0 -0.007594721559644379 -0.04909267320461147 0 -0.0079991098210692915 -0.048225417967364577 0 -0.0078504410283051843 -0.048681389919291551 0 -0.0074015557197907251 -0.048626765879002221 0 -0.007594721559644379 -0.04909267320461147 0 -0.0075397492121518734 -0.049847965925102974 0 -0.0068412992981169629 -0.049259988069561597 0 -0.0074015557197907251 -0.048626765879002221 0 -0.0068412992981169629 -0.049259988069561597 0 -0.0067868841330473561 -0.048625045034433038 0 -0.0074015557197907251 -0.048626765879002221 0 -0.007594721559644379 -0.04909267320461147 0 -0.0068412992981169629 -0.049259988069561597 0 -0.0093193717256322018 -0.049405179963697858 0 -0.0046576364331598723 -0.046713508645871676 0 -0.0084235184491307669 -0.048774777537116093 0 -0.0084589835348547106 -0.048728944502694195 0 -0.0089089089953925914 -0.048157813193917737 0 -0.0084235184491307669 -0.048774777537116093 0 -0.007594721559644379 -0.04909267320461147 0 -0.0075397492121518734 -0.049847965925102974 0 -0.0087410433223393622 -0.048700467808312629 0 -0.0084235184491307669 -0.048774777537116093 0 -0.0084589835348547106 -0.048728944502694195 0 -0.0084589835348547106 -0.048728944502694195 0 -0.0083897908335813284 -0.048011358262764883 0 -0.0089089089953925914 -0.048157813193917737 0 -0.0046576364331598723 -0.046713508645871676 0 -0.0050482863779971335 -0.038830892063138063 0 -0.0083897908335813284 -0.048011358262764883 0 -0.0089089089953925914 -0.048157813193917737 0 -0.0082429703411932183 -0.047378872810577621 0 0.002105972509795741 -0.04499953821680823 0 0.0019703054156638652 -0.04489035448231897 0 0.0020795898979650289 -0.045159262296956153 0 -0.0046576364331598723 -0.046713508645871676 0 -0.0028607309448662943 -0.047627674823492415 0 -0.0011055029546653626 -0.043067924370121947 0 -0.0020678317636733975 -0.041386110733268908 0 -0.0022498890021469715 -0.042787909528972309 0 0.0031054398845980287 -0.041251349391209856 0 -0.0046576364331598723 -0.046713508645871676 0 0.0031054398845980287 -0.041251349391209856 0 -0.0013703115565249339 -0.039844532154168152 0 0.0040547922547826722 -0.038001611521214784 0 -0.00012111251800899203 -0.037963439577137353 0 -0.00029914269510001809 -0.036941115545594295 0 0.002018250420305687 -0.044631332941768562 0 0.002105972509795741 -0.04499953821680823 0 0.0019703054156638652 -0.04489035448231897 0 -0.0020678317636733975 -0.041386110733268908 0 -0.0022498890021469715 -0.042787909528972309 0 -0.0033794623159872292 -0.04249285998292552 0 -0.0013703115565249339 -0.039844532154168152 0 -0.0050482863779971335 -0.038830892063138063 0 -0.00012111251800899203 -0.037963439577137353 0 -0.00029914269510001809 -0.036941115545594295 0 -0.0046341962540928025 -0.035922866863641094 0 -0.0014628514124653709 -0.035312167478296665 0 -0.0050482863779971335 -0.038830892063138063 0 -0.0026256165673181546 -0.034069517264134451 0 -0.0012286017516772016 -0.033395376045970412 0 -0.0028726970789404865 -0.032549464831525113 0 -0.0061812336710092312 -0.035049891912814282 0 -0.0057340249778241306 -0.034734337048254516 0 -0.0057836325076629216 -0.034719076384509669 0 -0.0049887283999790451 -0.033787918799214257 0 -0.0050482863779971335 -0.038830892063138063 0 -0.0058659031994675792 -0.039292303793872295 0 -0.0082061973252356962 -0.044310214747671599 0 -0.0081646906010433909 -0.047398131518884661 0 -0.007296326812273852 -0.047604590844931599 0 -0.0078631369178562959 -0.047756450649028066 0 -0.0061812336710092312 -0.035049891912814282 0 -0.0057836325076629216 -0.034719076384509669 0 -0.006392362384726534 -0.034530746364448445 0 -0.0081646906010433909 -0.047398131518884661 0 -0.0081267674389755122 -0.047789038072837887 0 -0.0078631369178562959 -0.047756450649028066 0 -0.0082429703411932183 -0.047378872810577621 0 -0.0081646906010433909 -0.047398131518884661 0 -0.0081267674389755122 -0.047789038072837887 0 -0.0050482863779971335 -0.038830892063138063 0 -0.0058659031994675792 -0.039292303793872295 0 -0.0061812336710092312 -0.035049891912814282 0 -0.0070767522114295964 -0.034950576612636924 0 -0.006392362384726534 -0.034530746364448445 0 -0.010097287583873182 -0.049302679601418042 0 -0.0098149045172164062 -0.050273432469660158 0 -0.0091620557435698399 -0.049634341257505751 0 -0.0082061973252356962 -0.044310214747671599 0 -0.0089237750135055301 -0.049482426519676243 0 -0.0084589835348547106 -0.048728944502694195 0 -0.0083897908335813284 -0.048011358262764883 0 -0.0078612380491314589 -0.048208905438127531 0 -0.0083897908335813284 -0.048011358262764883 0 -0.0078612380491314589 -0.048208905438127531 0 -0.0081267674389755122 -0.047789038072837887 0 -0.0083897908335813284 -0.048011358262764883 0 -0.0082429703411932183 -0.047378872810577621 0 -0.0081267674389755122 -0.047789038072837887 0 -0.007296326812273852 -0.047604590844931599 0 -0.0078612380491314589 -0.048208905438127531 0 -0.0078631369178562959 -0.047756450649028066 0 -0.0078612380491314589 -0.048208905438127531 0 -0.0081267674389755122 -0.047789038072837887 0 -0.0078631369178562959 -0.047756450649028066 0 0.010378870359796238 -0.039408443113538159 0 0.011266688776246382 -0.03913843616290013 0 0.010964810678607394 -0.04101269396136014 0 0.010378870359796238 -0.039408443113538159 0 0.0097411149834393009 -0.040882481391544517 0 0.0088656066404656769 -0.040045273300084602 0 0.0090449149979936142 -0.040095785428776412 0 0.013635974532209424 -0.039177895638045385 0 0.010378870359796238 -0.039408443113538159 0 0.0097411149834393009 -0.040882481391544517 0 0.010964810678607394 -0.04101269396136014 0 0.0097411149834393009 -0.040882481391544517 0 0.0088656066404656769 -0.040045273300084602 0 0.0086925000660343678 -0.041814269176686736 0 0.020693589931896659 -0.034660389082486975 0 0.019607177544853645 -0.035800041147863025 0 0.021962587470577853 -0.035719079839765674 0 0.02046449568930309 -0.037166795223031353 0 0.019607177544853645 -0.035800041147863025 0 0.021962587470577853 -0.035719079839765674 0 0.013635974532209424 -0.039177895638045385 0 0.017257187170766984 -0.0364769121802146 0 0.010378870359796238 -0.039408443113538159 0 0.0093390184744877591 -0.039899821452432128 0 0.010615389989963406 -0.038518974215144629 0 0.010378870359796238 -0.039408443113538159 0 0.010615389989963406 -0.038518974215144629 0 0.011266688776246382 -0.03913843616290013 0 0.0012759551923035681 -0.040252898310406959 0 0.0018529995251390693 -0.042367599244678408 0 0.0011876195818800647 -0.043700534412119879 0 0.012202846486269304 -0.036959172979709964 0 0.011266688776246382 -0.03913843616290013 0 0.012188353984791959 -0.039857662647998685 0 0.012202846486269304 -0.036959172979709964 0 0.010615389989963406 -0.038518974215144629 0 0.011266688776246382 -0.03913843616290013 0 0.013252866169444563 -0.037124528248161766 0 0.0064567971331756079 -0.041801870833341512 0 0.0030166647224202205 -0.041287127157696911 0 0.0018529995251390693 -0.042367599244678408 0 0.0025080933465481503 -0.043576909608816841 0 0.002018250420305687 -0.044631332941768562 0 0.0019919938014480798 -0.044622262680619335 0 0.0019703054156638652 -0.04489035448231897 0 0.0036650153876058543 -0.04160490025808556 0 0.0021390631227020517 -0.044506649019895872 0 0.0030166647224202205 -0.041287127157696911 0 0.0023246344378182043 -0.041420818636827464 0 0.0018529995251390693 -0.042367599244678408 0 0.0019803125095524013 -0.041070140199004214 0 0.0023246344378182043 -0.041420818636827464 0 0.0018529995251390693 -0.042367599244678408 0 0.0025080933465481503 -0.043576909608816841 0 0.0017743915855255893 -0.044409101616014489 0 0.0018898693572908334 -0.045271526965354289 0 0.0021390631227020517 -0.044506649019895872 0 0.0019831136764940343 -0.045053086833636041 0 0.0018529995251390693 -0.042367599244678408 0 0.0025080933465481503 -0.043576909608816841 0 0.0011876195818800647 -0.043700534412119879 0 0.0025080933465481503 -0.043576909608816841 0 0.0017743915855255893 -0.044409101616014489 0 0.0011876195818800647 -0.043700534412119879 0 0.011266688776246382 -0.03913843616290013 0 0.012188353984791959 -0.039857662647998685 0 0.010964810678607394 -0.04101269396136014 0 0.010964810678607394 -0.04101269396136014 0 0.012140387061424609 -0.042894938023186627 0 0.010712375870191247 -0.042691503241424227 0 0.0064567971331756079 -0.041801870833341512 0 0.0018974134632581423 -0.045739983235050082 0 0.012188353984791959 -0.039857662647998685 0 0.010964810678607394 -0.04101269396136014 0 0.012140387061424609 -0.042894938023186627 0 0.0017743915855255893 -0.044409101616014489 0 0.0011876195818800647 -0.043700534412119879 0 0.0013234731907410446 -0.045961708845336229 0 0.0017743915855255893 -0.044409101616014489 0 0.0018898693572908334 -0.045271526965354289 0 0.0013234731907410446 -0.045961708845336229 0 0.0019703054156638652 -0.04489035448231897 0 0.0020795898979650289 -0.045159262296956153 0 0.0018898693572908334 -0.045271526965354289 0 0.0020795898979650289 -0.045159262296956153 0 0.0018898693572908334 -0.045271526965354289 0 0.0013234731907410446 -0.045961708845336229 0 -0.0028607309448662943 -0.047627674823492415 0 0.0018974134632581423 -0.045739983235050082 0 -0.0068412992981169629 -0.049259988069561597 0 -0.0067868841330473561 -0.048625045034433038 0 -0.0061006768346736065 -0.048660838093153219 0 -0.0067868841330473561 -0.048625045034433038 0 -0.0061006768346736065 -0.048660838093153219 0 -0.0066653246534264347 -0.048053373119456434 0 -0.0072399324070560531 -0.048119257675180521 0 -0.0067868841330473561 -0.048625045034433038 0 -0.0066653246534264347 -0.048053373119456434 0 0.012140387061424609 -0.042894938023186627 0 0.01080233900150329 -0.044010342467098805 0 0.010712375870191247 -0.042691503241424227 0 0.0018974134632581423 -0.045739983235050082 0 0.0066611857058979755 -0.044384065953056676 0 0.01080233900150329 -0.044010342467098805 0 0.0098438123749720816 -0.043442436557427827 0 0.010712375870191247 -0.042691503241424227 0 0.0098438123749720816 -0.043442436557427827 0 0.009026000802325379 -0.042934469266422567 0 0.0089587719405764717 -0.044175417279463683 0 0.0098438123749720816 -0.043442436557427827 0 0.0098064534713481703 -0.042081080705326873 0 0.009026000802325379 -0.042934469266422567 0 0.0098438123749720816 -0.043442436557427827 0 0.010712375870191247 -0.042691503241424227 0 0.0098064534713481703 -0.042081080705326873 0 0.010964810678607394 -0.04101269396136014 0 0.010712375870191247 -0.042691503241424227 0 0.0098064534713481703 -0.042081080705326873 0 0.0097411149834393009 -0.040882481391544517 0 0.0098064534713481703 -0.042081080705326873 0 0.0086925000660343678 -0.041814269176686736 0 0.0097411149834393009 -0.040882481391544517 0 0.010964810678607394 -0.04101269396136014 0 0.0098064534713481703 -0.042081080705326873 0 0.0088656066404656769 -0.040045273300084602 0 0.0086925000660343678 -0.041814269176686736 0 0.0068164184078790364 -0.042104945480167494 0 0.0086925000660343678 -0.041814269176686736 0 0.0078288199321666016 -0.043010652676460169 0 0.0068164184078790364 -0.042104945480167494 0 0.013635974532209424 -0.039177895638045385 0 0.0084929918796283598 -0.042434424025423377 0 0.0098064534713481703 -0.042081080705326873 0 0.0086925000660343678 -0.041814269176686736 0 0.009026000802325379 -0.042934469266422567 0 0.0086925000660343678 -0.041814269176686736 0 0.0078288199321666016 -0.043010652676460169 0 0.009026000802325379 -0.042934469266422567 0 0.0078288199321666016 -0.043010652676460169 0 0.009026000802325379 -0.042934469266422567 0 0.0089587719405764717 -0.044175417279463683 0 0.0078288199321666016 -0.043010652676460169 0 0.0089252069858654116 -0.044441872852602593 0 0.0089587719405764717 -0.044175417279463683 0 0.0081154092320988719 -0.043325128542825116 0 0.0069579608882408932 -0.044954008450407527 0 0.0078288199321666016 -0.043010652676460169 0 0.0076855677891769303 -0.044118418054944451 0 0.0087875882093955155 -0.044326336694824782 0 0.0076855677891769303 -0.044118418054944451 0 0.00783479087117964 -0.044893541155163988 0 0.0087875882093955155 -0.044326336694824782 0 0.00783479087117964 -0.044893541155163988 0 0.0086370864915813108 -0.045458795406902328 0 0.0071772214980456656 -0.045598323826968074 0 0.00783479087117964 -0.044893541155163988 0 0.0086370864915813108 -0.045458795406902328 0 0.0087875882093955155 -0.044326336694824782 0 0.0049552405748666721 -0.046101665721212826 0 0.0050581655389228368 -0.045294922729436693 0 0.0053963910972871284 -0.045735400534452013 0 0.0039406812118787694 -0.046302295437521027 0 0.0069579608882408932 -0.044954008450407527 0 0.0039406812118787694 -0.046302295437521027 0 0.0037018029411826077 -0.045803557684161868 0 0.0089214582723866811 -0.044441845425816244 0 0.0089587719405764717 -0.044175417279463683 0 0.0094405993471940192 -0.045128108632646498 0 0.0069579608882408932 -0.044954008450407527 0 0.0071100708728986193 -0.044753088280824964 0 0.0098438123749720816 -0.043442436557427827 0 0.0089587719405764717 -0.044175417279463683 0 0.0094405993471940192 -0.045128108632646498 0 0.01080233900150329 -0.044010342467098805 0 0.0098438123749720816 -0.043442436557427827 0 0.0094405993471940192 -0.045128108632646498 0 0.0069579608882408932 -0.044954008450407527 0 0.0037018029411826077 -0.045803557684161868 0 0.0010328201839878294 -0.045990155569047952 0 0.0013271531191743407 -0.045760729958650312 0 0.0010161828548341479 -0.045708215916793603 0 0.0066611857058979755 -0.044384065953056676 0 0.0037018029411826077 -0.045803557684161868 0 -0.0010778567618316619 -0.047444781101379348 0 -0.001309339533728033 -0.047639926630599599 0 -0.0017952433982929669 -0.047081831469619237 0 0.0037018029411826077 -0.045803557684161868 0 -0.00053341447600174026 -0.046217415600838467 0 0.0013271531191743407 -0.045760729958650312 0 0.001014020481860651 -0.045416168682297829 0 0.0010161828548341479 -0.045708215916793603 0 -0.0010778567618316619 -0.047444781101379348 0 -0.0017952433982929669 -0.047081831469619237 0 -0.0013710681615436741 -0.04690504213124555 0 0.0039406812118787694 -0.046302295437521027 0 0.0047741871817733803 -0.046279999640448759 0 0.0039406812118787694 -0.046302295437521027 0 0.0005632307437098892 -0.046575428138902621 0 -0.0010778567618316619 -0.047444781101379348 0 -0.00099906812098174685 -0.046777513168879403 0 -0.0013710681615436741 -0.04690504213124555 0 0.0023584145815626614 -0.046625573180812438 0 0.0024104889344325705 -0.046032433887766233 0 0.0029373514266144637 -0.046144710987822656 0 -0.0061006768346736065 -0.048660838093153219 0 -0.0066653246534264347 -0.048053373119456434 0 -0.0061280380119156531 -0.047420446502219868 0 -0.0069397093395844253 -0.047424828934348767 0 -0.0066653246534264347 -0.048053373119456434 0 -0.0061280380119156531 -0.047420446502219868 0 -0.0072399324070560531 -0.048119257675180521 0 -0.0069397093395844253 -0.047424828934348767 0 -0.0066653246534264347 -0.048053373119456434 0 0.0018974134632581423 -0.045739983235050082 0 -0.0031234642294607996 -0.046850118454098838 0 0.00075550370703466392 -0.046216941871311847 0 0.0010328201839878294 -0.045990155569047952 0 0.00070963136562180102 -0.045679212441990018 0 0.0010328201839878294 -0.045990155569047952 0 0.00070963136562180102 -0.045679212441990018 0 0.0010161828548341479 -0.045708215916793603 0 0.001014020481860651 -0.045416168682297829 0 0.00070963136562180102 -0.045679212441990018 0 0.00065410033380603676 -0.045107683685683742 0 -0.0031234642294607996 -0.046850118454098838 0 -0.0037186984733255739 -0.045865391317493502 0 0.001014020481860651 -0.045416168682297829 0 0.00070963136562180102 -0.045679212441990018 0 0.0010161828548341479 -0.045708215916793603 0 -0.0069397093395844253 -0.047424828934348767 0 -0.0061280380119156531 -0.047420446502219868 0 -0.0067190232835538403 -0.046674473501193393 0 -0.0061280380119156531 -0.047420446502219868 0 -0.0067190232835538403 -0.046674473501193393 0 -0.0061152608672323441 -0.04612212396917266 0 -0.0073383094567102203 -0.046211214626303072 0 -0.0067190232835538403 -0.046674473501193393 0 -0.0066079415630630814 -0.046040868786535141 0 -0.0067190232835538403 -0.046674473501193393 0 -0.0066079415630630814 -0.046040868786535141 0 -0.0061247438505451501 -0.046135156855065425 0 -0.0070177294622753407 -0.047072106145536086 0 -0.0037186984733255739 -0.045865391317493502 0 -0.0066079415630630814 -0.046040868786535141 0 -0.0061241440765841745 -0.045939900922442163 0 -0.0063924960227588644 -0.045600530715118652 0 -0.0066079415630630814 -0.046040868786535141 0 -0.0061241440765841745 -0.045939900922442163 0 -0.0061247438505451501 -0.046135156855065425 0 -0.0017952433982929669 -0.047081831469619237 0 -0.00224746681447983 -0.04651053882101347 0 -0.0017395324942525831 -0.04665228869801908 0 -0.00053341447600174026 -0.046217415600838467 0 -0.0026334753967495461 -0.046019346007317483 0 0.001014020481860651 -0.045416168682297829 0 0.00069168757830083785 -0.045070845450321487 0 0.00065410033380603676 -0.045107683685683742 0 -0.003714518033484914 -0.045750890068458575 0 -0.0026334753967495461 -0.046019346007317483 0 -0.0031533499731747666 -0.045984739104833312 0 -0.0031479791074765584 -0.045990627049848395 0 -0.0031324866721672987 -0.045977194583768241 0 -0.0026334753967495461 -0.046019346007317483 0 -0.0028280823384746268 -0.046127677826621721 0 -0.0037369816287329944 -0.046305910083030984 0 -0.0041182036569659452 -0.045820320480213284 0 -0.0037405142387296701 -0.045464471910419947 0 -0.0026334753967495461 -0.046019346007317483 0 -0.0037186984733255739 -0.045865391317493502 0 -0.003714518033484914 -0.045750890068458575 0 -0.0037186984733255739 -0.045865391317493502 0 -0.00224746681447983 -0.04651053882101347 0 -0.0020385006695189992 -0.046322843175159598 0 -0.0017395324942525831 -0.04665228869801908 0 -0.0034646315366869472 -0.045598239953443802 0 -0.0040868225928486776 -0.044999993077442915 0 -0.0019583461874038148 -0.044999998021972618 0 -0.0033805486007264939 -0.046332207179209779 0 -0.0034646315366869472 -0.045598239953443802 0 -0.0019583461874038148 -0.044999998021972618 0 -0.0040867764282507832 -0.045000587999852383 0 -0.0038979216376802362 -0.045839489674090211 0 -0.0034646315366869472 -0.045598239953443802 0 -0.0040868225928486776 -0.044999993077442915 0 -0.0040757376236911893 -0.046151695852363638 0 -0.0033805486007264939 -0.046332207179209779 0 -0.0034646315366869472 -0.045598239953443802 0 -0.0040757376236911893 -0.046151695852363638 0 -0.0031533499731747666 -0.045984739104833312 0 -0.0031324866721672987 -0.045977194583768241 0 -0.0031547543736886886 -0.045970983503761755 0 -0.0028280823384746268 -0.046127677826621721 0 -0.0038979216376802362 -0.045839489674090211 0 -0.003714518033484914 -0.045750890068458575 0 -0.0038979216376802362 -0.045839489674090211 0 -0.0065612181640888724 -0.045516332413253736 0 -0.0045662259621793207 -0.046024546827316888 0 -0.0053717559566320919 -0.044999991552334362 0 -0.0071400316940250595 -0.045415355418215425 0 -0.0049459787782227269 -0.045625464500847417 0 -0.0075230622442315218 -0.045317002024294242 0 -0.0066079415630630814 -0.046040868786535141 0 -0.0063924960227588644 -0.045600530715118652 0 -0.0040868620386739721 -0.044999994402857048 0 -0.0040854306954059214 -0.046147979661024761 0 -0.004557124883512188 -0.046027076819018652 0 -0.0040977046016781029 -0.045944805247789086 0 -0.0041001465728132264 -0.045718704211451078 0 -0.004324308589889682 -0.045661331120687973 0 -0.0038979216376802362 -0.045839489674090211 0 -0.0049459787782227269 -0.045625464500847417 0 -0.003714518033484914 -0.045750890068458575 0 -0.0049459787782227269 -0.045625464500847417 0 -0.0040868620386739721 -0.044999994402857048 0 -0.004557124883512188 -0.046027076819018652 0 -0.0053717104749609335 -0.044999997689308228 0 -0.0049459787782227269 -0.045625464500847417 0 -0.0053712429749470216 -0.045000629305229287 0 -0.0012310393544330961 -0.046498634057200915 0 -0.00099906812098174685 -0.046777513168879403 0 -0.00073478017952057233 -0.045494272605527096 0 0.0005632307437098892 -0.046575428138902621 0 3.938187006370579e-05 -0.045392453612047259 0 0.0024104889344325705 -0.046032433887766233 0 0.0024597164500757447 -0.045429487296263178 0 0.0029373514266144637 -0.046144710987822656 0 -0.0012310393544330961 -0.046498634057200915 0 -0.00099906812098174685 -0.046777513168879403 0 -0.0013710681615436741 -0.04690504213124555 0 -0.0020385006695189992 -0.046322843175159598 0 -0.0012310393544330961 -0.046498634057200915 0 -0.0017395324942525831 -0.04665228869801908 0 -0.0028280823384746268 -0.046127677826621721 0 -0.0011890190044265977 -0.046524660647557468 0 -0.0012310393544330961 -0.046498634057200915 0 -0.0013710681615436741 -0.04690504213124555 0 -0.0017395324942525831 -0.04665228869801908 0 -0.0030278992707394475 -0.046119312409216816 0 -0.0012310393544330961 -0.046498634057200915 0 -0.001874775288897515 -0.045834215509085029 0 -0.0017952433982929669 -0.047081831469619237 0 -0.0013710681615436741 -0.04690504213124555 0 -0.0017395324942525831 -0.04665228869801908 0 -0.0012310393544330961 -0.046498634057200915 0 -0.001874775288897515 -0.045834215509085029 0 -0.0013317154857406814 -0.045852476414689598 0 -0.0028280823384746268 -0.046127677826621721 0 -0.0019589306695457893 -0.045000520696023408 0 -0.0030278992707394475 -0.046119312409216816 0 -0.001874775288897515 -0.045834215509085029 0 -0.0019577413398813941 -0.044999942734907775 0 -0.001874775288897515 -0.045834215509085029 0 -0.0014026893841462317 -0.045402541118194389 0 -0.0013317154857406814 -0.045852476414689598 0 -0.001874775288897515 -0.045834215509085029 0 -0.0019577413398813941 -0.044999942734907775 0 -0.0014026893841462317 -0.045402541118194389 0 -0.0019577413398813941 -0.044999942734907775 0 -0.0014026893841462317 -0.045402541118194389 0 -0.00094855999939184984 -0.045000006791203195 0 -0.00059981035119612621 -0.045532325416022534 0 -0.00054905565006058013 -0.044999994457715582 0 0.0010144078122237402 -0.044999988874590016 0 -0.0014026893841462317 -0.045402541118194389 0 -0.00094855999939184984 -0.045000006791203195 0 -0.00073478017952057233 -0.045494272605527096 0 -0.0014026893841462317 -0.045402541118194389 0 -0.0013317154857406814 -0.045852476414689598 0 -0.00073478017952057233 -0.045494272605527096 0 -0.00094720504868205937 -0.044999998099504106 0 3.938187006370579e-05 -0.045392453612047259 0 -0.0012310393544330961 -0.046498634057200915 0 -0.0013317154857406814 -0.045852476414689598 0 -0.00073478017952057233 -0.045494272605527096 0 3.938187006370579e-05 -0.045392453612047259 0 -0.00054822626337175243 -0.045000455430387921 0 -0.00094806656186726974 -0.044999999700824633 0 -0.00060970916138554073 -0.04553517171772424 0 -0.0005491026852948186 -0.044999998952754118 0 0.0010137249148821064 -0.044999897464741527 0 0.0037927335239850441 -0.046722070445679421 0 -0.00059981035119612621 -0.045532325416022534 0 0.00075965058989038562 -0.046269429793970279 0 0.0010144078122237402 -0.044999988874590016 0 0.00075965058989038562 -0.046269429793970279 0 0.0010144078122237402 -0.044999988874590016 0 0.0018135170581517932 -0.046852710943966182 0 0.00075965058989038562 -0.046269429793970279 0 0.00081007325922269119 -0.047691860607350763 0 0.0018135170581517932 -0.046852710943966182 0 3.938187006370579e-05 -0.045392453612047259 0 0.0047741871817733803 -0.046279999640448759 0 -0.00059981035119612621 -0.045532325416022534 0 0.00075965058989038562 -0.046269429793970279 0 0.00081007325922269119 -0.047691860607350763 0 0.0047741871817733803 -0.046279999640448759 0 0.0037927335239850441 -0.046722070445679421 0 0.0085375119011143231 -0.046026442222933131 0 0.0082753252447011864 -0.046233722426909672 0 0.0081627077341695203 -0.045845264654647673 0 0.0024387073791606404 -0.046550871944994243 0 0.003788399670470463 -0.046909931156469117 0 0.0029890879080074441 -0.047903266540622526 0 0.0024387073791606404 -0.046550871944994243 0 0.0033619140939245059 -0.04577122815150772 0 0.003788399670470463 -0.046909931156469117 0 0.0037927335239850441 -0.046722070445679421 0 0.0056245018730723432 -0.046994024073465909 0 0.0037927335239850441 -0.046722070445679421 0 0.0029903010516022311 -0.045986945752538519 0 0.0017971748063464747 -0.04686918268614871 0 0.002527552057160075 -0.044999999912977394 0 0.0029128973559070857 -0.045934444209048825 0 0.0010144016170790309 -0.044999997230448299 0 0.0017971748063464747 -0.04686918268614871 0 0.002527552057160075 -0.044999999912977394 0 0.0040406074421151534 -0.045000154522578217 0 0.0029903010516022311 -0.045986945752538519 0 0.002527552057160075 -0.044999999912977394 0 0.0040407115224829525 -0.044999997229947311 0 0.0029128973559070857 -0.045934444209048825 0 0.0040417226059605762 -0.044999900549770891 0 0.0043412089370759646 -0.046023964545025553 0 0.0033619140939245059 -0.04577122815150772 0 0.0040417226059605762 -0.044999900549770891 0 0.0054992333021452629 -0.045840426442568263 0 0.0064603019773403943 -0.044999761238110537 0 0.0040417226059605762 -0.044999900549770891 0 0.0043412089370759646 -0.046023964545025553 0 0.0054992333021452629 -0.045840426442568263 0 0.0043412089370759646 -0.046023964545025553 0 0.0054992333021452629 -0.045840426442568263 0 0.0052921406403509492 -0.046907819773493439 0 0.0043412089370759646 -0.046023964545025553 0 0.0052921406403509492 -0.046907819773493439 0 0.003788399670470463 -0.046909931156469117 0 0.0052921406403509492 -0.046907819773493439 0 0.003788399670470463 -0.046909931156469117 0 0.0045617270186256251 -0.048160732203797907 0 0.0043412089370759646 -0.046023964545025553 0 0.0033619140939245059 -0.04577122815150772 0 0.003788399670470463 -0.046909931156469117 0 0.003788399670470463 -0.046909931156469117 0 0.0045617270186256251 -0.048160732203797907 0 0.0029890879080074441 -0.047903266540622526 0 0.0045617270186256251 -0.048160732203797907 0 0.0035907170943784814 -0.049345461742228626 0 0.0029890879080074441 -0.047903266540622526 0 0.0052921406403509492 -0.046907819773493439 0 0.0045617270186256251 -0.048160732203797907 0 0.006560999608200644 -0.04820718798034674 0 0.0045617270186256251 -0.048160732203797907 0 0.0052940823051018633 -0.049771430936455544 0 0.006560999608200644 -0.04820718798034674 0 0.0098458171833149585 -0.046742009514685538 0 0.0092230945229231955 -0.046581020187047337 0 0.009662619215765415 -0.046945282069333336 0 0.0045617270186256251 -0.048160732203797907 0 0.0052940823051018633 -0.049771430936455544 0 0.0035907170943784814 -0.049345461742228626 0 0.007251334063640146 -0.048255630903033836 0 0.007110838473508403 -0.04636819108485811 0 0.0082474002585592229 -0.045424294551885652 0 0.0083762598618757345 -0.045638782197992701 0 0.0081954763117048045 -0.045134863069150377 0 0.007110838473508403 -0.04636819108485811 0 0.0080326834816149776 -0.045967920500145018 0 0.007110838473508403 -0.04636819108485811 0 0.0056245018730723432 -0.046994024073465909 0 0.007776201215332788 -0.044654795657026979 0 0.0076294698049530008 -0.044445133504593587 0 0.0072998050095319919 -0.045716089671764729 0 0.0076294698049530008 -0.044445133504593587 0 0.0080896277086538806 -0.045201450981264331 0 0.0082474002585592229 -0.045424294551885652 0 0.0081954763117048045 -0.045134863069150377 0 0.0059038800873672916 -0.045478758500114159 0 0.006609447551753995 -0.043718705059226828 0 0.0049654522697248097 -0.043979522235117752 0 0.008001326818702274 -0.045510047872320464 0 0.0080896277086538806 -0.045201450981264331 0 0.0082474002585592229 -0.045424294551885652 0 0.0080029203402759586 -0.045370033613617522 0 0.0082474002585592229 -0.045424294551885652 0 0.0081627077341695203 -0.045845264654647673 0 0.0070738823313777942 -0.044728859868253514 0 0.0059038800873672916 -0.045478758500114159 0 0.006609447551753995 -0.043718705059226828 0 0.0076855677891769303 -0.044118418054944451 0 0.0070738823313777942 -0.044728859868253514 0 0.006609447551753995 -0.043718705059226828 0 0.0076855677891769303 -0.044118418054944451 0 0.00783479087117964 -0.044893541155163988 0 0.0070738823313777942 -0.044728859868253514 0 0.00783479087117964 -0.044893541155163988 0 0.0070738823313777942 -0.044728859868253514 0 0.0071772214980456656 -0.045598323826968074 0 0.0070738823313777942 -0.044728859868253514 0 0.0071772214980456656 -0.045598323826968074 0 0.0059038800873672916 -0.045478758500114159 0 0.0068176236122887476 -0.046959840430958043 0 0.0071772214980456656 -0.045598323826968074 0 0.0059038800873672916 -0.045478758500114159 0 0.0047741871817733803 -0.046279999640448759 0 0.0072998050095319919 -0.045716089671764729 0 0.0086370864915813108 -0.045458795406902328 0 0.0068176236122887476 -0.046959840430958043 0 0.0071772214980456656 -0.045598323826968074 0 0.0085375119011143231 -0.046026442222933131 0 0.0081627077341695203 -0.045845264654647673 0 0.0083762598618757345 -0.045638782197992701 0 0.0082474002585592229 -0.045424294551885652 0 0.0081627077341695203 -0.045845264654647673 0 0.0083762598618757345 -0.045638782197992701 0 0.010963177856992763 -0.046623682259180399 0 0.0093741959533245062 -0.046226768934969291 0 0.01129959414868827 -0.044999675058994146 0 0.0088800884369549284 -0.044999733822201904 0 0.0093741959533245062 -0.046226768934969291 0 0.01129959414868827 -0.044999675058994146 0 0.010963177856992763 -0.046623682259180399 0 0.0093741959533245062 -0.046226768934969291 0 0.0091936672182566133 -0.047573438395357555 0 0.0093741959533245062 -0.046226768934969291 0 0.0073969670400246225 -0.04655243439779061 0 0.0091936672182566133 -0.047573438395357555 0 0.0088800884369549284 -0.044999733822201904 0 0.0093741959533245062 -0.046226768934969291 0 0.0073969670400246225 -0.04655243439779061 0 0.0088800884369549284 -0.044999733822201904 0 0.0073969670400246225 -0.04655243439779061 0 0.0064603019773403943 -0.044999761238110537 0 0.0054992333021452629 -0.045840426442568263 0 0.0073969670400246225 -0.04655243439779061 0 0.0064603019773403943 -0.044999761238110537 0 0.0054992333021452629 -0.045840426442568263 0 0.0052921406403509492 -0.046907819773493439 0 0.0073969670400246225 -0.04655243439779061 0 0.0052921406403509492 -0.046907819773493439 0 0.0073969670400246225 -0.04655243439779061 0 0.006560999608200644 -0.04820718798034674 0 0.0073969670400246225 -0.04655243439779061 0 0.006560999608200644 -0.04820718798034674 0 0.0079469884607370114 -0.047993417629150742 0 0.006560999608200644 -0.04820718798034674 0 0.0076443890833982602 -0.048802273982167112 0 0.0079469884607370114 -0.047993417629150742 0 0.0052940823051018633 -0.049771430936455544 0 0.006560999608200644 -0.04820718798034674 0 0.0069600253265470913 -0.049491338961690667 0 0.0052940823051018633 -0.049771430936455544 0 0.0069600253265470913 -0.049491338961690667 0 0.0071367365461808621 -0.050181093081533179 0 0.0069600253265470913 -0.049491338961690667 0 0.0079209732665187094 -0.049490027458670323 0 0.0074057445680913011 -0.050060326788706699 0 0.0069600253265470913 -0.049491338961690667 0 0.0076443890833982602 -0.048802273982167112 0 0.0079209732665187094 -0.049490027458670323 0 0.006560999608200644 -0.04820718798034674 0 0.0069600253265470913 -0.049491338961690667 0 0.0076443890833982602 -0.048802273982167112 0 0.0076443890833982602 -0.048802273982167112 0 0.0079209732665187094 -0.049490027458670323 0 0.0086739338910593496 -0.048890616486010667 0 0.0076443890833982602 -0.048802273982167112 0 0.0086739338910593496 -0.048890616486010667 0 0.0079469884607370114 -0.047993417629150742 0 0.0079209732665187094 -0.049490027458670323 0 0.0085818943949937821 -0.049587663471306803 0 0.0083648571395452294 -0.050089218981910232 0 0.0079209732665187094 -0.049490027458670323 0 0.0085818943949937821 -0.049587663471306803 0 0.0086739338910593496 -0.048890616486010667 0 0.0085818943949937821 -0.049587663471306803 0 0.0086739338910593496 -0.048890616486010667 0 0.0091984935737812381 -0.049451287494325029 0 0.0085818943949937821 -0.049587663471306803 0 0.0091984935737812381 -0.049451287494325029 0 0.008951858372538991 -0.049907061519219371 0 0.0073969670400246225 -0.04655243439779061 0 0.0079469884607370114 -0.047993417629150742 0 0.0091936672182566133 -0.047573438395357555 0 0.0086739338910593496 -0.048890616486010667 0 0.0079469884607370114 -0.047993417629150742 0 0.0091936672182566133 -0.047573438395357555 0 0.010963177856992763 -0.046623682259180399 0 0.0091936672182566133 -0.047573438395357555 0 0.010556274707179852 -0.048146836510248307 0 0.0086739338910593496 -0.048890616486010667 0 0.0091936672182566133 -0.047573438395357555 0 0.0096638914859932482 -0.048640959981231503 0 0.0091936672182566133 -0.047573438395357555 0 0.0096638914859932482 -0.048640959981231503 0 0.010556274707179852 -0.048146836510248307 0 0.0086739338910593496 -0.048890616486010667 0 0.0096638914859932482 -0.048640959981231503 0 0.0091984935737812381 -0.049451287494325029 0 0.0091984935737812381 -0.049451287494325029 0 0.010239080386134804 -0.04931279252540953 0 0.0097423998169899884 -0.049889161204731199 0 0.0096638914859932482 -0.048640959981231503 0 0.0091984935737812381 -0.049451287494325029 0 0.010239080386134804 -0.04931279252540953 0 0.0096638914859932482 -0.048640959981231503 0 0.010239080386134804 -0.04931279252540953 0 0.010556274707179852 -0.048146836510248307 0 0.01134389591179443 -0.049314660227565477 0 0.010556274707179852 -0.048146836510248307 0 0.012144678671450517 -0.048323074861680693 0 0.010239080386134804 -0.04931279252540953 0 0.01134389591179443 -0.049314660227565477 0 0.010556274707179852 -0.048146836510248307 0 0.01134389591179443 -0.049314660227565477 0 0.012144678671450517 -0.048323074861680693 0 0.012251034556332871 -0.049346824861578389 0 0.010556274707179852 -0.048146836510248307 0 0.012142502938597552 -0.047349903856456231 0 0.012144678671450517 -0.048323074861680693 0 0.010963177856992763 -0.046623682259180399 0 0.010556274707179852 -0.048146836510248307 0 0.012142502938597552 -0.047349903856456231 0 0.011629628015205761 -0.050861126521143767 0 0.011110764613131216 -0.050312525727301528 0 0.011178641518840734 -0.051027809270883726 0 0.011629628015205761 -0.050861126521143767 0 0.012014523387055897 -0.050689654125742667 0 0.012203689585887105 -0.05099869401319182 0 0.011629628015205761 -0.050861126521143767 0 0.011884339399848069 -0.051182325629634623 0 0.012203689585887105 -0.05099869401319182 0 0.011629628015205761 -0.050861126521143767 0 0.011178641518840734 -0.051027809270883726 0 0.011884339399848069 -0.051182325629634623 0 0.011629628015205761 -0.050861126521143767 0 0.012014523387055897 -0.050689654125742667 0 0.011110764613131216 -0.050312525727301528 0 0.010239080386134804 -0.04931279252540953 0 0.01134389591179443 -0.049314660227565477 0 0.011110764613131216 -0.050312525727301528 0 0.012014523387055897 -0.050689654125742667 0 0.011870383991653584 -0.05001627321160531 0 0.011110764613131216 -0.050312525727301528 0 0.01134389591179443 -0.049314660227565477 0 0.011870383991653584 -0.05001627321160531 0 0.012251034556332871 -0.049346824861578389 0 0.01134389591179443 -0.049314660227565477 0 0.011870383991653584 -0.05001627321160531 0 0.011110764613131216 -0.050312525727301528 0 0.011110764613131216 -0.050312525727301528 0 0.010894992590043222 -0.049975552699313419 0 0.010963255887321846 -0.050192995997303876 0 0.010239080386134804 -0.04931279252540953 0 0.011110764613131216 -0.050312525727301528 0 0.0097423998169899884 -0.049889161204731199 0 0.010856478267069347 -0.050336663508386587 0 0.010173780089701344 -0.050393770903323816 0 0.011110764613131216 -0.050312525727301528 0 0.0097423998169899884 -0.049889161204731199 0 0.0090048433415961353 -0.050467629110942658 0 0.0091984935737812381 -0.049451287494325029 0 0.0097423998169899884 -0.049889161204731199 0 0.008951858372538991 -0.049907061519219371 0 0.0097423998169899884 -0.049889161204731199 0 0.0090048433415961353 -0.050467629110942658 0 0.008951858372538991 -0.049907061519219371 0 0.011110764613131216 -0.050312525727301528 0 0.010894992590043222 -0.049975552699313419 0 0.011178641518840734 -0.051027809270883726 0 0.010700178370908539 -0.047297149932684614 0 0.010894992590043222 -0.049975552699313419 0 0.0091339954283538027 -0.046578626424976448 0 0.010809648740598402 -0.049783867799808611 0 0.010193301029489493 -0.049237927422169613 0 0.010700178370908539 -0.047297149932684614 0 0.011733174833815231 -0.047941649690482334 0 0.012064530459908587 -0.04699017036609289 0 0.012064530459908587 -0.04699017036609289 0 0.012805665639593622 -0.048372549025244564 0 0.013148778629016287 -0.047139105079859508 0 0.011733174833815231 -0.047941649690482334 0 0.012064530459908587 -0.04699017036609289 0 0.012805665639593622 -0.048372549025244564 0 0.011733174833815231 -0.047941649690482334 0 0.012805665639593622 -0.048372549025244564 0 0.01161106209833614 -0.049010832868563961 0 0.012805665639593622 -0.048372549025244564 0 0.01161106209833614 -0.049010832868563961 0 0.012615731007477305 -0.049597969798708397 0 0.010700178370908539 -0.047297149932684614 0 0.01161106209833614 -0.049010832868563961 0 0.010894992590043222 -0.049975552699313419 0 0.010700178370908539 -0.047297149932684614 0 0.011733174833815231 -0.047941649690482334 0 0.01161106209833614 -0.049010832868563961 0 0.0090048433415961353 -0.050467629110942658 0 0.0083648571395452294 -0.050089218981910232 0 0.0071325855900087947 -0.050193559709925069 0 0.011663367908178176 -0.049808071555921464 0 0.010963255887321846 -0.050192995997303876 0 0.013558435907417527 -0.050994802324280365 0 0.010173780089701344 -0.050393770903323816 0 0.010020112971116412 -0.049136676020109349 0 0.01161106209833614 -0.049010832868563961 0 0.010894992590043222 -0.049975552699313419 0 0.011663367908178176 -0.049808071555921464 0 0.010894992590043222 -0.049975552699313419 0 0.011663367908178176 -0.049808071555921464 0 0.010963255887321846 -0.050192995997303876 0 0.0090048433415961353 -0.050467629110942658 0 0.0083648571395452294 -0.050089218981910232 0 0.008951858372538991 -0.049907061519219371 0 0.0085818943949937821 -0.049587663471306803 0 0.0083648571395452294 -0.050089218981910232 0 0.008951858372538991 -0.049907061519219371 0 0.0083648571395452294 -0.050089218981910232 0 0.0071325855900087947 -0.050193559709925069 0 0.0074057445680913011 -0.050060326788706699 0 0.0079209732665187094 -0.049490027458670323 0 0.0083648571395452294 -0.050089218981910232 0 0.0074057445680913011 -0.050060326788706699 0 0.012805665639593622 -0.048372549025244564 0 0.012615731007477305 -0.049597969798708397 0 0.013668387764961744 -0.049686429874969115 0 0.011663367908178176 -0.049808071555921464 0 0.012615731007477305 -0.049597969798708397 0 0.013558435907417527 -0.050994802324280365 0 0.01161106209833614 -0.049010832868563961 0 0.011663367908178176 -0.049808071555921464 0 0.012615731007477305 -0.049597969798708397 0 0.007251334063640146 -0.048255630903033836 0 0.010020112971116412 -0.049136676020109349 0 0.012615731007477305 -0.049597969798708397 0 0.013668387764961744 -0.049686429874969115 0 0.013558435907417527 -0.050994802324280365 0 0.013668387764961744 -0.049686429874969115 0 0.013558435907417527 -0.050994802324280365 0 0.014750475712604919 -0.049355823278516724 0 0.0069600253265470913 -0.049491338961690667 0 0.0071367365461808621 -0.050181093081533179 0 0.0074057445680913011 -0.050060326788706699 0 0.010020112971116412 -0.049136676020109349 0 0.0092719282034368616 -0.049442259263034923 0 0.010020112971116412 -0.049136676020109349 0 0.013376888781737577 -0.048417209068422222 0 0.013558435907417527 -0.050994802324280365 0 0.014750475712604919 -0.049355823278516724 0 0.015959977851111716 -0.050183215247497651 0 0.013668387764961744 -0.049686429874969115 0 0.014750475712604919 -0.049355823278516724 0 0.014137250047266049 -0.048591964370069761 0 0.014750475712604919 -0.049355823278516724 0 0.014806099004386149 -0.047964168516440364 0 0.014137250047266049 -0.048591964370069761 0 0.014750475712604919 -0.049355823278516724 0 0.014806099004386149 -0.047964168516440364 0 0.016149430687091747 -0.047873571197753241 0 0.014806099004386149 -0.047964168516440364 0 0.014137250047266049 -0.048591964370069761 0 0.014042407846018385 -0.047462375299416215 0 0.012805665639593622 -0.048372549025244564 0 0.013668387764961744 -0.049686429874969115 0 0.014137250047266049 -0.048591964370069761 0 0.012805665639593622 -0.048372549025244564 0 0.014137250047266049 -0.048591964370069761 0 0.014042407846018385 -0.047462375299416215 0 0.012805665639593622 -0.048372549025244564 0 0.014042407846018385 -0.047462375299416215 0 0.013148778629016287 -0.047139105079859508 0 0.014042407846018385 -0.047462375299416215 0 0.013148778629016287 -0.047139105079859508 0 0.013928681359506071 -0.046257648530546557 0 0.014042407846018385 -0.047462375299416215 0 0.014951506186858678 -0.046704744293227227 0 0.013928681359506071 -0.046257648530546557 0 0.014806099004386149 -0.047964168516440364 0 0.014951506186858678 -0.046704744293227227 0 0.016149430687091747 -0.047873571197753241 0 0.014806099004386149 -0.047964168516440364 0 0.014042407846018385 -0.047462375299416215 0 0.014951506186858678 -0.046704744293227227 0 0.014951506186858678 -0.046704744293227227 0 0.013928681359506071 -0.046257648530546557 0 0.015315396996059551 -0.044791066962650998 0 0.013148778629016287 -0.047139105079859508 0 0.013928681359506071 -0.046257648530546557 0 0.012741275711338273 -0.04609868217973323 0 0.013928681359506071 -0.046257648530546557 0 0.013544235245472708 -0.045209276998551644 0 0.012741275711338273 -0.04609868217973323 0 0.013928681359506071 -0.046257648530546557 0 0.013544235245472708 -0.045209276998551644 0 0.015315396996059551 -0.044791066962650998 0 0.013544235245472708 -0.045209276998551644 0 0.015315396996059551 -0.044791066962650998 0 0.013999206115283196 -0.044357259308971782 0 0.013544235245472708 -0.045209276998551644 0 0.013999206115283196 -0.044357259308971782 0 0.013144886559375445 -0.044124491243319131 0 0.015315396996059551 -0.044791066962650998 0 0.013993733982623298 -0.043303730425327203 0 0.013999206115283196 -0.044357259308971782 0 0.015315396996059551 -0.044791066962650998 0 0.013993733982623298 -0.043303730425327203 0 0.014495097601472565 -0.041357412781417413 0 0.014250785582049898 -0.04085601083808961 0 0.014466849872223013 -0.035868560431769551 0 0.013110339216093574 -0.03468609903565896 0 0.014829266400445519 -0.042834899255657768 0 0.013810887039860434 -0.03835367389076489 0 0.013993733982623298 -0.043303730425327203 0 0.012651973166900419 -0.042897438612712904 0 0.01330546905687395 -0.041910212791409093 0 0.013993733982623298 -0.043303730425327203 0 0.014495097601472565 -0.041357412781417413 0 0.01330546905687395 -0.041910212791409093 0 0.013993733982623298 -0.043303730425327203 0 0.013144886559375445 -0.044124491243319131 0 0.012651973166900419 -0.042897438612712904 0 0.013993733982623298 -0.043303730425327203 0 0.013999206115283196 -0.044357259308971782 0 0.013144886559375445 -0.044124491243319131 0 0.013144886559375445 -0.044124491243319131 0 0.012063034676342101 -0.043893010836366611 0 0.012308078091978999 -0.045062508844366474 0 0.013144886559375445 -0.044124491243319131 0 0.012651973166900419 -0.042897438612712904 0 0.012063034676342101 -0.043893010836366611 0 0.012651973166900419 -0.042897438612712904 0 0.01330546905687395 -0.041910212791409093 0 0.012253908745562965 -0.041557131197606414 0 0.012651973166900419 -0.042897438612712904 0 0.011178166570838446 -0.042888033293649458 0 0.012063034676342101 -0.043893010836366611 0 0.012651973166900419 -0.042897438612712904 0 0.011178166570838446 -0.042888033293649458 0 0.012253908745562965 -0.041557131197606414 0 0.011178166570838446 -0.042888033293649458 0 0.012063034676342101 -0.043893010836366611 0 0.010998025911896492 -0.044676606719892396 0 0.012063034676342101 -0.043893010836366611 0 0.010998025911896492 -0.044676606719892396 0 0.012308078091978999 -0.045062508844366474 0 0.010998025911896492 -0.044676606719892396 0 0.012308078091978999 -0.045062508844366474 0 0.011435091484665873 -0.045917299080557077 0 0.013544235245472708 -0.045209276998551644 0 0.012308078091978999 -0.045062508844366474 0 0.012741275711338273 -0.04609868217973323 0 0.013544235245472708 -0.045209276998551644 0 0.013144886559375445 -0.044124491243319131 0 0.012308078091978999 -0.045062508844366474 0 0.012308078091978999 -0.045062508844366474 0 0.012741275711338273 -0.04609868217973323 0 0.011435091484665873 -0.045917299080557077 0 0.012064530459908587 -0.04699017036609289 0 0.012741275711338273 -0.04609868217973323 0 0.011435091484665873 -0.045917299080557077 0 0.012064530459908587 -0.04699017036609289 0 0.013148778629016287 -0.047139105079859508 0 0.012741275711338273 -0.04609868217973323 0 0.010700178370908539 -0.047297149932684614 0 0.012064530459908587 -0.04699017036609289 0 0.011435091484665873 -0.045917299080557077 0 0.0091339954283538027 -0.046578626424976448 0 0.0098400765609575978 -0.045006123143776972 0 0.007578500551172004 -0.04363223055986791 0 0.010700178370908539 -0.047297149932684614 0 0.0091339954283538027 -0.046578626424976448 0 0.0098400765609575978 -0.045006123143776972 0 0.010700178370908539 -0.047297149932684614 0 0.011435091484665873 -0.045917299080557077 0 0.0098400765609575978 -0.045006123143776972 0 0.010998025911896492 -0.044676606719892396 0 0.011435091484665873 -0.045917299080557077 0 0.0098400765609575978 -0.045006123143776972 0 0.010998025911896492 -0.044676606719892396 0 0.0098400765609575978 -0.045006123143776972 0 0.010084383339944179 -0.043698027246735362 0 0.011178166570838446 -0.042888033293649458 0 0.010998025911896492 -0.044676606719892396 0 0.010084383339944179 -0.043698027246735362 0 0.0098400765609575978 -0.045006123143776972 0 0.0090821629462396712 -0.043400364550871831 0 0.007578500551172004 -0.04363223055986791 0 0.011178166570838446 -0.042888033293649458 0 0.0098591562545962755 -0.042586226951987251 0 0.01038212674185124 -0.04109919423398474 0 0.011178166570838446 -0.042888033293649458 0 0.010084383339944179 -0.043698027246735362 0 0.0098591562545962755 -0.042586226951987251 0 0.0098591562545962755 -0.042586226951987251 0 0.0090821629462396712 -0.043400364550871831 0 0.008673319792832394 -0.04202957575660253 0 0.010084383339944179 -0.043698027246735362 0 0.0098591562545962755 -0.042586226951987251 0 0.0090821629462396712 -0.043400364550871831 0 0.0098400765609575978 -0.045006123143776972 0 0.010084383339944179 -0.043698027246735362 0 0.0090821629462396712 -0.043400364550871831 0 0.01096238209575354 -0.045141895801807511 0 0.0090442374917971535 -0.042853010477987417 0 0.0090821629462396712 -0.043400364550871831 0 0.007578500551172004 -0.04363223055986791 0 0.008673319792832394 -0.04202957575660253 0 0.0076531967323968239 -0.043643451179693447 0 0.0068055041645766643 -0.04224507837789062 0 0.008673319792832394 -0.04202957575660253 0 0.01096238209575354 -0.045141895801807511 0 0.015308167341229334 -0.040456712641829908 0 0.016616920704601527 -0.043600196945099659 0 0.014551691809884068 -0.041228664069279684 0 0.01486022970208702 -0.040640750206129471 0 0.018362717710289338 -0.039773864813218214 0 0.021226350738090937 -0.039041813783089352 0 0.018362717710289338 -0.039773864813218214 0 0.015308167341229334 -0.040456712641829908 0 0.016616920704601527 -0.043600196945099659 0 0.014551691809884068 -0.041228664069279684 0 0.014265216567089027 -0.041776083197555748 0 0.016616920704601527 -0.043600196945099659 0 0.014265216567089027 -0.041776083197555748 0 0.015131190569600713 -0.045900297773420425 0 0.021226350738090937 -0.039041813783089352 0 0.014696039661367916 -0.047422228581132382 0 0.01096238209575354 -0.045141895801807511 0 0.014696039661367916 -0.047422228581132382 0 0.010193301029489493 -0.049237927422169613 0 0.01096238209575354 -0.045141895801807511 0 0.011178641518840734 -0.051027809270883726 0 0.011983566710231252 -0.051585015199591647 0 0.011884339399848069 -0.051182325629634623 0 0.011939237200373629 -0.051455901166890472 0 0.011884339399848069 -0.051182325629634623 0 0.012203689585887105 -0.05099869401319182 0 0.011178641518840734 -0.051027809270883726 0 0.011764103228135779 -0.051891946515186076 0 0.011983566710231252 -0.051585015199591647 0 0.014696039661367916 -0.047422228581132382 0 0.013277479976436498 -0.051373202759610444 0 0.01484305747026483 -0.039018686670457485 0 0.012546655358248686 -0.044529823622826932 0 0.010363859300506954 -0.041299256666058715 0 0.0091085191584801863 -0.043071987460455027 0 0.0069745590428931126 -0.042886660326065376 0 0.010363859300506954 -0.041299256666058715 0 0.01128446692490318 -0.042300804829016464 0 0.0091085191584801863 -0.043071987460455027 0 0.013917895910931956 -0.039722837232854191 0 0.010363859300506954 -0.041299256666058715 0 0.01128446692490318 -0.042300804829016464 0 0.0078288199321666016 -0.043010652676460169 0 0.0068164184078790364 -0.042104945480167494 0 0.006609447551753995 -0.043718705059226828 0 0.0078288199321666016 -0.043010652676460169 0 0.0076855677891769303 -0.044118418054944451 0 0.006609447551753995 -0.043718705059226828 0 0.0084929918796283598 -0.042434424025423377 0 0.0076294698049530008 -0.044445133504593587 0 0.0068164184078790364 -0.042104945480167494 0 0.006609447551753995 -0.043718705059226828 0 0.0049654522697248097 -0.043979522235117752 0 0.01128446692490318 -0.042300804829016464 0 0.0091085191584801863 -0.043071987460455027 0 0.0086880196928772226 -0.04476861057015339 0 0.0091085191584801863 -0.043071987460455027 0 0.0086880196928772226 -0.04476861057015339 0 0.0082854643667715985 -0.044125938368166549 0 0.0076294698049530008 -0.044445133504593587 0 0.0079253002404891543 -0.044528021197015766 0 0.0092230945229231955 -0.046581020187047337 0 0.009662619215765415 -0.046945282069333336 0 0.0095421296386071792 -0.047271178143024541 0 0.007110838473508403 -0.04636819108485811 0 0.012546655358248686 -0.044529823622826932 0 0.0080896277086538806 -0.045201450981264331 0 0.0086247241537834776 -0.04471491197075108 0 0.0082854643667715985 -0.044125938368166549 0 0.0091085191584801863 -0.043071987460455027 0 0.0082854643667715985 -0.044125938368166549 0 0.0069745590428931126 -0.042886660326065376 0 0.0080896277086538806 -0.045201450981264331 0 0.0082854643667715985 -0.044125938368166549 0 0.0069745590428931126 -0.042886660326065376 0 0.008001326818702274 -0.045510047872320464 0 0.0080896277086538806 -0.045201450981264331 0 0.0069745590428931126 -0.042886660326065376 0 0.0098458171833149585 -0.046742009514685538 0 0.010444784818237365 -0.0469201584869164 0 0.0099961542730050978 -0.047088986181659673 0 0.0098458171833149585 -0.046742009514685538 0 0.009662619215765415 -0.046945282069333336 0 0.0099961542730050978 -0.047088986181659673 0 0.013376888781737577 -0.048417209068422222 0 0.012546655358248686 -0.044529823622826932 0 0.009662619215765415 -0.046945282069333336 0 0.0099961542730050978 -0.047088986181659673 0 0.0095421296386071792 -0.047271178143024541 0 0.014750475712604919 -0.049355823278516724 0 0.015959977851111716 -0.050183215247497651 0 0.016149430687091747 -0.047873571197753241 0 0.012546655358248686 -0.044529823622826932 0 0.016778931265269425 -0.039913995338059706 0 0.016149430687091747 -0.047873571197753241 0 0.019703231724848346 -0.049076989082684472 0 0.017309397264130888 -0.042423346531212276 0 0.015959977851111716 -0.050183215247497651 0 0.016149430687091747 -0.047873571197753241 0 0.019703231724848346 -0.049076989082684472 0 0.015780750929872026 -0.039173010461351132 0 0.016101049588029652 -0.037877744098925303 0 0.015111307502819301 -0.037206200976886934 0 0.018076625374587173 -0.038186172784003283 0 0.015780750929872026 -0.039173010461351132 0 0.016101049588029652 -0.037877744098925303 0 0.016101049588029652 -0.037877744098925303 0 0.016010814569469033 -0.036768685794481386 0 0.016872694591525517 -0.037165977094562631 0 0.016101049588029652 -0.037877744098925303 0 0.016010814569469033 -0.036768685794481386 0 0.015111307502819301 -0.037206200976886934 0 0.016010814569469033 -0.036768685794481386 0 0.01678235817992705 -0.036264803696593823 0 0.016872694591525517 -0.037165977094562631 0 0.014250785582049898 -0.04085601083808961 0 0.016149430687091747 -0.047873571197753241 0 0.017309397264130888 -0.042423346531212276 0 0.014829266400445519 -0.042834899255657768 0 0.016040706078405572 -0.047556977480011663 0 0.014951506186858678 -0.046704744293227227 0 0.015315396996059551 -0.044791066962650998 0 0.016149430687091747 -0.047873571197753241 0 0.016010814569469033 -0.036768685794481386 0 0.015111307502819301 -0.037206200976886934 0 0.015312396666169913 -0.036308374635129349 0 0.015111307502819301 -0.037206200976886934 0 0.015312396666169913 -0.036308374635129349 0 0.014466849872223013 -0.035868560431769551 0 0.016778931265269425 -0.039913995338059706 0 0.014442022079034706 -0.036012697625481496 0 0.014250785582049898 -0.04085601083808961 0 0.017309397264130888 -0.042423346531212276 0 0.014466849872223013 -0.035868560431769551 0 0.015312396666169913 -0.036308374635129349 0 0.015229212202593635 -0.035613936662997586 0 0.016017380031227942 -0.03578570042129172 0 0.015312396666169913 -0.036308374635129349 0 0.015229212202593635 -0.035613936662997586 0 0.014466849872223013 -0.035868560431769551 0 0.016010814569469033 -0.036768685794481386 0 0.01678235817992705 -0.036264803696593823 0 0.016017380031227942 -0.03578570042129172 0 0.016010814569469033 -0.036768685794481386 0 0.015312396666169913 -0.036308374635129349 0 0.016017380031227942 -0.03578570042129172 0 0.01678235817992705 -0.036264803696593823 0 0.016017380031227942 -0.03578570042129172 0 0.017190775838503074 -0.035254833917545081 0 0.017190775838503074 -0.035254833917545081 0 0.017804259558346656 -0.03629279766624996 0 0.018297978660359988 -0.035002625472722988 0 0.01678235817992705 -0.036264803696593823 0 0.017190775838503074 -0.035254833917545081 0 0.017804259558346656 -0.03629279766624996 0 0.01678235817992705 -0.036264803696593823 0 0.017804259558346656 -0.03629279766624996 0 0.016872694591525517 -0.037165977094562631 0 0.018076625374587173 -0.038186172784003283 0 0.017804259558346656 -0.03629279766624996 0 0.016872694591525517 -0.037165977094562631 0 0.018076625374587173 -0.038186172784003283 0 0.016101049588029652 -0.037877744098925303 0 0.016872694591525517 -0.037165977094562631 0 0.02046449568930309 -0.037166795223031353 0 0.019607177544853645 -0.035800041147863025 0 0.018076625374587173 -0.038186172784003283 0 0.013635974532209424 -0.039177895638045385 0 0.01484305747026483 -0.039018686670457485 0 0.019607177544853645 -0.035800041147863025 0 0.018076625374587173 -0.038186172784003283 0 0.017804259558346656 -0.03629279766624996 0 0.019607177544853645 -0.035800041147863025 0 0.017804259558346656 -0.03629279766624996 0 0.018297978660359988 -0.035002625472722988 0 0.019607177544853645 -0.035800041147863025 0 0.018297978660359988 -0.035002625472722988 0 0.019484136003659693 -0.034263504010514895 0 0.018297978660359988 -0.035002625472722988 0 0.018129510610597348 -0.033821419170666091 0 0.019484136003659693 -0.034263504010514895 0 0.017190775838503074 -0.035254833917545081 0 0.017635571076868778 -0.034530788224984676 0 0.016923439813514182 -0.034032395495446385 0 0.018297978660359988 -0.035002625472722988 0 0.018129510610597348 -0.033821419170666091 0 0.017635571076868778 -0.034530788224984676 0 0.017190775838503074 -0.035254833917545081 0 0.018297978660359988 -0.035002625472722988 0 0.017635571076868778 -0.034530788224984676 0 0.018129510610597348 -0.033821419170666091 0 0.017635571076868778 -0.034530788224984676 0 0.016923439813514182 -0.034032395495446385 0 0.016923439813514182 -0.034032395495446385 0 0.017055505322165987 -0.033080042855105143 0 0.016232801629705879 -0.032050053817198013 0 0.018129510610597348 -0.033821419170666091 0 0.016923439813514182 -0.034032395495446385 0 0.017055505322165987 -0.033080042855105143 0 0.018129510610597348 -0.033821419170666091 0 0.017055505322165987 -0.033080042855105143 0 0.01814345969757249 -0.032461021180270354 0 0.017055505322165987 -0.033080042855105143 0 0.01814345969757249 -0.032461021180270354 0 0.017476199661953091 -0.032057340084818205 0 0.017055505322165987 -0.033080042855105143 0 0.017476199661953091 -0.032057340084818205 0 0.017049689753632722 -0.031442148145320183 0 0.018129510610597348 -0.033821419170666091 0 0.019484136003659693 -0.034263504010514895 0 0.019476069636341003 -0.032799761115955353 0 0.018129510610597348 -0.033821419170666091 0 0.01814345969757249 -0.032461021180270354 0 0.019476069636341003 -0.032799761115955353 0 0.01814345969757249 -0.032461021180270354 0 0.019476069636341003 -0.032799761115955353 0 0.019040257683962437 -0.031035289115479394 0 0.019985636680757403 -0.029958506127188991 0 0.019040257683962437 -0.031035289115479394 0 0.018339873650102662 -0.030289416454514145 0 0.019040257683962437 -0.031035289115479394 0 0.017660581620533439 -0.031236352324027588 0 0.018339873650102662 -0.030289416454514145 0 0.01814345969757249 -0.032461021180270354 0 0.019040257683962437 -0.031035289115479394 0 0.017660581620533439 -0.031236352324027588 0 0.017055505322165987 -0.033080042855105143 0 0.017049689753632722 -0.031442148145320183 0 0.016025655717199817 -0.030444150842164185 0 0.01814345969757249 -0.032461021180270354 0 0.017476199661953091 -0.032057340084818205 0 0.017660581620533439 -0.031236352324027588 0 0.017476199661953091 -0.032057340084818205 0 0.017660581620533439 -0.031236352324027588 0 0.017049689753632722 -0.031442148145320183 0 0.017660581620533439 -0.031236352324027588 0 0.017049689753632722 -0.031442148145320183 0 0.017128477934996243 -0.030239270378853159 0 0.017049689753632722 -0.031442148145320183 0 0.017128477934996243 -0.030239270378853159 0 0.016025655717199817 -0.030444150842164185 0 0.017660581620533439 -0.031236352324027588 0 0.017128477934996243 -0.030239270378853159 0 0.018339873650102662 -0.030289416454514145 0 0.017128477934996243 -0.030239270378853159 0 0.017705445111324877 -0.029051184916365061 0 0.018339873650102662 -0.030289416454514145 0 0.017128477934996243 -0.030239270378853159 0 0.017705445111324877 -0.029051184916365061 0 0.016469774113839125 -0.029371394262403601 0 0.019788598523948174 -0.028653068998726685 0 0.019458518219560229 -0.027597405362730643 0 0.018055523743692271 -0.027670996553938405 0 0.01996761064430053 -0.029327530957433665 0 0.017728000766820864 -0.028299766950003007 0 0.019985636680757403 -0.029958506127188991 0 0.017705445111324877 -0.029051184916365061 0 0.018339873650102662 -0.030289416454514145 0 0.015742852375610981 -0.031838704843991053 0 0.015986736218769532 -0.031980428240294102 0 0.015820735501718062 -0.031598160388981299 0 0.015702468530725409 -0.032080754759762117 0 0.015986736218769532 -0.031980428240294102 0 0.01586958707826672 -0.032373122614575207 0 0.015702468530725409 -0.032080754759762117 0 0.015742852375610981 -0.031838704843991053 0 0.015986736218769532 -0.031980428240294102 0 0.015702468530725409 -0.032080754759762117 0 0.015559998034596375 -0.031898698713254098 0 0.015407838526973163 -0.032176414526604927 0 0.015702468530725409 -0.032080754759762117 0 0.015559998034596375 -0.031898698713254098 0 0.015742852375610981 -0.031838704843991053 0 0.016121537624543297 -0.030691951983594701 0 0.015666309704336048 -0.030161756702192184 0 0.015268701515527365 -0.028354961973635941 0 0.015948140944023526 -0.030649995396671483 0 0.016281668715064888 -0.027773532105157959 0 0.016469774113839125 -0.029371394262403601 0 0.016025655717199817 -0.030444150842164185 0 0.015110205132106867 -0.028023880300499793 0 0.017128477934996243 -0.030239270378853159 0 0.016469774113839125 -0.029371394262403601 0 0.016025655717199817 -0.030444150842164185 0 0.01703926827335665 -0.032934056153711769 0 0.015948140944023526 -0.030649995396671483 0 0.01586958707826672 -0.032373122614575207 0 0.01636645419716944 -0.032618994091624998 0 0.01555824331106841 -0.033017661542021057 0 0.01573562103237339 -0.031288774357555567 0 0.016317657081935052 -0.032350394680154174 0 0.017055505322165987 -0.033080042855105143 0 0.016121537624543297 -0.030691951983594701 0 0.016232801629705879 -0.032050053817198013 0 0.015986736218769532 -0.031980428240294102 0 0.01586958707826672 -0.032373122614575207 0 0.01636645419716944 -0.032618994091624998 0 0.016121537624543297 -0.030691951983594701 0 0.015666309704336048 -0.030161756702192184 0 0.016232801629705879 -0.032050053817198013 0 0.01586958707826672 -0.032373122614575207 0 0.015528005622827551 -0.032450511483540563 0 0.01555824331106841 -0.033017661542021057 0 0.015702468530725409 -0.032080754759762117 0 0.01586958707826672 -0.032373122614575207 0 0.015528005622827551 -0.032450511483540563 0 0.015702468530725409 -0.032080754759762117 0 0.015528005622827551 -0.032450511483540563 0 0.015407838526973163 -0.032176414526604927 0 0.015528005622827551 -0.032450511483540563 0 0.01555824331106841 -0.033017661542021057 0 0.015158718727103138 -0.032643549500792284 0 0.01555824331106841 -0.033017661542021057 0 0.01430119456989835 -0.03378651848016679 0 0.012783009535427827 -0.032328916655741974 0 0.015623633911423202 -0.032645332163399987 0 0.013500423810159827 -0.03397200794295048 0 0.016923439813514182 -0.034032395495446385 0 0.01636645419716944 -0.032618994091624998 0 0.016167401306138182 -0.033715469405263016 0 0.01636645419716944 -0.032618994091624998 0 0.01555824331106841 -0.033017661542021057 0 0.016167401306138182 -0.033715469405263016 0 0.016860906195100063 -0.033903145697631386 0 0.016317657081935052 -0.032350394680154174 0 0.01555824331106841 -0.033017661542021057 0 0.016167401306138182 -0.033715469405263016 0 0.015433694738313972 -0.034592869847299729 0 0.016923439813514182 -0.034032395495446385 0 0.016167401306138182 -0.033715469405263016 0 0.016320303459337097 -0.03468678053960951 0 0.016167401306138182 -0.033715469405263016 0 0.016320303459337097 -0.03468678053960951 0 0.015433694738313972 -0.034592869847299729 0 0.016017380031227942 -0.03578570042129172 0 0.016320303459337097 -0.03468678053960951 0 0.015433694738313972 -0.034592869847299729 0 0.016017380031227942 -0.03578570042129172 0 0.017190775838503074 -0.035254833917545081 0 0.016320303459337097 -0.03468678053960951 0 0.017190775838503074 -0.035254833917545081 0 0.016923439813514182 -0.034032395495446385 0 0.016320303459337097 -0.03468678053960951 0 0.01430119456989835 -0.03378651848016679 0 0.015433694738313972 -0.034592869847299729 0 0.014336095619381834 -0.034651391961226775 0 0.01555824331106841 -0.033017661542021057 0 0.01430119456989835 -0.03378651848016679 0 0.015433694738313972 -0.034592869847299729 0 0.015229212202593635 -0.035613936662997586 0 0.016017380031227942 -0.03578570042129172 0 0.015433694738313972 -0.034592869847299729 0 0.015229212202593635 -0.035613936662997586 0 0.015433694738313972 -0.034592869847299729 0 0.014897378107303676 -0.035235627001012307 0 0.015433694738313972 -0.034592869847299729 0 0.014897378107303676 -0.035235627001012307 0 0.014336095619381834 -0.034651391961226775 0 0.015229212202593635 -0.035613936662997586 0 0.014466849872223013 -0.035868560431769551 0 0.014897378107303676 -0.035235627001012307 0 0.014466849872223013 -0.035868560431769551 0 0.014897378107303676 -0.035235627001012307 0 0.014336095619381834 -0.034651391961226775 0 0.014466849872223013 -0.035868560431769551 0 0.014336095619381834 -0.034651391961226775 0 0.013110339216093574 -0.03468609903565896 0 0.014495097601472565 -0.041357412781417413 0 0.013167964642862351 -0.040538975228783754 0 0.013640698400252284 -0.038190292130344694 0 0.01430119456989835 -0.03378651848016679 0 0.014336095619381834 -0.034651391961226775 0 0.013110339216093574 -0.03468609903565896 0 0.014495097601472565 -0.041357412781417413 0 0.01330546905687395 -0.041910212791409093 0 0.013167964642862351 -0.040538975228783754 0 0.01330546905687395 -0.041910212791409093 0 0.012253908745562965 -0.041557131197606414 0 0.013167964642862351 -0.040538975228783754 0 0.011178166570838446 -0.042888033293649458 0 0.012253908745562965 -0.041557131197606414 0 0.01038212674185124 -0.04109919423398474 0 0.012253908745562965 -0.041557131197606414 0 0.011925101796036714 -0.039533189903605083 0 0.01038212674185124 -0.04109919423398474 0 0.012253908745562965 -0.041557131197606414 0 0.013167964642862351 -0.040538975228783754 0 0.011925101796036714 -0.039533189903605083 0 0.011925101796036714 -0.039533189903605083 0 0.013640698400252284 -0.038190292130344694 0 0.0098581440621461156 -0.037498661410966708 0 0.013167964642862351 -0.040538975228783754 0 0.011925101796036714 -0.039533189903605083 0 0.013640698400252284 -0.038190292130344694 0 0.01430119456989835 -0.03378651848016679 0 0.013110339216093574 -0.03468609903565896 0 0.012783009535427827 -0.032328916655741974 0 0.013810887039860434 -0.03835367389076489 0 0.013500423810159827 -0.03397200794295048 0 0.015308167341229334 -0.040456712641829908 0 0.0069263962950175777 -0.041980470318552822 0 0.015308167341229334 -0.040456712641829908 0 0.01494470442010638 -0.038958186837285289 0 0.0077542795495490601 -0.041832695493766725 0 0.01038212674185124 -0.04109919423398474 0 0.0087280583765692778 -0.039827332974198791 0 0.0068055041645766643 -0.04224507837789062 0 0.008673319792832394 -0.04202957575660253 0 0.01038212674185124 -0.04109919423398474 0 0.02195031447789824 -0.037105445999556466 0 0.022129634886739344 -0.037144823745587349 0 0.022041841879792544 -0.037041968156087055 0 0.021994095519711019 -0.037013624772168158 0 0.02195031447789824 -0.037105445999556466 0 0.022041841879792544 -0.037041968156087055 0 0.022390910489097009 -0.039191749899035407 0 0.022641461741070252 -0.038715089461961547 0 0.021601053252129292 -0.036950132021050255 0 0.015308167341229334 -0.040456712641829908 0 0.024542139122176596 -0.036023633410252727 0 0.01038212674185124 -0.04109919423398474 0 0.010209425850182995 -0.039496935801554826 0 0.0087280583765692778 -0.039827332974198791 0 0.0098591562545962755 -0.042586226951987251 0 0.008673319792832394 -0.04202957575660253 0 0.01038212674185124 -0.04109919423398474 0 0.011925101796036714 -0.039533189903605083 0 0.01038212674185124 -0.04109919423398474 0 0.010209425850182995 -0.039496935801554826 0 0.011925101796036714 -0.039533189903605083 0 0.010209425850182995 -0.039496935801554826 0 0.0098581440621461156 -0.037498661410966708 0 0.010209425850182995 -0.039496935801554826 0 0.0087280583765692778 -0.039827332974198791 0 0.0098581440621461156 -0.037498661410966708 0 0.01494470442010638 -0.038958186837285289 0 0.019258609321572317 -0.034511465161846909 0 0.02195031447789824 -0.037105445999556466 0 0.022042401496394137 -0.037270821314002132 0 0.021877000647530523 -0.037237701122547588 0 0.02195031447789824 -0.037105445999556466 0 0.022042401496394137 -0.037270821314002132 0 0.022129634886739344 -0.037144823745587349 0 0.031825740782736214 -0.033613279100424436 0 0.033182930212550449 -0.033853687313283198 0 0.032748763614445321 -0.032152658810109161 0 0.031825740782736214 -0.033613279100424436 0 0.032748763614445321 -0.032152658810109161 0 0.031287176304381561 -0.032817852688364166 0 0.027972353182506005 -0.035650579210008221 0 0.019258609321572317 -0.034511465161846909 0 0.019258609321572317 -0.034511465161846909 0 0.025901087462169202 -0.031389363325170318 0 0.032748763614445321 -0.032152658810109161 0 0.03432241558334264 -0.031425506505518522 0 0.033554966235032749 -0.030840849929109855 0 0.033182930212550449 -0.033853687313283198 0 0.032748763614445321 -0.032152658810109161 0 0.03432241558334264 -0.031425506505518522 0 0.032748763614445321 -0.032152658810109161 0 0.03280069134314622 -0.030387729819093212 0 0.031106809895231069 -0.03199598911730954 0 0.032748763614445321 -0.032152658810109161 0 0.031106809895231069 -0.03199598911730954 0 0.031287176304381561 -0.032817852688364166 0 0.015528005622827551 -0.032450511483540563 0 0.015158718727103138 -0.032643549500792284 0 0.015407838526973163 -0.032176414526604927 0 0.015158718727103138 -0.032643549500792284 0 0.015170951719513824 -0.032155467566452094 0 0.015407838526973163 -0.032176414526604927 0 0.013500423810159827 -0.03397200794295048 0 0.015336145410423668 -0.031862762727933286 0 0.013500423810159827 -0.03397200794295048 0 0.019258609321572317 -0.034511465161846909 0 0.015511413987314829 -0.032182846375328505 0 0.01524501700491104 -0.032124366220530394 0 0.015462562978135202 -0.031974483963595174 0 0.01524501700491104 -0.032124366220530394 0 0.015462562978135202 -0.031974483963595174 0 0.015315818976923497 -0.031812265176498586 0 0.015336145410423668 -0.031862762727933286 0 0.015343137505617768 -0.031870678518725638 0 0.015170951719513824 -0.032155467566452094 0 0.015394467370526499 -0.031852953100190803 0 0.015347182911093703 -0.031738569520249463 0 0.015462562978135202 -0.031974483963595174 0 0.015315818976923497 -0.031812265176498586 0 0.015347182911093703 -0.031738569520249463 0 0.015170951719513824 -0.032155467566452094 0 0.015394467370526499 -0.031852953100190803 0 0.015407838526973163 -0.032176414526604927 0 0.015559998034596375 -0.031898698713254098 0 0.015394467370526499 -0.031852953100190803 0 0.015512512118484638 -0.031723832751539574 0 0.015559998034596375 -0.031898698713254098 0 0.015394467370526499 -0.031852953100190803 0 0.015407838526973163 -0.032176414526604927 0 0.015512512118484638 -0.031723832751539574 0 0.015437215694979236 -0.031654191805424496 0 0.01558085604681075 -0.031541455546347373 0 0.015512512118484638 -0.031723832751539574 0 0.01558085604681075 -0.031541455546347373 0 0.015641818192259287 -0.031694464740030279 0 0.015394467370526499 -0.031852953100190803 0 0.015512512118484638 -0.031723832751539574 0 0.015437215694979236 -0.031654191805424496 0 0.015394467370526499 -0.031852953100190803 0 0.015437215694979236 -0.031654191805424496 0 0.015347182911093703 -0.031738569520249463 0 0.03432241558334264 -0.031425506505518522 0 0.03431682027549799 -0.030180299907217066 0 0.034843349328531489 -0.029516874459602768 0 0.03432241558334264 -0.031425506505518522 0 0.03431682027549799 -0.030180299907217066 0 0.034031511615334457 -0.030638015125761638 0 0.025901087462169202 -0.031389363325170318 0 0.022654191785703836 -0.028875666963848082 0 0.015315818976923497 -0.031812265176498586 0 0.015347182911093703 -0.031738569520249463 0 0.015412721649816032 -0.031483508993508318 0 0.015437215694979236 -0.031654191805424496 0 0.015347182911093703 -0.031738569520249463 0 0.015412721649816032 -0.031483508993508318 0 0.03431682027549799 -0.030180299907217066 0 0.034031511615334457 -0.030638015125761638 0 0.033913737899200651 -0.030063020369100073 0 0.03431682027549799 -0.030180299907217066 0 0.034522844609942954 -0.029650730388852169 0 0.034843349328531489 -0.029516874459602768 0 0.034522844609942954 -0.029650730388852169 0 0.034430943580275923 -0.029342751001765505 0 0.034843349328531489 -0.029516874459602768 0 0.034245621549449677 -0.029677584154489872 0 0.034028343982905787 -0.029221622398316403 0 0.033913737899200651 -0.030063020369100073 0 0.03431682027549799 -0.030180299907217066 0 0.034245621549449677 -0.029677584154489872 0 0.033913737899200651 -0.030063020369100073 0 0.03431682027549799 -0.030180299907217066 0 0.034522844609942954 -0.029650730388852169 0 0.034245621549449677 -0.029677584154489872 0 0.034522844609942954 -0.029650730388852169 0 0.034245621549449677 -0.029677584154489872 0 0.034430943580275923 -0.029342751001765505 0 0.034028343982905787 -0.029221622398316403 0 0.034430943580275923 -0.029342751001765505 0 0.034571693997108896 -0.028953175332439709 0 0.034245621549449677 -0.029677584154489872 0 0.034028343982905787 -0.029221622398316403 0 0.034430943580275923 -0.029342751001765505 0 0.034430943580275923 -0.029342751001765505 0 0.034843349328531489 -0.029516874459602768 0 0.034571693997108896 -0.028953175332439709 0 0.022654191785703836 -0.028875666963848082 0 0.027875048683525406 -0.026864425629081767 0 0.020876978326287585 -0.026156572144392817 0 0.020657589901324373 -0.026233325053769838 0 0.020907972800826485 -0.02565606557409137 0 0.034843349328531489 -0.029516874459602768 0 0.035094692535651388 -0.028701658583599531 0 0.034571693997108896 -0.028953175332439709 0 0.020876978326287585 -0.026156572144392817 0 0.020988136298124609 -0.026292261296326804 0 0.021011693378462162 -0.026148397421014231 0 0.020876978326287585 -0.026156572144392817 0 0.020988136298124609 -0.026292261296326804 0 0.020657589901324373 -0.026233325053769838 0 0.017848706261940052 -0.028679384030438477 0 0.022654191785703836 -0.028875666963848082 0 0.015437215694979236 -0.031654191805424496 0 0.01558085604681075 -0.031541455546347373 0 0.015412721649816032 -0.031483508993508318 0 0.032745717551449664 -0.030411018130845135 0 0.031319223572875289 -0.030763470589769127 0 0.03280069134314622 -0.030387729819093212 0 0.0326887299686731 -0.029652148379884242 0 0.032300514352035826 -0.030160331790126119 0 0.03280069134314622 -0.030387729819093212 0 0.033554966235032749 -0.030840849929109855 0 0.033913737899200651 -0.030063020369100073 0 0.03280069134314622 -0.030387729819093212 0 0.033913737899200651 -0.030063020369100073 0 0.033365177380992025 -0.029619444169413391 0 0.032748763614445321 -0.032152658810109161 0 0.03280069134314622 -0.030387729819093212 0 0.033554966235032749 -0.030840849929109855 0 0.03432241558334264 -0.031425506505518522 0 0.033554966235032749 -0.030840849929109855 0 0.034031511615334457 -0.030638015125761638 0 0.033554966235032749 -0.030840849929109855 0 0.034031511615334457 -0.030638015125761638 0 0.033913737899200651 -0.030063020369100073 0 0.034028343982905787 -0.029221622398316403 0 0.033913737899200651 -0.030063020369100073 0 0.033365177380992025 -0.029619444169413391 0 0.034028343982905787 -0.029221622398316403 0 0.033365177380992025 -0.029619444169413391 0 0.033312983130091504 -0.0289099528247212 0 0.0326887299686731 -0.029652148379884242 0 0.033312983130091504 -0.0289099528247212 0 0.032581247944936949 -0.028908030726514378 0 0.033365177380992025 -0.029619444169413391 0 0.0326887299686731 -0.029652148379884242 0 0.033312983130091504 -0.0289099528247212 0 0.03280069134314622 -0.030387729819093212 0 0.033365177380992025 -0.029619444169413391 0 0.0326887299686731 -0.029652148379884242 0 0.033312983130091504 -0.0289099528247212 0 0.033120555371783052 -0.027896715884799164 0 0.032581247944936949 -0.028908030726514378 0 0.033312983130091504 -0.0289099528247212 0 0.033120555371783052 -0.027896715884799164 0 0.033998839928280247 -0.028402390618259454 0 0.034028343982905787 -0.029221622398316403 0 0.033312983130091504 -0.0289099528247212 0 0.033998839928280247 -0.028402390618259454 0 0.033780404936714969 -0.027692666295666385 0 0.033120555371783052 -0.027896715884799164 0 0.033998839928280247 -0.028402390618259454 0 0.033780404936714969 -0.027692666295666385 0 0.033120555371783052 -0.027896715884799164 0 0.033534670958052022 -0.026625073646227508 0 0.020876978326287585 -0.026156572144392817 0 0.020907972800826485 -0.02565606557409137 0 0.021323636339102243 -0.025168549364922688 0 0.020876978326287585 -0.026156572144392817 0 0.020995133143208083 -0.025745926848745798 0 0.021011693378462162 -0.026148397421014231 0 0.020766351095463063 -0.026621959656310468 0 0.021404082224713173 -0.024195062293193698 0 0.020907972800826485 -0.02565606557409137 0 0.02128466014218007 -0.025049883059986459 0 0.021323636339102243 -0.025168549364922688 0 0.027875048683525406 -0.026864425629081767 0 0.024408626690471637 -0.022423374446064105 0 0.034762251726027676 -0.028196157428878838 0 0.035094692535651388 -0.028701658583599531 0 0.035398681619872911 -0.027921787682754558 0 0.034762251726027676 -0.028196157428878838 0 0.035094692535651388 -0.028701658583599531 0 0.034571693997108896 -0.028953175332439709 0 0.034762251726027676 -0.028196157428878838 0 0.034571693997108896 -0.028953175332439709 0 0.033998839928280247 -0.028402390618259454 0 0.034028343982905787 -0.029221622398316403 0 0.034571693997108896 -0.028953175332439709 0 0.033998839928280247 -0.028402390618259454 0 0.034762251726027676 -0.028196157428878838 0 0.033998839928280247 -0.028402390618259454 0 0.034463062520011079 -0.027537558978305596 0 0.033780404936714969 -0.027692666295666385 0 0.033998839928280247 -0.028402390618259454 0 0.034463062520011079 -0.027537558978305596 0 0.024511797910270191 -0.011672755078301842 0 0.024064041493998628 -0.012480308133336506 0 0.025560103494143706 -0.013836985375707312 0 0.034463062520011079 -0.027537558978305596 0 0.035398681619872911 -0.027921787682754558 0 0.034758722952485291 -0.026559466583876326 0 0.034762251726027676 -0.028196157428878838 0 0.034463062520011079 -0.027537558978305596 0 0.035398681619872911 -0.027921787682754558 0 0.024408626690471637 -0.022423374446064105 0 0.021689346099835163 -0.016676846782018251 0 0.016276682200183783 -0.023510443662539893 0 0.015175896846821147 -0.024067113471775991 0 0.0164423330552293 -0.024550046191019331 0 0.015524349295168617 -0.023023803014036157 0 0.016276682200183783 -0.023510443662539893 0 0.016322387340730403 -0.022668325305583516 0 0.015524349295168617 -0.023023803014036157 0 0.016276682200183783 -0.023510443662539893 0 0.015175896846821147 -0.024067113471775991 0 0.020758335771994346 -0.02192039988201824 0 0.023050969600150201 -0.017517145327145749 0 0.021206284387960236 -0.023048826511497943 0 0.021689346099835163 -0.016676846782018251 0 0.021404082224713173 -0.024195062293193698 0 0.024408626690471637 -0.022423374446064105 0 0.021404082224713173 -0.024195062293193698 0 0.020995133143208083 -0.025745926848745798 0 0.021110951873422414 -0.026054556606023519 0 0.021011693378462162 -0.026148397421014231 0 0.021404082224713173 -0.024195062293193698 0 0.01791704139417109 -0.025710099938013733 0 0.0164423330552293 -0.024550046191019331 0 0.015664467208855216 -0.025401499415935291 0 0.016541962047792381 -0.025899942847563778 0 0.015175896846821147 -0.024067113471775991 0 0.0164423330552293 -0.024550046191019331 0 0.015664467208855216 -0.025401499415935291 0 0.0164423330552293 -0.024550046191019331 0 0.01736331134481842 -0.023907043886588032 0 0.017395686901896343 -0.025302712336746601 0 0.0164423330552293 -0.024550046191019331 0 0.017395686901896343 -0.025302712336746601 0 0.016541962047792381 -0.025899942847563778 0 0.016276682200183783 -0.023510443662539893 0 0.0164423330552293 -0.024550046191019331 0 0.01736331134481842 -0.023907043886588032 0 0.016276682200183783 -0.023510443662539893 0 0.01736331134481842 -0.023907043886588032 0 0.01700669768283038 -0.022875452044061488 0 0.016276682200183783 -0.023510443662539893 0 0.01700669768283038 -0.022875452044061488 0 0.016322387340730403 -0.022668325305583516 0 0.01736331134481842 -0.023907043886588032 0 0.01700669768283038 -0.022875452044061488 0 0.01788730741649951 -0.022700757087929794 0 0.01736331134481842 -0.023907043886588032 0 0.018226998850635855 -0.023606888002591628 0 0.01788730741649951 -0.022700757087929794 0 0.018226998850635855 -0.023606888002591628 0 0.01788730741649951 -0.022700757087929794 0 0.018718841665868832 -0.022832657751173577 0 0.01736331134481842 -0.023907043886588032 0 0.018226998850635855 -0.023606888002591628 0 0.018274167340376114 -0.024739405258332625 0 0.018226998850635855 -0.023606888002591628 0 0.019303917905521058 -0.0239875342501444 0 0.018718841665868832 -0.022832657751173577 0 0.019303917905521058 -0.0239875342501444 0 0.018718841665868832 -0.022832657751173577 0 0.019640279724696407 -0.022386089101993432 0 0.018226998850635855 -0.023606888002591628 0 0.019303917905521058 -0.0239875342501444 0 0.018274167340376114 -0.024739405258332625 0 0.019303917905521058 -0.0239875342501444 0 0.018274167340376114 -0.024739405258332625 0 0.019188792711653573 -0.025507246179483824 0 0.01736331134481842 -0.023907043886588032 0 0.018274167340376114 -0.024739405258332625 0 0.017395686901896343 -0.025302712336746601 0 0.018274167340376114 -0.024739405258332625 0 0.017395686901896343 -0.025302712336746601 0 0.018185733007679835 -0.026231402362744127 0 0.017395686901896343 -0.025302712336746601 0 0.018185733007679835 -0.026231402362744127 0 0.017278626638446828 -0.026400465816541131 0 0.019923013404230149 -0.026084942049815058 0 0.019188792711653573 -0.025507246179483824 0 0.018958222242157711 -0.026873940702345889 0 0.018274167340376114 -0.024739405258332625 0 0.018185733007679835 -0.026231402362744127 0 0.019188792711653573 -0.025507246179483824 0 0.018185733007679835 -0.026231402362744127 0 0.019188792711653573 -0.025507246179483824 0 0.018958222242157711 -0.026873940702345889 0 0.018055523743692271 -0.027670996553938405 0 0.018185733007679835 -0.026231402362744127 0 0.018958222242157711 -0.026873940702345889 0 0.019458518219560229 -0.027597405362730643 0 0.018055523743692271 -0.027670996553938405 0 0.018958222242157711 -0.026873940702345889 0 0.018055523743692271 -0.027670996553938405 0 0.018185733007679835 -0.026231402362744127 0 0.017278626638446828 -0.026400465816541131 0 0.015666309704336048 -0.030161756702192184 0 0.015268701515527365 -0.028354961973635941 0 0.015126234038566515 -0.028298251620274033 0 0.018055523743692271 -0.027670996553938405 0 0.016211041212260854 -0.026866582222411815 0 0.017278626638446828 -0.026400465816541131 0 0.017705445111324877 -0.029051184916365061 0 0.016469774113839125 -0.029371394262403601 0 0.015110205132106867 -0.028023880300499793 0 0.017728000766820864 -0.028299766950003007 0 0.016281668715064888 -0.027773532105157959 0 0.01573562103237339 -0.031288774357555567 0 0.017627306002202851 -0.028358432307995493 0 0.015742852375610981 -0.031838704843991053 0 0.015641818192259287 -0.031694464740030279 0 0.015820735501718062 -0.031598160388981299 0 0.015559998034596375 -0.031898698713254098 0 0.015742852375610981 -0.031838704843991053 0 0.015641818192259287 -0.031694464740030279 0 0.015559998034596375 -0.031898698713254098 0 0.015512512118484638 -0.031723832751539574 0 0.015641818192259287 -0.031694464740030279 0 0.01558085604681075 -0.031541455546347373 0 0.015641818192259287 -0.031694464740030279 0 0.015820735501718062 -0.031598160388981299 0 0.017848706261940052 -0.028679384030438477 0 0.017627306002202851 -0.028358432307995493 0 0.016281668715064888 -0.027773532105157959 0 0.017627306002202851 -0.028358432307995493 0 0.021175464519542029 -0.026383929887186939 0 0.021110951873422414 -0.026054556606023519 0 0.021011693378462162 -0.026148397421014231 0 0.017627306002202851 -0.028358432307995493 0 0.01791704139417109 -0.025710099938013733 0 0.017798037826959653 -0.02796031363054519 0 0.017643715875027971 -0.027898677764041858 0 0.017088734552710556 -0.025974872513954059 0 0.016281668715064888 -0.027773532105157959 0 0.01791704139417109 -0.025710099938013733 0 0.016211041212260854 -0.026866582222411815 0 0.015664467208855216 -0.025401499415935291 0 0.016541962047792381 -0.025899942847563778 0 0.020988136298124609 -0.026292261296326804 0 0.021175464519542029 -0.026383929887186939 0 0.021011693378462162 -0.026148397421014231 0 0.017395686901896343 -0.025302712336746601 0 0.017278626638446828 -0.026400465816541131 0 0.016541962047792381 -0.025899942847563778 0 0.016211041212260854 -0.026866582222411815 0 0.017278626638446828 -0.026400465816541131 0 0.016541962047792381 -0.025899942847563778 0 0.02947769504034704 -0.029244890507725715 0 0.029997336014320416 -0.030241581501949628 0 0.02913680337336735 -0.030986021038147592 0 0.02947769504034704 -0.029244890507725715 0 0.02913680337336735 -0.030986021038147592 0 0.02846180721530768 -0.029539816916357944 0 0.029997336014320416 -0.030241581501949628 0 0.030356210772821926 -0.02877252167793928 0 0.030761978284551919 -0.029555777182084565 0 0.02947769504034704 -0.029244890507725715 0 0.029997336014320416 -0.030241581501949628 0 0.030356210772821926 -0.02877252167793928 0 0.029997336014320416 -0.030241581501949628 0 0.02913680337336735 -0.030986021038147592 0 0.029898283211303549 -0.032003080341209272 0 0.02913680337336735 -0.030986021038147592 0 0.02797701630409645 -0.030977057037297261 0 0.02846180721530768 -0.029539816916357944 0 0.02913680337336735 -0.030986021038147592 0 0.02797701630409645 -0.030977057037297261 0 0.028398481349779285 -0.032021167966811787 0 0.02797701630409645 -0.030977057037297261 0 0.02727712735618746 -0.030063243460336064 0 0.02717245385512938 -0.031743064838084811 0 0.029933543283574227 -0.030313941657426811 0 0.030900995624942289 -0.03316776833280026 0 0.02727712735618746 -0.030063243460336064 0 0.02846180721530768 -0.029539816916357944 0 0.027812616615360625 -0.028169389405366268 0 0.02797701630409645 -0.030977057037297261 0 0.02727712735618746 -0.030063243460336064 0 0.02846180721530768 -0.029539816916357944 0 0.02846180721530768 -0.029539816916357944 0 0.029052482284943761 -0.028164193207514523 0 0.027812616615360625 -0.028169389405366268 0 0.02947769504034704 -0.029244890507725715 0 0.02846180721530768 -0.029539816916357944 0 0.029052482284943761 -0.028164193207514523 0 0.029933543283574227 -0.030313941657426811 0 0.030290324353293804 -0.028436161354025241 0 0.029052482284943761 -0.028164193207514523 0 0.027812616615360625 -0.028169389405366268 0 0.029210606583700154 -0.027033468624442766 0 0.027812616615360625 -0.028169389405366268 0 0.029210606583700154 -0.027033468624442766 0 0.028865245567802608 -0.026405105485580931 0 0.030290324353293804 -0.028436161354025241 0 0.030512392029609439 -0.026410735941037124 0 0.029052482284943761 -0.028164193207514523 0 0.029210606583700154 -0.027033468624442766 0 0.029908334424745959 -0.026843884065839443 0 0.030005822752998262 -0.027907618786858795 0 0.030541829702027207 -0.026742287030367757 0 0.029908334424745959 -0.026843884065839443 0 0.029052482284943761 -0.028164193207514523 0 0.030005822752998262 -0.027907618786858795 0 0.029908334424745959 -0.026843884065839443 0 0.02947769504034704 -0.029244890507725715 0 0.029052482284943761 -0.028164193207514523 0 0.030005822752998262 -0.027907618786858795 0 0.02947769504034704 -0.029244890507725715 0 0.030005822752998262 -0.027907618786858795 0 0.030356210772821926 -0.02877252167793928 0 0.030005822752998262 -0.027907618786858795 0 0.030356210772821926 -0.02877252167793928 0 0.030810984760199681 -0.027669997879664829 0 0.030005822752998262 -0.027907618786858795 0 0.030810984760199681 -0.027669997879664829 0 0.030541829702027207 -0.026742287030367757 0 0.030810984760199681 -0.027669997879664829 0 0.031534106640335388 -0.027706248487237968 0 0.031157631880943591 -0.028660180275775268 0 0.030810984760199681 -0.027669997879664829 0 0.031534106640335388 -0.027706248487237968 0 0.031152762167771623 -0.02674256455378405 0 0.031534106640335388 -0.027706248487237968 0 0.031157631880943591 -0.028660180275775268 0 0.031916797646788016 -0.028934766179764544 0 0.030356210772821926 -0.02877252167793928 0 0.030810984760199681 -0.027669997879664829 0 0.031157631880943591 -0.028660180275775268 0 0.030356210772821926 -0.02877252167793928 0 0.031157631880943591 -0.028660180275775268 0 0.030761978284551919 -0.029555777182084565 0 0.033120555371783052 -0.027896715884799164 0 0.032248366404784602 -0.027823180687958023 0 0.032575633348547593 -0.026775583131411724 0 0.031534106640335388 -0.027706248487237968 0 0.032248366404784602 -0.027823180687958023 0 0.0318359086003316 -0.026751000198963083 0 0.031534106640335388 -0.027706248487237968 0 0.032248366404784602 -0.027823180687958023 0 0.031916797646788016 -0.028934766179764544 0 0.032248366404784602 -0.027823180687958023 0 0.031916797646788016 -0.028934766179764544 0 0.032581247944936949 -0.028908030726514378 0 0.033120555371783052 -0.027896715884799164 0 0.032248366404784602 -0.027823180687958023 0 0.032581247944936949 -0.028908030726514378 0 0.0326887299686731 -0.029652148379884242 0 0.032581247944936949 -0.028908030726514378 0 0.032320307656607539 -0.029532447094538804 0 0.0326887299686731 -0.029652148379884242 0 0.032320307656607539 -0.029532447094538804 0 0.032300514352035826 -0.030160331790126119 0 0.031916797646788016 -0.028934766179764544 0 0.032581247944936949 -0.028908030726514378 0 0.032320307656607539 -0.029532447094538804 0 0.031916797646788016 -0.028934766179764544 0 0.032320307656607539 -0.029532447094538804 0 0.031934626007010629 -0.029849108932775589 0 0.031916797646788016 -0.028934766179764544 0 0.031934626007010629 -0.029849108932775589 0 0.031414165302138981 -0.029688417484387108 0 0.031319223572875289 -0.030763470589769127 0 0.03030712424222003 -0.031515552621376869 0 0.032320307656607539 -0.029532447094538804 0 0.031934626007010629 -0.029849108932775589 0 0.032300514352035826 -0.030160331790126119 0 0.030170789198634047 -0.031281284711395289 0 0.029030744806476633 -0.032356882614208278 0 0.029730877845261492 -0.03225584620597946 0 0.031934626007010629 -0.029849108932775589 0 0.032300514352035826 -0.030160331790126119 0 0.031630813440949847 -0.030719605898629911 0 0.03280069134314622 -0.030387729819093212 0 0.030170789198634047 -0.031281284711395289 0 0.031106809895231069 -0.03199598911730954 0 0.031157631880943591 -0.028660180275775268 0 0.030761978284551919 -0.029555777182084565 0 0.031414165302138981 -0.029688417484387108 0 0.030761978284551919 -0.029555777182084565 0 0.031414165302138981 -0.029688417484387108 0 0.030793309583475464 -0.030434956341332153 0 0.029997336014320416 -0.030241581501949628 0 0.030761978284551919 -0.029555777182084565 0 0.030793309583475464 -0.030434956341332153 0 0.031157631880943591 -0.028660180275775268 0 0.031916797646788016 -0.028934766179764544 0 0.031414165302138981 -0.029688417484387108 0 0.031414165302138981 -0.029688417484387108 0 0.031630813440949847 -0.030719605898629911 0 0.030793309583475464 -0.030434956341332153 0 0.031934626007010629 -0.029849108932775589 0 0.031414165302138981 -0.029688417484387108 0 0.031630813440949847 -0.030719605898629911 0 0.031630813440949847 -0.030719605898629911 0 0.030793309583475464 -0.030434956341332153 0 0.029898283211303549 -0.032003080341209272 0 0.03030712424222003 -0.031515552621376869 0 0.029833423170905787 -0.031939850621524962 0 0.029997336014320416 -0.030241581501949628 0 0.030793309583475464 -0.030434956341332153 0 0.029898283211303549 -0.032003080341209272 0 0.029030744806476633 -0.032356882614208278 0 0.029186814472878575 -0.032468479109832131 0 0.029898283211303549 -0.032003080341209272 0 0.029186814472878575 -0.032468479109832131 0 0.029240983724158568 -0.032682107296966648 0 0.029898283211303549 -0.032003080341209272 0 0.029240983724158568 -0.032682107296966648 0 0.029898283211303549 -0.032003080341209272 0 0.029462978310520582 -0.032719373448462742 0 0.029030744806476633 -0.032356882614208278 0 0.029186814472878575 -0.032468479109832131 0 0.029195837796653478 -0.032616424322811741 0 0.029186814472878575 -0.032468479109832131 0 0.029065486268873644 -0.032720820517491943 0 0.029195837796653478 -0.032616424322811741 0 0.029186814472878575 -0.032468479109832131 0 0.029065486268873644 -0.032720820517491943 0 0.029240983724158568 -0.032682107296966648 0 0.029065486268873644 -0.032720820517491943 0 0.02879235562666644 -0.032871395486215087 0 0.029195837796653478 -0.032616424322811741 0 0.029065486268873644 -0.032720820517491943 0 0.028981720974968501 -0.032859666570096764 0 0.029240983724158568 -0.032682107296966648 0 0.029065486268873644 -0.032720820517491943 0 0.02879235562666644 -0.032871395486215087 0 0.028981720974968501 -0.032859666570096764 0 0.02879235562666644 -0.032871395486215087 0 0.028981720974968501 -0.032859666570096764 0 0.028747886038064448 -0.03295387503101007 0 0.028981720974968501 -0.032859666570096764 0 0.028747886038064448 -0.03295387503101007 0 0.029199413613008318 -0.033040876442599794 0 0.028981720974968501 -0.032859666570096764 0 0.029240983724158568 -0.032682107296966648 0 0.029199413613008318 -0.033040876442599794 0 0.029240983724158568 -0.032682107296966648 0 0.029199413613008318 -0.033040876442599794 0 0.029462978310520582 -0.032719373448462742 0 0.031106809895231069 -0.03199598911730954 0 0.030390398092583169 -0.032759024247797155 0 0.029730877845261492 -0.03225584620597946 0 0.030170789198634047 -0.031281284711395289 0 0.031106809895231069 -0.03199598911730954 0 0.029730877845261492 -0.03225584620597946 0 0.031106809895231069 -0.03199598911730954 0 0.030390398092583169 -0.032759024247797155 0 0.031287176304381561 -0.032817852688364166 0 0.029030744806476633 -0.032356882614208278 0 0.029730877845261492 -0.03225584620597946 0 0.029195837796653478 -0.032616424322811741 0 0.030390398092583169 -0.032759024247797155 0 0.029730877845261492 -0.03225584620597946 0 0.029518660643599825 -0.033056010322997091 0 0.029730877845261492 -0.03225584620597946 0 0.029195837796653478 -0.032616424322811741 0 0.029518660643599825 -0.033056010322997091 0 0.029195837796653478 -0.032616424322811741 0 0.029518660643599825 -0.033056010322997091 0 0.029757376945586403 -0.033778420342575576 0 0.028970058916939559 -0.032694797775988764 0 0.029713568035435609 -0.033108301997283325 0 0.02879235562666644 -0.032871395486215087 0 0.029195837796653478 -0.032616424322811741 0 0.028479037818314467 -0.032965826298051983 0 0.029518660643599825 -0.033056010322997091 0 0.030035855536200463 -0.03324662677907373 0 0.029757376945586403 -0.033778420342575576 0 0.030060968238420256 -0.033638665437004618 0 0.027635420331699145 -0.034860693381280519 0 0.027635420331699145 -0.034860693381280519 0 0.026122844159119779 -0.035612722991599843 0 0.022042401496394137 -0.037270821314002132 0 0.022220358504025307 -0.037297429859192828 0 0.022129634886739344 -0.037144823745587349 0 0.030390398092583169 -0.032759024247797155 0 0.029518660643599825 -0.033056010322997091 0 0.0304966047172248 -0.03330434131309945 0 0.028604978963054903 -0.033492963253153818 0 0.027635420331699145 -0.034860693381280519 0 0.031825740782736214 -0.033613279100424436 0 0.030508195605067762 -0.033357923741607995 0 0.031287176304381561 -0.032817852688364166 0 0.027972353182506005 -0.035650579210008221 0 0.027635420331699145 -0.034860693381280519 0 0.030390398092583169 -0.032759024247797155 0 0.030508195605067762 -0.033357923741607995 0 0.031287176304381561 -0.032817852688364166 0 0.030035855536200463 -0.03324662677907373 0 0.030099870781534685 -0.03400281039500682 0 0.029757376945586403 -0.033778420342575576 0 0.030099870781534685 -0.03400281039500682 0 0.029757376945586403 -0.033778420342575576 0 0.03015351185153748 -0.034681379543794605 0 0.029713568035435609 -0.033108301997283325 0 0.024542139122176596 -0.036023633410252727 0 0.02879235562666644 -0.032871395486215087 0 0.028479037818314467 -0.032965826298051983 0 0.028480582736485766 -0.032943120988175603 0 0.028347189234388861 -0.032969986825457445 0 0.028479037818314467 -0.032965826298051983 0 0.028180344800243066 -0.033019749787465906 0 0.028347189234388861 -0.032969986825457445 0 0.028479037818314467 -0.032965826298051983 0 0.028480582736485766 -0.032943120988175603 0 0.028480582736485766 -0.032943120988175603 0 0.028240113180025617 -0.032977752847222645 0 0.028498983536609054 -0.032945295910593156 0 0.028347189234388861 -0.032969986825457445 0 0.028480582736485766 -0.032943120988175603 0 0.028240113180025617 -0.032977752847222645 0 0.028240113180025617 -0.032977752847222645 0 0.027994016838099555 -0.033083911049559052 0 0.028018048375809686 -0.033019726494058904 0 0.028240113180025617 -0.032977752847222645 0 0.028180344800243066 -0.033019749787465906 0 0.027994016838099555 -0.033083911049559052 0 0.028347189234388861 -0.032969986825457445 0 0.028240113180025617 -0.032977752847222645 0 0.028180344800243066 -0.033019749787465906 0 0.028479037818314467 -0.032965826298051983 0 0.028180344800243066 -0.033019749787465906 0 0.028054558292985868 -0.033064621251515769 0 0.026122844159119779 -0.035612722991599843 0 0.024542139122176596 -0.036023633410252727 0 0.028180344800243066 -0.033019749787465906 0 0.028053722673905743 -0.033066667635143723 0 0.027994016838099555 -0.033083911049559052 0 0.028180344800243066 -0.033019749787465906 0 0.028053722673905743 -0.033066667635143723 0 0.028054558292985868 -0.033064621251515769 0 0.028007573652397495 -0.033159331482241927 0 0.028053722673905743 -0.033066667635143723 0 0.028054558292985868 -0.033064621251515769 0 0.021226350738090937 -0.039041813783089352 0 0.024542139122176596 -0.036023633410252727 0 0.028747886038064448 -0.03295387503101007 0 0.028848891240274052 -0.032967232913818652 0 0.029199413613008318 -0.033040876442599794 0 0.02879235562666644 -0.032871395486215087 0 0.028747886038064448 -0.03295387503101007 0 0.028498983536609054 -0.032945295910593156 0 0.028747886038064448 -0.03295387503101007 0 0.028498983536609054 -0.032945295910593156 0 0.028311666471594842 -0.032936993075093741 0 0.02879235562666644 -0.032871395486215087 0 0.028480582736485766 -0.032943120988175603 0 0.028498983536609054 -0.032945295910593156 0 0.028240113180025617 -0.032977752847222645 0 0.028311666471594842 -0.032936993075093741 0 0.028018048375809686 -0.033019726494058904 0 0.028240113180025617 -0.032977752847222645 0 0.028498983536609054 -0.032945295910593156 0 0.028311666471594842 -0.032936993075093741 0 0.028311666471594842 -0.032936993075093741 0 0.028848891240274052 -0.032967232913818652 0 0.02844949188451067 -0.032698711446345743 0 0.028747886038064448 -0.03295387503101007 0 0.028311666471594842 -0.032936993075093741 0 0.028848891240274052 -0.032967232913818652 0 0.028848891240274052 -0.032967232913818652 0 0.029495495166747664 -0.032747970373013371 0 0.02940564130775419 -0.033096343047511211 0 0.028848891240274052 -0.032967232913818652 0 0.029495495166747664 -0.032747970373013371 0 0.02844949188451067 -0.032698711446345743 0 0.029495495166747664 -0.032747970373013371 0 0.030227809788739894 -0.033087768835863868 0 0.03042417335201587 -0.032417048008472726 0 0.02940564130775419 -0.033096343047511211 0 0.029842021129756105 -0.033574410195571849 0 0.030227809788739894 -0.033087768835863868 0 0.029495495166747664 -0.032747970373013371 0 0.02940564130775419 -0.033096343047511211 0 0.030227809788739894 -0.033087768835863868 0 0.028848891240274052 -0.032967232913818652 0 0.02940564130775419 -0.033096343047511211 0 0.029199413613008318 -0.033040876442599794 0 0.029199413613008318 -0.033040876442599794 0 0.029462978310520582 -0.032719373448462742 0 0.029441218473397306 -0.032936622617001546 0 0.02940564130775419 -0.033096343047511211 0 0.029199413613008318 -0.033040876442599794 0 0.029842021129756105 -0.033574410195571849 0 0.029199413613008318 -0.033040876442599794 0 0.029842021129756105 -0.033574410195571849 0 0.029441218473397306 -0.032936622617001546 0 0.029661484867346259 -0.033045841631050371 0 0.029287826285357667 -0.033450028606105429 0 0.02913680337336735 -0.030986021038147592 0 0.029441218473397306 -0.032936622617001546 0 0.028398481349779285 -0.032021167966811787 0 0.029842021129756105 -0.033574410195571849 0 0.029441218473397306 -0.032936622617001546 0 0.030422988926394109 -0.034783853899914424 0 0.02913680337336735 -0.030986021038147592 0 0.029898283211303549 -0.032003080341209272 0 0.029441218473397306 -0.032936622617001546 0 0.029898283211303549 -0.032003080341209272 0 0.029462978310520582 -0.032719373448462742 0 0.029441218473397306 -0.032936622617001546 0 0.032412176355231095 -0.035748877933374487 0 0.032407774308357409 -0.03593252842056327 0 0.030422988926394109 -0.034783853899914424 0 0.02797701630409645 -0.030977057037297261 0 0.02717245385512938 -0.031743064838084811 0 0.028398481349779285 -0.032021167966811787 0 0.030900995624942289 -0.03316776833280026 0 0.029287826285357667 -0.033450028606105429 0 0.032412176355231095 -0.035748877933374487 0 0.030422988926394109 -0.034783853899914424 0 0.031392049284146697 -0.034236178299759973 0 0.032412176355231095 -0.035748877933374487 0 0.032526564355579712 -0.035095743812009278 0 0.032712747400427032 -0.035658860685920224 0 0.032412176355231095 -0.035748877933374487 0 0.03261226323264875 -0.035850481330914778 0 0.032712747400427032 -0.035658860685920224 0 0.03261226323264875 -0.035850481330914778 0 0.032421169724202566 -0.036056648874493509 0 0.032883041022385026 -0.035971585672374823 0 0.032412176355231095 -0.035748877933374487 0 0.03261226323264875 -0.035850481330914778 0 0.032421169724202566 -0.036056648874493509 0 0.030968115199683781 -0.033629895077790878 0 0.030900995624942289 -0.03316776833280026 0 0.029842021129756105 -0.033574410195571849 0 0.031392049284146697 -0.034236178299759973 0 0.030227809788739894 -0.033087768835863868 0 0.029842021129756105 -0.033574410195571849 0 0.030422988926394109 -0.034783853899914424 0 0.031392049284146697 -0.034236178299759973 0 0.032412176355231095 -0.035748877933374487 0 0.031392049284146697 -0.034236178299759973 0 0.032526564355579712 -0.035095743812009278 0 0.031392049284146697 -0.034236178299759973 0 0.032526564355579712 -0.035095743812009278 0 0.032616322322742357 -0.034382191519488819 0 0.031392049284146697 -0.034236178299759973 0 0.032616322322742357 -0.034382191519488819 0 0.032626281484091281 -0.033648307347448017 0 0.031590089454810615 -0.033017541970105174 0 0.032626281484091281 -0.033648307347448017 0 0.033176673013819977 -0.032482098773763284 0 0.031392049284146697 -0.034236178299759973 0 0.031590089454810615 -0.033017541970105174 0 0.032626281484091281 -0.033648307347448017 0 0.031392049284146697 -0.034236178299759973 0 0.031590089454810615 -0.033017541970105174 0 0.030227809788739894 -0.033087768835863868 0 0.031590089454810615 -0.033017541970105174 0 0.030227809788739894 -0.033087768835863868 0 0.03042417335201587 -0.032417048008472726 0 0.031590089454810615 -0.033017541970105174 0 0.03042417335201587 -0.032417048008472726 0 0.031251600142976073 -0.032131592885986333 0 0.031590089454810615 -0.033017541970105174 0 0.032972616043226634 -0.031461079246382494 0 0.033176673013819977 -0.032482098773763284 0 0.031664504474906915 -0.032883499771930273 0 0.031999339851470653 -0.032215011727941334 0 0.031251600142976073 -0.032131592885986333 0 0.030863003480439511 -0.031746761993653616 0 0.030620985796447214 -0.031987852136490802 0 0.031999339851470653 -0.032215011727941334 0 0.032853148656911232 -0.030288745473337958 0 0.031251600142976073 -0.032131592885986333 0 0.030863003480439511 -0.031746761993653616 0 0.031161100756910733 -0.031457899220537162 0 0.030863003480439511 -0.031746761993653616 0 0.030754071399447514 -0.031435405442680295 0 0.031161100756910733 -0.031457899220537162 0 0.030441894968914179 -0.031704126482836485 0 0.02998167141712247 -0.03158764015930824 0 0.030280538829301838 -0.031409213174444721 0 0.030441894968914179 -0.031704126482836485 0 0.030754071399447514 -0.031435405442680295 0 0.030280538829301838 -0.031409213174444721 0 0.030863003480439511 -0.031746761993653616 0 0.030441894968914179 -0.031704126482836485 0 0.030754071399447514 -0.031435405442680295 0 0.030863003480439511 -0.031746761993653616 0 0.030441894968914179 -0.031704126482836485 0 0.030620985796447214 -0.031987852136490802 0 0.030441894968914179 -0.031704126482836485 0 0.030620985796447214 -0.031987852136490802 0 0.030113994498679356 -0.031952279170170655 0 0.030441894968914179 -0.031704126482836485 0 0.030113994498679356 -0.031952279170170655 0 0.02998167141712247 -0.03158764015930824 0 0.03042417335201587 -0.032417048008472726 0 0.030620985796447214 -0.031987852136490802 0 0.030113994498679356 -0.031952279170170655 0 0.03042417335201587 -0.032417048008472726 0 0.031251600142976073 -0.032131592885986333 0 0.030620985796447214 -0.031987852136490802 0 0.03042417335201587 -0.032417048008472726 0 0.029542104125499201 -0.032177354911679647 0 0.030113994498679356 -0.031952279170170655 0 0.029495495166747664 -0.032747970373013371 0 0.03042417335201587 -0.032417048008472726 0 0.029542104125499201 -0.032177354911679647 0 0.029542104125499201 -0.032177354911679647 0 0.030113994498679356 -0.031952279170170655 0 0.029612767868978353 -0.031716843892530037 0 0.029495495166747664 -0.032747970373013371 0 0.029542104125499201 -0.032177354911679647 0 0.02844949188451067 -0.032698711446345743 0 0.029542104125499201 -0.032177354911679647 0 0.029071257257091043 -0.031794291545296838 0 0.02844949188451067 -0.032698711446345743 0 0.025146331440847568 -0.047020256080870716 0 0.024909354052297307 -0.046950515574517772 0 0.024765814359885792 -0.047009208743215875 0 0.027568113783108895 -0.039240471703806096 0 0.025568655592124168 -0.038366374803330223 0 0.029071257257091043 -0.031794291545296838 0 0.029563731934170705 -0.031238465943266746 0 0.028248385713354345 -0.031625025245367498 0 0.029542104125499201 -0.032177354911679647 0 0.029071257257091043 -0.031794291545296838 0 0.029612767868978353 -0.031716843892530037 0 0.029071257257091043 -0.031794291545296838 0 0.029612767868978353 -0.031716843892530037 0 0.029563731934170705 -0.031238465943266746 0 0.02998167141712247 -0.03158764015930824 0 0.029563731934170705 -0.031238465943266746 0 0.030280538829301838 -0.031409213174444721 0 0.030113994498679356 -0.031952279170170655 0 0.029612767868978353 -0.031716843892530037 0 0.02998167141712247 -0.03158764015930824 0 0.029612767868978353 -0.031716843892530037 0 0.02998167141712247 -0.03158764015930824 0 0.029563731934170705 -0.031238465943266746 0 0.025146331440847568 -0.047020256080870716 0 0.025021622798307126 -0.046894336276326769 0 0.025377968346651243 -0.047039553783514605 0 0.022281773342012073 -0.048414924285898817 0 0.024121366390736747 -0.047726598309646408 0 0.025021622798307126 -0.046894336276326769 0 0.024909354052297307 -0.046950515574517772 0 0.02470764827644634 -0.046877827022634107 0 0.025146331440847568 -0.047020256080870716 0 0.025021622798307126 -0.046894336276326769 0 0.024909354052297307 -0.046950515574517772 0 0.017518397008939292 -0.048462978522731945 0 0.016704861839378311 -0.048628942524863841 0 0.016579215796333466 -0.048003471415416804 0 0.017518397008939292 -0.048462978522731945 0 0.01805638802802647 -0.048472554504004395 0 0.016704861839378311 -0.048628942524863841 0 0.019177123101379614 -0.049674052226324976 0 0.021040599176666338 -0.046453019793692735 0 0.016704861839378311 -0.048628942524863841 0 0.0195247896284255 -0.047541601579920129 0 0.016910957278218421 -0.048504659392166291 0 0.021040599176666338 -0.046453019793692735 0 0.023947165980476103 -0.046811242011283075 0 0.022979990613724598 -0.048500273032049082 0 0.019177123101379614 -0.049674052226324976 0 0.021040599176666338 -0.046453019793692735 0 0.022979990613724598 -0.048500273032049082 0 0.023947165980476103 -0.046811242011283075 0 0.02619084150598908 -0.046961147099124655 0 0.022979990613724598 -0.048500273032049082 0 0.02600540231841211 -0.047098135328778656 0 0.024121366390736747 -0.047726598309646408 0 0.023947165980476103 -0.046811242011283075 0 0.02619084150598908 -0.046961147099124655 0 0.02526360538058977 -0.045200055880140262 0 0.021040599176666338 -0.046453019793692735 0 0.023947165980476103 -0.046811242011283075 0 0.02526360538058977 -0.045200055880140262 0 0.02619084150598908 -0.046961147099124655 0 0.025377968346651243 -0.047039553783514605 0 0.025748200732963401 -0.047258210529741079 0 0.02619084150598908 -0.046961147099124655 0 0.02526360538058977 -0.045200055880140262 0 0.026909841678885535 -0.045737470198954557 0 0.02619084150598908 -0.046961147099124655 0 0.026909841678885535 -0.045737470198954557 0 0.027424836973280253 -0.046665500166497592 0 0.027998632277950786 -0.039217306699840637 0 0.029979386557467336 -0.038475537790113201 0 0.02619084150598908 -0.046961147099124655 0 0.025748200732963401 -0.047258210529741079 0 0.027424836973280253 -0.046665500166497592 0 0.030949174288688364 -0.031246953699045839 0 0.03060116426315506 -0.03110393059636047 0 0.031258002659887235 -0.031008507947622489 0 0.030949174288688364 -0.031246953699045839 0 0.030754071399447514 -0.031435405442680295 0 0.031161100756910733 -0.031457899220537162 0 0.030949174288688364 -0.031246953699045839 0 0.030754071399447514 -0.031435405442680295 0 0.03060116426315506 -0.03110393059636047 0 0.030754071399447514 -0.031435405442680295 0 0.030280538829301838 -0.031409213174444721 0 0.03060116426315506 -0.03110393059636047 0 0.027568113783108895 -0.039240471703806096 0 0.027998632277950786 -0.039217306699840637 0 0.029563731934170705 -0.031238465943266746 0 0.030280538829301838 -0.031409213174444721 0 0.03060116426315506 -0.03110393059636047 0 0.025146331440847568 -0.047020256080870716 0 0.025377968346651243 -0.047039553783514605 0 0.025748200732963401 -0.047258210529741079 0 0.020042409470560751 -0.043643682692400557 0 0.019826109870188378 -0.043675813505986504 0 0.020013504098422702 -0.044611057125081906 0 0.014696039661367916 -0.047422228581132382 0 0.016699455235780206 -0.047666935251759149 0 0.020460643747215835 -0.042724189586981133 0 0.019464861539308022 -0.042988692196672368 0 0.019682610183861665 -0.044080973468586498 0 0.019872488787137474 -0.043748381271098154 0 0.019833204695100224 -0.043792694816342424 0 0.021226350738090937 -0.039041813783089352 0 0.024163212386505071 -0.037622332274704129 0 0.019984615951779219 -0.043334475950449265 0 0.020042409470560751 -0.043643682692400557 0 0.019826109870188378 -0.043675813505986504 0 0.021226350738090937 -0.039041813783089352 0 0.019872488787137474 -0.043748381271098154 0 0.028007573652397495 -0.033159331482241927 0 0.027994016838099555 -0.033083911049559052 0 0.027739137312054758 -0.033213074351092997 0 0.021209342667761474 -0.041611311427004138 0 0.020460643747215835 -0.042724189586981133 0 0.019393249410182362 -0.042723917628092183 0 0.028007573652397495 -0.033159331482241927 0 0.028053722673905743 -0.033066667635143723 0 0.027994016838099555 -0.033083911049559052 0 0.022390910489097009 -0.039191749899035407 0 0.02215612981031622 -0.039636048332084534 0 0.021601053252129292 -0.036950132021050255 0 0.027994016838099555 -0.033083911049559052 0 0.027739137312054758 -0.033213074351092997 0 0.028018048375809686 -0.033019726494058904 0 0.020460643747215835 -0.042724189586981133 0 0.019393249410182362 -0.042723917628092183 0 0.019464861539308022 -0.042988692196672368 0 0.019393249410182362 -0.042723917628092183 0 0.019464861539308022 -0.042988692196672368 0 0.018560890031645665 -0.042923275629367673 0 0.019464861539308022 -0.042988692196672368 0 0.018560890031645665 -0.042923275629367673 0 0.019682610183861665 -0.044080973468586498 0 0.019393249410182362 -0.042723917628092183 0 0.020115175488639607 -0.042730889958713061 0 0.02163922913314846 -0.042946964422410631 0 0.024163212386505071 -0.037622332274704129 0 0.025568655592124168 -0.038366374803330223 0 0.019393249410182362 -0.042723917628092183 0 0.020115175488639607 -0.042730889958713061 0 0.018560890031645665 -0.042923275629367673 0 0.027739137312054758 -0.033213074351092997 0 0.027957584766535894 -0.032961450396904075 0 0.0274052615851848 -0.033277190819380881 0 0.027739137312054758 -0.033213074351092997 0 0.028018048375809686 -0.033019726494058904 0 0.027957584766535894 -0.032961450396904075 0 0.028311666471594842 -0.032936993075093741 0 0.028018048375809686 -0.033019726494058904 0 0.027957584766535894 -0.032961450396904075 0 0.028311666471594842 -0.032936993075093741 0 0.027957584766535894 -0.032961450396904075 0 0.02844949188451067 -0.032698711446345743 0 0.027957584766535894 -0.032961450396904075 0 0.02844949188451067 -0.032698711446345743 0 0.0274052615851848 -0.033277190819380881 0 0.028345319985415007 -0.030702008289208646 0 0.025568655592124168 -0.038366374803330223 0 0.029071257257091043 -0.031794291545296838 0 0.02844949188451067 -0.032698711446345743 0 0.028248385713354345 -0.031625025245367498 0 0.020115175488639607 -0.042730889958713061 0 0.02163922913314846 -0.042946964422410631 0 0.021310240173534934 -0.041494826682242116 0 0.025568655592124168 -0.038366374803330223 0 0.019113632735762796 -0.045994580036595172 0 0.019177123101379614 -0.049674052226324976 0 0.016071350668130084 -0.050077784433011391 0 0.016704861839378311 -0.048628942524863841 0 0.022281773342012073 -0.048414924285898817 0 0.019113632735762796 -0.045994580036595172 0 0.024909354052297307 -0.046950515574517772 0 0.024765814359885792 -0.047009208743215875 0 0.02470764827644634 -0.046877827022634107 0 0.019113632735762796 -0.045994580036595172 0 0.014986936452969668 -0.04795591226078906 0 0.016071350668130084 -0.050077784433011391 0 0.016704861839378311 -0.048628942524863841 0 0.015945303026425585 -0.048215478733623994 0 0.016704861839378311 -0.048628942524863841 0 0.015945303026425585 -0.048215478733623994 0 0.016579215796333466 -0.048003471415416804 0 0.014682194848061898 -0.047649931895651185 0 0.015719115842462585 -0.046534523049832743 0 0.015553702743290796 -0.0486503349706068 0 0.013337159379087683 -0.044017289861350679 0 0.014682194848061898 -0.047649931895651185 0 0.015719115842462585 -0.046534523049832743 0 0.015719115842462585 -0.046534523049832743 0 0.017108290249520496 -0.046042231686077954 0 0.015553702743290796 -0.0486503349706068 0 0.015719115842462585 -0.046534523049832743 0 0.01682917839534348 -0.044982624686823097 0 0.017108290249520496 -0.046042231686077954 0 0.013337159379087683 -0.044017289861350679 0 0.01682917839534348 -0.044982624686823097 0 0.018560890031645665 -0.042923275629367673 0 0.013337159379087683 -0.044017289861350679 0 0.015719115842462585 -0.046534523049832743 0 0.01682917839534348 -0.044982624686823097 0 0.020115175488639607 -0.042730889958713061 0 0.021310240173534934 -0.041494826682242116 0 0.018560890031645665 -0.042923275629367673 0 0.019113632735762796 -0.045994580036595172 0 0.017972979109359934 -0.042317038030922273 0 0.01682917839534348 -0.044982624686823097 0 0.018560890031645665 -0.042923275629367673 0 0.018506650254977133 -0.044488748467279106 0 0.018560890031645665 -0.042923275629367673 0 0.019682610183861665 -0.044080973468586498 0 0.018506650254977133 -0.044488748467279106 0 0.018506650254977133 -0.044488748467279106 0 0.017108290249520496 -0.046042231686077954 0 0.020013504098422702 -0.044611057125081906 0 0.019682610183861665 -0.044080973468586498 0 0.018506650254977133 -0.044488748467279106 0 0.020013504098422702 -0.044611057125081906 0 0.01682917839534348 -0.044982624686823097 0 0.018506650254977133 -0.044488748467279106 0 0.017108290249520496 -0.046042231686077954 0 0.017108290249520496 -0.046042231686077954 0 0.020013504098422702 -0.044611057125081906 0 0.015553702743290796 -0.0486503349706068 0 0.016699455235780206 -0.047666935251759149 0 0.01565023448848786 -0.048549238112828033 0 0.012757135459117911 -0.049991230649538441 0 0.013075575621731986 -0.050875490913807567 0 0.015553702743290796 -0.0486503349706068 0 0.012757135459117911 -0.049991230649538441 0 0.012251034556332871 -0.049346824861578389 0 0.013358411599950066 -0.04871258774930224 0 0.011870383991653584 -0.05001627321160531 0 0.012757135459117911 -0.049991230649538441 0 0.012251034556332871 -0.049346824861578389 0 0.012014523387055897 -0.050689654125742667 0 0.011870383991653584 -0.05001627321160531 0 0.012757135459117911 -0.049991230649538441 0 0.012543321835226103 -0.050751539166207817 0 0.013075575621731986 -0.050875490913807567 0 0.012203689585887105 -0.05099869401319182 0 0.019826109870188378 -0.043675813505986504 0 0.019682610183861665 -0.044080973468586498 0 0.020013504098422702 -0.044611057125081906 0 0.011939237200373629 -0.051455901166890472 0 0.013075575621731986 -0.050875490913807567 0 0.012203689585887105 -0.05099869401319182 0 0.012014523387055897 -0.050689654125742667 0 0.012757135459117911 -0.049991230649538441 0 0.012543321835226103 -0.050751539166207817 0 0.012014523387055897 -0.050689654125742667 0 0.012543321835226103 -0.050751539166207817 0 0.012203689585887105 -0.05099869401319182 0 0.012757135459117911 -0.049991230649538441 0 0.012543321835226103 -0.050751539166207817 0 0.013075575621731986 -0.050875490913807567 0 0.012142502938597552 -0.047349903856456231 0 0.012144678671450517 -0.048323074861680693 0 0.013887316450073784 -0.047731156412708593 0 0.012144678671450517 -0.048323074861680693 0 0.013358411599950066 -0.04871258774930224 0 0.013887316450073784 -0.047731156412708593 0 0.012144678671450517 -0.048323074861680693 0 0.012251034556332871 -0.049346824861578389 0 0.013358411599950066 -0.04871258774930224 0 0.015553702743290796 -0.0486503349706068 0 0.013887316450073784 -0.047731156412708593 0 0.015406558450167925 -0.048339598840378237 0 0.012757135459117911 -0.049991230649538441 0 0.013358411599950066 -0.04871258774930224 0 0.015553702743290796 -0.0486503349706068 0 0.013358411599950066 -0.04871258774930224 0 0.015553702743290796 -0.0486503349706068 0 0.013887316450073784 -0.047731156412708593 0 0.015420907502302593 -0.047840649986578498 0 0.01496428946162723 -0.04679347208661775 0 0.013887316450073784 -0.047731156412708593 0 0.015406558450167925 -0.048339598840378237 0 0.014854348855082265 -0.046702975522746729 0 0.015573648775437963 -0.047529280911066001 0 0.015845741377879575 -0.046966252676216395 0 0.014854348855082265 -0.046702975522746729 0 0.014986936452969668 -0.04795591226078906 0 0.015420907502302593 -0.047840649986578498 0 0.014682194848061898 -0.047649931895651185 0 0.015553702743290796 -0.0486503349706068 0 0.015406558450167925 -0.048339598840378237 0 0.015573648775437963 -0.047529280911066001 0 0.016579215796333466 -0.048003471415416804 0 0.016831076706779743 -0.047419341960316559 0 0.015945303026425585 -0.048215478733623994 0 0.015573648775437963 -0.047529280911066001 0 0.016579215796333466 -0.048003471415416804 0 0.015845741377879575 -0.046966252676216395 0 0.016415834371912498 -0.046476263738322733 0 0.016831076706779743 -0.047419341960316559 0 0.015573648775437963 -0.047529280911066001 0 0.015845741377879575 -0.046966252676216395 0 0.016831076706779743 -0.047419341960316559 0 0.015845741377879575 -0.046966252676216395 0 0.016415834371912498 -0.046476263738322733 0 0.015575064719829678 -0.045983958922436112 0 0.016651600901057141 -0.046403573260950029 0 0.016138223465343812 -0.045000231991212974 0 0.016415834371912498 -0.046476263738322733 0 0.016137630922085509 -0.04499989916592808 0 0.015575064719829678 -0.045983958922436112 0 0.015575064719829678 -0.045983958922436112 0 0.014854348855082265 -0.046702975522746729 0 0.013719227351968359 -0.044999750904517861 0 0.016137630922085509 -0.04499989916592808 0 0.015575064719829678 -0.045983958922436112 0 0.013719227351968359 -0.044999750904517861 0 0.015845741377879575 -0.046966252676216395 0 0.015575064719829678 -0.045983958922436112 0 0.014854348855082265 -0.046702975522746729 0 0.013887316450073784 -0.047731156412708593 0 0.014854348855082265 -0.046702975522746729 0 0.01284571065406943 -0.046263829274990044 0 0.014854348855082265 -0.046702975522746729 0 0.013719227351968359 -0.044999750904517861 0 0.01284571065406943 -0.046263829274990044 0 0.013719227351968359 -0.044999750904517861 0 0.01129959414868827 -0.044999675058994146 0 0.01284571065406943 -0.046263829274990044 0 0.010963177856992763 -0.046623682259180399 0 0.01129959414868827 -0.044999675058994146 0 0.01284571065406943 -0.046263829274990044 0 0.012142502938597552 -0.047349903856456231 0 0.013887316450073784 -0.047731156412708593 0 0.01284571065406943 -0.046263829274990044 0 0.010963177856992763 -0.046623682259180399 0 0.012142502938597552 -0.047349903856456231 0 0.01284571065406943 -0.046263829274990044 0 0.019903762461363241 -0.046774235745618307 0 0.019581640638442806 -0.048138889380679811 0 0.018699802708093391 -0.047260187395576053 0 0.019903762461363241 -0.046774235745618307 0 0.019581640638442806 -0.048138889380679811 0 0.021090274335106334 -0.047688410318936614 0 0.020388443490804455 -0.047254782069561324 0 0.024311435954723692 -0.048277738263336881 0 0.022472296625536327 -0.046395440815412151 0 0.024311435954723692 -0.048277738263336881 0 0.02526360538058977 -0.045200055880140262 0 0.026909841678885535 -0.045737470198954557 0 0.027680895230957878 -0.044713067911611233 0 0.0195247896284255 -0.047541601579920129 0 0.022472296625536327 -0.046395440815412151 0 0.01805638802802647 -0.048472554504004395 0 0.019581640638442806 -0.048138889380679811 0 0.018556257961750897 -0.047916804444881847 0 0.019581640638442806 -0.048138889380679811 0 0.018556257961750897 -0.047916804444881847 0 0.018699802708093391 -0.047260187395576053 0 0.017518397008939292 -0.048462978522731945 0 0.01805638802802647 -0.048472554504004395 0 0.017918772040510286 -0.047796018338917438 0 0.01805638802802647 -0.048472554504004395 0 0.017918772040510286 -0.047796018338917438 0 0.018556257961750897 -0.047916804444881847 0 0.017918772040510286 -0.047796018338917438 0 0.018556257961750897 -0.047916804444881847 0 0.018699802708093391 -0.047260187395576053 0 0.017518397008939292 -0.048462978522731945 0 0.016579215796333466 -0.048003471415416804 0 0.016831076706779743 -0.047419341960316559 0 0.017472434487235285 -0.048423977581685623 0 0.017095368458465768 -0.047486762392156552 0 0.017518397008939292 -0.048462978522731945 0 0.017918772040510286 -0.047796018338917438 0 0.017331442043983559 -0.04748639854109335 0 0.017918772040510286 -0.047796018338917438 0 0.017331442043983559 -0.04748639854109335 0 0.017932459166519459 -0.046707241602239734 0 0.016905341446557479 -0.046406775654219086 0 0.017331442043983559 -0.04748639854109335 0 0.017932459166519459 -0.046707241602239734 0 0.016651600901057141 -0.046403573260950029 0 0.017095368458465768 -0.047486762392156552 0 0.017918772040510286 -0.047796018338917438 0 0.018699802708093391 -0.047260187395576053 0 0.017932459166519459 -0.046707241602239734 0 0.018699802708093391 -0.047260187395576053 0 0.017932459166519459 -0.046707241602239734 0 0.018843099005088192 -0.045949041976704415 0 0.016905341446557479 -0.046406775654219086 0 0.017932459166519459 -0.046707241602239734 0 0.017947301303223178 -0.045000186195018402 0 0.016905341446557479 -0.046406775654219086 0 0.016139542594253833 -0.044999620333463899 0 0.017947301303223178 -0.045000186195018402 0 0.017932459166519459 -0.046707241602239734 0 0.017947301303223178 -0.045000186195018402 0 0.018843099005088192 -0.045949041976704415 0 0.017948990397087073 -0.045000164660196344 0 0.019363014595531761 -0.046212673462248291 0 0.017948864665706086 -0.045000004958244882 0 0.020409329912452524 -0.044999967330485842 0 0.019754636361063924 -0.046445749828495926 0 0.020409329912452524 -0.044999967330485842 0 0.019754636361063924 -0.046445749828495926 0 0.02154068055340045 -0.046218733866749059 0 0.019903762461363241 -0.046774235745618307 0 0.018699802708093391 -0.047260187395576053 0 0.018843099005088192 -0.045949041976704415 0 0.020388443490804455 -0.047254782069561324 0 0.019363014595531761 -0.046212673462248291 0 0.021570634075841314 -0.047873769777869848 0 0.019754636361063924 -0.046445749828495926 0 0.02154068055340045 -0.046218733866749059 0 0.021570634075841314 -0.047873769777869848 0 0.02154068055340045 -0.046218733866749059 0 0.023093436148563233 -0.0467928238853891 0 0.020409329912452524 -0.044999967330485842 0 0.02154068055340045 -0.046218733866749059 0 0.022869779787195239 -0.044999955942373215 0 0.02154068055340045 -0.046218733866749059 0 0.022869779787195239 -0.044999955942373215 0 0.023093436148563233 -0.0467928238853891 0 0.022869779787195239 -0.044999955942373215 0 0.024223758199594454 -0.046091554650218844 0 0.023093436148563233 -0.0467928238853891 0 0.024223758199594454 -0.046091554650218844 0 0.025208049275176385 -0.046360658578219555 0 0.02533039628594658 -0.04499987917313672 0 0.022869779787195239 -0.044999955942373215 0 0.024223758199594454 -0.046091554650218844 0 0.02533039628594658 -0.04499987917313672 0 0.025208049275176385 -0.046360658578219555 0 0.024446522211397002 -0.04715085195473602 0 0.025456976217270784 -0.047248943513787285 0 0.024223758199594454 -0.046091554650218844 0 0.025208049275176385 -0.046360658578219555 0 0.024446522211397002 -0.04715085195473602 0 0.024446522211397002 -0.04715085195473602 0 0.024842719347780935 -0.048271350652879796 0 0.025456976217270784 -0.047248943513787285 0 0.024446522211397002 -0.04715085195473602 0 0.023093436148563233 -0.0467928238853891 0 0.023718910881366618 -0.048178312075601921 0 0.021570634075841314 -0.047873769777869848 0 0.023093436148563233 -0.0467928238853891 0 0.023718910881366618 -0.048178312075601921 0 0.024223758199594454 -0.046091554650218844 0 0.024446522211397002 -0.04715085195473602 0 0.023093436148563233 -0.0467928238853891 0 0.021570634075841314 -0.047873769777869848 0 0.023718910881366618 -0.048178312075601921 0 0.023428467688597715 -0.049322201442181912 0 0.023718910881366618 -0.048178312075601921 0 0.023428467688597715 -0.049322201442181912 0 0.024018518567354888 -0.049127134810120959 0 0.023718910881366618 -0.048178312075601921 0 0.024842719347780935 -0.048271350652879796 0 0.024378295321917997 -0.048683701132743028 0 0.024446522211397002 -0.04715085195473602 0 0.023718910881366618 -0.048178312075601921 0 0.024842719347780935 -0.048271350652879796 0 0.024842719347780935 -0.048271350652879796 0 0.025658047398956531 -0.04799519423483798 0 0.025456976217270784 -0.047248943513787285 0 0.024842719347780935 -0.048271350652879796 0 0.024935817655788003 -0.049160599425813051 0 0.026009212859325264 -0.048907292733752487 0 0.024842719347780935 -0.048271350652879796 0 0.024378295321917997 -0.048683701132743028 0 0.024935817655788003 -0.049160599425813051 0 0.023718910881366618 -0.048178312075601921 0 0.024378295321917997 -0.048683701132743028 0 0.024018518567354888 -0.049127134810120959 0 0.024378295321917997 -0.048683701132743028 0 0.024935817655788003 -0.049160599425813051 0 0.024018518567354888 -0.049127134810120959 0 0.027680895230957878 -0.044713067911611233 0 0.027897315257882666 -0.045083195293851346 0 0.028765795213864236 -0.045593320697629974 0 0.023450444935790338 -0.049308981582056231 0 0.024018518567354888 -0.049127134810120959 0 0.025177148649739179 -0.050611268662888925 0 0.024935817655788003 -0.049160599425813051 0 0.026009212859325264 -0.048907292733752487 0 0.025177148649739179 -0.050611268662888925 0 0.024311435954723692 -0.048277738263336881 0 0.029381518064592393 -0.040809055290396121 0 0.024935817655788003 -0.049160599425813051 0 0.024018518567354888 -0.049127134810120959 0 0.025177148649739179 -0.050611268662888925 0 0.026909841678885535 -0.045737470198954557 0 0.027897315257882666 -0.045083195293851346 0 0.027424836973280253 -0.046665500166497592 0 0.026909841678885535 -0.045737470198954557 0 0.027680895230957878 -0.044713067911611233 0 0.027897315257882666 -0.045083195293851346 0 0.024311435954723692 -0.048277738263336881 0 0.023816379743473157 -0.048692662192794584 0 0.027533852732464448 -0.049839082925341664 0 0.026009212859325264 -0.048907292733752487 0 0.025177148649739179 -0.050611268662888925 0 0.028880800617559647 -0.042288504869105972 0 0.029381518064592393 -0.040809055290396121 0 0.026009212859325264 -0.048907292733752487 0 0.026553734985840273 -0.047939849382257191 0 0.027687943566387183 -0.048387375516724854 0 0.026009212859325264 -0.048907292733752487 0 0.025658047398956531 -0.04799519423483798 0 0.026553734985840273 -0.047939849382257191 0 0.024842719347780935 -0.048271350652879796 0 0.026009212859325264 -0.048907292733752487 0 0.025658047398956531 -0.04799519423483798 0 0.025658047398956531 -0.04799519423483798 0 0.026553734985840273 -0.047939849382257191 0 0.026274521820848683 -0.047180825698608077 0 0.026553734985840273 -0.047939849382257191 0 0.027687943566387183 -0.048387375516724854 0 0.027243253523701137 -0.047195614102716575 0 0.027533852732464448 -0.049839082925341664 0 0.026009212859325264 -0.048907292733752487 0 0.027687943566387183 -0.048387375516724854 0 0.027533852732464448 -0.049839082925341664 0 0.027687943566387183 -0.048387375516724854 0 0.030252736555728552 -0.049079560130618906 0 0.027687943566387183 -0.048387375516724854 0 0.027243253523701137 -0.047195614102716575 0 0.02887162301986787 -0.047421139191615759 0 0.027276616124784738 -0.046270814514328344 0 0.028080801258231425 -0.046711362207976073 0 0.028980534663530597 -0.045949516486161239 0 0.027243253523701137 -0.047195614102716575 0 0.028080801258231425 -0.046711362207976073 0 0.02887162301986787 -0.047421139191615759 0 0.027243253523701137 -0.047195614102716575 0 0.027276616124784738 -0.046270814514328344 0 0.026296012295491913 -0.046392447561703132 0 0.027243253523701137 -0.047195614102716575 0 0.027276616124784738 -0.046270814514328344 0 0.028080801258231425 -0.046711362207976073 0 0.025658047398956531 -0.04799519423483798 0 0.025456976217270784 -0.047248943513787285 0 0.026274521820848683 -0.047180825698608077 0 0.026553734985840273 -0.047939849382257191 0 0.027243253523701137 -0.047195614102716575 0 0.026274521820848683 -0.047180825698608077 0 0.027243253523701137 -0.047195614102716575 0 0.026274521820848683 -0.047180825698608077 0 0.026296012295491913 -0.046392447561703132 0 0.025456976217270784 -0.047248943513787285 0 0.026274521820848683 -0.047180825698608077 0 0.026296012295491913 -0.046392447561703132 0 0.025208049275176385 -0.046360658578219555 0 0.025456976217270784 -0.047248943513787285 0 0.026296012295491913 -0.046392447561703132 0 0.026296012295491913 -0.046392447561703132 0 0.02533039628594658 -0.04499987917313672 0 0.026960303528400932 -0.045490477043565743 0 0.025208049275176385 -0.046360658578219555 0 0.026296012295491913 -0.046392447561703132 0 0.02533039628594658 -0.04499987917313672 0 0.02533039628594658 -0.04499987917313672 0 0.027790613719708684 -0.044999802836345922 0 0.026960303528400932 -0.045490477043565743 0 0.027276616124784738 -0.046270814514328344 0 0.026960303528400932 -0.045490477043565743 0 0.028980534663530597 -0.045949516486161239 0 0.027790613719708684 -0.044999802836345922 0 0.026960303528400932 -0.045490477043565743 0 0.028540768098479288 -0.046289365633648043 0 0.027202162038914009 -0.045545757179749652 0 0.028664549122055398 -0.046044084210806233 0 0.027276616124784738 -0.046270814514328344 0 0.026296012295491913 -0.046392447561703132 0 0.026960303528400932 -0.045490477043565743 0 0.027790613719708684 -0.044999802836345922 0 0.028540768098479288 -0.046289365633648043 0 0.029872388757268435 -0.045963755489153421 0 0.027790613719708684 -0.044999802836345922 0 0.029872388757268435 -0.045963755489153421 0 0.030251339271283591 -0.044999867604664588 0 0.030130000461245202 -0.045890963172850061 0 0.032909071160635496 -0.045571513813397913 0 0.029872388757268435 -0.045963755489153421 0 0.034002416848549308 -0.045073125084890815 0 0.032586608867118443 -0.046786598088488306 0 0.029872388757268435 -0.045963755489153421 0 0.030251339271283591 -0.044999867604664588 0 0.031870682841116112 -0.046003569680813899 0 0.029872388757268435 -0.045963755489153421 0 0.030742088152875269 -0.047459411217698241 0 0.032586608867118443 -0.046786598088488306 0 0.028980534663530597 -0.045949516486161239 0 0.031271018873471793 -0.046623087330320161 0 0.02887162301986787 -0.047421139191615759 0 0.028540768098479288 -0.046289365633648043 0 0.029872388757268435 -0.045963755489153421 0 0.030742088152875269 -0.047459411217698241 0 0.028664549122055398 -0.046044084210806233 0 0.031348980897528217 -0.047989390682447529 0 0.028080801258231425 -0.046711362207976073 0 0.028980534663530597 -0.045949516486161239 0 0.02887162301986787 -0.047421139191615759 0 0.032909071160635496 -0.045571513813397913 0 0.036216859012054653 -0.045282620935681278 0 0.032711396483397139 -0.044999987486441399 0 0.031870682841116112 -0.046003569680813899 0 0.034043011802560107 -0.045908488688300365 0 0.034002416848549308 -0.045073125084890815 0 0.035617828757251932 -0.046892320230895339 0 0.038253295394802121 -0.044737435572886487 0 0.030251339271283591 -0.044999867604664588 0 0.032711396483397139 -0.044999987486441399 0 0.031870682841116112 -0.046003569680813899 0 0.030742088152875269 -0.047459411217698241 0 0.033488504146757116 -0.047911614606638224 0 0.034313319997784628 -0.048974384733836564 0 0.031348980897528217 -0.047989390682447529 0 0.035692696824660655 -0.038028705271637785 0 0.031271018873471793 -0.046623087330320161 0 0.03415557907730974 -0.04766677741152766 0 0.033882912652803875 -0.047791207943132102 0 0.030742088152875269 -0.047459411217698241 0 0.032586608867118443 -0.046786598088488306 0 0.033488504146757116 -0.047911614606638224 0 0.032586608867118443 -0.046786598088488306 0 0.033488504146757116 -0.047911614606638224 0 0.033989858451776156 -0.046944149369441288 0 0.034250435398765738 -0.048026602684505433 0 0.033989858451776156 -0.046944149369441288 0 0.035617828757251932 -0.046892320230895339 0 0.034250435398765738 -0.048026602684505433 0 0.035617828757251932 -0.046892320230895339 0 0.034313319997784628 -0.048974384733836564 0 0.033488504146757116 -0.047911614606638224 0 0.034250435398765738 -0.048026602684505433 0 0.033989858451776156 -0.046944149369441288 0 0.033488504146757116 -0.047911614606638224 0 0.034250435398765738 -0.048026602684505433 0 0.034313319997784628 -0.048974384733836564 0 0.034002416848549308 -0.045073125084890815 0 0.033989858451776156 -0.046944149369441288 0 0.035617828757251932 -0.046892320230895339 0 0.034002416848549308 -0.045073125084890815 0 0.032586608867118443 -0.046786598088488306 0 0.033989858451776156 -0.046944149369441288 0 0.035617828757251932 -0.046892320230895339 0 0.034313319997784628 -0.048974384733836564 0 0.038419644079316251 -0.047236867959774283 0 0.035692696824660655 -0.038028705271637785 0 0.039887908998170074 -0.038695881593326847 0 0.035617828757251932 -0.046892320230895339 0 0.038253295394802121 -0.044737435572886487 0 0.038419644079316251 -0.047236867959774283 0 0.035692696824660655 -0.038028705271637785 0 0.040982221836942653 -0.029856711410955434 0 0.039009974339422139 -0.030467703052040069 0 0.041394947514213104 -0.029596330461263518 0 0.041244439229302883 -0.031200521035433828 0 0.037758238259863304 -0.029080016000765457 0 0.038524681151233378 -0.030840604846741958 0 0.040498486991120658 -0.030175135401921072 0 0.037758238259863304 -0.029080016000765457 0 0.037547681347051103 -0.029164990226637551 0 0.038524681151233378 -0.030840604846741958 0 0.035692696824660655 -0.038028705271637785 0 0.033628109189661831 -0.036940969571577713 0 0.033628109189661831 -0.036940969571577713 0 0.031803240357078683 -0.03257236620513547 0 0.037547681347051103 -0.029164990226637551 0 0.038524681151233378 -0.030840604846741958 0 0.036227927871842765 -0.032166444518282142 0 0.038524681151233378 -0.030840604846741958 0 0.036227927871842765 -0.032166444518282142 0 0.038866817775299836 -0.032542140600824082 0 0.038524681151233378 -0.030840604846741958 0 0.038866817775299836 -0.032542140600824082 0 0.041307881891349638 -0.03179737706740824 0 0.038524681151233378 -0.030840604846741958 0 0.040498486991120658 -0.030175135401921072 0 0.041307881891349638 -0.03179737706740824 0 0.031271018873471793 -0.046623087330320161 0 0.02887162301986787 -0.047421139191615759 0 0.030252736555728552 -0.049079560130618906 0 0.027687943566387183 -0.048387375516724854 0 0.02887162301986787 -0.047421139191615759 0 0.030252736555728552 -0.049079560130618906 0 0.033628109189661831 -0.036940969571577713 0 0.029085460297125519 -0.042683886849784115 0 0.031271018873471793 -0.046623087330320161 0 0.033882912652803875 -0.047791207943132102 0 0.030252736555728552 -0.049079560130618906 0 0.028078055759727674 -0.035394651731951304 0 0.029189235493957192 -0.034939198289555697 0 0.028581058674797419 -0.034114927348887915 0 0.029189235493957192 -0.034939198289555697 0 0.028581058674797419 -0.034114927348887915 0 0.029749565617211791 -0.033632279654279812 0 0.030385852063701285 -0.034488004999303358 0 0.029189235493957192 -0.034939198289555697 0 0.029749565617211791 -0.033632279654279812 0 0.028880800617559647 -0.042288504869105972 0 0.029085460297125519 -0.042683886849784115 0 0.028581058674797419 -0.034114927348887915 0 0.029749565617211791 -0.033632279654279812 0 0.02915600893497584 -0.032730220333353377 0 0.036227927871842765 -0.032166444518282142 0 0.034812547389950224 -0.035156808593887777 0 0.037687647319416366 -0.034375187372038638 0 0.031803240357078683 -0.03257236620513547 0 0.035864320124551201 -0.032766036188571726 0 0.039885179010657898 -0.031414781073080641 0 0.041293503131445704 -0.031504876622558409 0 0.04094321920363924 -0.032137041328421087 0 0.035864320124551201 -0.032766036188571726 0 0.039765860084311273 -0.032979588892820572 0 0.029749565617211791 -0.033632279654279812 0 0.02915600893497584 -0.032730220333353377 0 0.029992949973872998 -0.032940237866379771 0 0.035864320124551201 -0.032766036188571726 0 0.033814747848213228 -0.031045128460141815 0 0.02915600893497584 -0.032730220333353377 0 0.030337852080015385 -0.032235200455006344 0 0.029992949973872998 -0.032940237866379771 0 0.038866817775299836 -0.032542140600824082 0 0.037687647319416366 -0.034375187372038638 0 0.040730968445751206 -0.033524126086647649 0 0.039765860084311273 -0.032979588892820572 0 0.041613828606046108 -0.032645214012067207 0 0.038866817775299836 -0.032542140600824082 0 0.041307881891349638 -0.03179737706740824 0 0.040730968445751206 -0.033524126086647649 0 0.036227927871842765 -0.032166444518282142 0 0.038866817775299836 -0.032542140600824082 0 0.037687647319416366 -0.034375187372038638 0 0.041293503131445704 -0.031504876622558409 0 0.042036433506172151 -0.032470320925320095 0 0.04094321920363924 -0.032137041328421087 0 0.041293503131445704 -0.031504876622558409 0 0.042036433506172151 -0.032470320925320095 0 0.042684478952769986 -0.031781462209761066 0 0.042036433506172151 -0.032470320925320095 0 0.04094321920363924 -0.032137041328421087 0 0.041381092675549951 -0.032940954307682534 0 0.04094321920363924 -0.032137041328421087 0 0.041381092675549951 -0.032940954307682534 0 0.040193303845920673 -0.032399267659494364 0 0.041381092675549951 -0.032940954307682534 0 0.040579620566171641 -0.033424006776297512 0 0.041780708037102585 -0.033740006430234275 0 0.041381092675549951 -0.032940954307682534 0 0.040193303845920673 -0.032399267659494364 0 0.040579620566171641 -0.033424006776297512 0 0.041381092675549951 -0.032940954307682534 0 0.042456225212090755 -0.033377688716575205 0 0.041780708037102585 -0.033740006430234275 0 0.042036433506172151 -0.032470320925320095 0 0.041381092675549951 -0.032940954307682534 0 0.042456225212090755 -0.033377688716575205 0 0.039885179010657898 -0.031414781073080641 0 0.040193303845920673 -0.032399267659494364 0 0.0389956364797878 -0.031872717099598318 0 0.035864320124551201 -0.032766036188571726 0 0.040264517574009111 -0.0306672511502664 0 0.040043940605502544 -0.029567860754101297 0 0.0389956364797878 -0.031872717099598318 0 0.037699402126468891 -0.030164632997741515 0 0.039885179010657898 -0.031414781073080641 0 0.04094321920363924 -0.032137041328421087 0 0.040193303845920673 -0.032399267659494364 0 0.040193303845920673 -0.032399267659494364 0 0.039483077299184433 -0.033116154480599333 0 0.040579620566171641 -0.033424006776297512 0 0.0389956364797878 -0.031872717099598318 0 0.038311132786602468 -0.032720591449797574 0 0.039483077299184433 -0.033116154480599333 0 0.040193303845920673 -0.032399267659494364 0 0.0389956364797878 -0.031872717099598318 0 0.039483077299184433 -0.033116154480599333 0 0.0389956364797878 -0.031872717099598318 0 0.037298082678648169 -0.031800916461378705 0 0.038311132786602468 -0.032720591449797574 0 0.037298082678648169 -0.031800916461378705 0 0.038311132786602468 -0.032720591449797574 0 0.037236153357560073 -0.032940502739040395 0 0.0389956364797878 -0.031872717099598318 0 0.037298082678648169 -0.031800916461378705 0 0.037699402126468891 -0.030164632997741515 0 0.033814747848213228 -0.031045128460141815 0 0.033778015496059223 -0.031117449761890632 0 0.037298082678648169 -0.031800916461378705 0 0.037699402126468891 -0.030164632997741515 0 0.035583522229648376 -0.030531238380156141 0 0.037298082678648169 -0.031800916461378705 0 0.035805200976235831 -0.032310471413584681 0 0.037236153357560073 -0.032940502739040395 0 0.037298082678648169 -0.031800916461378705 0 0.035583522229648376 -0.030531238380156141 0 0.035805200976235831 -0.032310471413584681 0 0.035805200976235831 -0.032310471413584681 0 0.03468346257086103 -0.031562423014147668 0 0.034190197981569068 -0.032336356689189716 0 0.035583522229648376 -0.030531238380156141 0 0.035805200976235831 -0.032310471413584681 0 0.03468346257086103 -0.031562423014147668 0 0.032972616043226634 -0.031461079246382494 0 0.033587685744080928 -0.031728557904211141 0 0.033176673013819977 -0.032482098773763284 0 0.03468346257086103 -0.031562423014147668 0 0.033587685744080928 -0.031728557904211141 0 0.034190197981569068 -0.032336356689189716 0 0.03468346257086103 -0.031562423014147668 0 0.033587685744080928 -0.031728557904211141 0 0.03349738809505292 -0.031270661291289241 0 0.032972616043226634 -0.031461079246382494 0 0.033587685744080928 -0.031728557904211141 0 0.03349738809505292 -0.031270661291289241 0 0.032972616043226634 -0.031461079246382494 0 0.03349738809505292 -0.031270661291289241 0 0.033743902688132037 -0.031724026908132551 0 0.03349738809505292 -0.031270661291289241 0 0.033097341011896986 -0.031788990243779222 0 0.033743902688132037 -0.031724026908132551 0 0.033778015496059223 -0.031117449761890632 0 0.033493998890708296 -0.031233172416859922 0 0.031887454866800953 -0.031608991866139517 0 0.03349738809505292 -0.031270661291289241 0 0.033097341011896986 -0.031788990243779222 0 0.035583522229648376 -0.030531238380156141 0 0.03468346257086103 -0.031562423014147668 0 0.03349738809505292 -0.031270661291289241 0 0.031887454866800953 -0.031608991866139517 0 0.033097341011896986 -0.031788990243779222 0 0.032695058552369954 -0.032501333554297365 0 0.031887454866800953 -0.031608991866139517 0 0.032695058552369954 -0.032501333554297365 0 0.031796861046350829 -0.032963045146042987 0 0.033097341011896986 -0.031788990243779222 0 0.033743902688132037 -0.031724026908132551 0 0.032695058552369954 -0.032501333554297365 0 0.033743902688132037 -0.031724026908132551 0 0.032695058552369954 -0.032501333554297365 0 0.03341053303222602 -0.033614355262151313 0 0.032853148656911232 -0.030288745473337958 0 0.029979386557467336 -0.038475537790113201 0 0.030949174288688364 -0.031246953699045839 0 0.031161100756910733 -0.031457899220537162 0 0.031258002659887235 -0.031008507947622489 0 0.027157739996726604 -0.047799957662522582 0 0.029979386557467336 -0.038475537790113201 0 0.027897315257882666 -0.045083195293851346 0 0.027692517946080693 -0.045922803511367356 0 0.028765795213864236 -0.045593320697629974 0 0.029979386557467336 -0.038475537790113201 0 0.029381518064592393 -0.040809055290396121 0 0.032695058552369954 -0.032501333554297365 0 0.03341053303222602 -0.033614355262151313 0 0.03209370985363131 -0.034151688302290067 0 0.032695058552369954 -0.032501333554297365 0 0.03209370985363131 -0.034151688302290067 0 0.031796861046350829 -0.032963045146042987 0 0.029381518064592393 -0.040809055290396121 0 0.031016387979914527 -0.031135310826750681 0 0.030385852063701285 -0.034488004999303358 0 0.03160328165197035 -0.034046725554615999 0 0.030687476390879893 -0.033025109186808593 0 0.03209370985363131 -0.034151688302290067 0 0.030687476390879893 -0.033025109186808593 0 0.031796861046350829 -0.032963045146042987 0 0.029749565617211791 -0.033632279654279812 0 0.030687476390879893 -0.033025109186808593 0 0.029992949973872998 -0.032940237866379771 0 0.030385852063701285 -0.034488004999303358 0 0.029749565617211791 -0.033632279654279812 0 0.030687476390879893 -0.033025109186808593 0 0.030337852080015385 -0.032235200455006344 0 0.030687476390879893 -0.033025109186808593 0 0.029992949973872998 -0.032940237866379771 0 0.031887454866800953 -0.031608991866139517 0 0.030687476390879893 -0.033025109186808593 0 0.031796861046350829 -0.032963045146042987 0 0.030337852080015385 -0.032235200455006344 0 0.031887454866800953 -0.031608991866139517 0 0.030687476390879893 -0.033025109186808593 0 0.044995835803119645 -0.044999180171982733 0 0.044502032262122994 -0.042022391763634682 0 0.044996896843592003 -0.039315413244719592 0 0.044502032262122994 -0.042022391763634682 0 0.045532984006615221 -0.03927008690053637 0 0.044996896843592003 -0.039315413244719592 0 0.044995835803119645 -0.044999180171982733 0 0.043541787508364196 -0.043555552642262171 0 0.044502032262122994 -0.042022391763634682 0 0.044995835803119645 -0.044999180171982733 0 0.043541787508364196 -0.043555552642262171 0 0.041812594510972315 -0.045021300883856377 0 0.044995835803119645 -0.044999180171982733 0 0.041812594510972315 -0.045021300883856377 0 0.040106239467342146 -0.044996096181379897 0 0.041812594510972315 -0.045021300883856377 0 0.044624415523175462 -0.043766318858550098 0 0.046677699066005565 -0.045256238248633257 0 0.041812594510972315 -0.045021300883856377 0 0.040106239467342146 -0.044996096181379897 0 0.037825389701036376 -0.046462248443324916 0 0.042322472855582723 -0.045961421951627231 0 0.040860933565687249 -0.042014719997047992 0 0.043541787508364196 -0.043555552642262171 0 0.041812594510972315 -0.045021300883856377 0 0.044624415523175462 -0.043766318858550098 0 0.040089394640003065 -0.045001634858910268 0 0.040860933565687249 -0.042014719997047992 0 0.043541787508364196 -0.043555552642262171 0 0.044502032262122994 -0.042022391763634682 0 0.04615195364634312 -0.042254931040713033 0 0.043541787508364196 -0.043555552642262171 0 0.044624415523175462 -0.043766318858550098 0 0.04615195364634312 -0.042254931040713033 0 0.044502032262122994 -0.042022391763634682 0 0.046921957055006916 -0.040340800131973498 0 0.04615195364634312 -0.042254931040713033 0 0.044502032262122994 -0.042022391763634682 0 0.046921957055006916 -0.040340800131973498 0 0.045532984006615221 -0.03927008690053637 0 0.045642347575649049 -0.031327986100647569 0 0.044535912442632726 -0.031339916050966629 0 0.044620744459866059 -0.030539541379121654 0 0.045642347575649049 -0.031327986100647569 0 0.044535912442632726 -0.031339916050966629 0 0.045140061338100147 -0.032027176430137645 0 0.043886247513158005 -0.031546608511536123 0 0.044535912442632726 -0.031339916050966629 0 0.044376454502224758 -0.032064859742233179 0 0.044535912442632726 -0.031339916050966629 0 0.044376454502224758 -0.032064859742233179 0 0.045140061338100147 -0.032027176430137645 0 0.043886247513158005 -0.031546608511536123 0 0.043674213317753632 -0.032193875270746131 0 0.044376454502224758 -0.032064859742233179 0 0.043886247513158005 -0.031546608511536123 0 0.044535912442632726 -0.031339916050966629 0 0.043730164681506881 -0.030643389234189442 0 0.044535912442632726 -0.031339916050966629 0 0.043730164681506881 -0.030643389234189442 0 0.044620744459866059 -0.030539541379121654 0 0.043730164681506881 -0.030643389234189442 0 0.044620744459866059 -0.030539541379121654 0 0.044470213210025686 -0.029625423592247502 0 0.046245442046821642 -0.035956788806841014 0 0.04613022124882566 -0.035219285664647215 0 0.045642347575649049 -0.031327986100647569 0 0.044620744459866059 -0.030539541379121654 0 0.045317527730007433 -0.030047942312636827 0 0.04613022124882566 -0.035219285664647215 0 0.040860933565687249 -0.042014719997047992 0 0.045317527730007433 -0.030047942312636827 0 0.045047242139438858 -0.02878782684240096 0 0.044470213210025686 -0.029625423592247502 0 0.044624415523175462 -0.043766318858550098 0 0.04615195364634312 -0.042254931040713033 0 0.046677699066005565 -0.045256238248633257 0 0.044620744459866059 -0.030539541379121654 0 0.045317527730007433 -0.030047942312636827 0 0.044470213210025686 -0.029625423592247502 0 0.040092840367387445 -0.044999990554884337 0 0.038716216971517795 -0.045479887669755553 0 0.037632440753963034 -0.044999974434841744 0 0.044794141592790424 -0.028787954962344313 0 0.045047242139438858 -0.02878782684240096 0 0.044470213210025686 -0.029625423592247502 0 0.038342167204833175 -0.045655787746448226 0 0.038716216971517795 -0.045479887669755553 0 0.037632440753963034 -0.044999974434841744 0 0.043227384264245126 -0.040987005474206736 0 0.040860933565687249 -0.042014719997047992 0 0.038342167204833175 -0.045655787746448226 0 0.03874360275063532 -0.045632203791581366 0 0.038716216971517795 -0.045479887669755553 0 0.040092840367387445 -0.044999990554884337 0 0.038742544673127051 -0.045633015492616939 0 0.038716216971517795 -0.045479887669755553 0 0.040860933565687249 -0.042014719997047992 0 0.04083844715007897 -0.042380295852856006 0 0.04549236376834468 -0.044180016507914047 0 0.042098830525536139 -0.045619152519218109 0 0.042019512479876023 -0.044473035242286012 0 0.044794141592790424 -0.028787954962344313 0 0.044470213210025686 -0.029625423592247502 0 0.043325549787858408 -0.029134253335744906 0 0.043227384264245126 -0.040987005474206736 0 0.043214876152154927 -0.036759068126086279 0 0.038342167204833175 -0.045655787746448226 0 0.037632440753963034 -0.044999974434841744 0 0.036193969062026127 -0.045784719739232815 0 0.043227384264245126 -0.040987005474206736 0 0.038801849199412222 -0.045509656632286677 0 0.043730164681506881 -0.030643389234189442 0 0.044470213210025686 -0.029625423592247502 0 0.043325549787858408 -0.029134253335744906 0 0.043730164681506881 -0.030643389234189442 0 0.043325549787858408 -0.029134253335744906 0 0.042596546436982879 -0.030433980451225813 0 0.043214876152154927 -0.036759068126086279 0 0.039887908998170074 -0.038695881593326847 0 0.043325549787858408 -0.029134253335744906 0 0.041394947514213104 -0.029596330461263518 0 0.042596546436982879 -0.030433980451225813 0 0.037632440753963034 -0.044999974434841744 0 0.036193969062026127 -0.045784719739232815 0 0.035172015412834982 -0.044999995171003997 0 0.042098830525536139 -0.045619152519218109 0 0.042019512479876023 -0.044473035242286012 0 0.038253295394802121 -0.044737435572886487 0 0.036193969062026127 -0.045784719739232815 0 0.035172015412834982 -0.044999995171003997 0 0.034043011802560107 -0.045908488688300365 0 0.038801849199412222 -0.045509656632286677 0 0.036216859012054653 -0.045282620935681278 0 0.032711396483397139 -0.044999987486441399 0 0.035172015412834982 -0.044999995171003997 0 0.034043011802560107 -0.045908488688300365 0 0.042098830525536139 -0.045619152519218109 0 0.038253295394802121 -0.044737435572886487 0 0.038419644079316251 -0.047236867959774283 0 0.041394947514213104 -0.029596330461263518 0 0.041244439229302883 -0.031200521035433828 0 0.042596546436982879 -0.030433980451225813 0 0.041244439229302883 -0.031200521035433828 0 0.042596546436982879 -0.030433980451225813 0 0.043034732159560184 -0.031465894077897863 0 0.043730164681506881 -0.030643389234189442 0 0.042596546436982879 -0.030433980451225813 0 0.043034732159560184 -0.031465894077897863 0 0.043034732159560184 -0.031465894077897863 0 0.041307881891349638 -0.03179737706740824 0 0.043674213317753632 -0.032193875270746131 0 0.043886247513158005 -0.031546608511536123 0 0.043730164681506881 -0.030643389234189442 0 0.043034732159560184 -0.031465894077897863 0 0.043886247513158005 -0.031546608511536123 0 0.043034732159560184 -0.031465894077897863 0 0.043674213317753632 -0.032193875270746131 0 0.040498486991120658 -0.030175135401921072 0 0.043034732159560184 -0.031465894077897863 0 0.041307881891349638 -0.03179737706740824 0 0.040982221836942653 -0.029856711410955434 0 0.042875209948547932 -0.031607895055029381 0 0.041307881891349638 -0.03179737706740824 0 0.040730968445751206 -0.033524126086647649 0 0.043674213317753632 -0.032193875270746131 0 0.041613828606046108 -0.032645214012067207 0 0.043529552877624882 -0.032224440557752164 0 0.042684478952769986 -0.031781462209761066 0 0.043674213317753632 -0.032193875270746131 0 0.043896468533638988 -0.032664056651777469 0 0.043896468533638988 -0.032664056651777469 0 0.043309878495698166 -0.032997649425320012 0 0.044443507821027947 -0.033437292253594687 0 0.042684478952769986 -0.031781462209761066 0 0.043896468533638988 -0.032664056651777469 0 0.043309878495698166 -0.032997649425320012 0 0.042036433506172151 -0.032470320925320095 0 0.042684478952769986 -0.031781462209761066 0 0.043309878495698166 -0.032997649425320012 0 0.042036433506172151 -0.032470320925320095 0 0.042456225212090755 -0.033377688716575205 0 0.043309878495698166 -0.032997649425320012 0 0.042456225212090755 -0.033377688716575205 0 0.043458059068323861 -0.033809564643560323 0 0.043309878495698166 -0.032997649425320012 0 0.043458059068323861 -0.033809564643560323 0 0.044701823717327532 -0.034194693042018158 0 0.043978127985399962 -0.034469171577782093 0 0.043458059068323861 -0.033809564643560323 0 0.04399667726662311 -0.033601431872066115 0 0.044701823717327532 -0.034194693042018158 0 0.043458059068323861 -0.033809564643560323 0 0.043309878495698166 -0.032997649425320012 0 0.04399667726662311 -0.033601431872066115 0 0.043309878495698166 -0.032997649425320012 0 0.04399667726662311 -0.033601431872066115 0 0.044443507821027947 -0.033437292253594687 0 0.04399667726662311 -0.033601431872066115 0 0.044443507821027947 -0.033437292253594687 0 0.044701823717327532 -0.034194693042018158 0 0.044443507821027947 -0.033437292253594687 0 0.044701823717327532 -0.034194693042018158 0 0.045608585623879247 -0.034335059297262917 0 0.045608585623879247 -0.034335059297262917 0 0.04631469745782317 -0.034575020883798553 0 0.045646086173906454 -0.034557352499778572 0 0.044701823717327532 -0.034194693042018158 0 0.045608585623879247 -0.034335059297262917 0 0.045646086173906454 -0.034557352499778572 0 0.045608585623879247 -0.034335059297262917 0 0.045381053148209984 -0.033717956584898762 0 0.046770257335453168 -0.034910570291952547 0 0.044443507821027947 -0.033437292253594687 0 0.045608585623879247 -0.034335059297262917 0 0.045381053148209984 -0.033717956584898762 0 0.045381053148209984 -0.033717956584898762 0 0.044770118790404941 -0.032720850852155828 0 0.046130741077707607 -0.032545306222520103 0 0.043896468533638988 -0.032664056651777469 0 0.044443507821027947 -0.033437292253594687 0 0.044770118790404941 -0.032720850852155828 0 0.044443507821027947 -0.033437292253594687 0 0.045381053148209984 -0.033717956584898762 0 0.044770118790404941 -0.032720850852155828 0 0.043674213317753632 -0.032193875270746131 0 0.043896468533638988 -0.032664056651777469 0 0.044376454502224758 -0.032064859742233179 0 0.043896468533638988 -0.032664056651777469 0 0.044770118790404941 -0.032720850852155828 0 0.044376454502224758 -0.032064859742233179 0 0.044770118790404941 -0.032720850852155828 0 0.045140061338100147 -0.032027176430137645 0 0.046130741077707607 -0.032545306222520103 0 0.044770118790404941 -0.032720850852155828 0 0.044376454502224758 -0.032064859742233179 0 0.045140061338100147 -0.032027176430137645 0 0.045642347575649049 -0.031327986100647569 0 0.045140061338100147 -0.032027176430137645 0 0.046130741077707607 -0.032545306222520103 0 0.044996896843592003 -0.039315413244719592 0 0.045741855527765593 -0.036620590325028873 0 0.044999152221120532 -0.032201740336676825 0 0.047176962765760312 -0.037864770037225125 0 0.046770257335453168 -0.034910570291952547 0 0.045741855527765593 -0.036620590325028873 0 0.047176962765760312 -0.037864770037225125 0 0.045532984006615221 -0.03927008690053637 0 0.045741855527765593 -0.036620590325028873 0 0.046245442046821642 -0.035956788806841014 0 0.046622514521727096 -0.035180789925437474 0 0.046921957055006916 -0.040340800131973498 0 0.047176962765760312 -0.037864770037225125 0 0.045532984006615221 -0.03927008690053637 0 0.045381053148209984 -0.033717956584898762 0 0.046130741077707607 -0.032545306222520103 0 0.046770257335453168 -0.034910570291952547 0 0.046622514521727096 -0.035180789925437474 0 0.04674577558249985 -0.034958636039763034 0 0.045608585623879247 -0.034335059297262917 0 0.046770257335453168 -0.034910570291952547 0 0.04631469745782317 -0.034575020883798553 0 0.046770257335453168 -0.034910570291952547 0 0.04631469745782317 -0.034575020883798553 0 0.046398717842775827 -0.035033783622252609 0 0.04631469745782317 -0.034575020883798553 0 0.04622987745487718 -0.034511127888352866 0 0.045646086173906454 -0.034557352499778572 0 0.04631469745782317 -0.034575020883798553 0 0.046392723562438253 -0.034313909509146562 0 0.046398717842775827 -0.035033783622252609 0 0.04631469745782317 -0.034575020883798553 0 0.046392723562438253 -0.034313909509146562 0 0.04622987745487718 -0.034511127888352866 0 0.046770257335453168 -0.034910570291952547 0 0.046398717842775827 -0.035033783622252609 0 0.045741855527765593 -0.036620590325028873 0 0.046392723562438253 -0.034313909509146562 0 0.046398717842775827 -0.035033783622252609 0 0.045741855527765593 -0.036620590325028873 0 0.046392723562438253 -0.034313909509146562 0 0.045741855527765593 -0.036620590325028873 0 0.044999152221120532 -0.032201740336676825 0 0.045532984006615221 -0.03927008690053637 0 0.044996896843592003 -0.039315413244719592 0 0.045741855527765593 -0.036620590325028873 0 0.045978966049864886 -0.028919224261545421 0 0.045000007797754905 -0.029584147774851844 0 0.044999719610326915 -0.026968614806280558 0 0.045978966049864886 -0.028919224261545421 0 0.046960083113496164 -0.0296445242322569 0 0.045991514617025289 -0.029810670880793193 0 0.045978966049864886 -0.028919224261545421 0 0.045991514617025289 -0.029810670880793193 0 0.045000007797754905 -0.029584147774851844 0 0.045978966049864886 -0.028919224261545421 0 0.046960083113496164 -0.0296445242322569 0 0.046570187999438815 -0.027899653123088026 0 0.047053830217041688 -0.033592062659688664 0 0.04634853672937251 -0.034444402638046684 0 0.04597326186689412 -0.030134008551492016 0 0.046579963245709739 -0.031945724718725532 0 0.046308222993552237 -0.029058068248951581 0 0.047053830217041688 -0.033592062659688664 0 0.048517537664304729 -0.030847434249540211 0 0.04597326186689412 -0.030134008551492016 0 0.047053830217041688 -0.033592062659688664 0 0.047088312247088954 -0.03397198797730426 0 0.048517537664304729 -0.030847434249540211 0 0.046360794280212031 -0.032714308840923599 0 0.046579963245709739 -0.031945724718725532 0 0.047053830217041688 -0.033592062659688664 0 0.047088312247088954 -0.03397198797730426 0 0.046826847718816546 -0.034162442799647239 0 0.046144685202811411 -0.030953678554215418 0 0.045558555268947774 -0.031681767525905451 0 0.046369147081453559 -0.032330160193278369 0 0.046882496189428573 -0.034257708507665553 0 0.046670728268790596 -0.034590839885592591 0 0.046844514274741608 -0.034314954370292375 0 0.046826847718816546 -0.034162442799647239 0 0.046882496189428573 -0.034257708507665553 0 0.046670728268790596 -0.034590839885592591 0 0.046579963245709739 -0.031945724718725532 0 0.046504014482897801 -0.033613518593109258 0 0.047088312247088954 -0.03397198797730426 0 0.046976899856867982 -0.034160444465277891 0 0.046981763597745828 -0.034201282981980698 0 0.046976899856867982 -0.034160444465277891 0 0.046882496189428573 -0.034257708507665553 0 0.046981763597745828 -0.034201282981980698 0 0.046826847718816546 -0.034162442799647239 0 0.046939619737902422 -0.034158532877580194 0 0.046882496189428573 -0.034257708507665553 0 0.047088312247088954 -0.03397198797730426 0 0.046976899856867982 -0.034160444465277891 0 0.046939619737902422 -0.034158532877580194 0 0.047088312247088954 -0.03397198797730426 0 0.046826847718816546 -0.034162442799647239 0 0.046939619737902422 -0.034158532877580194 0 0.046976899856867982 -0.034160444465277891 0 0.046939619737902422 -0.034158532877580194 0 0.046882496189428573 -0.034257708507665553 0 0.046579963245709739 -0.031945724718725532 0 0.045888256098699259 -0.031113740983612668 0 0.045986228676068212 -0.030914866734902357 0 0.045000007797754905 -0.029584147774851844 0 0.044999973636671686 -0.032199824469582153 0 0.046960083113496164 -0.0296445242322569 0 0.045986228676068212 -0.030914866734902357 0 0.045991514617025289 -0.029810670880793193 0 0.045986228676068212 -0.030914866734902357 0 0.045991514617025289 -0.029810670880793193 0 0.045000007797754905 -0.029584147774851844 0 0.045558555268947774 -0.031681767525905451 0 0.044999152221120532 -0.032201740336676825 0 0.046369147081453559 -0.032330160193278369 0 0.045888256098699259 -0.031113740983612668 0 0.045000077678037313 -0.032199780879728961 0 0.046392723562438253 -0.034313909509146562 0 0.044999152221120532 -0.032201740336676825 0 0.046369147081453559 -0.032330160193278369 0 0.046432113499132135 -0.034191160446290565 0 0.046504014482897801 -0.033613518593109258 0 0.046670728268790596 -0.034590839885592591 0 0.04672138533231799 -0.03447571330175505 0 0.046844514274741608 -0.034314954370292375 0 0.046589063536141527 -0.034632278243580429 0 0.04628147914053099 -0.034833342446730968 0 0.04672138533231799 -0.03447571330175505 0 0.046611203016237668 -0.034616291978200396 0 0.046781069548220679 -0.034213559528690457 0 0.046670728268790596 -0.034590839885592591 0 0.04672138533231799 -0.03447571330175505 0 0.046611203016237668 -0.034616291978200396 0 0.046392723562438253 -0.034313909509146562 0 0.046670728268790596 -0.034590839885592591 0 0.046611203016237668 -0.034616291978200396 0 0.046392723562438253 -0.034313909509146562 0 0.046611203016237668 -0.034616291978200396 0 0.04622987745487718 -0.034511127888352866 0 0.046611203016237668 -0.034616291978200396 0 0.04622987745487718 -0.034511127888352866 0 0.045948415021415188 -0.034794361650134414 0 0.04622987745487718 -0.034511127888352866 0 0.045948415021415188 -0.034794361650134414 0 0.045646086173906454 -0.034557352499778572 0 0.046611203016237668 -0.034616291978200396 0 0.045948415021415188 -0.034794361650134414 0 0.04582983883570925 -0.03546403322043868 0 0.045948415021415188 -0.034794361650134414 0 0.04582983883570925 -0.03546403322043868 0 0.045298988119251787 -0.034900401395651745 0 0.04672138533231799 -0.03447571330175505 0 0.046781069548220679 -0.034213559528690457 0 0.046844514274741608 -0.034314954370292375 0 0.046781069548220679 -0.034213559528690457 0 0.046844514274741608 -0.034314954370292375 0 0.046947864894881008 -0.034318160689503822 0 0.046844514274741608 -0.034314954370292375 0 0.046981763597745828 -0.034201282981980698 0 0.046947864894881008 -0.034318160689503822 0 0.046882496189428573 -0.034257708507665553 0 0.046844514274741608 -0.034314954370292375 0 0.046981763597745828 -0.034201282981980698 0 0.047096689669526813 -0.033900026641601057 0 0.049267929477819737 -0.033094085708227514 0 0.047088312247088954 -0.03397198797730426 0 0.046947864894881008 -0.034318160689503822 0 0.046906836831443678 -0.034747453616647675 0 0.047088312247088954 -0.03397198797730426 0 0.05115118642645658 -0.030878330837684584 0 0.048517537664304729 -0.030847434249540211 0 0.047088312247088954 -0.03397198797730426 0 0.046981763597745828 -0.034201282981980698 0 0.046947864894881008 -0.034318160689503822 0 0.046947864894881008 -0.034318160689503822 0 0.046906836831443678 -0.034747453616647675 0 0.046536552583916035 -0.034721246313623381 0 0.046781069548220679 -0.034213559528690457 0 0.046947864894881008 -0.034318160689503822 0 0.046536552583916035 -0.034721246313623381 0 0.046781069548220679 -0.034213559528690457 0 0.046536552583916035 -0.034721246313623381 0 0.045955152665890765 -0.034585277183388656 0 0.046536552583916035 -0.034721246313623381 0 0.045955152665890765 -0.034585277183388656 0 0.046130014110153619 -0.035284493836521241 0 0.045955152665890765 -0.034585277183388656 0 0.045794523847547168 -0.035360304012431246 0 0.046130014110153619 -0.035284493836521241 0 0.044888100581014445 -0.036042753577477285 0 0.044376252649102541 -0.036028307791921017 0 0.044553476968867335 -0.035763129416722571 0 0.044888100581014445 -0.036042753577477285 0 0.044376252649102541 -0.036028307791921017 0 0.044355837398693351 -0.036264248036775297 0 0.044376252649102541 -0.036028307791921017 0 0.044553476968867335 -0.035763129416722571 0 0.044111714077126267 -0.035740622394144314 0 0.044553476968867335 -0.035763129416722571 0 0.044471622416879256 -0.03545019017052236 0 0.044932852537437833 -0.035461237836752459 0 0.044888100581014445 -0.036042753577477285 0 0.044553476968867335 -0.035763129416722571 0 0.044932852537437833 -0.035461237836752459 0 0.044553476968867335 -0.035763129416722571 0 0.044471622416879256 -0.03545019017052236 0 0.044111714077126267 -0.035740622394144314 0 0.044471622416879256 -0.03545019017052236 0 0.044505990617115888 -0.034965544460388319 0 0.044034958086696808 -0.035299044389689511 0 0.044471622416879256 -0.03545019017052236 0 0.044932852537437833 -0.035461237836752459 0 0.044505990617115888 -0.034965544460388319 0 0.04582983883570925 -0.03546403322043868 0 0.044888100581014445 -0.036042753577477285 0 0.044932852537437833 -0.035461237836752459 0 0.04628147914053099 -0.034833342446730968 0 0.045419921735994809 -0.035342960779616822 0 0.044932852537437833 -0.035461237836752459 0 0.045298988119251787 -0.034900401395651745 0 0.044505990617115888 -0.034965544460388319 0 0.04582983883570925 -0.03546403322043868 0 0.044932852537437833 -0.035461237836752459 0 0.045298988119251787 -0.034900401395651745 0 0.044701823717327532 -0.034194693042018158 0 0.045646086173906454 -0.034557352499778572 0 0.044835681818772878 -0.034619402189183822 0 0.045298988119251787 -0.034900401395651745 0 0.045646086173906454 -0.034557352499778572 0 0.044835681818772878 -0.034619402189183822 0 0.045948415021415188 -0.034794361650134414 0 0.045298988119251787 -0.034900401395651745 0 0.045646086173906454 -0.034557352499778572 0 0.044701823717327532 -0.034194693042018158 0 0.044835681818772878 -0.034619402189183822 0 0.043978127985399962 -0.034469171577782093 0 0.044835681818772878 -0.034619402189183822 0 0.044505990617115888 -0.034965544460388319 0 0.043978127985399962 -0.034469171577782093 0 0.045298988119251787 -0.034900401395651745 0 0.044835681818772878 -0.034619402189183822 0 0.044505990617115888 -0.034965544460388319 0 0.044505990617115888 -0.034965544460388319 0 0.043543526053025132 -0.034929758917557882 0 0.043978127985399962 -0.034469171577782093 0 0.044505990617115888 -0.034965544460388319 0 0.043543526053025132 -0.034929758917557882 0 0.044034958086696808 -0.035299044389689511 0 0.043458059068323861 -0.033809564643560323 0 0.043978127985399962 -0.034469171577782093 0 0.04266844460181337 -0.034367370544398423 0 0.042456225212090755 -0.033377688716575205 0 0.043458059068323861 -0.033809564643560323 0 0.04266844460181337 -0.034367370544398423 0 0.043543526053025132 -0.034929758917557882 0 0.043978127985399962 -0.034469171577782093 0 0.04266844460181337 -0.034367370544398423 0 0.043543526053025132 -0.034929758917557882 0 0.04266844460181337 -0.034367370544398423 0 0.042737972190839954 -0.035022203741937409 0 0.042737972190839954 -0.035022203741937409 0 0.043137953937274258 -0.035575305201772343 0 0.041977522310531729 -0.035645590194529092 0 0.043543526053025132 -0.034929758917557882 0 0.042737972190839954 -0.035022203741937409 0 0.043137953937274258 -0.035575305201772343 0 0.043543526053025132 -0.034929758917557882 0 0.043137953937274258 -0.035575305201772343 0 0.044034958086696808 -0.035299044389689511 0 0.043137953937274258 -0.035575305201772343 0 0.044034958086696808 -0.035299044389689511 0 0.044111714077126267 -0.035740622394144314 0 0.044471622416879256 -0.03545019017052236 0 0.044034958086696808 -0.035299044389689511 0 0.044111714077126267 -0.035740622394144314 0 0.043137953937274258 -0.035575305201772343 0 0.044111714077126267 -0.035740622394144314 0 0.043763352176143397 -0.036091285435472915 0 0.044376252649102541 -0.036028307791921017 0 0.044111714077126267 -0.035740622394144314 0 0.043763352176143397 -0.036091285435472915 0 0.044376252649102541 -0.036028307791921017 0 0.043763352176143397 -0.036091285435472915 0 0.044137019023887482 -0.036142503879754637 0 0.043137953937274258 -0.035575305201772343 0 0.042565603916217443 -0.03621595804498022 0 0.041977522310531729 -0.035645590194529092 0 0.043137953937274258 -0.035575305201772343 0 0.043533995317339799 -0.036352511475682081 0 0.042565603916217443 -0.03621595804498022 0 0.043533995317339799 -0.036352511475682081 0 0.042565603916217443 -0.03621595804498022 0 0.042737202851377595 -0.036954895030677642 0 0.043198084004461519 -0.035580964742942166 0 0.043660835539464621 -0.036297401597024763 0 0.044159723324557129 -0.034287448898059548 0 0.046671438863900974 -0.034576565112709255 0 0.045237384088083227 -0.035593590710023361 0 0.043391913562301113 -0.035691110547599124 0 0.04579350383032503 -0.035140272751199644 0 0.043533995317339799 -0.036352511475682081 0 0.042737202851377595 -0.036954895030677642 0 0.044005352568489156 -0.03721430765882907 0 0.043660835539464621 -0.036297401597024763 0 0.04579350383032503 -0.035140272751199644 0 0.044376252649102541 -0.036028307791921017 0 0.044137019023887482 -0.036142503879754637 0 0.044355837398693351 -0.036264248036775297 0 0.043763352176143397 -0.036091285435472915 0 0.044137019023887482 -0.036142503879754637 0 0.044010643696024046 -0.036344262624012323 0 0.044137019023887482 -0.036142503879754637 0 0.044355837398693351 -0.036264248036775297 0 0.044010643696024046 -0.036344262624012323 0 0.046671438863900974 -0.034576565112709255 0 0.046427589352250324 -0.035740620274308681 0 0.045237384088083227 -0.035593590710023361 0 0.046427589352250324 -0.035740620274308681 0 0.045821032357198352 -0.036379853730302496 0 0.047640559034099937 -0.03610471483896098 0 0.04579350383032503 -0.035140272751199644 0 0.04664615935125823 -0.02487629429934414 0 0.046671438863900974 -0.034576565112709255 0 0.046427589352250324 -0.035740620274308681 0 0.047640559034099937 -0.03610471483896098 0 0.046427589352250324 -0.035740620274308681 0 0.045821032357198352 -0.036379853730302496 0 0.045237384088083227 -0.035593590710023361 0 0.045821032357198352 -0.036379853730302496 0 0.045237384088083227 -0.035593590710023361 0 0.044499722084402109 -0.036612783515237217 0 0.044159723324557129 -0.034287448898059548 0 0.045237384088083227 -0.035593590710023361 0 0.043819312027925918 -0.035611593554710393 0 0.045237384088083227 -0.035593590710023361 0 0.043819312027925918 -0.035611593554710393 0 0.044499722084402109 -0.036612783515237217 0 0.044499722084402109 -0.036612783515237217 0 0.045494578242093624 -0.037491242614492909 0 0.04373163993856289 -0.037534640247872536 0 0.044954776026893392 -0.027469671403994408 0 0.042589248899490416 -0.028469440554205167 0 0.045494578242093624 -0.037491242614492909 0 0.04373163993856289 -0.037534640247872536 0 0.043294654630826539 -0.03878908792698512 0 0.045821032357198352 -0.036379853730302496 0 0.044499722084402109 -0.036612783515237217 0 0.045494578242093624 -0.037491242614492909 0 0.044522913646273914 -0.017064883321384304 0 0.04381470995490036 -0.018557201008037788 0 0.041715349421769847 -0.018318443020785943 0 0.04381470995490036 -0.018557201008037788 0 0.041715349421769847 -0.018318443020785943 0 0.04274702308188235 -0.019438424944820891 0 0.04381470995490036 -0.018557201008037788 0 0.045864793005139806 -0.017636614305472021 0 0.043905330318959108 -0.020158989809219322 0 0.045998886701512191 -0.017495681298253143 0 0.045474402329763929 -0.019086914177141232 0 0.046871234992683301 -0.017853165113222384 0 0.045864793005139806 -0.017636614305472021 0 0.047446651404082503 -0.017800385214690358 0 0.046871234992683301 -0.017853165113222384 0 0.045864793005139806 -0.017636614305472021 0 0.046734142286048871 -0.017863003549351077 0 0.045821032357198352 -0.036379853730302496 0 0.045494578242093624 -0.037491242614492909 0 0.047640559034099937 -0.03610471483896098 0 0.044522913646273914 -0.017064883321384304 0 0.045864793005139806 -0.017636614305472021 0 0.046585703611803905 -0.016448348240608913 0 0.045864793005139806 -0.017636614305472021 0 0.046734142286048871 -0.017863003549351077 0 0.046585703611803905 -0.016448348240608913 0 0.044954776026893392 -0.027469671403994408 0 0.04664615935125823 -0.02487629429934414 0 0.044522913646273914 -0.017064883321384304 0 0.04381470995490036 -0.018557201008037788 0 0.045864793005139806 -0.017636614305472021 0 0.046734142286048871 -0.017863003549351077 0 0.0472007842762329 -0.017846920061394992 0 0.046585703611803905 -0.016448348240608913 0 0.0472007842762329 -0.017846920061394992 0 0.047089787931695243 -0.018253731522439729 0 0.047650600769267575 -0.018569260310352106 0 0.046652152947181585 -0.01520467939221248 0 0.04664615935125823 -0.02487629429934414 0 0.046734142286048871 -0.017863003549351077 0 0.0472007842762329 -0.017846920061394992 0 0.047175745090469713 -0.017785376391923464 0 0.046871234992683301 -0.017853165113222384 0 0.046734142286048871 -0.017863003549351077 0 0.047175745090469713 -0.017785376391923464 0 0.0472007842762329 -0.017846920061394992 0 0.047057890102210988 -0.017795817980031953 0 0.047175745090469713 -0.017785376391923464 0 0.0472007842762329 -0.017846920061394992 0 0.046957457812656873 -0.018006901393997785 0 0.047057890102210988 -0.017795817980031953 0 0.047089787931695243 -0.018253731522439729 0 0.047089345285564181 -0.018559468820656077 0 0.046756728290151171 -0.018295886063931628 0 0.0472007842762329 -0.017846920061394992 0 0.047089787931695243 -0.018253731522439729 0 0.046957457812656873 -0.018006901393997785 0 0.046969173975392735 -0.018825620008765444 0 0.047089345285564181 -0.018559468820656077 0 0.046756728290151171 -0.018295886063931628 0 0.046969173975392735 -0.018825620008765444 0 0.047146065161516697 -0.018948975887388329 0 0.046917405953388967 -0.019079556757735351 0 0.046254483512668469 -0.022342712736180517 0 0.046485232807453335 -0.025974708776546739 0 0.046969173975392735 -0.018825620008765444 0 0.047203398102455961 -0.018877563358394349 0 0.047089345285564181 -0.018559468820656077 0 0.047089787931695243 -0.018253731522439729 0 0.047089345285564181 -0.018559468820656077 0 0.047650600769267575 -0.018569260310352106 0 0.046485232807453335 -0.025974708776546739 0 0.04664615935125823 -0.02487629429934414 0 0.047372702842245124 -0.029509622732248889 0 0.045277683658297298 -0.028994374564940081 0 0.046665398150483865 -0.028107770250166107 0 0.047203398102455961 -0.018877563358394349 0 0.047089345285564181 -0.018559468820656077 0 0.047650600769267575 -0.018569260310352106 0 0.044355837398693351 -0.036264248036775297 0 0.045813979296505755 -0.036459126446079897 0 0.04525862998695749 -0.035819074926759259 0 0.044355837398693351 -0.036264248036775297 0 0.044010643696024046 -0.036344262624012323 0 0.045813979296505755 -0.036459126446079897 0 0.045955152665890765 -0.034585277183388656 0 0.044355837398693351 -0.036264248036775297 0 0.04525862998695749 -0.035819074926759259 0 0.04579350383032503 -0.035140272751199644 0 0.046485232807453335 -0.025974708776546739 0 0.045419921735994809 -0.035342960779616822 0 0.044429336756573068 -0.036201278828694762 0 0.046536552583916035 -0.034721246313623381 0 0.046130014110153619 -0.035284493836521241 0 0.046331959837200939 -0.035478634627414213 0 0.045955152665890765 -0.034585277183388656 0 0.04525862998695749 -0.035819074926759259 0 0.045794523847547168 -0.035360304012431246 0 0.04525862998695749 -0.035819074926759259 0 0.045794523847547168 -0.035360304012431246 0 0.045850755178961589 -0.035819734097813652 0 0.045794523847547168 -0.035360304012431246 0 0.046130014110153619 -0.035284493836521241 0 0.045850755178961589 -0.035819734097813652 0 0.0481653733887926 -0.034376133300335857 0 0.047834759009567629 -0.029186549604067503 0 0.046485232807453335 -0.025974708776546739 0 0.047834759009567629 -0.029186549604067503 0 0.046130014110153619 -0.035284493836521241 0 0.046619715648069632 -0.035975169339682263 0 0.045850755178961589 -0.035819734097813652 0 0.045813979296505755 -0.036459126446079897 0 0.046619715648069632 -0.035975169339682263 0 0.045850755178961589 -0.035819734097813652 0 0.045813979296505755 -0.036459126446079897 0 0.04525862998695749 -0.035819074926759259 0 0.045850755178961589 -0.035819734097813652 0 0.05115118642645658 -0.030878330837684584 0 0.054458783015957336 -0.028471005194594608 0 0.051771373209318641 -0.027658768780778629 0 0.049267929477819737 -0.033094085708227514 0 0.047834759009567629 -0.029186549604067503 0 0.046906836831443678 -0.034747453616647675 0 0.046536552583916035 -0.034721246313623381 0 0.046331959837200939 -0.035478634627414213 0 0.05115118642645658 -0.030878330837684584 0 0.049254549733139891 -0.027718583537303835 0 0.051771373209318641 -0.027658768780778629 0 0.05115118642645658 -0.030878330837684584 0 0.048517537664304729 -0.030847434249540211 0 0.049254549733139891 -0.027718583537303835 0 0.049254549733139891 -0.027718583537303835 0 0.051874573059768739 -0.024632928597308368 0 0.048065889883936168 -0.025234128955683655 0 0.049254549733139891 -0.027718583537303835 0 0.051771373209318641 -0.027658768780778629 0 0.051874573059768739 -0.024632928597308368 0 0.047834759009567629 -0.029186549604067503 0 0.049520673912315502 -0.020573904517612252 0 0.054458783015957336 -0.028471005194594608 0 0.051771373209318641 -0.027658768780778629 0 0.051874573059768739 -0.024632928597308368 0 0.046969173975392735 -0.018825620008765444 0 0.046917405953388967 -0.019079556757735351 0 0.046756728290151171 -0.018295886063931628 0 0.046756728290151171 -0.018295886063931628 0 0.046957457812656873 -0.018006901393997785 0 0.046763332536072885 -0.01794357056804629 0 0.047089787931695243 -0.018253731522439729 0 0.046756728290151171 -0.018295886063931628 0 0.046957457812656873 -0.018006901393997785 0 0.046957457812656873 -0.018006901393997785 0 0.046763332536072885 -0.01794357056804629 0 0.047057890102210988 -0.017795817980031953 0 0.051874573059768739 -0.024632928597308368 0 0.049379878295990443 -0.021176713047863043 0 0.048065889883936168 -0.025234128955683655 0 0.049520673912315502 -0.020573904517612252 0 0.048058512527614526 -0.019754611213575059 0 0.047019865691354613 -0.022624153070434229 0 0.046231937627496139 -0.024247754744103442 0 0.048065889883936168 -0.025234128955683655 0 0.049379878295990443 -0.021176713047863043 0 0.047019865691354613 -0.022624153070434229 0 0.048065889883936168 -0.025234128955683655 0 0.047019865691354613 -0.022624153070434229 0 0.044777168721801097 -0.021203912193063661 0 0.046854100715868242 -0.020338448285398436 0 0.049379878295990443 -0.021176713047863043 0 0.047019865691354613 -0.022624153070434229 0 0.046854100715868242 -0.020338448285398436 0 0.045523094399209957 -0.022956890961751381 0 0.044999560571449423 -0.02435293623484535 0 0.045000134726450487 -0.021737200441413383 0 0.047019865691354613 -0.022624153070434229 0 0.044777168721801097 -0.021203912193063661 0 0.046231937627496139 -0.024247754744103442 0 0.045523094399209957 -0.022956890961751381 0 0.044999560571449423 -0.02435293623484535 0 0.045144831124223961 -0.025504235650219437 0 0.044777168721801097 -0.021203912193063661 0 0.046231937627496139 -0.024247754744103442 0 0.045144831124223961 -0.025504235650219437 0 0.045179315916535408 -0.022105514091805521 0 0.045114682468940209 -0.025286692775547435 0 0.044999560571449423 -0.02435293623484535 0 0.045144831124223961 -0.025504235650219437 0 0.044999719610326915 -0.026968614806280558 0 0.045144831124223961 -0.025504235650219437 0 0.046118936835568426 -0.02635818763501523 0 0.044999719610326915 -0.026968614806280558 0 0.046231937627496139 -0.024247754744103442 0 0.045144831124223961 -0.025504235650219437 0 0.046118936835568426 -0.02635818763501523 0 0.049254549733139891 -0.027718583537303835 0 0.048065889883936168 -0.025234128955683655 0 0.047354435163950125 -0.027964783035494094 0 0.046231937627496139 -0.024247754744103442 0 0.046118936835568426 -0.02635818763501523 0 0.048065889883936168 -0.025234128955683655 0 0.046118936835568426 -0.02635818763501523 0 0.048065889883936168 -0.025234128955683655 0 0.047354435163950125 -0.027964783035494094 0 0.046078901807871615 -0.026671258283454947 0 0.046308222993552237 -0.029058068248951581 0 0.048517537664304729 -0.030847434249540211 0 0.049254549733139891 -0.027718583537303835 0 0.047354435163950125 -0.027964783035494094 0 0.046118936835568426 -0.02635818763501523 0 0.047354435163950125 -0.027964783035494094 0 0.04597326186689412 -0.030134008551492016 0 0.048517537664304729 -0.030847434249540211 0 0.047354435163950125 -0.027964783035494094 0 0.04597326186689412 -0.030134008551492016 0 0.046118936835568426 -0.02635818763501523 0 0.046570187999438815 -0.027899653123088026 0 0.044999719610326915 -0.026968614806280558 0 0.045978966049864886 -0.028919224261545421 0 0.046570187999438815 -0.027899653123088026 0 0.044999719610326915 -0.026968614806280558 0 0.036903060968531243 -0.035124628905356614 0 0.035680868190919479 -0.034599635431882422 0 0.03677523269127244 -0.033865415379563162 0 0.036903060968531243 -0.035124628905356614 0 0.035887631477680912 -0.035540957098579691 0 0.035680868190919479 -0.034599635431882422 0 0.037801059048221675 -0.034549162707429117 0 0.038309449543010264 -0.035524767765990596 0 0.038968046273046578 -0.034827396476009555 0 0.036903060968531243 -0.035124628905356614 0 0.037801059048221675 -0.034549162707429117 0 0.038309449543010264 -0.035524767765990596 0 0.036903060968531243 -0.035124628905356614 0 0.037801059048221675 -0.034549162707429117 0 0.03677523269127244 -0.033865415379563162 0 0.038309449543010264 -0.035524767765990596 0 0.036944362890512714 -0.036740563758076335 0 0.038993394162507779 -0.036513372044959982 0 0.036903060968531243 -0.035124628905356614 0 0.038309449543010264 -0.035524767765990596 0 0.036944362890512714 -0.036740563758076335 0 0.036075019703954166 -0.034880120116280194 0 0.033875704834579322 -0.03471454610318473 0 0.036944362890512714 -0.036740563758076335 0 0.035887631477680912 -0.035540957098579691 0 0.035350548119539742 -0.03601998159852865 0 0.036903060968531243 -0.035124628905356614 0 0.036944362890512714 -0.036740563758076335 0 0.035887631477680912 -0.035540957098579691 0 0.036944362890512714 -0.036740563758076335 0 0.034730056407564859 -0.036614632445418467 0 0.035350548119539742 -0.03601998159852865 0 0.034730056407564859 -0.036614632445418467 0 0.034387388909452622 -0.035885426595027387 0 0.035350548119539742 -0.03601998159852865 0 0.034730056407564859 -0.036614632445418467 0 0.034387388909452622 -0.035885426595027387 0 0.033603953435632376 -0.036120529426178098 0 0.034387388909452622 -0.035885426595027387 0 0.033698318663862546 -0.035514946389926652 0 0.034732467004408955 -0.035241867496917219 0 0.034387388909452622 -0.035885426595027387 0 0.035350548119539742 -0.03601998159852865 0 0.034732467004408955 -0.035241867496917219 0 0.035887631477680912 -0.035540957098579691 0 0.035350548119539742 -0.03601998159852865 0 0.034732467004408955 -0.035241867496917219 0 0.032421169724202566 -0.036056648874493509 0 0.034730056407564859 -0.036614632445418467 0 0.033603953435632376 -0.036120529426178098 0 0.030900995624942289 -0.03316776833280026 0 0.033875704834579322 -0.03471454610318473 0 0.032404494656502213 -0.032807767524708778 0 0.032204756308606475 -0.032534973552040346 0 0.031916589432229719 -0.032625586487686833 0 0.032421169724202566 -0.036056648874493509 0 0.032883041022385026 -0.035971585672374823 0 0.033603953435632376 -0.036120529426178098 0 0.032883041022385026 -0.035971585672374823 0 0.033603953435632376 -0.036120529426178098 0 0.03328533018014828 -0.035843609242629866 0 0.034387388909452622 -0.035885426595027387 0 0.033603953435632376 -0.036120529426178098 0 0.033698318663862546 -0.035514946389926652 0 0.033603953435632376 -0.036120529426178098 0 0.033698318663862546 -0.035514946389926652 0 0.03328533018014828 -0.035843609242629866 0 0.032883041022385026 -0.035971585672374823 0 0.03328533018014828 -0.035843609242629866 0 0.033028084600949879 -0.0355420187992544 0 0.033698318663862546 -0.035514946389926652 0 0.03328533018014828 -0.035843609242629866 0 0.033028084600949879 -0.0355420187992544 0 0.033698318663862546 -0.035514946389926652 0 0.033028084600949879 -0.0355420187992544 0 0.033160274477433006 -0.034973485721779135 0 0.032526564355579712 -0.035095743812009278 0 0.033028084600949879 -0.0355420187992544 0 0.032712747400427032 -0.035658860685920224 0 0.032883041022385026 -0.035971585672374823 0 0.033028084600949879 -0.0355420187992544 0 0.032712747400427032 -0.035658860685920224 0 0.03261226323264875 -0.035850481330914778 0 0.032883041022385026 -0.035971585672374823 0 0.032712747400427032 -0.035658860685920224 0 0.032526564355579712 -0.035095743812009278 0 0.032616322322742357 -0.034382191519488819 0 0.033160274477433006 -0.034973485721779135 0 0.032526564355579712 -0.035095743812009278 0 0.033028084600949879 -0.0355420187992544 0 0.033160274477433006 -0.034973485721779135 0 0.033698318663862546 -0.035514946389926652 0 0.033879782926509831 -0.034829383494156083 0 0.034732467004408955 -0.035241867496917219 0 0.033698318663862546 -0.035514946389926652 0 0.033160274477433006 -0.034973485721779135 0 0.033879782926509831 -0.034829383494156083 0 0.033160274477433006 -0.034973485721779135 0 0.033879782926509831 -0.034829383494156083 0 0.033366482207847034 -0.03422361293993887 0 0.033879782926509831 -0.034829383494156083 0 0.033366482207847034 -0.03422361293993887 0 0.034445064607850608 -0.034235712606601326 0 0.032616322322742357 -0.034382191519488819 0 0.033160274477433006 -0.034973485721779135 0 0.033366482207847034 -0.03422361293993887 0 0.032616322322742357 -0.034382191519488819 0 0.032626281484091281 -0.033648307347448017 0 0.033366482207847034 -0.03422361293993887 0 0.035887631477680912 -0.035540957098579691 0 0.034732467004408955 -0.035241867496917219 0 0.035680868190919479 -0.034599635431882422 0 0.033879782926509831 -0.034829383494156083 0 0.034732467004408955 -0.035241867496917219 0 0.034445064607850608 -0.034235712606601326 0 0.034732467004408955 -0.035241867496917219 0 0.035680868190919479 -0.034599635431882422 0 0.034445064607850608 -0.034235712606601326 0 0.035680868190919479 -0.034599635431882422 0 0.034445064607850608 -0.034235712606601326 0 0.035241823748794636 -0.03370069231995397 0 0.034445064607850608 -0.034235712606601326 0 0.035241823748794636 -0.03370069231995397 0 0.033849464443443979 -0.033272315169557011 0 0.035241823748794636 -0.03370069231995397 0 0.033849464443443979 -0.033272315169557011 0 0.035188265442698527 -0.032871227130424015 0 0.032626281484091281 -0.033648307347448017 0 0.033849464443443979 -0.033272315169557011 0 0.033176673013819977 -0.032482098773763284 0 0.032626281484091281 -0.033648307347448017 0 0.033366482207847034 -0.03422361293993887 0 0.033849464443443979 -0.033272315169557011 0 0.033366482207847034 -0.03422361293993887 0 0.034445064607850608 -0.034235712606601326 0 0.033849464443443979 -0.033272315169557011 0 0.033849464443443979 -0.033272315169557011 0 0.033176673013819977 -0.032482098773763284 0 0.034190197981569068 -0.032336356689189716 0 0.033587685744080928 -0.031728557904211141 0 0.033176673013819977 -0.032482098773763284 0 0.034190197981569068 -0.032336356689189716 0 0.035805200976235831 -0.032310471413584681 0 0.034190197981569068 -0.032336356689189716 0 0.035188265442698527 -0.032871227130424015 0 0.035241823748794636 -0.03370069231995397 0 0.035188265442698527 -0.032871227130424015 0 0.036216911003835582 -0.033097929276699134 0 0.033849464443443979 -0.033272315169557011 0 0.034190197981569068 -0.032336356689189716 0 0.035188265442698527 -0.032871227130424015 0 0.035805200976235831 -0.032310471413584681 0 0.035188265442698527 -0.032871227130424015 0 0.036216911003835582 -0.033097929276699134 0 0.036216911003835582 -0.033097929276699134 0 0.03677523269127244 -0.033865415379563162 0 0.037236153357560073 -0.032940502739040395 0 0.035805200976235831 -0.032310471413584681 0 0.036216911003835582 -0.033097929276699134 0 0.037236153357560073 -0.032940502739040395 0 0.035680868190919479 -0.034599635431882422 0 0.035241823748794636 -0.03370069231995397 0 0.03677523269127244 -0.033865415379563162 0 0.035241823748794636 -0.03370069231995397 0 0.036216911003835582 -0.033097929276699134 0 0.03677523269127244 -0.033865415379563162 0 0.037801059048221675 -0.034549162707429117 0 0.03841236443832443 -0.033752292446076665 0 0.038968046273046578 -0.034827396476009555 0 0.037801059048221675 -0.034549162707429117 0 0.03677523269127244 -0.033865415379563162 0 0.03841236443832443 -0.033752292446076665 0 0.03677523269127244 -0.033865415379563162 0 0.03841236443832443 -0.033752292446076665 0 0.037236153357560073 -0.032940502739040395 0 0.038311132786602468 -0.032720591449797574 0 0.03841236443832443 -0.033752292446076665 0 0.037236153357560073 -0.032940502739040395 0 0.03841236443832443 -0.033752292446076665 0 0.039483077299184433 -0.033116154480599333 0 0.039869398072366044 -0.034257597438935271 0 0.038311132786602468 -0.032720591449797574 0 0.03841236443832443 -0.033752292446076665 0 0.039483077299184433 -0.033116154480599333 0 0.039483077299184433 -0.033116154480599333 0 0.040579620566171641 -0.033424006776297512 0 0.039869398072366044 -0.034257597438935271 0 0.040579620566171641 -0.033424006776297512 0 0.039869398072366044 -0.034257597438935271 0 0.040927064962169059 -0.034197519752349886 0 0.039869398072366044 -0.034257597438935271 0 0.040927064962169059 -0.034197519752349886 0 0.040485232844207013 -0.034856375922140623 0 0.03841236443832443 -0.033752292446076665 0 0.039869398072366044 -0.034257597438935271 0 0.038968046273046578 -0.034827396476009555 0 0.04266844460181337 -0.034367370544398423 0 0.041780708037102585 -0.033740006430234275 0 0.041734568001932711 -0.034329696901644766 0 0.042456225212090755 -0.033377688716575205 0 0.04266844460181337 -0.034367370544398423 0 0.041780708037102585 -0.033740006430234275 0 0.040579620566171641 -0.033424006776297512 0 0.041780708037102585 -0.033740006430234275 0 0.040927064962169059 -0.034197519752349886 0 0.041780708037102585 -0.033740006430234275 0 0.040927064962169059 -0.034197519752349886 0 0.041734568001932711 -0.034329696901644766 0 0.040927064962169059 -0.034197519752349886 0 0.041162036078679486 -0.034726401675018642 0 0.040485232844207013 -0.034856375922140623 0 0.040927064962169059 -0.034197519752349886 0 0.041162036078679486 -0.034726401675018642 0 0.041734568001932711 -0.034329696901644766 0 0.04266844460181337 -0.034367370544398423 0 0.041734568001932711 -0.034329696901644766 0 0.04191985485954302 -0.034925480269904371 0 0.04266844460181337 -0.034367370544398423 0 0.042737972190839954 -0.035022203741937409 0 0.04191985485954302 -0.034925480269904371 0 0.041162036078679486 -0.034726401675018642 0 0.041734568001932711 -0.034329696901644766 0 0.04191985485954302 -0.034925480269904371 0 0.042737972190839954 -0.035022203741937409 0 0.04191985485954302 -0.034925480269904371 0 0.041977522310531729 -0.035645590194529092 0 0.04191985485954302 -0.034925480269904371 0 0.041017711638705275 -0.035269753283589646 0 0.041977522310531729 -0.035645590194529092 0 0.041162036078679486 -0.034726401675018642 0 0.04191985485954302 -0.034925480269904371 0 0.041017711638705275 -0.035269753283589646 0 0.041162036078679486 -0.034726401675018642 0 0.041017711638705275 -0.035269753283589646 0 0.040485232844207013 -0.034856375922140623 0 0.040278164245122858 -0.035571631335663337 0 0.04155831623650847 -0.035508327082895502 0 0.040868150887380196 -0.035757330995414296 0 0.040036292707072554 -0.035632056996000548 0 0.041340477858221675 -0.03655742956852788 0 0.041017711638705275 -0.035269753283589646 0 0.040868150887380196 -0.035757330995414296 0 0.041977522310531729 -0.035645590194529092 0 0.040868150887380196 -0.035757330995414296 0 0.041977522310531729 -0.035645590194529092 0 0.041340477858221675 -0.03655742956852788 0 0.041017711638705275 -0.035269753283589646 0 0.040868150887380196 -0.035757330995414296 0 0.040229567566581921 -0.035484770459870391 0 0.042565603916217443 -0.03621595804498022 0 0.041977522310531729 -0.035645590194529092 0 0.041340477858221675 -0.03655742956852788 0 0.039869398072366044 -0.034257597438935271 0 0.038968046273046578 -0.034827396476009555 0 0.039820760102051288 -0.035120325564102245 0 0.038968046273046578 -0.034827396476009555 0 0.039820760102051288 -0.035120325564102245 0 0.039477779966072185 -0.035539329875263717 0 0.038309449543010264 -0.035524767765990596 0 0.038968046273046578 -0.034827396476009555 0 0.039477779966072185 -0.035539329875263717 0 0.039869398072366044 -0.034257597438935271 0 0.040485232844207013 -0.034856375922140623 0 0.039820760102051288 -0.035120325564102245 0 0.041017711638705275 -0.035269753283589646 0 0.040485232844207013 -0.034856375922140623 0 0.040229567566581921 -0.035484770459870391 0 0.040485232844207013 -0.034856375922140623 0 0.039820760102051288 -0.035120325564102245 0 0.040229567566581921 -0.035484770459870391 0 0.039820760102051288 -0.035120325564102245 0 0.040229567566581921 -0.035484770459870391 0 0.039477779966072185 -0.035539329875263717 0 0.040229567566581921 -0.035484770459870391 0 0.040036292707072554 -0.035632056996000548 0 0.039477779966072185 -0.035539329875263717 0 0.040868150887380196 -0.035757330995414296 0 0.040229567566581921 -0.035484770459870391 0 0.040036292707072554 -0.035632056996000548 0 0.038309449543010264 -0.035524767765990596 0 0.039477779966072185 -0.035539329875263717 0 0.038993394162507779 -0.036513372044959982 0 0.040036292707072554 -0.035632056996000548 0 0.039477779966072185 -0.035539329875263717 0 0.038993394162507779 -0.036513372044959982 0 0.03821002253249501 -0.033868132498803716 0 0.039318204798213151 -0.035223160831687195 0 0.040360936081790852 -0.035237899893684553 0 0.038532254879571709 -0.035161376298781133 0 0.040080020957349069 -0.035243529382540488 0 0.03821002253249501 -0.033868132498803716 0 0.039318204798213151 -0.035223160831687195 0 0.037755238432673137 -0.035323415273232191 0 0.040036292707072554 -0.035632056996000548 0 0.038993394162507779 -0.036513372044959982 0 0.040360936081790852 -0.035237899893684553 0 0.040036292707072554 -0.035632056996000548 0 0.040360936081790852 -0.035237899893684553 0 0.041599435248573922 -0.034368241543574748 0 0.040360936081790852 -0.035237899893684553 0 0.040402546983598513 -0.035561699039423418 0 0.041105115278457192 -0.0351495564293779 0 0.039318204798213151 -0.035223160831687195 0 0.040360936081790852 -0.035237899893684553 0 0.040402546983598513 -0.035561699039423418 0 0.039318204798213151 -0.035223160831687195 0 0.039758503441871887 -0.035984278545545166 0 0.038898819714032348 -0.035929505700051476 0 0.039318204798213151 -0.035223160831687195 0 0.040402546983598513 -0.035561699039423418 0 0.039758503441871887 -0.035984278545545166 0 0.040402546983598513 -0.035561699039423418 0 0.039758503441871887 -0.035984278545545166 0 0.040625029383340179 -0.036300067395707465 0 0.040625029383340179 -0.036300067395707465 0 0.040018854888142538 -0.036822664985737635 0 0.04083592965799121 -0.037164785063094175 0 0.039758503441871887 -0.035984278545545166 0 0.040625029383340179 -0.036300067395707465 0 0.040018854888142538 -0.036822664985737635 0 0.040018854888142538 -0.036822664985737635 0 0.039203990397073896 -0.036487193336866688 0 0.039205943492447597 -0.037198257857638681 0 0.039758503441871887 -0.035984278545545166 0 0.040018854888142538 -0.036822664985737635 0 0.039203990397073896 -0.036487193336866688 0 0.039203990397073896 -0.036487193336866688 0 0.038357263640490344 -0.036654991747483004 0 0.038898819714032348 -0.035929505700051476 0 0.038357263640490344 -0.036654991747483004 0 0.037755238432673137 -0.035323415273232191 0 0.037005745219527798 -0.037113173595412177 0 0.039203990397073896 -0.036487193336866688 0 0.038357263640490344 -0.036654991747483004 0 0.039205943492447597 -0.037198257857638681 0 0.038357263640490344 -0.036654991747483004 0 0.037755238432673137 -0.035323415273232191 0 0.038898819714032348 -0.035929505700051476 0 0.039318204798213151 -0.035223160831687195 0 0.037755238432673137 -0.035323415273232191 0 0.038898819714032348 -0.035929505700051476 0 0.039758503441871887 -0.035984278545545166 0 0.039203990397073896 -0.036487193336866688 0 0.038898819714032348 -0.035929505700051476 0 0.043391913562301113 -0.035691110547599124 0 0.04155831623650847 -0.035508327082895502 0 0.042565603916217443 -0.03621595804498022 0 0.042737202851377595 -0.036954895030677642 0 0.041340477858221675 -0.03655742956852788 0 0.044159723324557129 -0.034287448898059548 0 0.042526735270924133 -0.035262394293728704 0 0.041599435248573922 -0.034368241543574748 0 0.044159723324557129 -0.034287448898059548 0 0.043819312027925918 -0.035611593554710393 0 0.042526735270924133 -0.035262394293728704 0 0.040360936081790852 -0.035237899893684553 0 0.041599435248573922 -0.034368241543574748 0 0.041105115278457192 -0.0351495564293779 0 0.042526735270924133 -0.035262394293728704 0 0.041105115278457192 -0.0351495564293779 0 0.041276602671381182 -0.035775739469725301 0 0.042526735270924133 -0.035262394293728704 0 0.041599435248573922 -0.034368241543574748 0 0.041105115278457192 -0.0351495564293779 0 0.040402546983598513 -0.035561699039423418 0 0.041105115278457192 -0.0351495564293779 0 0.041276602671381182 -0.035775739469725301 0 0.040402546983598513 -0.035561699039423418 0 0.040625029383340179 -0.036300067395707465 0 0.041276602671381182 -0.035775739469725301 0 0.040625029383340179 -0.036300067395707465 0 0.041276602671381182 -0.035775739469725301 0 0.041417846846164813 -0.036654053715318921 0 0.040625029383340179 -0.036300067395707465 0 0.041417846846164813 -0.036654053715318921 0 0.04083592965799121 -0.037164785063094175 0 0.041276602671381182 -0.035775739469725301 0 0.041417846846164813 -0.036654053715318921 0 0.042736446361040265 -0.036598743384472686 0 0.043819312027925918 -0.035611593554710393 0 0.044499722084402109 -0.036612783515237217 0 0.042736446361040265 -0.036598743384472686 0 0.042526735270924133 -0.035262394293728704 0 0.041276602671381182 -0.035775739469725301 0 0.042736446361040265 -0.036598743384472686 0 0.043819312027925918 -0.035611593554710393 0 0.042526735270924133 -0.035262394293728704 0 0.042736446361040265 -0.036598743384472686 0 0.044499722084402109 -0.036612783515237217 0 0.042736446361040265 -0.036598743384472686 0 0.04373163993856289 -0.037534640247872536 0 0.04373163993856289 -0.037534640247872536 0 0.042629721894207905 -0.037751171504340833 0 0.043294654630826539 -0.03878908792698512 0 0.042736446361040265 -0.036598743384472686 0 0.04373163993856289 -0.037534640247872536 0 0.042629721894207905 -0.037751171504340833 0 0.042736446361040265 -0.036598743384472686 0 0.042629721894207905 -0.037751171504340833 0 0.041685001364110026 -0.03746943845492072 0 0.042629721894207905 -0.037751171504340833 0 0.041685001364110026 -0.03746943845492072 0 0.041740550733323355 -0.038394652127595928 0 0.041417846846164813 -0.036654053715318921 0 0.042736446361040265 -0.036598743384472686 0 0.041685001364110026 -0.03746943845492072 0 0.041417846846164813 -0.036654053715318921 0 0.041685001364110026 -0.03746943845492072 0 0.04083592965799121 -0.037164785063094175 0 0.041685001364110026 -0.03746943845492072 0 0.04083592965799121 -0.037164785063094175 0 0.040895439957678352 -0.037980108989896275 0 0.041685001364110026 -0.03746943845492072 0 0.040895439957678352 -0.037980108989896275 0 0.041740550733323355 -0.038394652127595928 0 0.041703350675045374 -0.039028962992883297 0 0.043294654630826539 -0.03878908792698512 0 0.041229063163047162 -0.039968193804887364 0 0.040895439957678352 -0.037980108989896275 0 0.041740550733323355 -0.038394652127595928 0 0.040603857881432524 -0.038973935245012595 0 0.041703350675045374 -0.039028962992883297 0 0.041740550733323355 -0.038394652127595928 0 0.040603857881432524 -0.038973935245012595 0 0.041703350675045374 -0.039028962992883297 0 0.040603857881432524 -0.038973935245012595 0 0.041229063163047162 -0.039968193804887364 0 0.041578369602358958 -0.019227216284841066 0 0.041715349421769847 -0.018318443020785943 0 0.039662779193485584 -0.019633505778670068 0 0.042589248899490416 -0.028469440554205167 0 0.040322056872023324 -0.030367320783754551 0 0.042629721894207905 -0.037751171504340833 0 0.041740550733323355 -0.038394652127595928 0 0.043294654630826539 -0.03878908792698512 0 0.041703350675045374 -0.039028962992883297 0 0.041740550733323355 -0.038394652127595928 0 0.043294654630826539 -0.03878908792698512 0 0.041578369602358958 -0.019227216284841066 0 0.041715349421769847 -0.018318443020785943 0 0.04274702308188235 -0.019438424944820891 0 0.038303178610398114 -0.038029604877091228 0 0.039205943492447597 -0.037198257857638681 0 0.039976680916558975 -0.037941642903116676 0 0.038357263640490344 -0.036654991747483004 0 0.038303178610398114 -0.038029604877091228 0 0.037005745219527798 -0.037113173595412177 0 0.038357263640490344 -0.036654991747483004 0 0.038303178610398114 -0.038029604877091228 0 0.039205943492447597 -0.037198257857638681 0 0.040018854888142538 -0.036822664985737635 0 0.039205943492447597 -0.037198257857638681 0 0.039976680916558975 -0.037941642903116676 0 0.040018854888142538 -0.036822664985737635 0 0.04083592965799121 -0.037164785063094175 0 0.039976680916558975 -0.037941642903116676 0 0.04083592965799121 -0.037164785063094175 0 0.040895439957678352 -0.037980108989896275 0 0.039976680916558975 -0.037941642903116676 0 0.038303178610398114 -0.038029604877091228 0 0.039976680916558975 -0.037941642903116676 0 0.039346615359404265 -0.038880944174372836 0 0.040895439957678352 -0.037980108989896275 0 0.039976680916558975 -0.037941642903116676 0 0.040603857881432524 -0.038973935245012595 0 0.039976680916558975 -0.037941642903116676 0 0.039346615359404265 -0.038880944174372836 0 0.040603857881432524 -0.038973935245012595 0 0.039346615359404265 -0.038880944174372836 0 0.040603857881432524 -0.038973935245012595 0 0.039982693189014012 -0.040083223650797389 0 0.039346615359404265 -0.038880944174372836 0 0.038746029832270747 -0.039997233059879449 0 0.039982693189014012 -0.040083223650797389 0 0.039346615359404265 -0.038880944174372836 0 0.037199141658260541 -0.039509894849407222 0 0.038746029832270747 -0.039997233059879449 0 0.038303178610398114 -0.038029604877091228 0 0.039346615359404265 -0.038880944174372836 0 0.037199141658260541 -0.039509894849407222 0 0.033550924534525413 -0.0355866809141583 0 0.032506058020406965 -0.033379947185407759 0 0.029576875932151032 -0.028973817388008836 0 0.030093610861830374 -0.028937388209932427 0 0.029704644148543378 -0.029483730276245179 0 0.030093610861830374 -0.028937388209932427 0 0.029704644148543378 -0.029483730276245179 0 0.030086350387311729 -0.0298442207759625 0 0.038303178610398114 -0.038029604877091228 0 0.037199141658260541 -0.039509894849407222 0 0.037005745219527798 -0.037113173595412177 0 0.037199141658260541 -0.039509894849407222 0 0.035537058868089277 -0.037760682283422005 0 0.037005745219527798 -0.037113173595412177 0 0.035537058868089277 -0.037760682283422005 0 0.037005745219527798 -0.037113173595412177 0 0.035418494515241025 -0.036183378275434559 0 0.037755238432673137 -0.035323415273232191 0 0.037005745219527798 -0.037113173595412177 0 0.036098828183062613 -0.035450999204424301 0 0.037005745219527798 -0.037113173595412177 0 0.036098828183062613 -0.035450999204424301 0 0.035418494515241025 -0.036183378275434559 0 0.032506058020406965 -0.033379947185407759 0 0.03192797191859334 -0.033134414872152393 0 0.035537058868089277 -0.037760682283422005 0 0.035418494515241025 -0.036183378275434559 0 0.033431051583413501 -0.035539819495102369 0 0.029704644148543378 -0.029483730276245179 0 0.03021633053472246 -0.030694064867780736 0 0.030086350387311729 -0.0298442207759625 0 0.035418494515241025 -0.036183378275434559 0 0.034809466218010329 -0.034954694316791823 0 0.033431051583413501 -0.035539819495102369 0 0.036098828183062613 -0.035450999204424301 0 0.035418494515241025 -0.036183378275434559 0 0.034809466218010329 -0.034954694316791823 0 0.035457521459363907 -0.033060541208790026 0 0.036098828183062613 -0.035450999204424301 0 0.034809466218010329 -0.034954694316791823 0 0.034809466218010329 -0.034954694316791823 0 0.033444576869563362 -0.033757523788858622 0 0.033431051583413501 -0.035539819495102369 0 0.035457521459363907 -0.033060541208790026 0 0.034809466218010329 -0.034954694316791823 0 0.033444576869563362 -0.033757523788858622 0 0.035457521459363907 -0.033060541208790026 0 0.037755238432673137 -0.035323415273232191 0 0.036098828183062613 -0.035450999204424301 0 0.036075019703954166 -0.034880120116280194 0 0.038532254879571709 -0.035161376298781133 0 0.035457521459363907 -0.033060541208790026 0 0.03821002253249501 -0.033868132498803716 0 0.037755238432673137 -0.035323415273232191 0 0.032846393853572908 -0.030977770067066042 0 0.031916589432229719 -0.032625586487686833 0 0.03161397234488645 -0.031059671461664922 0 0.032846393853572908 -0.030977770067066042 0 0.032404494656502213 -0.032807767524708778 0 0.031916589432229719 -0.032625586487686833 0 0.032204756308606475 -0.032534973552040346 0 0.031916589432229719 -0.032625586487686833 0 0.033444576869563362 -0.033757523788858622 0 0.035457521459363907 -0.033060541208790026 0 0.032204756308606475 -0.032534973552040346 0 0.033444576869563362 -0.033757523788858622 0 0.031851672170470371 -0.032684704809943413 0 0.03192797191859334 -0.033134414872152393 0 0.031916589432229719 -0.032625586487686833 0 0.03021633053472246 -0.030694064867780736 0 0.03161397234488645 -0.031059671461664922 0 0.031916589432229719 -0.032625586487686833 0 0.033444576869563362 -0.033757523788858622 0 0.033431051583413501 -0.035539819495102369 0 0.03021633053472246 -0.030694064867780736 0 0.031364396384030768 -0.029961637138030007 0 0.030086350387311729 -0.0298442207759625 0 0.03021633053472246 -0.030694064867780736 0 0.031364396384030768 -0.029961637138030007 0 0.03161397234488645 -0.031059671461664922 0 0.032846393853572908 -0.030977770067066042 0 0.031364396384030768 -0.029961637138030007 0 0.03161397234488645 -0.031059671461664922 0 0.032846393853572908 -0.030977770067066042 0 0.032737025572632417 -0.028500838165666582 0 0.031364396384030768 -0.029961637138030007 0 0.032737025572632417 -0.028500838165666582 0 0.031364396384030768 -0.029961637138030007 0 0.03099723861049675 -0.028470370830975488 0 0.029836077823090813 -0.027179015083603666 0 0.030086350387311729 -0.0298442207759625 0 0.03099723861049675 -0.028470370830975488 0 0.031364396384030768 -0.029961637138030007 0 0.030086350387311729 -0.0298442207759625 0 0.03099723861049675 -0.028470370830975488 0 0.029816758715347644 -0.028607780021953085 0 0.030104567349289426 -0.029508994917855989 0 0.029836077823090813 -0.027179015083603666 0 0.03099723861049675 -0.028470370830975488 0 0.031278298461517327 -0.026886976414311693 0 0.032737025572632417 -0.028500838165666582 0 0.03099723861049675 -0.028470370830975488 0 0.031278298461517327 -0.026886976414311693 0 0.032737025572632417 -0.028500838165666582 0 0.031278298461517327 -0.026886976414311693 0 0.032164119630628568 -0.026174328921775673 0 0.031278298461517327 -0.026886976414311693 0 0.031268513212045448 -0.02560194457996649 0 0.032164119630628568 -0.026174328921775673 0 0.031278298461517327 -0.026886976414311693 0 0.030674983313680737 -0.02593928438398287 0 0.031268513212045448 -0.02560194457996649 0 0.029836077823090813 -0.027179015083603666 0 0.031278298461517327 -0.026886976414311693 0 0.030674983313680737 -0.02593928438398287 0 0.029836077823090813 -0.027179015083603666 0 0.030674983313680737 -0.02593928438398287 0 0.030060119119191309 -0.025136904989259502 0 0.030674983313680737 -0.02593928438398287 0 0.03078633002724443 -0.025065880684589998 0 0.030060119119191309 -0.025136904989259502 0 0.030674983313680737 -0.02593928438398287 0 0.03078633002724443 -0.025065880684589998 0 0.031268513212045448 -0.02560194457996649 0 0.030589951913783369 -0.024911670089080764 0 0.031445540792425924 -0.024554581018968964 0 0.031268513212045448 -0.02560194457996649 0 0.031076995627576494 -0.025059017829804596 0 0.030718053169130982 -0.025058583083728592 0 0.031268513212045448 -0.02560194457996649 0 0.032164119630628568 -0.026174328921775673 0 0.030718053169130982 -0.025058583083728592 0 0.03078633002724443 -0.025065880684589998 0 0.031268513212045448 -0.02560194457996649 0 0.031076995627576494 -0.025059017829804596 0 0.031076995627576494 -0.025059017829804596 0 0.031221274312109439 -0.024708543689649441 0 0.030718053169130982 -0.025058583083728592 0 0.03078633002724443 -0.025065880684589998 0 0.031076995627576494 -0.025059017829804596 0 0.031221274312109439 -0.024708543689649441 0 0.031221274312109439 -0.024708543689649441 0 0.031241089086478636 -0.024519246506639215 0 0.030718053169130982 -0.025058583083728592 0 0.03078633002724443 -0.025065880684589998 0 0.031221274312109439 -0.024708543689649441 0 0.031154669969058673 -0.024497480258367409 0 0.03078633002724443 -0.025065880684589998 0 0.031154669969058673 -0.024497480258367409 0 0.03069168961155886 -0.025069963928881597 0 0.031221274312109439 -0.024708543689649441 0 0.031624215656922881 -0.024211947962616252 0 0.031154669969058673 -0.024497480258367409 0 0.031624215656922881 -0.024211947962616252 0 0.031154669969058673 -0.024497480258367409 0 0.03241363889521811 -0.023702825364341162 0 0.031221274312109439 -0.024708543689649441 0 0.031624215656922881 -0.024211947962616252 0 0.031241089086478636 -0.024519246506639215 0 0.03425270304300046 -0.022093124371548957 0 0.035455194900964312 -0.022075278790871716 0 0.035515375366433545 -0.022857283465165256 0 0.03425270304300046 -0.022093124371548957 0 0.035515375366433545 -0.022857283465165256 0 0.034214677601717827 -0.02335452004241826 0 0.03425270304300046 -0.022093124371548957 0 0.03249659223002678 -0.02181412328940498 0 0.03241363889521811 -0.023702825364341162 0 0.031883587865669187 -0.022759909126646626 0 0.032277333788729226 -0.023930852320778344 0 0.03425270304300046 -0.022093124371548957 0 0.03249659223002678 -0.02181412328940498 0 0.03356244383056986 -0.020837590468108812 0 0.031883587865669187 -0.022759909126646626 0 0.031445540792425924 -0.024554581018968964 0 0.03249659223002678 -0.02181412328940498 0 0.03356244383056986 -0.020837590468108812 0 0.032465033569298689 -0.019884410447016807 0 0.03425270304300046 -0.022093124371548957 0 0.034559738672058339 -0.020718306144749531 0 0.035542610626422722 -0.021161890095891308 0 0.03425270304300046 -0.022093124371548957 0 0.03356244383056986 -0.020837590468108812 0 0.034559738672058339 -0.020718306144749531 0 0.03425270304300046 -0.022093124371548957 0 0.035542610626422722 -0.021161890095891308 0 0.035455194900964312 -0.022075278790871716 0 0.034559738672058339 -0.020718306144749531 0 0.03535141045883225 -0.020104463836283355 0 0.035542610626422722 -0.021161890095891308 0 0.034559738672058339 -0.020718306144749531 0 0.034197742083173339 -0.01949839525015647 0 0.03535141045883225 -0.020104463836283355 0 0.031464749050317709 -0.023854143392207983 0 0.035887856967426753 -0.026649666847570596 0 0.03356244383056986 -0.020837590468108812 0 0.034559738672058339 -0.020718306144749531 0 0.034197742083173339 -0.01949839525015647 0 0.029726165161470398 -0.028457091572978169 0 0.03013239109982168 -0.028349625835392453 0 0.029902929715920793 -0.028672728537064804 0 0.031464749050317709 -0.023854143392207983 0 0.031445540792425924 -0.024554581018968964 0 0.03356244383056986 -0.020837590468108812 0 0.034197742083173339 -0.01949839525015647 0 0.032465033569298689 -0.019884410447016807 0 0.030093610861830374 -0.028937388209932427 0 0.03013239109982168 -0.028349625835392453 0 0.029902929715920793 -0.028672728537064804 0 0.029576875932151032 -0.028973817388008836 0 0.030093610861830374 -0.028937388209932427 0 0.029902929715920793 -0.028672728537064804 0 0.029816758715347644 -0.028607780021953085 0 0.031445540792425924 -0.024554581018968964 0 0.029576875932151032 -0.028973817388008836 0 0.029726165161470398 -0.028457091572978169 0 0.029399683858772861 -0.028552135509556598 0 0.029576875932151032 -0.028973817388008836 0 0.029726165161470398 -0.028457091572978169 0 0.029902929715920793 -0.028672728537064804 0 0.033550924534525413 -0.0355866809141583 0 0.035887856967426753 -0.026649666847570596 0 0.037199141658260541 -0.039509894849407222 0 0.038746029832270747 -0.039997233059879449 0 0.038613926335079547 -0.041153416710780238 0 0.039043223470230121 -0.04067047341651623 0 0.039323087074568941 -0.041047114650477855 0 0.038613926335079547 -0.041153416710780238 0 0.039043223470230121 -0.04067047341651623 0 0.038746029832270747 -0.039997233059879449 0 0.038613926335079547 -0.041153416710780238 0 0.039043223470230121 -0.04067047341651623 0 0.038746029832270747 -0.039997233059879449 0 0.039337136776778123 -0.040458058422483817 0 0.037555577261258154 -0.026279832242202896 0 0.039836782327376877 -0.019791532722471361 0 0.038746029832270747 -0.039997233059879449 0 0.039982693189014012 -0.040083223650797389 0 0.039337136776778123 -0.040458058422483817 0 0.037824072313488721 -0.020190919116705355 0 0.039473046317620254 -0.019742564668869967 0 0.038897058161950313 -0.020199416513242158 0 0.039982693189014012 -0.040083223650797389 0 0.039323087074568941 -0.041047114650477855 0 0.041229063163047162 -0.039968193804887364 0 0.037360755378726865 -0.021198409756924389 0 0.039662779193485584 -0.019633505778670068 0 0.039839457342687609 -0.020602934447618272 0 0.037555577261258154 -0.026279832242202896 0 0.040322056872023324 -0.030367320783754551 0 0.040603857881432524 -0.038973935245012595 0 0.039982693189014012 -0.040083223650797389 0 0.041229063163047162 -0.039968193804887364 0 0.039982693189014012 -0.040083223650797389 0 0.039337136776778123 -0.040458058422483817 0 0.039323087074568941 -0.041047114650477855 0 0.039043223470230121 -0.04067047341651623 0 0.039337136776778123 -0.040458058422483817 0 0.039323087074568941 -0.041047114650477855 0 0.03836176673386861 -0.020470879410649366 0 0.038705945283017358 -0.020718983019177309 0 0.038166189213455076 -0.021530016614049501 0 0.037824072313488721 -0.020190919116705355 0 0.03836176673386861 -0.020470879410649366 0 0.038166189213455076 -0.021530016614049501 0 0.037824072313488721 -0.020190919116705355 0 0.037389010385026532 -0.020283035369760966 0 0.038166189213455076 -0.021530016614049501 0 0.035887856967426753 -0.026649666847570596 0 0.037793889278259385 -0.018946198391207512 0 0.037824072313488721 -0.020190919116705355 0 0.03836176673386861 -0.020470879410649366 0 0.038897058161950313 -0.020199416513242158 0 0.03836176673386861 -0.020470879410649366 0 0.038705945283017358 -0.020718983019177309 0 0.038897058161950313 -0.020199416513242158 0 0.036359520115942484 -0.020455809581893358 0 0.036177004828299129 -0.01894817724823173 0 0.038166189213455076 -0.021530016614049501 0 0.034197742083173339 -0.01949839525015647 0 0.03535141045883225 -0.020104463836283355 0 0.036177004828299129 -0.01894817724823173 0 0.036359520115942484 -0.020455809581893358 0 0.03535141045883225 -0.020104463836283355 0 0.036177004828299129 -0.01894817724823173 0 0.037555577261258154 -0.026279832242202896 0 0.035887856967426753 -0.026649666847570596 0 0.041634610426178054 -0.019965528373595998 0 0.039836782327376877 -0.019791532722471361 0 0.041578369602358958 -0.019227216284841066 0 0.040845205235254596 -0.019838353643283495 0 0.039662779193485584 -0.019633505778670068 0 0.041968703286159918 -0.019893012525866831 0 0.039473046317620254 -0.019742564668869967 0 0.040567436640573593 -0.020291428859144523 0 0.041968703286159918 -0.019893012525866831 0 0.040845205235254596 -0.019838353643283495 0 0.039839457342687609 -0.020602934447618272 0 0.041726477101670635 -0.020377682981931239 0 0.041968703286159918 -0.019893012525866831 0 0.041154646815807577 -0.020440335336329277 0 0.041726477101670635 -0.020377682981931239 0 0.041968703286159918 -0.019893012525866831 0 0.042647813895907966 -0.020196889057725719 0 0.041578369602358958 -0.019227216284841066 0 0.041968703286159918 -0.019893012525866831 0 0.04274702308188235 -0.019438424944820891 0 0.041578369602358958 -0.019227216284841066 0 0.041968703286159918 -0.019893012525866831 0 0.040845205235254596 -0.019838353643283495 0 0.041968703286159918 -0.019893012525866831 0 0.041154646815807577 -0.020440335336329277 0 0.040567436640573593 -0.020291428859144523 0 0.040845205235254596 -0.019838353643283495 0 0.039662779193485584 -0.019633505778670068 0 0.039839457342687609 -0.020602934447618272 0 0.039473046317620254 -0.019742564668869967 0 0.038897058161950313 -0.020199416513242158 0 0.039542115558227606 -0.020535897423128155 0 0.038705945283017358 -0.020718983019177309 0 0.038897058161950313 -0.020199416513242158 0 0.039542115558227606 -0.020535897423128155 0 0.038705945283017358 -0.020718983019177309 0 0.0394741588693251 -0.021194182042417312 0 0.039542115558227606 -0.020535897423128155 0 0.038705945283017358 -0.020718983019177309 0 0.0394741588693251 -0.021194182042417312 0 0.038960202869734499 -0.021302830176443646 0 0.0394741588693251 -0.021194182042417312 0 0.040216688433760778 -0.020917296071849455 0 0.039542115558227606 -0.020535897423128155 0 0.0394741588693251 -0.021194182042417312 0 0.040216688433760778 -0.020917296071849455 0 0.040257162847541147 -0.02145725269783753 0 0.040216688433760778 -0.020917296071849455 0 0.039542115558227606 -0.020535897423128155 0 0.040567436640573593 -0.020291428859144523 0 0.039473046317620254 -0.019742564668869967 0 0.039542115558227606 -0.020535897423128155 0 0.040567436640573593 -0.020291428859144523 0 0.041726477101670635 -0.020377682981931239 0 0.041964649875145942 -0.021868588330932505 0 0.041675282259533701 -0.023287102168300558 0 0.041372451705742427 -0.021423085743093463 0 0.042457554868111751 -0.020352788650132157 0 0.041726477101670635 -0.020377682981931239 0 0.040843462055366875 -0.020962450327408434 0 0.040939078759303575 -0.02201160633305305 0 0.041154646815807577 -0.020440335336329277 0 0.040567436640573593 -0.020291428859144523 0 0.040843462055366875 -0.020962450327408434 0 0.040216688433760778 -0.020917296071849455 0 0.040567436640573593 -0.020291428859144523 0 0.040843462055366875 -0.020962450327408434 0 0.040216688433760778 -0.020917296071849455 0 0.040843462055366875 -0.020962450327408434 0 0.040257162847541147 -0.02145725269783753 0 0.041726477101670635 -0.020377682981931239 0 0.041154646815807577 -0.020440335336329277 0 0.040843462055366875 -0.020962450327408434 0 0.041726477101670635 -0.020377682981931239 0 0.041964649875145942 -0.021868588330932505 0 0.042577210153202982 -0.021108705465179844 0 0.040939078759303575 -0.02201160633305305 0 0.040257162847541147 -0.02145725269783753 0 0.039525972566592363 -0.021806882890961866 0 0.040843462055366875 -0.020962450327408434 0 0.040939078759303575 -0.02201160633305305 0 0.040257162847541147 -0.02145725269783753 0 0.049788016892139124 -0.017202195718719306 0 0.049621512114194306 -0.016115425546492135 0 0.049157214719475852 -0.017258112629879658 0 0.042457554868111751 -0.020352788650132157 0 0.046049497970369488 -0.019825463613754559 0 0.041964649875145942 -0.021868588330932505 0 0.041675282259533701 -0.023287102168300558 0 0.042609398690858565 -0.022875367019739558 0 0.040939078759303575 -0.02201160633305305 0 0.039525972566592363 -0.021806882890961866 0 0.038632812144607384 -0.022659663080146296 0 0.042457554868111751 -0.020352788650132157 0 0.037329033957511457 -0.022456810085302294 0 0.0394741588693251 -0.021194182042417312 0 0.040257162847541147 -0.02145725269783753 0 0.039525972566592363 -0.021806882890961866 0 0.039525972566592363 -0.021806882890961866 0 0.038960202869734499 -0.021302830176443646 0 0.038166189213455076 -0.021530016614049501 0 0.0394741588693251 -0.021194182042417312 0 0.039525972566592363 -0.021806882890961866 0 0.038960202869734499 -0.021302830176443646 0 0.039525972566592363 -0.021806882890961866 0 0.038166189213455076 -0.021530016614049501 0 0.038632812144607384 -0.022659663080146296 0 0.038151404986133335 -0.022253858273629801 0 0.0371790758643143 -0.02180005858995001 0 0.037510214468978897 -0.023104879795841284 0 0.039157757352675002 -0.020940987118710671 0 0.038151404986133335 -0.022253858273629801 0 0.0371790758643143 -0.02180005858995001 0 0.039157757352675002 -0.020940987118710671 0 0.038151404986133335 -0.022253858273629801 0 0.038913777662362897 -0.022978746672086357 0 0.042457554868111751 -0.020352788650132157 0 0.044800745257147993 -0.01913154664451152 0 0.049788016892139124 -0.017202195718719306 0 0.049621512114194306 -0.016115425546492135 0 0.049964344260716095 -0.015654233131381323 0 0.036646344877647341 -0.021934421497414338 0 0.035542610626422722 -0.021161890095891308 0 0.036667194968765568 -0.021197828553828152 0 0.036646344877647341 -0.021934421497414338 0 0.035542610626422722 -0.021161890095891308 0 0.035455194900964312 -0.022075278790871716 0 0.036359520115942484 -0.020455809581893358 0 0.03535141045883225 -0.020104463836283355 0 0.035542610626422722 -0.021161890095891308 0 0.036359520115942484 -0.020455809581893358 0 0.035542610626422722 -0.021161890095891308 0 0.036667194968765568 -0.021197828553828152 0 0.036359520115942484 -0.020455809581893358 0 0.036667194968765568 -0.021197828553828152 0 0.038166189213455076 -0.021530016614049501 0 0.036646344877647341 -0.021934421497414338 0 0.038166189213455076 -0.021530016614049501 0 0.038632812144607384 -0.022659663080146296 0 0.038705945283017358 -0.020718983019177309 0 0.038960202869734499 -0.021302830176443646 0 0.038166189213455076 -0.021530016614049501 0 0.036646344877647341 -0.021934421497414338 0 0.036667194968765568 -0.021197828553828152 0 0.038166189213455076 -0.021530016614049501 0 0.0371790758643143 -0.02180005858995001 0 0.035515375366433545 -0.022857283465165256 0 0.036468666392127175 -0.023140907143292797 0 0.036646344877647341 -0.021934421497414338 0 0.038632812144607384 -0.022659663080146296 0 0.035515375366433545 -0.022857283465165256 0 0.037329033957511457 -0.022456810085302294 0 0.035971704703228295 -0.022731318708307229 0 0.036646344877647341 -0.021934421497414338 0 0.035455194900964312 -0.022075278790871716 0 0.035515375366433545 -0.022857283465165256 0 0.035515375366433545 -0.022857283465165256 0 0.035342627422939976 -0.023637209799163332 0 0.034214677601717827 -0.02335452004241826 0 0.035515375366433545 -0.022857283465165256 0 0.035342627422939976 -0.023637209799163332 0 0.036468666392127175 -0.023140907143292797 0 0.0371790758643143 -0.02180005858995001 0 0.036468666392127175 -0.023140907143292797 0 0.037510214468978897 -0.023104879795841284 0 0.035342627422939976 -0.023637209799163332 0 0.036468666392127175 -0.023140907143292797 0 0.037019462376841686 -0.024354265408210549 0 0.036468666392127175 -0.023140907143292797 0 0.037019462376841686 -0.024354265408210549 0 0.037510214468978897 -0.023104879795841284 0 0.035857233110719117 -0.023701153543826649 0 0.034985656835542209 -0.024248393955855378 0 0.035342627422939976 -0.023637209799163332 0 0.035421893776323835 -0.023646893792075803 0 0.035553126882497531 -0.023627090794726656 0 0.035342627422939976 -0.023637209799163332 0 0.035553126882497531 -0.023627090794726656 0 0.034676373776682159 -0.02388951902884966 0 0.049621512114194306 -0.016115425546492135 0 0.049964344260716095 -0.015654233131381323 0 0.049418107941304162 -0.015653719338472975 0 0.038151404986133335 -0.022253858273629801 0 0.038913777662362897 -0.022978746672086357 0 0.038170407933116351 -0.023090637816763997 0 0.038913777662362897 -0.022978746672086357 0 0.038170407933116351 -0.023090637816763997 0 0.038091668924251629 -0.02389382957203148 0 0.038170407933116351 -0.023090637816763997 0 0.037510214468978897 -0.023104879795841284 0 0.038091668924251629 -0.02389382957203148 0 0.038151404986133335 -0.022253858273629801 0 0.038170407933116351 -0.023090637816763997 0 0.037510214468978897 -0.023104879795841284 0 0.034985656835542209 -0.024248393955855378 0 0.043560816900345023 -0.019172719239797936 0 0.037019462376841686 -0.024354265408210549 0 0.037510214468978897 -0.023104879795841284 0 0.038091668924251629 -0.02389382957203148 0 0.037019462376841686 -0.024354265408210549 0 0.038091668924251629 -0.02389382957203148 0 0.038726609559052334 -0.024910526588867239 0 0.049964344260716095 -0.015654233131381323 0 0.050059377120341579 -0.014478689092682297 0 0.049261351366653917 -0.015036206174494728 0 0.044800745257147993 -0.01913154664451152 0 0.043560816900345023 -0.019172719239797936 0 0.038913777662362897 -0.022978746672086357 0 0.038091668924251629 -0.02389382957203148 0 0.038726609559052334 -0.024910526588867239 0 0.043560816900345023 -0.019172719239797936 0 0.042373866474690394 -0.017744881323996091 0 0.035421893776323835 -0.023646893792075803 0 0.034737682396904952 -0.023242048653917994 0 0.035460452986665419 -0.023157552505809781 0 0.034737682396904952 -0.023242048653917994 0 0.034457433769664793 -0.022228886401699826 0 0.035460452986665419 -0.023157552505809781 0 0.035358398236188131 -0.022396069071357178 0 0.034457433769664793 -0.022228886401699826 0 0.035460452986665419 -0.023157552505809781 0 0.050396600316189026 -0.015148980884454289 0 0.05059196691901343 -0.013288934676768151 0 0.049517322444880538 -0.013119748481747422 0 0.035347562763897125 -0.023726640274836841 0 0.035553126882497531 -0.023627090794726656 0 0.034676373776682159 -0.02388951902884966 0 0.035704202034947403 -0.023483349934771129 0 0.035347562763897125 -0.023726640274836841 0 0.035553126882497531 -0.023627090794726656 0 0.035704202034947403 -0.023483349934771129 0 0.035347562763897125 -0.023726640274836841 0 0.035835628919391689 -0.02358764324392891 0 0.035704202034947403 -0.023483349934771129 0 0.035553126882497531 -0.023627090794726656 0 0.035460452986665419 -0.023157552505809781 0 0.035421893776323835 -0.023646893792075803 0 0.035553126882497531 -0.023627090794726656 0 0.035460452986665419 -0.023157552505809781 0 0.035704202034947403 -0.023483349934771129 0 0.035460452986665419 -0.023157552505809781 0 0.03585948098167565 -0.023177286383084719 0 0.035358398236188131 -0.022396069071357178 0 0.035460452986665419 -0.023157552505809781 0 0.035873652093812276 -0.022481299795716093 0 0.035460452986665419 -0.023157552505809781 0 0.03585948098167565 -0.023177286383084719 0 0.035873652093812276 -0.022481299795716093 0 0.03585948098167565 -0.023177286383084719 0 0.035873652093812276 -0.022481299795716093 0 0.036204478592959034 -0.0229915346804382 0 0.03585948098167565 -0.023177286383084719 0 0.036204478592959034 -0.0229915346804382 0 0.035835628919391689 -0.02358764324392891 0 0.035704202034947403 -0.023483349934771129 0 0.03585948098167565 -0.023177286383084719 0 0.035835628919391689 -0.02358764324392891 0 0.036204478592959034 -0.0229915346804382 0 0.035835628919391689 -0.02358764324392891 0 0.036147539446920729 -0.02309442857547022 0 0.036147539446920729 -0.02309442857547022 0 0.036326304017849878 -0.023098760075394246 0 0.036233424387301351 -0.023042056192739389 0 0.035347562763897125 -0.023726640274836841 0 0.035835628919391689 -0.02358764324392891 0 0.033912769074688029 -0.024827884212920492 0 0.035835628919391689 -0.02358764324392891 0 0.036147539446920729 -0.02309442857547022 0 0.036326304017849878 -0.023098760075394246 0 0.035689015377961049 -0.023676837384279219 0 0.035077343754051929 -0.023905179868813471 0 0.035347562763897125 -0.023726640274836841 0 0.034676373776682159 -0.02388951902884966 0 0.033912769074688029 -0.024827884212920492 0 0.034676373776682159 -0.02388951902884966 0 0.033416189217348735 -0.024287897206058926 0 0.033912769074688029 -0.024827884212920492 0 0.034676373776682159 -0.02388951902884966 0 0.033416189217348735 -0.024287897206058926 0 0.033577120033242813 -0.023894980005149474 0 0.035077343754051929 -0.023905179868813471 0 0.034286116016865376 -0.02377682296211486 0 0.033416189217348735 -0.024287897206058926 0 0.033912769074688029 -0.024827884212920492 0 0.032355392028722785 -0.024707495568337574 0 0.036326304017849878 -0.023098760075394246 0 0.036162163609507338 -0.022920390039845688 0 0.036211492030777261 -0.023018294344415362 0 0.036162163609507338 -0.022920390039845688 0 0.036073736997287324 -0.02298855542712502 0 0.036211492030777261 -0.023018294344415362 0 0.032355392028722785 -0.024707495568337574 0 0.031986508164444427 -0.024390189603844401 0 0.032260709970663576 -0.023838043348988248 0 0.036162163609507338 -0.022920390039845688 0 0.036073736997287324 -0.02298855542712502 0 0.035876936395707604 -0.02282428440174961 0 0.034286116016865376 -0.02377682296211486 0 0.034211400814728919 -0.023427562210493934 0 0.032355392028722785 -0.024707495568337574 0 0.031986508164444427 -0.024390189603844401 0 0.032515873126099229 -0.024195778728247023 0 0.033416189217348735 -0.024287897206058926 0 0.032355392028722785 -0.024707495568337574 0 0.032515873126099229 -0.024195778728247023 0 0.032515873126099229 -0.024195778728247023 0 0.031682247924292473 -0.024280564860382922 0 0.03241363889521811 -0.023702825364341162 0 0.031986508164444427 -0.024390189603844401 0 0.032515873126099229 -0.024195778728247023 0 0.031682247924292473 -0.024280564860382922 0 0.031624215656922881 -0.024211947962616252 0 0.031241089086478636 -0.024519246506639215 0 0.031682247924292473 -0.024280564860382922 0 0.031624215656922881 -0.024211947962616252 0 0.031682247924292473 -0.024280564860382922 0 0.03241363889521811 -0.023702825364341162 0 0.03425270304300046 -0.022093124371548957 0 0.03241363889521811 -0.023702825364341162 0 0.034214677601717827 -0.02335452004241826 0 0.03241363889521811 -0.023702825364341162 0 0.034214677601717827 -0.02335452004241826 0 0.033577120033242813 -0.023894980005149474 0 0.035342627422939976 -0.023637209799163332 0 0.034214677601717827 -0.02335452004241826 0 0.033577120033242813 -0.023894980005149474 0 0.035342627422939976 -0.023637209799163332 0 0.034676373776682159 -0.02388951902884966 0 0.033577120033242813 -0.023894980005149474 0 0.033416189217348735 -0.024287897206058926 0 0.032515873126099229 -0.024195778728247023 0 0.033577120033242813 -0.023894980005149474 0 0.032515873126099229 -0.024195778728247023 0 0.03241363889521811 -0.023702825364341162 0 0.033577120033242813 -0.023894980005149474 0 0.045879747182632387 -0.017827344595382742 0 0.045000043019551288 -0.019121741786310431 0 0.044999726001319525 -0.01650544422191488 0 0.045602012967250583 -0.016233405595269066 0 0.046303273660267513 -0.016325439804082287 0 0.046331094398392551 -0.015528130406675332 0 0.045602012967250583 -0.016233405595269066 0 0.046303273660267513 -0.016325439804082287 0 0.046234009198757177 -0.016960779356577516 0 0.046303273660267513 -0.016325439804082287 0 0.046234009198757177 -0.016960779356577516 0 0.046776967969201298 -0.016769320216382229 0 0.045716918234806572 -0.017012756821936745 0 0.045462953357466786 -0.018969354027049034 0 0.045879747182632387 -0.017827344595382742 0 0.045000043019551288 -0.019121741786310431 0 0.045680389809568206 -0.020382842099809593 0 0.045602012967250583 -0.016233405595269066 0 0.046234009198757177 -0.016960779356577516 0 0.04524414231774633 -0.017473457835030605 0 0.045000043019551288 -0.019121741786310431 0 0.045680389809568206 -0.020382842099809593 0 0.045000134726450487 -0.021737200441413383 0 0.044777168721801097 -0.021203912193063661 0 0.04524414231774633 -0.017473457835030605 0 0.046854100715868242 -0.020338448285398436 0 0.045523094399209957 -0.022956890961751381 0 0.045680389809568206 -0.020382842099809593 0 0.045000134726450487 -0.021737200441413383 0 0.045179315916535408 -0.022105514091805521 0 0.045462953357466786 -0.018969354027049034 0 0.048058512527614526 -0.019754611213575059 0 0.046786555037845318 -0.018005479298894678 0 0.049379878295990443 -0.021176713047863043 0 0.046854100715868242 -0.020338448285398436 0 0.046681351373555141 -0.017996558479169519 0 0.04524414231774633 -0.017473457835030605 0 0.046854100715868242 -0.020338448285398436 0 0.046681351373555141 -0.017996558479169519 0 0.046234009198757177 -0.016960779356577516 0 0.04524414231774633 -0.017473457835030605 0 0.046681351373555141 -0.017996558479169519 0 0.046234009198757177 -0.016960779356577516 0 0.046681351373555141 -0.017996558479169519 0 0.046750355739250217 -0.017368596601190382 0 0.046681351373555141 -0.017996558479169519 0 0.046750355739250217 -0.017368596601190382 0 0.0469391520020137 -0.017626880508991336 0 0.046750355739250217 -0.017368596601190382 0 0.0469391520020137 -0.017626880508991336 0 0.047136623084489834 -0.017088745911485112 0 0.046763332536072885 -0.01794357056804629 0 0.046681351373555141 -0.017996558479169519 0 0.0469391520020137 -0.017626880508991336 0 0.046763332536072885 -0.01794357056804629 0 0.0469391520020137 -0.017626880508991336 0 0.047057890102210988 -0.017795817980031953 0 0.0469391520020137 -0.017626880508991336 0 0.047240993110171249 -0.017285072591940759 0 0.047057890102210988 -0.017795817980031953 0 0.0469391520020137 -0.017626880508991336 0 0.047136623084489834 -0.017088745911485112 0 0.047240993110171249 -0.017285072591940759 0 0.047136623084489834 -0.017088745911485112 0 0.047787552756696265 -0.016353158032355816 0 0.047240993110171249 -0.017285072591940759 0 0.047136623084489834 -0.017088745911485112 0 0.046776967969201298 -0.016769320216382229 0 0.047082731434137229 -0.016047023135683295 0 0.046750355739250217 -0.017368596601190382 0 0.047136623084489834 -0.017088745911485112 0 0.046776967969201298 -0.016769320216382229 0 0.046234009198757177 -0.016960779356577516 0 0.046750355739250217 -0.017368596601190382 0 0.046776967969201298 -0.016769320216382229 0 0.046303273660267513 -0.016325439804082287 0 0.047082731434137229 -0.016047023135683295 0 0.046331094398392551 -0.015528130406675332 0 0.046303273660267513 -0.016325439804082287 0 0.046776967969201298 -0.016769320216382229 0 0.047082731434137229 -0.016047023135683295 0 0.047136623084489834 -0.017088745911485112 0 0.047082731434137229 -0.016047023135683295 0 0.047787552756696265 -0.016353158032355816 0 0.046869590532477516 -0.01644751460457388 0 0.047708889540702522 -0.016379561490618699 0 0.047492876771912447 -0.015614511363697485 0 0.046869590532477516 -0.01644751460457388 0 0.047708889540702522 -0.016379561490618699 0 0.047484200168133199 -0.017222249246299729 0 0.046869590532477516 -0.01644751460457388 0 0.047484200168133199 -0.017222249246299729 0 0.047240993110171249 -0.017285072591940759 0 0.047310214326692537 -0.016365293453980891 0 0.047275931610373217 -0.017169601145120318 0 0.047240993110171249 -0.017285072591940759 0 0.047057890102210988 -0.017795817980031953 0 0.047175745090469713 -0.017785376391923464 0 0.046871234992683301 -0.017853165113222384 0 0.047175745090469713 -0.017785376391923464 0 0.047360765542476153 -0.017677404498194219 0 0.047484200168133199 -0.017222249246299729 0 0.047240993110171249 -0.017285072591940759 0 0.047175745090469713 -0.017785376391923464 0 0.047484200168133199 -0.017222249246299729 0 0.047175745090469713 -0.017785376391923464 0 0.047360765542476153 -0.017677404498194219 0 0.047484200168133199 -0.017222249246299729 0 0.04768784286178452 -0.017429904906102234 0 0.047360765542476153 -0.017677404498194219 0 0.04768784286178452 -0.017429904906102234 0 0.047360765542476153 -0.017677404498194219 0 0.047446651404082503 -0.017800385214690358 0 0.046871234992683301 -0.017853165113222384 0 0.047360765542476153 -0.017677404498194219 0 0.047446651404082503 -0.017800385214690358 0 0.04381470995490036 -0.018557201008037788 0 0.04274702308188235 -0.019438424944820891 0 0.043905330318959108 -0.020158989809219322 0 0.04274702308188235 -0.019438424944820891 0 0.043905330318959108 -0.020158989809219322 0 0.042647813895907966 -0.020196889057725719 0 0.041968703286159918 -0.019893012525866831 0 0.04274702308188235 -0.019438424944820891 0 0.042647813895907966 -0.020196889057725719 0 0.041726477101670635 -0.020377682981931239 0 0.042647813895907966 -0.020196889057725719 0 0.042577210153202982 -0.021108705465179844 0 0.043905330318959108 -0.020158989809219322 0 0.042647813895907966 -0.020196889057725719 0 0.042577210153202982 -0.021108705465179844 0 0.045474402329763929 -0.019086914177141232 0 0.046607232738229649 -0.019295002101867499 0 0.04768784286178452 -0.017429904906102234 0 0.047446651404082503 -0.017800385214690358 0 0.047852225753842202 -0.017376702063278075 0 0.043905330318959108 -0.020158989809219322 0 0.042577210153202982 -0.021108705465179844 0 0.042814681074933976 -0.022629373697203029 0 0.041964649875145942 -0.021868588330932505 0 0.042577210153202982 -0.021108705465179844 0 0.042814681074933976 -0.022629373697203029 0 0.049788016892139124 -0.017202195718719306 0 0.049251361154340104 -0.017434578070517584 0 0.049157214719475852 -0.017258112629879658 0 0.041964649875145942 -0.021868588330932505 0 0.042814681074933976 -0.022629373697203029 0 0.04251859379084142 -0.022749890917128961 0 0.048475550567709656 -0.017076473298286071 0 0.046607232738229649 -0.019295002101867499 0 0.043552310705473322 -0.021394930395922079 0 0.046049497970369488 -0.019825463613754559 0 0.046607232738229649 -0.019295002101867499 0 0.047501092901475001 -0.017948296000421894 0 0.046961442315353374 -0.019465478254345397 0 0.047087392471386082 -0.019413084226912625 0 0.047019587959186669 -0.019292763033528455 0 0.046607232738229649 -0.019295002101867499 0 0.046049497970369488 -0.019825463613754559 0 0.046049497970369488 -0.019825463613754559 0 0.047501092901475001 -0.017948296000421894 0 0.048621968183520818 -0.017179228027901405 0 0.04867964124808085 -0.017008520291134525 0 0.048110784048713565 -0.016895565922586418 0 0.047708889540702522 -0.016379561490618699 0 0.047484200168133199 -0.017222249246299729 0 0.048110784048713565 -0.016895565922586418 0 0.047484200168133199 -0.017222249246299729 0 0.04768784286178452 -0.017429904906102234 0 0.048110784048713565 -0.016895565922586418 0 0.04768784286178452 -0.017429904906102234 0 0.048621968183520818 -0.017179228027901405 0 0.048110784048713565 -0.016895565922586418 0 0.047708889540702522 -0.016379561490618699 0 0.048110784048713565 -0.016895565922586418 0 0.048381493959140223 -0.016101465028541234 0 0.047708889540702522 -0.016379561490618699 0 0.048381493959140223 -0.016101465028541234 0 0.047972135423694072 -0.015792626191175291 0 0.049621512114194306 -0.016115425546492135 0 0.049333852029758291 -0.016922514842702713 0 0.048831058989865866 -0.015954130747726801 0 0.047501092901475001 -0.017948296000421894 0 0.048768980293867725 -0.015897855855661839 0 0.049879182827648166 -0.01575497420339721 0 0.047501092901475001 -0.017948296000421894 0 0.04867964124808085 -0.017008520291134525 0 0.048110784048713565 -0.016895565922586418 0 0.048381493959140223 -0.016101465028541234 0 0.049621512114194306 -0.016115425546492135 0 0.048831058989865866 -0.015954130747726801 0 0.049418107941304162 -0.015653719338472975 0 0.049964344260716095 -0.015654233131381323 0 0.049418107941304162 -0.015653719338472975 0 0.049261351366653917 -0.015036206174494728 0 0.048831058989865866 -0.015954130747726801 0 0.049418107941304162 -0.015653719338472975 0 0.049261351366653917 -0.015036206174494728 0 0.048768980293867725 -0.015897855855661839 0 0.048278685366833073 -0.014934170280321242 0 0.048381493959140223 -0.016101465028541234 0 0.048247969714773423 -0.01501351182883898 0 0.047972135423694072 -0.015792626191175291 0 0.048831058989865866 -0.015954130747726801 0 0.048366292423664185 -0.014895531230399734 0 0.049261351366653917 -0.015036206174494728 0 0.048366292423664185 -0.014895531230399734 0 0.049261351366653917 -0.015036206174494728 0 0.048988083279089073 -0.013943330170549835 0 0.050059377120341579 -0.014478689092682297 0 0.049261351366653917 -0.015036206174494728 0 0.048988083279089073 -0.013943330170549835 0 0.043560816900345023 -0.019172719239797936 0 0.051631122182960905 -0.013062683196384612 0 0.050396600316189026 -0.015148980884454289 0 0.049517322444880538 -0.013119748481747422 0 0.048988083279089073 -0.013943330170549835 0 0.049517322444880538 -0.013119748481747422 0 0.048512853997762943 -0.012849350679395776 0 0.048988083279089073 -0.013943330170549835 0 0.048512853997762943 -0.012849350679395776 0 0.048988083279089073 -0.013943330170549835 0 0.047909980487519099 -0.013678637999000775 0 0.048366292423664185 -0.014895531230399734 0 0.048988083279089073 -0.013943330170549835 0 0.047909980487519099 -0.013678637999000775 0 0.048278685366833073 -0.014934170280321242 0 0.04790094762772746 -0.0137708032817529 0 0.048512853997762943 -0.012849350679395776 0 0.047909980487519099 -0.013678637999000775 0 0.047856275151882191 -0.012710770378931702 0 0.047856275151882191 -0.012710770378931702 0 0.047344969908828805 -0.013115914841484675 0 0.047442601667604806 -0.012013571075077983 0 0.047909980487519099 -0.013678637999000775 0 0.047856275151882191 -0.012710770378931702 0 0.047344969908828805 -0.013115914841484675 0 0.047344969908828805 -0.013115914841484675 0 0.047391877093818709 -0.014541862139433355 0 0.046569401325544046 -0.013777756526032586 0 0.047909980487519099 -0.013678637999000775 0 0.047344969908828805 -0.013115914841484675 0 0.047391877093818709 -0.014541862139433355 0 0.047391877093818709 -0.014541862139433355 0 0.047492876771912447 -0.015614511363697485 0 0.04662281947228411 -0.015235236236663726 0 0.047391877093818709 -0.014541862139433355 0 0.04662281947228411 -0.015235236236663726 0 0.046569401325544046 -0.013777756526032586 0 0.048247969714773423 -0.01501351182883898 0 0.047391877093818709 -0.014541862139433355 0 0.047492876771912447 -0.015614511363697485 0 0.048247969714773423 -0.01501351182883898 0 0.047909980487519099 -0.013678637999000775 0 0.047391877093818709 -0.014541862139433355 0 0.048247969714773423 -0.01501351182883898 0 0.047492876771912447 -0.015614511363697485 0 0.047972135423694072 -0.015792626191175291 0 0.047708889540702522 -0.016379561490618699 0 0.047492876771912447 -0.015614511363697485 0 0.047972135423694072 -0.015792626191175291 0 0.046869590532477516 -0.01644751460457388 0 0.047492876771912447 -0.015614511363697485 0 0.04662281947228411 -0.015235236236663726 0 0.047310214326692537 -0.016365293453980891 0 0.047273920912853561 -0.015108195381539798 0 0.047082731434137229 -0.016047023135683295 0 0.047787552756696265 -0.016353158032355816 0 0.047934286801455568 -0.015008554461239084 0 0.047082731434137229 -0.016047023135683295 0 0.047934286801455568 -0.015008554461239084 0 0.046912273683036181 -0.014494497758712307 0 0.047082731434137229 -0.016047023135683295 0 0.046912273683036181 -0.014494497758712307 0 0.046331094398392551 -0.015528130406675332 0 0.047934286801455568 -0.015008554461239084 0 0.046912273683036181 -0.014494497758712307 0 0.047734024490778251 -0.01343533398834239 0 0.047273920912853561 -0.015108195381539798 0 0.047153021553254827 -0.013623698947446174 0 0.047734024490778251 -0.01343533398834239 0 0.046985159900059775 -0.01211798028195096 0 0.046721978403182186 -0.012266460241449801 0 0.047344969908828805 -0.013115914841484675 0 0.046569401325544046 -0.013777756526032586 0 0.046985159900059775 -0.01211798028195096 0 0.047153021553254827 -0.013623698947446174 0 0.046993583193491825 -0.012296630012045163 0 0.047344969908828805 -0.013115914841484675 0 0.046985159900059775 -0.01211798028195096 0 0.047442601667604806 -0.012013571075077983 0 0.046912273683036181 -0.014494497758712307 0 0.047734024490778251 -0.01343533398834239 0 0.046370505492230069 -0.013142325156953936 0 0.047734024490778251 -0.01343533398834239 0 0.046721978403182186 -0.012266460241449801 0 0.046370505492230069 -0.013142325156953936 0 0.046370505492230069 -0.013142325156953936 0 0.045779461792204088 -0.012898456141061401 0 0.04628183339465565 -0.014283439233148804 0 0.046370505492230069 -0.013142325156953936 0 0.046057062981148061 -0.011777175784275711 0 0.045779461792204088 -0.012898456141061401 0 0.046721978403182186 -0.012266460241449801 0 0.046370505492230069 -0.013142325156953936 0 0.046057062981148061 -0.011777175784275711 0 0.046057062981148061 -0.011777175784275711 0 0.044999518280184718 -0.011274812123872111 0 0.045779461792204088 -0.012898456141061401 0 0.044999658729838798 -0.0138901425896912 0 0.045779461792204088 -0.012898456141061401 0 0.04628183339465565 -0.014283439233148804 0 0.044999518280184718 -0.011274812123872111 0 0.044999658729838798 -0.0138901425896912 0 0.045779461792204088 -0.012898456141061401 0 0.044999658729838798 -0.0138901425896912 0 0.045753600522594605 -0.015047146245178148 0 0.04628183339465565 -0.014283439233148804 0 0.044999658729838798 -0.0138901425896912 0 0.045753600522594605 -0.015047146245178148 0 0.044999726001319525 -0.01650544422191488 0 0.045753600522594605 -0.015047146245178148 0 0.04628183339465565 -0.014283439233148804 0 0.046331094398392551 -0.015528130406675332 0 0.046912273683036181 -0.014494497758712307 0 0.046370505492230069 -0.013142325156953936 0 0.04628183339465565 -0.014283439233148804 0 0.046912273683036181 -0.014494497758712307 0 0.04628183339465565 -0.014283439233148804 0 0.046331094398392551 -0.015528130406675332 0 0.045602012967250583 -0.016233405595269066 0 0.045753600522594605 -0.015047146245178148 0 0.046331094398392551 -0.015528130406675332 0 0.045716918234806572 -0.017012756821936745 0 0.045771929558469378 -0.01516729251857462 0 0.045879747182632387 -0.017827344595382742 0 0.045753600522594605 -0.015047146245178148 0 0.044999726001319525 -0.01650544422191488 0 0.044999987546026111 -0.0069072356819742803 0 0.046585159479065934 -0.006613839762948822 0 0.044999996400729526 -0.0051554192652049488 0 0.04602684178340985 -0.0054473206295675789 0 0.045000322671469084 -0.0051555811846845127 0 0.045601030738750631 -0.004773355476735951 0 0.045375548115805825 -0.0046433448792572232 0 0.045412975517054116 -0.0044963167666426107 0 0.046585159479065934 -0.006613839762948822 0 0.046582868910564082 -0.0083326465593470001 0 0.048133190259827 -0.0080337526933457505 0 0.045601030738750631 -0.004773355476735951 0 0.045360460347138198 -0.0045565914225818823 0 0.045375548115805825 -0.0046433448792572232 0 0.046348819829042258 -0.0088894692522706598 0 0.046195597504246691 -0.0082139212969287931 0 0.04602684178340985 -0.0054473206295675789 0 0.046195597504246691 -0.0082139212969287931 0 0.044999987546026111 -0.0069072356819742803 0 0.046582868910564082 -0.0083326465593470001 0 0.044999977771825392 -0.0086589547385314478 0 0.044999987546026111 -0.0069072356819742803 0 0.046585159479065934 -0.006613839762948822 0 0.046582868910564082 -0.0083326465593470001 0 0.045921045652211688 -0.0095289342559824082 0 0.044999764313219039 -0.0086616164669510842 0 0.045797615867846454 -0.010410945625239554 0 0.046348819829042258 -0.0088894692522706598 0 0.045000009780102282 -0.0086593038035016629 0 0.046057062981148061 -0.011777175784275711 0 0.044999518280184718 -0.011274812123872111 0 0.045797615867846454 -0.010410945625239554 0 0.044999518280184718 -0.011274812123872111 0 0.044999764313219039 -0.0086616164669510842 0 0.045797615867846454 -0.010410945625239554 0 0.046721978403182186 -0.012266460241449801 0 0.046057062981148061 -0.011777175784275711 0 0.046494039492465791 -0.010967195539804117 0 0.046057062981148061 -0.011777175784275711 0 0.045797615867846454 -0.010410945625239554 0 0.046494039492465791 -0.010967195539804117 0 0.045921045652211688 -0.0095289342559824082 0 0.045797615867846454 -0.010410945625239554 0 0.046494039492465791 -0.010967195539804117 0 0.045921045652211688 -0.0095289342559824082 0 0.046494039492465791 -0.010967195539804117 0 0.046604322507067114 -0.0098817618244135905 0 0.046959830559158748 -0.011490520948204757 0 0.046195597504246691 -0.0082139212969287931 0 0.046494039492465791 -0.010967195539804117 0 0.046928133333268812 -0.011123109448568574 0 0.046604322507067114 -0.0098817618244135905 0 0.046985159900059775 -0.01211798028195096 0 0.046494039492465791 -0.010967195539804117 0 0.046928133333268812 -0.011123109448568574 0 0.046985159900059775 -0.01211798028195096 0 0.046721978403182186 -0.012266460241449801 0 0.046494039492465791 -0.010967195539804117 0 0.046985159900059775 -0.01211798028195096 0 0.046928133333268812 -0.011123109448568574 0 0.047442601667604806 -0.012013571075077983 0 0.046928133333268812 -0.011123109448568574 0 0.046408687673153565 -0.0096566456878384756 0 0.045379654832826938 -0.0099932380254152704 0 0.046928133333268812 -0.011123109448568574 0 0.046408687673153565 -0.0096566456878384756 0 0.047444603854057285 -0.010517280689991892 0 0.046408687673153565 -0.0096566456878384756 0 0.046414429152193501 -0.0090374091736304465 0 0.045379654832826938 -0.0099932380254152704 0 0.046408687673153565 -0.0096566456878384756 0 0.046414429152193501 -0.0090374091736304465 0 0.04577287361585268 -0.0050549142309329583 0 0.045195873272641914 -0.0047737308861464855 0 0.045271820081458629 -0.0047662668547570957 0 0.045419596081367426 -0.0048992030467093209 0 0.045195873272641914 -0.0047737308861464855 0 0.045271820081458629 -0.0047662668547570957 0 0.04523852749418384 -0.0047287194181018571 0 0.045195873272641914 -0.0047737308861464855 0 0.045264129054466223 -0.0046788483660700582 0 0.04523852749418384 -0.0047287194181018571 0 0.045195873272641914 -0.0047737308861464855 0 0.045264129054466223 -0.0046788483660700582 0 0.045360460347138198 -0.0045565914225818823 0 0.045794650629663418 -0.0066646592086040636 0 0.046195597504246691 -0.0082139212969287931 0 0.045264129054466223 -0.0046788483660700582 0 0.045360460347138198 -0.0045565914225818823 0 0.045375548115805825 -0.0046433448792572232 0 0.045264129054466223 -0.0046788483660700582 0 0.045293655674199337 -0.0045923904508987784 0 0.045375548115805825 -0.0046433448792572232 0 0.045293655674199337 -0.0045923904508987784 0 0.045375548115805825 -0.0046433448792572232 0 0.045412975517054116 -0.0044963167666426107 0 0.045293655674199337 -0.0045923904508987784 0 0.045185418108377381 -0.004499363465134085 0 0.045412975517054116 -0.0044963167666426107 0 0.045293655674199337 -0.0045923904508987784 0 0.045237130758896925 -0.0046644066270571227 0 0.045185418108377381 -0.004499363465134085 0 0.0452954415139281 -0.0045367323816203394 0 0.045237130758896925 -0.0046644066270571227 0 0.045185418108377381 -0.004499363465134085 0 0.0452954415139281 -0.0045367323816203394 0 0.045237130758896925 -0.0046644066270571227 0 0.045336751210988187 -0.004725081280848681 0 0.045271820081458629 -0.0047662668547570957 0 0.045237130758896925 -0.0046644066270571227 0 0.045336751210988187 -0.004725081280848681 0 0.045271820081458629 -0.0047662668547570957 0 0.045336751210988187 -0.004725081280848681 0 0.045419596081367426 -0.0048992030467093209 0 0.045271820081458629 -0.0047662668547570957 0 0.04523852749418384 -0.0047287194181018571 0 0.045237130758896925 -0.0046644066270571227 0 0.045264129054466223 -0.0046788483660700582 0 0.04523852749418384 -0.0047287194181018571 0 0.045237130758896925 -0.0046644066270571227 0 0.045264129054466223 -0.0046788483660700582 0 0.045293655674199337 -0.0045923904508987784 0 0.045237130758896925 -0.0046644066270571227 0 0.045642864233849216 -0.004704606786276655 0 0.04557749705933048 -0.0049315839644281604 0 0.045459063636878058 -0.0046802535243167806 0 0.045642864233849216 -0.004704606786276655 0 0.045721164758136118 -0.0049636782394729146 0 0.04557749705933048 -0.0049315839644281604 0 0.04557749705933048 -0.0049315839644281604 0 0.045443322495949519 -0.0048091747695802262 0 0.045419596081367426 -0.0048992030467093209 0 0.04557749705933048 -0.0049315839644281604 0 0.045443322495949519 -0.0048091747695802262 0 0.045459063636878058 -0.0046802535243167806 0 0.045443322495949519 -0.0048091747695802262 0 0.045336751210988187 -0.004725081280848681 0 0.045419596081367426 -0.0048992030467093209 0 0.045443322495949519 -0.0048091747695802262 0 0.045336751210988187 -0.004725081280848681 0 0.045459063636878058 -0.0046802535243167806 0 0.0452954415139281 -0.0045367323816203394 0 0.045336751210988187 -0.004725081280848681 0 0.045459063636878058 -0.0046802535243167806 0 0.0452954415139281 -0.0045367323816203394 0 0.045459063636878058 -0.0046802535243167806 0 0.045486851698190757 -0.0043826905612695949 0 0.045642864233849216 -0.004704606786276655 0 0.045736221185162657 -0.0045549360759430061 0 0.045486851698190757 -0.0043826905612695949 0 0.045642864233849216 -0.004704606786276655 0 0.045459063636878058 -0.0046802535243167806 0 0.045486851698190757 -0.0043826905612695949 0 0.045736221185162657 -0.0045549360759430061 0 0.04582826074903408 -0.0048196850321381296 0 0.046013831216936717 -0.0045183645977811219 0 0.045736221185162657 -0.0045549360759430061 0 0.046013831216936717 -0.0045183645977811219 0 0.045743076350128607 -0.0042800315953425159 0 0.045642864233849216 -0.004704606786276655 0 0.045736221185162657 -0.0045549360759430061 0 0.04582826074903408 -0.0048196850321381296 0 0.045642864233849216 -0.004704606786276655 0 0.045721164758136118 -0.0049636782394729146 0 0.04582826074903408 -0.0048196850321381296 0 0.045721164758136118 -0.0049636782394729146 0 0.04582826074903408 -0.0048196850321381296 0 0.045804067312067979 -0.0050337159097366274 0 0.04694358080716602 -0.0074426283599032094 0 0.048483076865364877 -0.0081500664635205632 0 0.048394323732864349 -0.0096590775171330519 0 0.048839338539061181 -0.0098668730456458915 0 0.050079664396311167 -0.0092950329373052872 0 0.04582826074903408 -0.0048196850321381296 0 0.045804067312067979 -0.0050337159097366274 0 0.04577287361585268 -0.0050549142309329583 0 0.048180428689678222 -0.01076507908519546 0 0.04836926442015127 -0.011264339504527678 0 0.048788069447270835 -0.011121454479084024 0 0.04582826074903408 -0.0048196850321381296 0 0.04577287361585268 -0.0050549142309329583 0 0.046187408404743002 -0.0046112577167959452 0 0.046408687673153565 -0.0096566456878384756 0 0.048394323732864349 -0.0096590775171330519 0 0.047444603854057285 -0.010517280689991892 0 0.046128672837330041 -0.0093324647452405207 0 0.04694358080716602 -0.0074426283599032094 0 0.045195873272641914 -0.0047737308861464855 0 0.045811422055212998 -0.0053711750345598122 0 0.045419596081367426 -0.0048992030467093209 0 0.048394323732864349 -0.0096590775171330519 0 0.048839338539061181 -0.0098668730456458915 0 0.047444603854057285 -0.010517280689991892 0 0.046414429152193501 -0.0090374091736304465 0 0.04577287361585268 -0.0050549142309329583 0 0.045811422055212998 -0.0053711750345598122 0 0.045794650629663418 -0.0066646592086040636 0 0.046219661523755527 -0.0057267591368996857 0 0.048566006339570908 -0.010408971473075051 0 0.047487469171260906 -0.010546141297956996 0 0.048180428689678222 -0.01076507908519546 0 0.047444603854057285 -0.010517280689991892 0 0.047948313281311106 -0.011082954625079454 0 0.04557749705933048 -0.0049315839644281604 0 0.045811422055212998 -0.0053711750345598122 0 0.045419596081367426 -0.0048992030467093209 0 0.045721164758136118 -0.0049636782394729146 0 0.045804067312067979 -0.0050337159097366274 0 0.045811422055212998 -0.0053711750345598122 0 0.045721164758136118 -0.0049636782394729146 0 0.04557749705933048 -0.0049315839644281604 0 0.045811422055212998 -0.0053711750345598122 0 0.045804067312067979 -0.0050337159097366274 0 0.04577287361585268 -0.0050549142309329583 0 0.045811422055212998 -0.0053711750345598122 0 0.047444603854057285 -0.010517280689991892 0 0.0475923726909585 -0.011311099360952018 0 0.047948313281311106 -0.011082954625079454 0 0.0475923726909585 -0.011311099360952018 0 0.048097731452771179 -0.011774619216923743 0 0.047948313281311106 -0.011082954625079454 0 0.046928133333268812 -0.011123109448568574 0 0.047444603854057285 -0.010517280689991892 0 0.0475923726909585 -0.011311099360952018 0 0.046928133333268812 -0.011123109448568574 0 0.0475923726909585 -0.011311099360952018 0 0.047442601667604806 -0.012013571075077983 0 0.0475923726909585 -0.011311099360952018 0 0.047442601667604806 -0.012013571075077983 0 0.048097731452771179 -0.011774619216923743 0 0.047856275151882191 -0.012710770378931702 0 0.047442601667604806 -0.012013571075077983 0 0.048097731452771179 -0.011774619216923743 0 0.048512853997762943 -0.012849350679395776 0 0.047856275151882191 -0.012710770378931702 0 0.048097731452771179 -0.011774619216923743 0 0.048097731452771179 -0.011774619216923743 0 0.04836926442015127 -0.011264339504527678 0 0.04893901379388374 -0.011927284089968179 0 0.048097731452771179 -0.011774619216923743 0 0.047948313281311106 -0.011082954625079454 0 0.04836926442015127 -0.011264339504527678 0 0.048180428689678222 -0.01076507908519546 0 0.047948313281311106 -0.011082954625079454 0 0.04836926442015127 -0.011264339504527678 0 0.04836926442015127 -0.011264339504527678 0 0.04893901379388374 -0.011927284089968179 0 0.048788069447270835 -0.011121454479084024 0 0.04893901379388374 -0.011927284089968179 0 0.049463519388394057 -0.011276701805871019 0 0.048788069447270835 -0.011121454479084024 0 0.048512853997762943 -0.012849350679395776 0 0.048097731452771179 -0.011774619216923743 0 0.04893901379388374 -0.011927284089968179 0 0.049517322444880538 -0.013119748481747422 0 0.048512853997762943 -0.012849350679395776 0 0.04893901379388374 -0.011927284089968179 0 0.049517322444880538 -0.013119748481747422 0 0.04893901379388374 -0.011927284089968179 0 0.049787374046947899 -0.012208708523357681 0 0.04893901379388374 -0.011927284089968179 0 0.049787374046947899 -0.012208708523357681 0 0.049463519388394057 -0.011276701805871019 0 0.049463519388394057 -0.011276701805871019 0 0.048937567615804006 -0.010533778752925797 0 0.049770820237524452 -0.010407221934053469 0 0.048566006339570908 -0.010408971473075051 0 0.048483076865364877 -0.0081500664635205632 0 0.048180428689678222 -0.01076507908519546 0 0.048788069447270835 -0.011121454479084024 0 0.048937567615804006 -0.010533778752925797 0 0.049463519388394057 -0.011276701805871019 0 0.048788069447270835 -0.011121454479084024 0 0.048937567615804006 -0.010533778752925797 0 0.046187408404743002 -0.0046112577167959452 0 0.046013831216936717 -0.0045183645977811219 0 0.046307953857306294 -0.0042849206438716385 0 0.04582826074903408 -0.0048196850321381296 0 0.046187408404743002 -0.0046112577167959452 0 0.046013831216936717 -0.0045183645977811219 0 0.048483076865364877 -0.0081500664635205632 0 0.046782086040000809 -0.0063360827252836758 0 0.048483076865364877 -0.0081500664635205632 0 0.049293101850467536 -0.0092154928940782043 0 0.049764469465447422 -0.0079094764343970118 0 0.046738706881459348 -0.0085384422726056067 0 0.04666609068851222 -0.0092812103579834326 0 0.046187408404743002 -0.0046112577167959452 0 0.046307953857306294 -0.0042849206438716385 0 0.046311683323466128 -0.0041471755719801433 0 0.046307953857306294 -0.0042849206438716385 0 0.046311683323466128 -0.0041471755719801433 0 0.046063470790140795 -0.0042959825949168825 0 0.046013831216936717 -0.0045183645977811219 0 0.046307953857306294 -0.0042849206438716385 0 0.045918158682989645 -0.0040523003975230266 0 0.046307953857306294 -0.0042849206438716385 0 0.045918158682989645 -0.0040523003975230266 0 0.046206136348550149 -0.0037901033226934583 0 0.045918158682989645 -0.0040523003975230266 0 0.046206136348550149 -0.0037901033226934583 0 0.045631503469977644 -0.0031375003649727609 0 0.046307953857306294 -0.0042849206438716385 0 0.046206136348550149 -0.0037901033226934583 0 0.046750439235711289 -0.0043776307034282926 0 0.046206136348550149 -0.0037901033226934583 0 0.046544620515230943 -0.0025865102940588539 0 0.046750439235711289 -0.0043776307034282926 0 0.047027261615128643 -0.0005800219575355076 0 0.046544620515230943 -0.0025865102940588539 0 0.045920351614693329 -0.0016319302835363977 0 0.045920351614693329 -0.0016319302835363977 0 0.045631503469977644 -0.0031375003649727609 0 0.045119134627848043 -0.001767583982865559 0 0.046544620515230943 -0.0025865102940588539 0 0.045920351614693329 -0.0016319302835363977 0 0.045631503469977644 -0.0031375003649727609 0 0.046206136348550149 -0.0037901033226934583 0 0.046544620515230943 -0.0025865102940588539 0 0.045631503469977644 -0.0031375003649727609 0 0.045631503469977644 -0.0031375003649727609 0 0.0452548239036751 -0.0031850398804381796 0 0.045119134627848043 -0.001767583982865559 0 0.045631503469977644 -0.0031375003649727609 0 0.0452548239036751 -0.0031850398804381796 0 0.045503614639072036 -0.0038556094323857963 0 0.048264390371489892 0.0032893384155779901 0 0.048963628458056241 0.003069904549719068 0 0.048276579768482049 0.0024833288154959251 0 0.047068714702378667 0.00066102308949303164 0 0.046633895886856347 -3.1316617800922531e-05 0 0.0452548239036751 -0.0031850398804381796 0 0.045119134627848043 -0.001767583982865559 0 0.044927245795357153 -0.0029764654988996913 0 0.0452548239036751 -0.0031850398804381796 0 0.044927245795357153 -0.0029764654988996913 0 0.045205680340801919 -0.0038196000201525483 0 0.044927245795357153 -0.0029764654988996913 0 0.045205680340801919 -0.0038196000201525483 0 0.045020239729802514 -0.0038749627814693094 0 0.0452548239036751 -0.0031850398804381796 0 0.045205680340801919 -0.0038196000201525483 0 0.045503614639072036 -0.0038556094323857963 0 0.045918158682989645 -0.0040523003975230266 0 0.045631503469977644 -0.0031375003649727609 0 0.045503614639072036 -0.0038556094323857963 0 0.045503614639072036 -0.0038556094323857963 0 0.045743076350128607 -0.0042800315953425159 0 0.045486851698190757 -0.0043826905612695949 0 0.046013831216936717 -0.0045183645977811219 0 0.045918158682989645 -0.0040523003975230266 0 0.045743076350128607 -0.0042800315953425159 0 0.045918158682989645 -0.0040523003975230266 0 0.045503614639072036 -0.0038556094323857963 0 0.045743076350128607 -0.0042800315953425159 0 0.045736221185162657 -0.0045549360759430061 0 0.045743076350128607 -0.0042800315953425159 0 0.045486851698190757 -0.0043826905612695949 0 0.045205680340801919 -0.0038196000201525483 0 0.045503614639072036 -0.0038556094323857963 0 0.045486851698190757 -0.0043826905612695949 0 0.045205680340801919 -0.0038196000201525483 0 0.045486851698190757 -0.0043826905612695949 0 0.045174055194556258 -0.004289195624704179 0 0.0452954415139281 -0.0045367323816203394 0 0.045486851698190757 -0.0043826905612695949 0 0.045174055194556258 -0.004289195624704179 0 0.045174055194556258 -0.004289195624704179 0 0.045185418108377381 -0.004499363465134085 0 0.045079336929314984 -0.0044234216261977094 0 0.0452954415139281 -0.0045367323816203394 0 0.045174055194556258 -0.004289195624704179 0 0.045185418108377381 -0.004499363465134085 0 0.045185418108377381 -0.004499363465134085 0 0.045412975517054116 -0.0044963167666426107 0 0.045079336929314984 -0.0044234216261977094 0 0.045412975517054116 -0.0044963167666426107 0 0.045079336929314984 -0.0044234216261977094 0 0.045504011018790022 -0.0047130003207615867 0 0.047424593672650409 -0.0037125964590037277 0 0.048613263357983577 -0.002853227561506928 0 0.046740942256137029 -0.001843816425766088 0 0.045036834196355034 -0.0050887787785604309 0 0.046384767187266161 -0.0022093198708769196 0 0.045079336929314984 -0.0044234216261977094 0 0.045504011018790022 -0.0047130003207615867 0 0.045099169017539457 -0.0049843714747389292 0 0.046335834728058162 -0.0042105583809486672 0 0.046384767187266161 -0.0022093198708769196 0 0.045079336929314984 -0.0044234216261977094 0 0.044735443019114564 -0.0037274883621377483 0 0.045020239729802514 -0.0038749627814693094 0 0.045174055194556258 -0.004289195624704179 0 0.045079336929314984 -0.0044234216261977094 0 0.045020239729802514 -0.0038749627814693094 0 0.045205680340801919 -0.0038196000201525483 0 0.045174055194556258 -0.004289195624704179 0 0.045020239729802514 -0.0038749627814693094 0 0.046633895886856347 -3.1316617800922531e-05 0 0.046384767187266161 -0.0022093198708769196 0 0.044927245795357153 -0.0029764654988996913 0 0.044735443019114564 -0.0037274883621377483 0 0.045020239729802514 -0.0038749627814693094 0 0.048276579768482049 0.0024833288154959251 0 0.0475181227530573 0.0018561227558382203 0 0.047551969088803991 0.0027357709492921117 0 0.048264390371489892 0.0032893384155779901 0 0.048276579768482049 0.0024833288154959251 0 0.047551969088803991 0.0027357709492921117 0 0.048636060865629153 -0.00073034732785148924 0 0.046740942256137029 -0.001843816425766088 0 0.047048939630944746 7.0240993382739557e-05 0 0.048613263357983577 -0.002853227561506928 0 0.048636060865629153 -0.00073034732785148924 0 0.046740942256137029 -0.001843816425766088 0 0.046384767187266161 -0.0022093198708769196 0 0.048225678265465477 0.0013499634853495479 0 0.044999763407905125 6.7855619595771858e-05 0 0.046740942256137029 -0.001843816425766088 0 0.047048939630944746 7.0240993382739557e-05 0 0.044999763407905125 6.7855619595771858e-05 0 0.046740942256137029 -0.001843816425766088 0 0.044999446934741408 -0.0025445290197513657 0 0.046740942256137029 -0.001843816425766088 0 0.044999446934741408 -0.0025445290197513657 0 0.046141550022058192 -0.0030923838736107785 0 0.044999446934741408 -0.0025445290197513657 0 0.046141550022058192 -0.0030923838736107785 0 0.045000241848793587 -0.0051536975636127169 0 0.047424593672650409 -0.0037125964590037277 0 0.046141550022058192 -0.0030923838736107785 0 0.045960887218641035 -0.0045345851246150785 0 0.047424593672650409 -0.0037125964590037277 0 0.046740942256137029 -0.001843816425766088 0 0.046141550022058192 -0.0030923838736107785 0 0.046335834728058162 -0.0042105583809486672 0 0.04608355084910478 -0.0044547525634297622 0 0.045412975517054116 -0.0044963167666426107 0 0.045504011018790022 -0.0047130003207615867 0 0.045960887218641035 -0.0045345851246150785 0 0.045601030738750631 -0.004773355476735951 0 0.045412975517054116 -0.0044963167666426107 0 0.045960887218641035 -0.0045345851246150785 0 0.045601030738750631 -0.004773355476735951 0 0.045960887218641035 -0.0045345851246150785 0 0.045000241848793587 -0.0051536975636127169 0 0.046141550022058192 -0.0030923838736107785 0 0.045960887218641035 -0.0045345851246150785 0 0.045000241848793587 -0.0051536975636127169 0 0.044592247889478832 0.00060481779659249532 0 0.048832827257385525 -0.0040569564799613073 0 0.044742425157508002 -0.0062146888322389317 0 0.044592247889478832 0.00060481779659249532 0 0.044742425157508002 -0.0062146888322389317 0 0.041114302009298408 -0.0042611553180844832 0 0.040016675364361667 -0.01476347656803733 0 0.038625584994841665 -0.019728293399743035 0 0.044592247889478832 0.00060481779659249532 0 0.050717975873764476 -0.0037635882364478014 0 0.048832827257385525 -0.0040569564799613073 0 0.040016675364361667 -0.01476347656803733 0 0.046043108473698677 -0.0082551371249480286 0 0.043276709413050729 -0.015492371929136387 0 0.041292551750641421 -0.014220188209790121 0 0.041440940784253907 -0.016196513892239996 0 0.048832827257385525 -0.0040569564799613073 0 0.049875395710204488 -0.0043996175540690933 0 0.049677969664691568 -0.0045887986475034994 0 0.048832827257385525 -0.0040569564799613073 0 0.049677969664691568 -0.0045887986475034994 0 0.049885760275120226 -0.004874783681410734 0 0.050063815577988099 -0.0033565534600823684 0 0.042379176657358762 -0.010152771849810924 0 0.050717975873764476 -0.0037635882364478014 0 0.049875395710204488 -0.0043996175540690933 0 0.050446215137464522 -0.0043833666555326244 0 0.050717975873764476 -0.0037635882364478014 0 0.048832827257385525 -0.0040569564799613073 0 0.049875395710204488 -0.0043996175540690933 0 0.050132415602268901 -0.0045690815358943549 0 0.050556744598615554 -0.004614937438905225 0 0.050259956625913246 -0.004676793232578102 0 0.050446215137464522 -0.0043833666555326244 0 0.050132415602268901 -0.0045690815358943549 0 0.050556744598615554 -0.004614937438905225 0 0.049875395710204488 -0.0043996175540690933 0 0.050132415602268901 -0.0045690815358943549 0 0.049677969664691568 -0.0045887986475034994 0 0.049875395710204488 -0.0043996175540690933 0 0.050446215137464522 -0.0043833666555326244 0 0.050132415602268901 -0.0045690815358943549 0 0.050132415602268901 -0.0045690815358943549 0 0.050008340945805432 -0.0046764307987421979 0 0.050259956625913246 -0.004676793232578102 0 0.050132415602268901 -0.0045690815358943549 0 0.049677969664691568 -0.0045887986475034994 0 0.050008340945805432 -0.0046764307987421979 0 0.048832827257385525 -0.0040569564799613073 0 0.044793959218544649 -0.012481324695887417 0 0.044191372824053617 -0.010953113059739224 0 0.044742425157508002 -0.0062146888322389317 0 0.042194283622871497 -0.010033121677269361 0 0.044191372824053617 -0.010953113059739224 0 0.048832827257385525 -0.0040569564799613073 0 0.044742425157508002 -0.0062146888322389317 0 0.044191372824053617 -0.010953113059739224 0 0.044742425157508002 -0.0062146888322389317 0 0.041114302009298408 -0.0042611553180844832 0 0.042194283622871497 -0.010033121677269361 0 0.033202228144668403 -0.012553899666201938 0 0.033025934498678286 -0.012111916141124177 0 0.03385182493895561 -0.012811018582433536 0 0.041114302009298408 -0.0042611553180844832 0 0.034247023197075253 -0.0029852141923892373 0 0.042194283622871497 -0.010033121677269361 0 0.034692478913630115 -0.011527200525872387 0 0.035978452145961452 -0.010658558002281547 0 0.029728796221029537 -0.013189311899767384 0 0.035978452145961452 -0.010658558002281547 0 0.027921706443575622 -0.014684570081526595 0 0.025925019688917948 -0.013749780912838596 0 0.027963094516733455 -0.01294101867251468 0 0.027921706443575622 -0.014684570081526595 0 0.02949248489658703 -0.01427760403826697 0 0.027963094516733455 -0.01294101867251468 0 0.02949248489658703 -0.01427760403826697 0 0.029994029286340873 -0.015472809585292123 0 0.031056001613788378 -0.014256727596352655 0 0.033202228144668403 -0.012553899666201938 0 0.032564112558105388 -0.012296344795850407 0 0.033025934498678286 -0.012111916141124177 0 0.027921706443575622 -0.014684570081526595 0 0.02949248489658703 -0.01427760403826697 0 0.029806747264713163 -0.015545593289253864 0 0.029728796221029537 -0.013189311899767384 0 0.032000300275171374 -0.015247340057134379 0 0.02949248489658703 -0.01427760403826697 0 0.029806747264713163 -0.015545593289253864 0 0.029994029286340873 -0.015472809585292123 0 0.032000300275171374 -0.015247340057134379 0 0.031784548859119147 -0.015311588531821473 0 0.034095924249579357 -0.019316508690167402 0 0.034074934074988496 -0.019135949319634228 0 0.03389324451598439 -0.019035284543223792 0 0.034095924249579357 -0.019316508690167402 0 0.034222574708795223 -0.019267379643995282 0 0.034074934074988496 -0.019135949319634228 0 0.032000300275171374 -0.015247340057134379 0 0.034692478913630115 -0.011527200525872387 0 0.034095924249579357 -0.019316508690167402 0 0.034222574708795223 -0.019267379643995282 0 0.034253212432848526 -0.019278193556125256 0 0.036342361961701548 -0.017066500873267023 0 0.034692478913630115 -0.011527200525872387 0 0.034222574708795223 -0.019267379643995282 0 0.034645080244766736 -0.019664442987565218 0 0.034851444921859168 -0.019098530017076051 0 0.034222574708795223 -0.019267379643995282 0 0.034074934074988496 -0.019135949319634228 0 0.034284221962378895 -0.019017750803474506 0 0.034222574708795223 -0.019267379643995282 0 0.034851444921859168 -0.019098530017076051 0 0.034284221962378895 -0.019017750803474506 0 0.044592247889478832 0.00060481779659249532 0 0.041114302009298408 -0.0042611553180844832 0 0.034247023197075253 -0.0029852141923892373 0 0.040016675364361667 -0.01476347656803733 0 0.034692478913630115 -0.011527200525872387 0 0.036239565510393736 -0.019074202199545719 0 0.034645080244766736 -0.019664442987565218 0 0.034851444921859168 -0.019098530017076051 0 0.036239565510393736 -0.019074202199545719 0 0.034851444921859168 -0.019098530017076051 0 0.034570096040416574 -0.018659667637733572 0 0.040016675364361667 -0.01476347656803733 0 0.034929444530250292 -0.021668492093554311 0 0.034851444921859168 -0.019098530017076051 0 0.034570096040416574 -0.018659667637733572 0 0.034284221962378895 -0.019017750803474506 0 0.034570096040416574 -0.018659667637733572 0 0.034284221962378895 -0.019017750803474506 0 0.03397413604817115 -0.019027524031362972 0 0.034570096040416574 -0.018659667637733572 0 0.03397413604817115 -0.019027524031362972 0 0.033687794027330929 -0.019258301312783631 0 0.034074934074988496 -0.019135949319634228 0 0.034284221962378895 -0.019017750803474506 0 0.03397413604817115 -0.019027524031362972 0 0.036073736997287324 -0.02298855542712502 0 0.035866353635695368 -0.023037827149972726 0 0.035876936395707604 -0.02282428440174961 0 0.036169292234771888 -0.023077318593806188 0 0.036073736997287324 -0.02298855542712502 0 0.035866353635695368 -0.023037827149972726 0 0.034929444530250292 -0.021668492093554311 0 0.034989831423536594 -0.021060055300173536 0 0.036169292234771888 -0.023077318593806188 0 0.036211492030777261 -0.023018294344415362 0 0.036248174375475721 -0.023030117707335214 0 0.036169292234771888 -0.023077318593806188 0 0.036073736997287324 -0.02298855542712502 0 0.036211492030777261 -0.023018294344415362 0 0.036326304017849878 -0.023098760075394246 0 0.036211492030777261 -0.023018294344415362 0 0.036248174375475721 -0.023030117707335214 0 0.036326304017849878 -0.023098760075394246 0 0.036248174375475721 -0.023030117707335214 0 0.036233424387301351 -0.023042056192739389 0 0.036260792746558954 -0.022992492436054911 0 0.036169292234771888 -0.023077318593806188 0 0.036248174375475721 -0.023030117707335214 0 0.036260792746558954 -0.022992492436054911 0 0.036248174375475721 -0.023030117707335214 0 0.036234649328879147 -0.023012210649351914 0 0.036260792746558954 -0.022992492436054911 0 0.0362293156092902 -0.022984080850043786 0 0.036234649328879147 -0.023012210649351914 0 0.0362293156092902 -0.022984080850043786 0 0.036234649328879147 -0.023012210649351914 0 0.036189013149343058 -0.023026550182192216 0 0.036234649328879147 -0.023012210649351914 0 0.036189013149343058 -0.023026550182192216 0 0.036233424387301351 -0.023042056192739389 0 0.036248174375475721 -0.023030117707335214 0 0.036234649328879147 -0.023012210649351914 0 0.036233424387301351 -0.023042056192739389 0 0.036147539446920729 -0.02309442857547022 0 0.036189013149343058 -0.023026550182192216 0 0.036233424387301351 -0.023042056192739389 0 0.036204478592959034 -0.0229915346804382 0 0.036147539446920729 -0.02309442857547022 0 0.036189013149343058 -0.023026550182192216 0 0.036204478592959034 -0.0229915346804382 0 0.036641349354279901 -0.021598612040944102 0 0.037903754471988564 -0.020072467040651049 0 0.036292718417011469 -0.02327227860695023 0 0.037571960190359806 -0.020262520206075375 0 0.036204478592959034 -0.0229915346804382 0 0.036189013149343058 -0.023026550182192216 0 0.036202956695856256 -0.023004069179509309 0 0.035873652093812276 -0.022481299795716093 0 0.036641349354279901 -0.021598612040944102 0 0.036284058945915215 -0.02142493827663065 0 0.035873652093812276 -0.022481299795716093 0 0.036204478592959034 -0.0229915346804382 0 0.036641349354279901 -0.021598612040944102 0 0.035873652093812276 -0.022481299795716093 0 0.035588533947433991 -0.02156921275076621 0 0.036284058945915215 -0.02142493827663065 0 0.035358398236188131 -0.022396069071357178 0 0.035873652093812276 -0.022481299795716093 0 0.035588533947433991 -0.02156921275076621 0 0.035588533947433991 -0.02156921275076621 0 0.036284058945915215 -0.02142493827663065 0 0.036382845625434375 -0.020483788909590555 0 0.036641349354279901 -0.021598612040944102 0 0.036284058945915215 -0.02142493827663065 0 0.037020901364334904 -0.020770813601527993 0 0.036284058945915215 -0.02142493827663065 0 0.037020901364334904 -0.020770813601527993 0 0.036382845625434375 -0.020483788909590555 0 0.036382845625434375 -0.020483788909590555 0 0.037011882450451339 -0.018873077937437421 0 0.034226493292447521 -0.019587328555612012 0 0.037020901364334904 -0.020770813601527993 0 0.037063442337262199 -0.020073599952940925 0 0.036382845625434375 -0.020483788909590555 0 0.037020901364334904 -0.020770813601527993 0 0.037063442337262199 -0.020073599952940925 0 0.037903754471988564 -0.020072467040651049 0 0.037063442337262199 -0.020073599952940925 0 0.036382845625434375 -0.020483788909590555 0 0.037011882450451339 -0.018873077937437421 0 0.037063442337262199 -0.020073599952940925 0 0.037011882450451339 -0.018873077937437421 0 0.037903754471988564 -0.020072467040651049 0 0.038625584994841665 -0.019728293399743035 0 0.037571960190359806 -0.020262520206075375 0 0.0362293156092902 -0.022984080850043786 0 0.036189013149343058 -0.023026550182192216 0 0.036202956695856256 -0.023004069179509309 0 0.041440940784253907 -0.016196513892239996 0 0.039550566865303054 -0.016920197679212164 0 0.039407818990770088 -0.014919004222531878 0 0.036641349354279901 -0.021598612040944102 0 0.037020901364334904 -0.020770813601527993 0 0.037903754471988564 -0.020072467040651049 0 0.042373866474690394 -0.017744881323996091 0 0.042470462407390733 -0.01552036381147954 0 0.05059196691901343 -0.013288934676768151 0 0.049517322444880538 -0.013119748481747422 0 0.049787374046947899 -0.012208708523357681 0 0.05059196691901343 -0.013288934676768151 0 0.049787374046947899 -0.012208708523357681 0 0.050587675171833102 -0.011561840569286712 0 0.035358398236188131 -0.022396069071357178 0 0.034457433769664793 -0.022228886401699826 0 0.035588533947433991 -0.02156921275076621 0 0.034457433769664793 -0.022228886401699826 0 0.035588533947433991 -0.02156921275076621 0 0.034226493292447521 -0.019587328555612012 0 0.035588533947433991 -0.02156921275076621 0 0.036382845625434375 -0.020483788909590555 0 0.034226493292447521 -0.019587328555612012 0 0.049787374046947899 -0.012208708523357681 0 0.049463519388394057 -0.011276701805871019 0 0.050587675171833102 -0.011561840569286712 0 0.049770820237524452 -0.010407221934053469 0 0.050587675171833102 -0.011561840569286712 0 0.050591047811558917 -0.010280055693356238 0 0.049463519388394057 -0.011276701805871019 0 0.049770820237524452 -0.010407221934053469 0 0.050587675171833102 -0.011561840569286712 0 0.042470462407390733 -0.01552036381147954 0 0.042490879797481833 -0.012961891144993548 0 0.034226493292447521 -0.019587328555612012 0 0.035914087961934897 -0.017322279308627789 0 0.034664555778499535 -0.015292615393378579 0 0.037011882450451339 -0.018873077937437421 0 0.034226493292447521 -0.019587328555612012 0 0.035914087961934897 -0.017322279308627789 0 0.03635470322904568 -0.015970934850489019 0 0.034664555778499535 -0.015292615393378579 0 0.037089018706584986 -0.014836639436797389 0 0.035914087961934897 -0.017322279308627789 0 0.03635470322904568 -0.015970934850489019 0 0.034664555778499535 -0.015292615393378579 0 0.042490879797481833 -0.012961891144993548 0 0.035555793515923043 -0.014901857929976527 0 0.037516964565659616 -0.014548627836636073 0 0.037844457502422782 -0.014179743608644192 0 0.037089018706584986 -0.014836639436797389 0 0.037516964565659616 -0.014548627836636073 0 0.037844457502422782 -0.014179743608644192 0 0.037928900068574641 -0.014569052380106385 0 0.042490879797481833 -0.012961891144993548 0 0.042638297323968573 -0.0094000409527920537 0 0.046782086040000809 -0.0063360827252836758 0 0.042638297323968573 -0.0094000409527920537 0 0.046738706881459348 -0.0085384422726056067 0 0.043599097025161564 -0.0091714012207981446 0 0.04666609068851222 -0.0092812103579834326 0 0.043599097025161564 -0.0091714012207981446 0 0.04666609068851222 -0.0092812103579834326 0 0.043449085875613851 -0.010678010264307656 0 0.049293101850467536 -0.0092154928940782043 0 0.042490879797481833 -0.012961891144993548 0 0.037571960190359806 -0.020262520206075375 0 0.038824316882523836 -0.016458275274354017 0 0.041292551750641421 -0.014220188209790121 0 0.041440940784253907 -0.016196513892239996 0 0.039407818990770088 -0.014919004222531878 0 0.037011882450451339 -0.018873077937437421 0 0.038379416523290313 -0.017413577978872486 0 0.037377909712647407 -0.016318871652520408 0 0.037011882450451339 -0.018873077937437421 0 0.037903754471988564 -0.020072467040651049 0 0.038379416523290313 -0.017413577978872486 0 0.037011882450451339 -0.018873077937437421 0 0.035914087961934897 -0.017322279308627789 0 0.037377909712647407 -0.016318871652520408 0 0.037089018706584986 -0.014836639436797389 0 0.038245008061862651 -0.014955083949252377 0 0.037444968554236166 -0.014312189886814352 0 0.037377909712647407 -0.016318871652520408 0 0.037089018706584986 -0.014836639436797389 0 0.038245008061862651 -0.014955083949252377 0 0.038379416523290313 -0.017413577978872486 0 0.037377909712647407 -0.016318871652520408 0 0.038245008061862651 -0.014955083949252377 0 0.035914087961934897 -0.017322279308627789 0 0.03635470322904568 -0.015970934850489019 0 0.037377909712647407 -0.016318871652520408 0 0.03635470322904568 -0.015970934850489019 0 0.037377909712647407 -0.016318871652520408 0 0.037089018706584986 -0.014836639436797389 0 0.050446215137464522 -0.0043833666555326244 0 0.050791386282682913 -0.0046256968063433197 0 0.050556744598615554 -0.004614937438905225 0 0.046043108473698677 -0.0082551371249480286 0 0.044792071681204422 -0.0098898881919840514 0 0.038824316882523836 -0.016458275274354017 0 0.044792071681204422 -0.0098898881919840514 0 0.050717975873764476 -0.0037635882364478014 0 0.050446215137464522 -0.0043833666555326244 0 0.050791386282682913 -0.0046256968063433197 0 0.041292551750641421 -0.014220188209790121 0 0.039407818990770088 -0.014919004222531878 0 0.039277887997159484 -0.012921380457041743 0 0.050791386282682913 -0.0046256968063433197 0 0.050654254721230335 -0.0046988970883930824 0 0.050516817985979366 -0.0046855127371050343 0 0.050556744598615554 -0.004614937438905225 0 0.050505275864437732 -0.0047014077396681257 0 0.050654254721230335 -0.0046988970883930824 0 0.050505275864437732 -0.0047014077396681257 0 0.050693288691472049 -0.0046919432761263185 0 0.050654254721230335 -0.0046988970883930824 0 0.050505275864437732 -0.0047014077396681257 0 0.050693288691472049 -0.0046919432761263185 0 0.050463093383094751 -0.0047329110708063003 0 0.050693288691472049 -0.0046919432761263185 0 0.050698031936710318 -0.0046184282198022163 0 0.050654254721230335 -0.0046988970883930824 0 0.050698031936710318 -0.0046184282198022163 0 0.050654254721230335 -0.0046988970883930824 0 0.050516817985979366 -0.0046855127371050343 0 0.050791386282682913 -0.0046256968063433197 0 0.050556744598615554 -0.004614937438905225 0 0.050654254721230335 -0.0046988970883930824 0 0.044792071681204422 -0.0098898881919840514 0 0.044591006902721178 -0.0072498258582044317 0 0.050689858031219115 -0.0068293077846868153 0 0.050587081495774337 -0.0051035453020369329 0 0.050122518147821787 -0.0055703090606295117 0 0.050689858031219115 -0.0068293077846868153 0 0.049539110427692649 -0.0057195140911967699 0 0.050122518147821787 -0.0055703090606295117 0 0.044792071681204422 -0.0098898881919840514 0 0.050660801190003997 -0.0041248966192914691 0 0.050689858031219115 -0.0068293077846868153 0 0.049539110427692649 -0.0057195140911967699 0 0.049195016667476207 -0.0058667904131956446 0 0.046747728660989675 -0.0064098719247596891 0 0.044591006902721178 -0.0072498258582044317 0 0.049390179762985972 -0.0054224947972217339 0 0.049539110427692649 -0.0057195140911967699 0 0.049741181476930019 -0.0050963342255066673 0 0.049390179762985972 -0.0054224947972217339 0 0.049539110427692649 -0.0057195140911967699 0 0.049221141757363127 -0.0058969353743282002 0 0.049539110427692649 -0.0057195140911967699 0 0.049741181476930019 -0.0050963342255066673 0 0.050122518147821787 -0.0055703090606295117 0 0.049390179762985972 -0.0054224947972217339 0 0.049741181476930019 -0.0050963342255066673 0 0.049050599416761889 -0.0049727810439396843 0 0.049741181476930019 -0.0050963342255066673 0 0.050587081495774337 -0.0051035453020369329 0 0.050122518147821787 -0.0055703090606295117 0 0.050660801190003997 -0.0041248966192914691 0 0.05045584115766983 -0.0038760823663616128 0 0.049741181476930019 -0.0050963342255066673 0 0.050587081495774337 -0.0051035453020369329 0 0.049833517012218262 -0.004300580768043424 0 0.050587081495774337 -0.0051035453020369329 0 0.049833517012218262 -0.004300580768043424 0 0.050429801275544223 -0.0034665292613814585 0 0.049741181476930019 -0.0050963342255066673 0 0.049833517012218262 -0.004300580768043424 0 0.049050599416761889 -0.0049727810439396843 0 0.049833517012218262 -0.004300580768043424 0 0.050429801275544223 -0.0034665292613814585 0 0.049422040231129408 -0.0031686099374256347 0 0.050828295758932704 -0.0043547184630289629 0 0.051236538101972415 -0.0036669298115204361 0 0.050429801275544223 -0.0034665292613814585 0 0.050516817985979366 -0.0046855127371050343 0 0.050828295758932704 -0.0043547184630289629 0 0.050429801275544223 -0.0034665292613814585 0 0.050868429556041525 -0.0044558716887201965 0 0.051236538101972415 -0.0036669298115204361 0 0.050877622924667652 -0.0045736273057067241 0 0.050868429556041525 -0.0044558716887201965 0 0.050828295758932704 -0.0043547184630289629 0 0.051236538101972415 -0.0036669298115204361 0 0.051015950412139445 -0.003927955054370681 0 0.05010031613650881 -0.0068023135751180104 0 0.050693288691472049 -0.0046919432761263185 0 0.050698031936710318 -0.0046184282198022163 0 0.050828295758932704 -0.0043547184630289629 0 0.050693288691472049 -0.0046919432761263185 0 0.050868429556041525 -0.0044558716887201965 0 0.050828295758932704 -0.0043547184630289629 0 0.050693288691472049 -0.0046919432761263185 0 0.050868429556041525 -0.0044558716887201965 0 0.050667660150804372 -0.0047362199554231632 0 0.050698031936710318 -0.0046184282198022163 0 0.050516817985979366 -0.0046855127371050343 0 0.050828295758932704 -0.0043547184630289629 0 0.046311683323466128 -0.0041471755719801433 0 0.046063470790140795 -0.0042959825949168825 0 0.044939681588543466 -0.0041573565418466189 0 0.046307953857306294 -0.0042849206438716385 0 0.046063470790140795 -0.0042959825949168825 0 0.046750439235711289 -0.0043776307034282926 0 0.046063470790140795 -0.0042959825949168825 0 0.044854883771426275 -0.0043490677981977144 0 0.046750439235711289 -0.0043776307034282926 0 0.044591006902721178 -0.0072498258582044317 0 0.04721221132812968 -0.0039730173504493585 0 0.044854883771426275 -0.0043490677981977144 0 0.043819265853277355 -0.0048493647968629091 0 0.046750439235711289 -0.0043776307034282926 0 0.049221141757363127 -0.0058969353743282002 0 0.049050599416761889 -0.0049727810439396843 0 0.046750439235711289 -0.0043776307034282926 0 0.046063470790140795 -0.0042959825949168825 0 0.044939681588543466 -0.0041573565418466189 0 0.044854883771426275 -0.0043490677981977144 0 0.042638297323968573 -0.0094000409527920537 0 0.042756522763358763 -0.0087646606994412346 0 0.042638297323968573 -0.0094000409527920537 0 0.044591006902721178 -0.0072498258582044317 0 0.044767181213239617 -0.0041893545469935557 0 0.044854883771426275 -0.0043490677981977144 0 0.043819265853277355 -0.0048493647968629091 0 0.037516964565659616 -0.014548627836636073 0 0.037089018706584986 -0.014836639436797389 0 0.037444968554236166 -0.014312189886814352 0 0.037516964565659616 -0.014548627836636073 0 0.037928900068574641 -0.014569052380106385 0 0.037444968554236166 -0.014312189886814352 0 0.049390179762985972 -0.0054224947972217339 0 0.049221141757363127 -0.0058969353743282002 0 0.049050599416761889 -0.0049727810439396843 0 0.049050599416761889 -0.0049727810439396843 0 0.04860754679215263 -0.0039061180409469265 0 0.046750439235711289 -0.0043776307034282926 0 0.049833517012218262 -0.004300580768043424 0 0.049050599416761889 -0.0049727810439396843 0 0.04860754679215263 -0.0039061180409469265 0 0.049833517012218262 -0.004300580768043424 0 0.04860754679215263 -0.0039061180409469265 0 0.049422040231129408 -0.0031686099374256347 0 0.04860754679215263 -0.0039061180409469265 0 0.046750439235711289 -0.0043776307034282926 0 0.048013486970495511 -0.0028849118945803815 0 0.046544620515230943 -0.0025865102940588539 0 0.046750439235711289 -0.0043776307034282926 0 0.048013486970495511 -0.0028849118945803815 0 0.046544620515230943 -0.0025865102940588539 0 0.048013486970495511 -0.0028849118945803815 0 0.048314010746495231 -0.0014036070871367736 0 0.04860754679215263 -0.0039061180409469265 0 0.048013486970495511 -0.0028849118945803815 0 0.049422040231129408 -0.0031686099374256347 0 0.048013486970495511 -0.0028849118945803815 0 0.049422040231129408 -0.0031686099374256347 0 0.049526223070706372 -0.0019343063744453051 0 0.050305231849949929 -0.00026193399514350699 0 0.048314010746495231 -0.0014036070871367736 0 0.049526223070706372 -0.0019343063744453051 0 0.048013486970495511 -0.0028849118945803815 0 0.048314010746495231 -0.0014036070871367736 0 0.049526223070706372 -0.0019343063744453051 0 0.047027261615128643 -0.0005800219575355076 0 0.046544620515230943 -0.0025865102940588539 0 0.048314010746495231 -0.0014036070871367736 0 0.051137745669171036 -0.0025837099897196955 0 0.050315806455432696 -0.0025102959514837924 0 0.051113921051145712 -0.0013283199009101832 0 0.051137745669171036 -0.0025837099897196955 0 0.052046723047577875 -0.0028348592889689589 0 0.052130426610200072 -0.0019293048579411675 0 0.051137745669171036 -0.0025837099897196955 0 0.052046723047577875 -0.0028348592889689589 0 0.051236538101972415 -0.0036669298115204361 0 0.052046723047577875 -0.0028348592889689589 0 0.051236538101972415 -0.0036669298115204361 0 0.052979198997728599 -0.0036323914632637286 0 0.051137745669171036 -0.0025837099897196955 0 0.051236538101972415 -0.0036669298115204361 0 0.050429801275544223 -0.0034665292613814585 0 0.051137745669171036 -0.0025837099897196955 0 0.050429801275544223 -0.0034665292613814585 0 0.050315806455432696 -0.0025102959514837924 0 0.050429801275544223 -0.0034665292613814585 0 0.049422040231129408 -0.0031686099374256347 0 0.050315806455432696 -0.0025102959514837924 0 0.049422040231129408 -0.0031686099374256347 0 0.050315806455432696 -0.0025102959514837924 0 0.049526223070706372 -0.0019343063744453051 0 0.050305231849949929 -0.00026193399514350699 0 0.049526223070706372 -0.0019343063744453051 0 0.051113921051145712 -0.0013283199009101832 0 0.050315806455432696 -0.0025102959514837924 0 0.049526223070706372 -0.0019343063744453051 0 0.051113921051145712 -0.0013283199009101832 0 0.051901893688939396 0.00021262019617086111 0 0.050305231849949929 -0.00026193399514350699 0 0.051113921051145712 -0.0013283199009101832 0 0.051137745669171036 -0.0025837099897196955 0 0.051113921051145712 -0.0013283199009101832 0 0.052130426610200072 -0.0019293048579411675 0 0.051113921051145712 -0.0013283199009101832 0 0.052130426610200072 -0.0019293048579411675 0 0.052590396305282075 -0.00085133507653646547 0 0.051901893688939396 0.00021262019617086111 0 0.051113921051145712 -0.0013283199009101832 0 0.052590396305282075 -0.00085133507653646547 0 0.052844874744506574 0.00031383686613930666 0 0.052590396305282075 -0.00085133507653646547 0 0.053829593277970135 -0.0012707196773313937 0 0.053829593277970135 -0.0012707196773313937 0 0.052850127144443787 -0.0016311973012635766 0 0.052807172241128152 -0.002317033118048567 0 0.053829593277970135 -0.0012707196773313937 0 0.05362678898679854 -0.0018854912319024634 0 0.052807172241128152 -0.002317033118048567 0 0.050010389457786214 -0.0034383712555184046 0 0.050492641561743844 -0.0039193990020154144 0 0.052590396305282075 -0.00085133507653646547 0 0.053829593277970135 -0.0012707196773313937 0 0.052850127144443787 -0.0016311973012635766 0 0.052130426610200072 -0.0019293048579411675 0 0.052590396305282075 -0.00085133507653646547 0 0.052850127144443787 -0.0016311973012635766 0 0.046518914908893039 -0.0021740884037218721 0 0.045440709065787947 -0.0056444696458896812 0 0.047235102957355758 -0.0051774443330602311 0 0.049650077307001966 -0.00054375198721384071 0 0.050010389457786214 -0.0034383712555184046 0 0.048484498806881576 -0.0036875950430543983 0 0.047235102957355758 -0.0051774443330602311 0 0.048605142425385994 -0.0053486553840188453 0 0.045440709065787947 -0.0056444696458896812 0 0.045119440832426916 -0.0065254212738758092 0 0.047235102957355758 -0.0051774443330602311 0 0.045119440832426916 -0.0065254212738758092 0 0.047235102957355758 -0.0051774443330602311 0 0.046527052624202675 -0.0064914027028350431 0 0.047535909370213056 -0.0064936071687087061 0 0.048060146622535167 -0.0071095289700287426 0 0.048605142425385994 -0.0053486553840188453 0 0.047235102957355758 -0.0051774443330602311 0 0.047535909370213056 -0.0064936071687087061 0 0.048605142425385994 -0.0053486553840188453 0 0.047235102957355758 -0.0051774443330602311 0 0.046527052624202675 -0.0064914027028350431 0 0.047535909370213056 -0.0064936071687087061 0 0.047535909370213056 -0.0064936071687087061 0 0.048060146622535167 -0.0071095289700287426 0 0.046644164947346453 -0.0077475213058492013 0 0.045119440832426916 -0.0065254212738758092 0 0.046527052624202675 -0.0064914027028350431 0 0.045965943404510053 -0.0070038447348455546 0 0.046527052624202675 -0.0064914027028350431 0 0.047535909370213056 -0.0064936071687087061 0 0.046644164947346453 -0.0077475213058492013 0 0.046527052624202675 -0.0064914027028350431 0 0.046644164947346453 -0.0077475213058492013 0 0.045965943404510053 -0.0070038447348455546 0 0.046644164947346453 -0.0077475213058492013 0 0.045965943404510053 -0.0070038447348455546 0 0.045752611336187257 -0.0076818545937021119 0 0.046644164947346453 -0.0077475213058492013 0 0.045752611336187257 -0.0076818545937021119 0 0.045950560653683671 -0.0084499171703030125 0 0.045950560653683671 -0.0084499171703030125 0 0.046792599444815952 -0.0087602679813411702 0 0.045907845599716078 -0.0092190650277502971 0 0.046644164947346453 -0.0077475213058492013 0 0.045950560653683671 -0.0084499171703030125 0 0.046792599444815952 -0.0087602679813411702 0 0.048060146622535167 -0.0071095289700287426 0 0.046644164947346453 -0.0077475213058492013 0 0.046792599444815952 -0.0087602679813411702 0 0.048060146622535167 -0.0071095289700287426 0 0.046792599444815952 -0.0087602679813411702 0 0.048321858933705213 -0.0091220508278787495 0 0.053673038756139151 -0.0018491499631308288 0 0.052979198997728599 -0.0036323914632637286 0 0.052711025269276443 -0.0050007178205010499 0 0.050492641561743844 -0.0039193990020154144 0 0.05010031613650881 -0.0068023135751180104 0 0.045119440832426916 -0.0065254212738758092 0 0.045177916900214707 -0.0087333101033929463 0 0.044003470069155441 -0.010489079299574358 0 0.052046723047577875 -0.0028348592889689589 0 0.052130426610200072 -0.0019293048579411675 0 0.052807172241128152 -0.002317033118048567 0 0.052130426610200072 -0.0019293048579411675 0 0.052850127144443787 -0.0016311973012635766 0 0.052807172241128152 -0.002317033118048567 0 0.05362678898679854 -0.0018854912319024634 0 0.052807172241128152 -0.002317033118048567 0 0.052979198997728599 -0.0036323914632637286 0 0.050492641561743844 -0.0039193990020154144 0 0.05326203192662269 -0.0024817445859158728 0 0.045119440832426916 -0.0065254212738758092 0 0.045752611336187257 -0.0076818545937021119 0 0.045177916900214707 -0.0087333101033929463 0 0.045119440832426916 -0.0065254212738758092 0 0.045965943404510053 -0.0070038447348455546 0 0.045752611336187257 -0.0076818545937021119 0 0.045752611336187257 -0.0076818545937021119 0 0.045950560653683671 -0.0084499171703030125 0 0.045177916900214707 -0.0087333101033929463 0 0.045950560653683671 -0.0084499171703030125 0 0.045177916900214707 -0.0087333101033929463 0 0.045907845599716078 -0.0092190650277502971 0 0.052046723047577875 -0.0028348592889689589 0 0.052807172241128152 -0.002317033118048567 0 0.052979198997728599 -0.0036323914632637286 0 0.051236538101972415 -0.0036669298115204361 0 0.052979198997728599 -0.0036323914632637286 0 0.052711025269276443 -0.0050007178205010499 0 0.044003470069155441 -0.010489079299574358 0 0.045246862198974398 -0.010078227610824539 0 0.046376280772664778 -0.012718235914201952 0 0.050540147359576702 -0.0048562833568093272 0 0.050667660150804372 -0.0047362199554231632 0 0.050449171745492911 -0.0047534147273441624 0 0.050868429556041525 -0.0044558716887201965 0 0.050877622924667652 -0.0045736273057067241 0 0.050667660150804372 -0.0047362199554231632 0 0.05010031613650881 -0.0068023135751180104 0 0.050433387067078395 -0.0057369392101940886 0 0.045177916900214707 -0.0087333101033929463 0 0.044003470069155441 -0.010489079299574358 0 0.045246862198974398 -0.010078227610824539 0 0.045177916900214707 -0.0087333101033929463 0 0.045246862198974398 -0.010078227610824539 0 0.045907845599716078 -0.0092190650277502971 0 0.042379176657358762 -0.010152771849810924 0 0.03627171733816275 -0.010117712397492633 0 0.046367451870551094 -0.010063021813926022 0 0.046376280772664778 -0.012718235914201952 0 0.048321858933705213 -0.0091220508278787495 0 0.025074667219660562 -0.012954369957312665 0 0.026592496443458739 -0.012146366380612452 0 0.026541873879996358 -0.0094272135615454718 0 0.045246862198974398 -0.010078227610824539 0 0.046367451870551094 -0.010063021813926022 0 0.046376280772664778 -0.012718235914201952 0 0.046792599444815952 -0.0087602679813411702 0 0.045907845599716078 -0.0092190650277502971 0 0.046367451870551094 -0.010063021813926022 0 0.045246862198974398 -0.010078227610824539 0 0.045907845599716078 -0.0092190650277502971 0 0.046367451870551094 -0.010063021813926022 0 0.046792599444815952 -0.0087602679813411702 0 0.046367451870551094 -0.010063021813926022 0 0.048321858933705213 -0.0091220508278787495 0 0.025925019688917948 -0.013749780912838596 0 0.025074667219660562 -0.012954369957312665 0 0.026592496443458739 -0.012146366380612452 0 0.035978452145961452 -0.010658558002281547 0 0.042379176657358762 -0.010152771849810924 0 0.035978452145961452 -0.010658558002281547 0 0.040520199460918699 -0.011860660642084256 0 0.049885760275120226 -0.004874783681410734 0 0.049870699820576798 -0.0047494177757156511 0 0.050027515155082358 -0.0047945277138362998 0 0.042061073701378932 -0.0099977107544019211 0 0.044793959218544649 -0.012481324695887417 0 0.044191372824053617 -0.010953113059739224 0 0.050540147359576702 -0.0048562833568093272 0 0.049885760275120226 -0.004874783681410734 0 0.050183530777784494 -0.0048084276663099643 0 0.049677969664691568 -0.0045887986475034994 0 0.049887054838471598 -0.004716901296580916 0 0.049870699820576798 -0.0047494177757156511 0 0.049885760275120226 -0.004874783681410734 0 0.050027515155082358 -0.0047945277138362998 0 0.050183530777784494 -0.0048084276663099643 0 0.049677969664691568 -0.0045887986475034994 0 0.049885760275120226 -0.004874783681410734 0 0.049870699820576798 -0.0047494177757156511 0 0.05010031613650881 -0.0068023135751180104 0 0.042379176657358762 -0.010152771849810924 0 0.049887054838471598 -0.004716901296580916 0 0.049870699820576798 -0.0047494177757156511 0 0.050027515155082358 -0.0047945277138362998 0 0.049887054838471598 -0.004716901296580916 0 0.050027515155082358 -0.0047945277138362998 0 0.050122261257869595 -0.0047465035603601229 0 0.050027515155082358 -0.0047945277138362998 0 0.050122261257869595 -0.0047465035603601229 0 0.050183530777784494 -0.0048084276663099643 0 0.049677969664691568 -0.0045887986475034994 0 0.049887054838471598 -0.004716901296580916 0 0.050008340945805432 -0.0046764307987421979 0 0.049887054838471598 -0.004716901296580916 0 0.050122261257869595 -0.0047465035603601229 0 0.050008340945805432 -0.0046764307987421979 0 0.050122261257869595 -0.0047465035603601229 0 0.050008340945805432 -0.0046764307987421979 0 0.050259956625913246 -0.004676793232578102 0 0.050556744598615554 -0.004614937438905225 0 0.050505275864437732 -0.0047014077396681257 0 0.050259956625913246 -0.004676793232578102 0 0.050505275864437732 -0.0047014077396681257 0 0.050259956625913246 -0.004676793232578102 0 0.050328619819826059 -0.0047254948168069244 0 0.050505275864437732 -0.0047014077396681257 0 0.050328619819826059 -0.0047254948168069244 0 0.050463093383094751 -0.0047329110708063003 0 0.050122261257869595 -0.0047465035603601229 0 0.050328619819826059 -0.0047254948168069244 0 0.050304601010131733 -0.0047613699729045092 0 0.050122261257869595 -0.0047465035603601229 0 0.050259956625913246 -0.004676793232578102 0 0.050328619819826059 -0.0047254948168069244 0 0.050328619819826059 -0.0047254948168069244 0 0.050304601010131733 -0.0047613699729045092 0 0.050463093383094751 -0.0047329110708063003 0 0.050304601010131733 -0.0047613699729045092 0 0.050449171745492911 -0.0047534147273441624 0 0.050183530777784494 -0.0048084276663099643 0 0.050304601010131733 -0.0047613699729045092 0 0.050463093383094751 -0.0047329110708063003 0 0.050449171745492911 -0.0047534147273441624 0 0.050540147359576702 -0.0048562833568093272 0 0.050449171745492911 -0.0047534147273441624 0 0.050183530777784494 -0.0048084276663099643 0 0.050667660150804372 -0.0047362199554231632 0 0.050574111312159831 -0.0047291473255218599 0 0.050449171745492911 -0.0047534147273441624 0 0.050693288691472049 -0.0046919432761263185 0 0.050667660150804372 -0.0047362199554231632 0 0.050574111312159831 -0.0047291473255218599 0 0.050463093383094751 -0.0047329110708063003 0 0.050574111312159831 -0.0047291473255218599 0 0.050449171745492911 -0.0047534147273441624 0 0.050693288691472049 -0.0046919432761263185 0 0.050463093383094751 -0.0047329110708063003 0 0.050574111312159831 -0.0047291473255218599 0 0.050122261257869595 -0.0047465035603601229 0 0.050304601010131733 -0.0047613699729045092 0 0.050183530777784494 -0.0048084276663099643 0 0.029960813974869792 -0.012451930861716139 0 0.027963094516733455 -0.01294101867251468 0 0.028824805466276943 -0.011068414664149033 0 0.02949248489658703 -0.01427760403826697 0 0.029960813974869792 -0.012451930861716139 0 0.031056001613788378 -0.014256727596352655 0 0.02949248489658703 -0.01427760403826697 0 0.029960813974869792 -0.012451930861716139 0 0.027963094516733455 -0.01294101867251468 0 0.025925019688917948 -0.013749780912838596 0 0.027963094516733455 -0.01294101867251468 0 0.026592496443458739 -0.012146366380612452 0 0.027963094516733455 -0.01294101867251468 0 0.026592496443458739 -0.012146366380612452 0 0.027436746536855496 -0.01155767221572747 0 0.027963094516733455 -0.01294101867251468 0 0.027436746536855496 -0.01155767221572747 0 0.028824805466276943 -0.011068414664149033 0 0.026541873879996358 -0.0094272135615454718 0 0.028824805466276943 -0.011068414664149033 0 0.02879267371262649 -0.0090179338306019732 0 0.026592496443458739 -0.012146366380612452 0 0.027436746536855496 -0.01155767221572747 0 0.026541873879996358 -0.0094272135615454718 0 0.027436746536855496 -0.01155767221572747 0 0.026541873879996358 -0.0094272135615454718 0 0.028824805466276943 -0.011068414664149033 0 0.029960813974869792 -0.012451930861716139 0 0.028824805466276943 -0.011068414664149033 0 0.03053151107055779 -0.0097133817937157495 0 0.028824805466276943 -0.011068414664149033 0 0.03053151107055779 -0.0097133817937157495 0 0.02879267371262649 -0.0090179338306019732 0 0.03053151107055779 -0.0097133817937157495 0 0.02879267371262649 -0.0090179338306019732 0 0.029856335761822644 -0.0077196318459383743 0 0.02879267371262649 -0.0090179338306019732 0 0.029856335761822644 -0.0077196318459383743 0 0.028272916214818901 -0.0070168721329489092 0 0.029856335761822644 -0.0077196318459383743 0 0.028272916214818901 -0.0070168721329489092 0 0.029979481539217881 -0.0059801486912328498 0 0.026541873879996358 -0.0094272135615454718 0 0.028272916214818901 -0.0070168721329489092 0 0.028675106897180669 -0.0051570431063821644 0 0.048060146622535167 -0.0071095289700287426 0 0.048321858933705213 -0.0091220508278787495 0 0.050636830715161993 -0.0050932857088880276 0 0.03627171733816275 -0.010117712397492633 0 0.040452041982053745 -0.0047244525869578509 0 0.026541873879996358 -0.0094272135615454718 0 0.02879267371262649 -0.0090179338306019732 0 0.028272916214818901 -0.0070168721329489092 0 0.048060146622535167 -0.0071095289700287426 0 0.048605142425385994 -0.0053486553840188453 0 0.050636830715161993 -0.0050932857088880276 0 0.04974807546348041 -0.003770675656534488 0 0.048605142425385994 -0.0053486553840188453 0 0.050636830715161993 -0.0050932857088880276 0 0.048484498806881576 -0.0036875950430543983 0 0.04974807546348041 -0.003770675656534488 0 0.048605142425385994 -0.0053486553840188453 0 0.029799532161168051 -0.0042120500325280447 0 0.028443715762908928 -0.0065865520532684746 0 0.030048279000745508 -0.003347192614740392 0 0.028272916214818901 -0.0070168721329489092 0 0.028675106897180669 -0.0051570431063821644 0 0.029507798798750227 -0.0040162552956730666 0 0.028272916214818901 -0.0070168721329489092 0 0.029979481539217881 -0.0059801486912328498 0 0.029979481539217881 -0.0059801486912328498 0 0.031164913885737992 -0.0049022812953219358 0 0.03114928856883634 -0.0063143912976973658 0 0.029856335761822644 -0.0077196318459383743 0 0.029979481539217881 -0.0059801486912328498 0 0.03114928856883634 -0.0063143912976973658 0 0.029507798798750227 -0.0040162552956730666 0 0.029979481539217881 -0.0059801486912328498 0 0.031164913885737992 -0.0049022812953219358 0 0.032346842391838736 -0.0040873924668607172 0 0.031164913885737992 -0.0049022812953219358 0 0.032538449807101244 -0.0056443987844110501 0 0.031164913885737992 -0.0049022812953219358 0 0.03114928856883634 -0.0063143912976973658 0 0.032538449807101244 -0.0056443987844110501 0 0.032538449807101244 -0.0056443987844110501 0 0.03419597696377346 -0.0056355944301861183 0 0.032623017842132049 -0.007390390364325798 0 0.03114928856883634 -0.0063143912976973658 0 0.032538449807101244 -0.0056443987844110501 0 0.032623017842132049 -0.007390390364325798 0 0.032346842391838736 -0.0040873924668607172 0 0.033847861542729916 -0.0041359766333603125 0 0.032538449807101244 -0.0056443987844110501 0 0.033847861542729916 -0.0041359766333603125 0 0.032538449807101244 -0.0056443987844110501 0 0.03419597696377346 -0.0056355944301861183 0 0.033847861542729916 -0.0041359766333603125 0 0.034993121594715772 -0.004330622172002899 0 0.03419597696377346 -0.0056355944301861183 0 0.034993121594715772 -0.004330622172002899 0 0.03419597696377346 -0.0056355944301861183 0 0.035520190420941282 -0.005379336727568189 0 0.03419597696377346 -0.0056355944301861183 0 0.035029740429879504 -0.007050787847693812 0 0.035520190420941282 -0.005379336727568189 0 0.035029740429879504 -0.007050787847693812 0 0.032623017842132049 -0.007390390364325798 0 0.034815832615678416 -0.0094726059115419012 0 0.03419597696377346 -0.0056355944301861183 0 0.035029740429879504 -0.007050787847693812 0 0.032623017842132049 -0.007390390364325798 0 0.029856335761822644 -0.0077196318459383743 0 0.03114928856883634 -0.0063143912976973658 0 0.032623017842132049 -0.007390390364325798 0 0.03053151107055779 -0.0097133817937157495 0 0.029856335761822644 -0.0077196318459383743 0 0.032623017842132049 -0.007390390364325798 0 0.03053151107055779 -0.0097133817937157495 0 0.032623017842132049 -0.007390390364325798 0 0.034815832615678416 -0.0094726059115419012 0 0.037541519671791333 -0.0040161929247103916 0 0.037616548655430723 -0.0048231544120293035 0 0.039080693899393511 -0.005417269552985304 0 0.038201663627135576 -0.005822811371324235 0 0.037337366614661374 -0.005905195105072137 0 0.038065436277080193 -0.0066412796153718368 0 0.038201663627135576 -0.005822811371324235 0 0.038065436277080193 -0.0066412796153718368 0 0.038670312089023148 -0.0063629894692635866 0 0.038201663627135576 -0.005822811371324235 0 0.037616548655430723 -0.0048231544120293035 0 0.039080693899393511 -0.005417269552985304 0 0.038201663627135576 -0.005822811371324235 0 0.037616548655430723 -0.0048231544120293035 0 0.037337366614661374 -0.005905195105072137 0 0.037616548655430723 -0.0048231544120293035 0 0.037337366614661374 -0.005905195105072137 0 0.036729454735711278 -0.0047952116863165832 0 0.037337366614661374 -0.005905195105072137 0 0.036327872051890586 -0.0062351328310767838 0 0.036729454735711278 -0.0047952116863165832 0 0.037337366614661374 -0.005905195105072137 0 0.036327872051890586 -0.0062351328310767838 0 0.037250316342241109 -0.0069510894627531428 0 0.035939885785148076 -0.0041711308664777657 0 0.036729454735711278 -0.0047952116863165832 0 0.035520190420941282 -0.005379336727568189 0 0.036327872051890586 -0.0062351328310767838 0 0.036729454735711278 -0.0047952116863165832 0 0.035520190420941282 -0.005379336727568189 0 0.034993121594715772 -0.004330622172002899 0 0.035939885785148076 -0.0041711308664777657 0 0.035520190420941282 -0.005379336727568189 0 0.035029740429879504 -0.007050787847693812 0 0.036327872051890586 -0.0062351328310767838 0 0.035520190420941282 -0.005379336727568189 0 0.035029740429879504 -0.007050787847693812 0 0.036327872051890586 -0.0062351328310767838 0 0.036815006073996279 -0.0080134473781623 0 0.035029740429879504 -0.007050787847693812 0 0.036815006073996279 -0.0080134473781623 0 0.034815832615678416 -0.0094726059115419012 0 0.036327872051890586 -0.0062351328310767838 0 0.036815006073996279 -0.0080134473781623 0 0.037250316342241109 -0.0069510894627531428 0 0.036815006073996279 -0.0080134473781623 0 0.037250316342241109 -0.0069510894627531428 0 0.038315613586183239 -0.0077725558289747226 0 0.037337366614661374 -0.005905195105072137 0 0.037250316342241109 -0.0069510894627531428 0 0.038065436277080193 -0.0066412796153718368 0 0.038315613586183239 -0.0077725558289747226 0 0.038065436277080193 -0.0066412796153718368 0 0.03869047992691925 -0.0070599966682569739 0 0.037250316342241109 -0.0069510894627531428 0 0.038315613586183239 -0.0077725558289747226 0 0.038065436277080193 -0.0066412796153718368 0 0.038065436277080193 -0.0066412796153718368 0 0.03869047992691925 -0.0070599966682569739 0 0.038670312089023148 -0.0063629894692635866 0 0.036815006073996279 -0.0080134473781623 0 0.038315613586183239 -0.0077725558289747226 0 0.038124494333469913 -0.0091200436111952918 0 0.036900292999655873 -0.010828268510259904 0 0.033955136616533738 -0.010433605674995355 0 0.036815006073996279 -0.0080134473781623 0 0.038124494333469913 -0.0091200436111952918 0 0.034815832615678416 -0.0094726059115419012 0 0.035912201939052632 -0.012545126402834322 0 0.033316012002947815 -0.011494244354272794 0 0.034764779737510867 -0.014393031235956647 0 0.035912201939052632 -0.012545126402834322 0 0.034764779737510867 -0.014393031235956647 0 0.036744608293138657 -0.014390197670716146 0 0.03053151107055779 -0.0097133817937157495 0 0.033316012002947815 -0.011494244354272794 0 0.031617957206937435 -0.012307104502659443 0 0.030590508792867326 -0.009746249970105916 0 0.033955136616533738 -0.010433605674995355 0 0.029960813974869792 -0.012451930861716139 0 0.03053151107055779 -0.0097133817937157495 0 0.031617957206937435 -0.012307104502659443 0 0.033316012002947815 -0.011494244354272794 0 0.031617957206937435 -0.012307104502659443 0 0.032679092374703608 -0.014247945111800994 0 0.033316012002947815 -0.011494244354272794 0 0.032679092374703608 -0.014247945111800994 0 0.034764779737510867 -0.014393031235956647 0 0.029960813974869792 -0.012451930861716139 0 0.031617957206937435 -0.012307104502659443 0 0.031056001613788378 -0.014256727596352655 0 0.031617957206937435 -0.012307104502659443 0 0.031056001613788378 -0.014256727596352655 0 0.032679092374703608 -0.014247945111800994 0 0.029994029286340873 -0.015472809585292123 0 0.031056001613788378 -0.014256727596352655 0 0.03231441232172079 -0.016923458458885512 0 0.032000300275171374 -0.015247340057134379 0 0.033255254204857525 -0.018235468661696914 0 0.029825859913974614 -0.015527785958087724 0 0.029994029286340873 -0.015472809585292123 0 0.03231441232172079 -0.016923458458885512 0 0.034095924249579357 -0.019316508690167402 0 0.033882656188738473 -0.01888237712617221 0 0.03389324451598439 -0.019035284543223792 0 0.031056001613788378 -0.014256727596352655 0 0.03231441232172079 -0.016923458458885512 0 0.032679092374703608 -0.014247945111800994 0 0.03231441232172079 -0.016923458458885512 0 0.032679092374703608 -0.014247945111800994 0 0.034095073795413967 -0.016274421902824635 0 0.032679092374703608 -0.014247945111800994 0 0.034764779737510867 -0.014393031235956647 0 0.034095073795413967 -0.016274421902824635 0 0.034764779737510867 -0.014393031235956647 0 0.036197217863225606 -0.016364959265379436 0 0.034095073795413967 -0.016274421902824635 0 0.034764779737510867 -0.014393031235956647 0 0.036197217863225606 -0.016364959265379436 0 0.036744608293138657 -0.014390197670716146 0 0.036197217863225606 -0.016364959265379436 0 0.034717669200011569 -0.018535422452852435 0 0.036466810411590847 -0.018028572816087603 0 0.03231441232172079 -0.016923458458885512 0 0.034095073795413967 -0.016274421902824635 0 0.034717669200011569 -0.018535422452852435 0 0.036197217863225606 -0.016364959265379436 0 0.034095073795413967 -0.016274421902824635 0 0.034717669200011569 -0.018535422452852435 0 0.033255254204857525 -0.018235468661696914 0 0.034614031315734699 -0.018445600771967795 0 0.034717669200011569 -0.018535422452852435 0 0.035886215842653502 -0.01928210973546261 0 0.036466810411590847 -0.018028572816087603 0 0.034717669200011569 -0.018535422452852435 0 0.035886215842653502 -0.01928210973546261 0 0.035261090791937975 -0.020056855824281808 0 0.035886215842653502 -0.01928210973546261 0 0.036568069487629945 -0.019152531065369609 0 0.036552487026800015 -0.020609596358110643 0 0.035886215842653502 -0.01928210973546261 0 0.035261090791937975 -0.020056855824281808 0 0.036552487026800015 -0.020609596358110643 0 0.034717669200011569 -0.018535422452852435 0 0.035261090791937975 -0.020056855824281808 0 0.034268230270958842 -0.019939328624916056 0 0.034717669200011569 -0.018535422452852435 0 0.034268230270958842 -0.019939328624916056 0 0.033933386065552414 -0.019335712151829363 0 0.035261090791937975 -0.020056855824281808 0 0.034268230270958842 -0.019939328624916056 0 0.034346197887103067 -0.021050774305315004 0 0.034268230270958842 -0.019939328624916056 0 0.033933386065552414 -0.019335712151829363 0 0.033915401661259587 -0.020482919005364864 0 0.033933386065552414 -0.019335712151829363 0 0.033687794027330929 -0.019258301312783631 0 0.033915401661259587 -0.020482919005364864 0 0.033933386065552414 -0.019335712151829363 0 0.033687794027330929 -0.019258301312783631 0 0.033834619003060493 -0.019165343881552117 0 0.034989831423536594 -0.021060055300173536 0 0.034070038936816135 -0.021980431708712559 0 0.03397413604817115 -0.019027524031362972 0 0.033687794027330929 -0.019258301312783631 0 0.033834619003060493 -0.019165343881552117 0 0.033882656188738473 -0.01888237712617221 0 0.033834619003060493 -0.019165343881552117 0 0.03389324451598439 -0.019035284543223792 0 0.03397413604817115 -0.019027524031362972 0 0.033834619003060493 -0.019165343881552117 0 0.03389324451598439 -0.019035284543223792 0 0.034074934074988496 -0.019135949319634228 0 0.03397413604817115 -0.019027524031362972 0 0.03389324451598439 -0.019035284543223792 0 0.033882656188738473 -0.01888237712617221 0 0.034717669200011569 -0.018535422452852435 0 0.033933386065552414 -0.019335712151829363 0 0.033882656188738473 -0.01888237712617221 0 0.033933386065552414 -0.019335712151829363 0 0.033834619003060493 -0.019165343881552117 0 0.0367913586183461 -0.019981442777201031 0 0.036777633452380304 -0.020226977342162729 0 0.036760339732087498 -0.02043120524828268 0 0.03668669408986007 -0.020080823599146914 0 0.0367913586183461 -0.019981442777201031 0 0.036809314224978809 -0.019917247421488784 0 0.0367913586183461 -0.019981442777201031 0 0.036809314224978809 -0.019917247421488784 0 0.036831290329066735 -0.019732713763272434 0 0.03668669408986007 -0.020080823599146914 0 0.0367913586183461 -0.019981442777201031 0 0.036760339732087498 -0.02043120524828268 0 0.03668669408986007 -0.020080823599146914 0 0.036038056337576993 -0.020492779598046306 0 0.036760339732087498 -0.02043120524828268 0 0.036038056337576993 -0.020492779598046306 0 0.036316658263640077 -0.01998160926491975 0 0.035493582054875884 -0.02008369141410218 0 0.03668669408986007 -0.020080823599146914 0 0.036038056337576993 -0.020492779598046306 0 0.036316658263640077 -0.01998160926491975 0 0.036283297374842031 -0.019796431091696695 0 0.035556200261163504 -0.019439319468247465 0 0.036778902880278984 -0.019804394526149346 0 0.036316658263640077 -0.01998160926491975 0 0.036283297374842031 -0.019796431091696695 0 0.036692616583982478 -0.019916499570687505 0 0.03668669408986007 -0.020080823599146914 0 0.036316658263640077 -0.01998160926491975 0 0.036692616583982478 -0.019916499570687505 0 0.036316658263640077 -0.01998160926491975 0 0.036283297374842031 -0.019796431091696695 0 0.035903344849722713 -0.019804376822433658 0 0.036283297374842031 -0.019796431091696695 0 0.036692616583982478 -0.019916499570687505 0 0.036778902880278984 -0.019804394526149346 0 0.036692616583982478 -0.019916499570687505 0 0.036855695418727075 -0.020113943684438463 0 0.036778902880278984 -0.019804394526149346 0 0.03668669408986007 -0.020080823599146914 0 0.036692616583982478 -0.019916499570687505 0 0.036809314224978809 -0.019917247421488784 0 0.036809314224978809 -0.019917247421488784 0 0.036855695418727075 -0.020113943684438463 0 0.036795415730037098 -0.019985428509213969 0 0.036692616583982478 -0.019916499570687505 0 0.036809314224978809 -0.019917247421488784 0 0.036855695418727075 -0.020113943684438463 0 0.036795415730037098 -0.019985428509213969 0 0.036536060042757307 -0.020243265341020576 0 0.036831290329066735 -0.019732713763272434 0 0.036855695418727075 -0.020113943684438463 0 0.036795415730037098 -0.019985428509213969 0 0.036536060042757307 -0.020243265341020576 0 0.036536060042757307 -0.020243265341020576 0 0.036622300956745839 -0.019785793105217841 0 0.035983191873502393 -0.020155042208180648 0 0.036536060042757307 -0.020243265341020576 0 0.036622300956745839 -0.019785793105217841 0 0.036831290329066735 -0.019732713763272434 0 0.036622300956745839 -0.019785793105217841 0 0.037051930336310254 -0.019276399773996814 0 0.036855408812924359 -0.019574201144505449 0 0.036622300956745839 -0.019785793105217841 0 0.036831290329066735 -0.019732713763272434 0 0.036855408812924359 -0.019574201144505449 0 0.036809314224978809 -0.019917247421488784 0 0.036795415730037098 -0.019985428509213969 0 0.036831290329066735 -0.019732713763272434 0 0.037060474284521763 -0.019092802066306633 0 0.037051930336310254 -0.019276399773996814 0 0.034409516012225555 -0.020455574048611074 0 0.036622300956745839 -0.019785793105217841 0 0.035983191873502393 -0.020155042208180648 0 0.037051930336310254 -0.019276399773996814 0 0.035983191873502393 -0.020155042208180648 0 0.037051930336310254 -0.019276399773996814 0 0.034409516012225555 -0.020455574048611074 0 0.036860341065799489 -0.019190991498270551 0 0.035493328567136863 -0.020652038558894741 0 0.036568069487629945 -0.019152531065369609 0 0.037060474284521763 -0.019092802066306633 0 0.036552487026800015 -0.020609596358110643 0 0.035886215842653502 -0.01928210973546261 0 0.036568069487629945 -0.019152531065369609 0 0.036466810411590847 -0.018028572816087603 0 0.036568069487629945 -0.019152531065369609 0 0.037060474284521763 -0.019092802066306633 0 0.036971691640427989 -0.018382391802243173 0 0.036971691640427989 -0.018382391802243173 0 0.036466810411590847 -0.018028572816087603 0 0.037547689931596739 -0.017665011510892087 0 0.037060474284521763 -0.019092802066306633 0 0.036971691640427989 -0.018382391802243173 0 0.037547689931596739 -0.017665011510892087 0 0.036568069487629945 -0.019152531065369609 0 0.036971691640427989 -0.018382391802243173 0 0.036466810411590847 -0.018028572816087603 0 0.037167747352659528 -0.019319018517177943 0 0.037911219012021692 -0.018649147024973309 0 0.037051930336310254 -0.019276399773996814 0 0.036848104001906225 -0.019693067767302081 0 0.036777633452380304 -0.020226977342162729 0 0.037060474284521763 -0.019092802066306633 0 0.037051930336310254 -0.019276399773996814 0 0.03902003186607008 -0.017399298192678273 0 0.0367913586183461 -0.019981442777201031 0 0.036831290329066735 -0.019732713763272434 0 0.036848104001906225 -0.019693067767302081 0 0.037051930336310254 -0.019276399773996814 0 0.036848104001906225 -0.019693067767302081 0 0.036855408812924359 -0.019574201144505449 0 0.036831290329066735 -0.019732713763272434 0 0.036848104001906225 -0.019693067767302081 0 0.036855408812924359 -0.019574201144505449 0 0.037060474284521763 -0.019092802066306633 0 0.03902003186607008 -0.017399298192678273 0 0.037547689931596739 -0.017665011510892087 0 0.0367913586183461 -0.019981442777201031 0 0.036848104001906225 -0.019693067767302081 0 0.036777633452380304 -0.020226977342162729 0 0.03902003186607008 -0.017399298192678273 0 0.037547689931596739 -0.017665011510892087 0 0.038274340427827874 -0.015468196751589683 0 0.036197217863225606 -0.016364959265379436 0 0.037547689931596739 -0.017665011510892087 0 0.038274340427827874 -0.015468196751589683 0 0.036197217863225606 -0.016364959265379436 0 0.036466810411590847 -0.018028572816087603 0 0.037547689931596739 -0.017665011510892087 0 0.036197217863225606 -0.016364959265379436 0 0.038274340427827874 -0.015468196751589683 0 0.036744608293138657 -0.014390197670716146 0 0.03902003186607008 -0.017399298192678273 0 0.038274340427827874 -0.015468196751589683 0 0.040294098722213935 -0.015547416335260576 0 0.038274340427827874 -0.015468196751589683 0 0.040294098722213935 -0.015547416335260576 0 0.039664603121275399 -0.014514491352357786 0 0.038282812778031257 -0.018389125185034851 0 0.038570675163981896 -0.012091608337322588 0 0.040294098722213935 -0.015547416335260576 0 0.04147056822599237 -0.013817982667235641 0 0.039664603121275399 -0.014514491352357786 0 0.036722636637867151 -0.019991705551069921 0 0.036760339732087498 -0.02043120524828268 0 0.03712651869035085 -0.020048979079634526 0 0.036777633452380304 -0.020226977342162729 0 0.036722636637867151 -0.019991705551069921 0 0.036760339732087498 -0.02043120524828268 0 0.037911219012021692 -0.018649147024973309 0 0.038282812778031257 -0.018389125185034851 0 0.036957122933068215 -0.020175561583883228 0 0.036316511269885554 -0.021931289531379718 0 0.036038056337576993 -0.020492779598046306 0 0.036182559284047552 -0.021865257880314088 0 0.035298531156852921 -0.021142013921064108 0 0.036038056337576993 -0.020492779598046306 0 0.036760339732087498 -0.02043120524828268 0 0.036182559284047552 -0.021865257880314088 0 0.03706649382653722 -0.01974852661111481 0 0.03712651869035085 -0.020048979079634526 0 0.037477786485839076 -0.019513879513457445 0 0.036316511269885554 -0.021931289531379718 0 0.034928701994902778 -0.014401430993254114 0 0.036722636637867151 -0.019991705551069921 0 0.03706649382653722 -0.01974852661111481 0 0.03712651869035085 -0.020048979079634526 0 0.036722636637867151 -0.019991705551069921 0 0.03706649382653722 -0.01974852661111481 0 0.036987095993136342 -0.019428152240816354 0 0.038570675163981896 -0.012091608337322588 0 0.034928701994902778 -0.014401430993254114 0 0.038247924755942499 -0.0072011702259294711 0 0.037226538829379839 -0.0069921905049954427 0 0.037528533222408227 -0.0075218507800957554 0 0.03817423200952557 -0.0078361626615788427 0 0.038119257292166017 -0.0080599883928647396 0 0.037580490183008443 -0.008198778052828844 0 0.038247924755942499 -0.0072011702259294711 0 0.037528533222408227 -0.0075218507800957554 0 0.037580490183008443 -0.008198778052828844 0 0.03706649382653722 -0.01974852661111481 0 0.036987095993136342 -0.019428152240816354 0 0.037477786485839076 -0.019513879513457445 0 0.038570675163981896 -0.012091608337322588 0 0.039126148739227769 -0.010659492626813401 0 0.04147056822599237 -0.013817982667235641 0 0.039664603121275399 -0.014514491352357786 0 0.038595024619011736 -0.013247028178717583 0 0.03817423200952557 -0.0078361626615788427 0 0.038725243224580749 -0.0085643156515579338 0 0.039238738848302909 -0.0083792833530314925 0 0.038754625888445832 -3.4427331687213978e-05 0 0.039054637454947153 -3.6446994421153193e-05 0 0.036698570171675826 0.0020524480001537994 0 0.038152595798981448 -0.0081120151482861336 0 0.038305251393608082 -0.0082076286710217727 0 0.038022522877092825 -0.0081431232510695978 0 0.038119257292166017 -0.0080599883928647396 0 0.038152595798981448 -0.0081120151482861336 0 0.038194978939946916 -0.0081370414253550891 0 0.038842692504954562 -0.0086227980269901611 0 0.038528723736456799 -0.0043282315705344436 0 0.038786635765715276 -0.0054162835456664053 0 0.035377377294670533 -0.00049620679688078067 0 0.038152595798981448 -0.0081120151482861336 0 0.038194978939946916 -0.0081370414253550891 0 0.038180846665350689 -0.008135072257423312 0 0.038528723736456799 -0.0043282315705344436 0 0.035377377294670533 -0.00049620679688078067 0 0.03246350074518891 0.016399920629917193 0 0.032674045888013953 0.016561942804888655 0 0.03257717386369801 0.016595994252896665 0 0.038305251393608082 -0.0082076286710217727 0 0.037644569193320931 -0.0083040057036031668 0 0.037887295388659502 -0.0081885993298958949 0 0.03246350074518891 0.016399920629917193 0 0.032764541999771669 0.01645202428147742 0 0.032674045888013953 0.016561942804888655 0 0.038570675163981896 -0.012091608337322588 0 0.03813150271495875 -0.006889671836221337 0 0.035377377294670533 -0.00049620679688078067 0 0.03635789524764009 0.0041628299873648624 0 0.03817423200952557 -0.0078361626615788427 0 0.038119257292166017 -0.0080599883928647396 0 0.038725243224580749 -0.0085643156515579338 0 0.032764541999771669 0.01645202428147742 0 0.032674045888013953 0.016561942804888655 0 0.032769277940315575 0.016552248995259089 0 0.037644569193320931 -0.0083040057036031668 0 0.037887295388659502 -0.0081885993298958949 0 0.037580490183008443 -0.008198778052828844 0 0.038119257292166017 -0.0080599883928647396 0 0.037887295388659502 -0.0081885993298958949 0 0.037580490183008443 -0.008198778052828844 0 0.038119257292166017 -0.0080599883928647396 0 0.037887295388659502 -0.0081885993298958949 0 0.038022522877092825 -0.0081431232510695978 0 0.038305251393608082 -0.0082076286710217727 0 0.037887295388659502 -0.0081885993298958949 0 0.038022522877092825 -0.0081431232510695978 0 0.038119257292166017 -0.0080599883928647396 0 0.038152595798981448 -0.0081120151482861336 0 0.038022522877092825 -0.0081431232510695978 0 0.038274340427827874 -0.015468196751589683 0 0.036744608293138657 -0.014390197670716146 0 0.038595024619011736 -0.013247028178717583 0 0.035912201939052632 -0.012545126402834322 0 0.036744608293138657 -0.014390197670716146 0 0.038595024619011736 -0.013247028178717583 0 0.036900292999655873 -0.010828268510259904 0 0.039126148739227769 -0.010659492626813401 0 0.038274340427827874 -0.015468196751589683 0 0.039664603121275399 -0.014514491352357786 0 0.038595024619011736 -0.013247028178717583 0 0.038725243224580749 -0.0085643156515579338 0 0.039238738848302909 -0.0083792833530314925 0 0.039153458760271147 -0.0083679942152840234 0 0.038528723736456799 -0.0043282315705344436 0 0.039872378009494329 -0.0094118030869055277 0 0.041585104590411079 -0.0082528075785442325 0 0.039153458760271147 -0.0083679942152840234 0 0.040390135613150455 -0.0075284054324926807 0 0.038315613586183239 -0.0077725558289747226 0 0.038124494333469913 -0.0091200436111952918 0 0.039153458760271147 -0.0083679942152840234 0 0.038124494333469913 -0.0091200436111952918 0 0.039238738848302909 -0.0083792833530314925 0 0.039153458760271147 -0.0083679942152840234 0 0.039266204805058123 -0.0068512500536217534 0 0.040369986554209515 -0.007201355186877252 0 0.039080693899393511 -0.005417269552985304 0 0.03869047992691925 -0.0070599966682569739 0 0.039266204805058123 -0.0068512500536217534 0 0.038670312089023148 -0.0063629894692635866 0 0.03869047992691925 -0.0070599966682569739 0 0.039038493330774915 -0.0075781117597215723 0 0.039266204805058123 -0.0068512500536217534 0 0.038315613586183239 -0.0077725558289747226 0 0.039153458760271147 -0.0083679942152840234 0 0.039038493330774915 -0.0075781117597215723 0 0.038315613586183239 -0.0077725558289747226 0 0.03869047992691925 -0.0070599966682569739 0 0.039038493330774915 -0.0075781117597215723 0 0.039038493330774915 -0.0075781117597215723 0 0.039266204805058123 -0.0068512500536217534 0 0.039671757635794523 -0.0074547438194946612 0 0.039153458760271147 -0.0083679942152840234 0 0.039038493330774915 -0.0075781117597215723 0 0.039671757635794523 -0.0074547438194946612 0 0.039054637454947153 -3.6446994421153193e-05 0 0.036698570171675826 0.0020524480001537994 0 0.036667887376365074 0.0024701569948688828 0 0.035445608795638135 0.00048047381396169501 0 0.035454944779187869 0.00024693577092810634 0 0.036930361091029609 -0.0012497604893597744 0 0.039266204805058123 -0.0068512500536217534 0 0.039671757635794523 -0.0074547438194946612 0 0.040369986554209515 -0.007201355186877252 0 0.039671757635794523 -0.0074547438194946612 0 0.040369986554209515 -0.007201355186877252 0 0.040390135613150455 -0.0075284054324926807 0 0.039153458760271147 -0.0083679942152840234 0 0.039671757635794523 -0.0074547438194946612 0 0.040390135613150455 -0.0075284054324926807 0 0.038450247800542806 -0.0010732185518226194 0 0.039026298880644919 -0.004519861459763035 0 0.041585104590411079 -0.0082528075785442325 0 0.04034798330332473 -0.0071300188778005537 0 0.040390135613150455 -0.0075284054324926807 0 0.038450247800542806 -0.0010732185518226194 0 0.037099266107329144 0.0094922800891177207 0 0.037255992645050251 0.016163075529988052 0 0.037099266107329144 0.0094922800891177207 0 0.042392932429507507 0.012579569095731052 0 0.042188863369600614 0.013991290241774222 0 0.042781099914764274 0.012951767659182557 0 0.032257268015603087 0.017216858596694112 0 0.032197621835933818 0.016729829970504453 0 0.032331957894251126 0.016989358525301597 0 0.042188863369600614 0.013991290241774222 0 0.042781099914764274 0.012951767659182557 0 0.042989329245598791 0.013069797141728505 0 0.032197621835933818 0.016729829970504453 0 0.032323592287706981 0.016819782198768972 0 0.032331957894251126 0.016989358525301597 0 0.032257268015603087 0.017216858596694112 0 0.032331957894251126 0.016989358525301597 0 0.032388202000873875 0.017150826115089904 0 0.035454944779187869 0.00024693577092810634 0 0.036930361091029609 -0.0012497604893597744 0 0.036828183964453962 -0.0013431950198612877 0 0.037099266107329144 0.0094922800891177207 0 0.040494828717708806 0.0051946529573977896 0 0.042188863369600614 0.013991290241774222 0 0.042989329245598791 0.013069797141728505 0 0.04343954396311446 0.012950834863326793 0 0.038450247800542806 -0.0010732185518226194 0 0.037948905808725938 -0.0036546164274075133 0 0.043188240316206675 0.012700426145362667 0 0.042781099914764274 0.012951767659182557 0 0.042989329245598791 0.013069797141728505 0 0.043358532372173797 0.012731087957314972 0 0.043188240316206675 0.012700426145362667 0 0.042989329245598791 0.013069797141728505 0 0.043358532372173797 0.012731087957314972 0 0.042989329245598791 0.013069797141728505 0 0.04343954396311446 0.012950834863326793 0 0.038201663627135576 -0.005822811371324235 0 0.039080693899393511 -0.005417269552985304 0 0.038670312089023148 -0.0063629894692635866 0 0.039266204805058123 -0.0068512500536217534 0 0.039080693899393511 -0.005417269552985304 0 0.038670312089023148 -0.0063629894692635866 0 0.032531445726579657 0.016751085184372183 0 0.032648926439761888 0.016730234184852706 0 0.032597284651759095 0.01690691660869021 0 0.032648926439761888 0.016730234184852706 0 0.032764351868307534 0.016888817925052643 0 0.03276766662458723 0.016671915699560981 0 0.032648926439761888 0.016730234184852706 0 0.032597284651759095 0.01690691660869021 0 0.032764351868307534 0.016888817925052643 0 0.032648926439761888 0.016730234184852706 0 0.032674045888013953 0.016561942804888655 0 0.03276766662458723 0.016671915699560981 0 0.032674045888013953 0.016561942804888655 0 0.03276766662458723 0.016671915699560981 0 0.032769277940315575 0.016552248995259089 0 0.032648926439761888 0.016730234184852706 0 0.032674045888013953 0.016561942804888655 0 0.03257717386369801 0.016595994252896665 0 0.032531445726579657 0.016751085184372183 0 0.032648926439761888 0.016730234184852706 0 0.03257717386369801 0.016595994252896665 0 0.03246350074518891 0.016399920629917193 0 0.032197621835933818 0.016729829970504453 0 0.032415790321406505 0.016704887458105326 0 0.03246350074518891 0.016399920629917193 0 0.03257717386369801 0.016595994252896665 0 0.032493833327090958 0.016590377866890306 0 0.035377377294670533 -0.00049620679688078067 0 0.037099266107329144 0.0094922800891177207 0 0.03246350074518891 0.016399920629917193 0 0.032493833327090958 0.016590377866890306 0 0.032415790321406505 0.016704887458105326 0 0.032531445726579657 0.016751085184372183 0 0.032493833327090958 0.016590377866890306 0 0.032415790321406505 0.016704887458105326 0 0.032531445726579657 0.016751085184372183 0 0.03257717386369801 0.016595994252896665 0 0.032493833327090958 0.016590377866890306 0 0.038528723736456799 -0.0043282315705344436 0 0.038450247800542806 -0.0010732185518226194 0 0.032415790321406505 0.016704887458105326 0 0.032323592287706981 0.016819782198768972 0 0.032460731444377625 0.016963889770510023 0 0.032197621835933818 0.016729829970504453 0 0.032415790321406505 0.016704887458105326 0 0.032323592287706981 0.016819782198768972 0 0.032531445726579657 0.016751085184372183 0 0.032415790321406505 0.016704887458105326 0 0.032460731444377625 0.016963889770510023 0 0.032323592287706981 0.016819782198768972 0 0.032460731444377625 0.016963889770510023 0 0.032331957894251126 0.016989358525301597 0 0.032460731444377625 0.016963889770510023 0 0.032331957894251126 0.016989358525301597 0 0.032388202000873875 0.017150826115089904 0 0.032480150769681561 0.017196421821844114 0 0.032460731444377625 0.016963889770510023 0 0.032388202000873875 0.017150826115089904 0 0.032480150769681561 0.017196421821844114 0 0.032460731444377625 0.016963889770510023 0 0.032589308603483053 0.017138345271786423 0 0.032531445726579657 0.016751085184372183 0 0.032460731444377625 0.016963889770510023 0 0.032597284651759095 0.01690691660869021 0 0.032460731444377625 0.016963889770510023 0 0.032597284651759095 0.01690691660869021 0 0.032589308603483053 0.017138345271786423 0 0.032597284651759095 0.01690691660869021 0 0.032589308603483053 0.017138345271786423 0 0.032764351868307534 0.016888817925052643 0 0.032585649976041013 0.017336953527790917 0 0.032589308603483053 0.017138345271786423 0 0.03278947392862936 0.017142032968002843 0 0.032589308603483053 0.017138345271786423 0 0.03278947392862936 0.017142032968002843 0 0.032764351868307534 0.016888817925052643 0 0.03278947392862936 0.017142032968002843 0 0.032764351868307534 0.016888817925052643 0 0.033051970035679459 0.016959743276046799 0 0.033053041932635641 0.017514890516019281 0 0.03278947392862936 0.017142032968002843 0 0.033051970035679459 0.016959743276046799 0 0.02453634554710268 0.021641130151377592 0 0.024259674513134811 0.022247000696983141 0 0.032764351868307534 0.016888817925052643 0 0.032907352052836833 0.016698124757018904 0 0.03276766662458723 0.016671915699560981 0 0.032764351868307534 0.016888817925052643 0 0.032907352052836833 0.016698124757018904 0 0.033051970035679459 0.016959743276046799 0 0.032907352052836833 0.016698124757018904 0 0.032932552755381539 0.016517498878090418 0 0.033085412884230454 0.016573432997203444 0 0.032907352052836833 0.016698124757018904 0 0.032835985721563321 0.016583352764232982 0 0.032932552755381539 0.016517498878090418 0 0.032907352052836833 0.016698124757018904 0 0.032835985721563321 0.016583352764232982 0 0.03276766662458723 0.016671915699560981 0 0.032835985721563321 0.016583352764232982 0 0.03276766662458723 0.016671915699560981 0 0.032769277940315575 0.016552248995259089 0 0.024259674513134811 0.022247000696983141 0 0.021824830477604942 0.01953735950008989 0 0.01536542602546199 0.026738513511015402 0 0.015028209564376397 0.026752162049026904 0 0.015330423185885327 0.026916035273461314 0 0.032907352052836833 0.016698124757018904 0 0.033051970035679459 0.016959743276046799 0 0.033085412884230454 0.016573432997203444 0 0.013899824098482422 0.028590933523846319 0 0.021824830477604942 0.01953735950008989 0 0.015168536267064976 0.026628815474114238 0 0.01536542602546199 0.026738513511015402 0 0.015028209564376397 0.026752162049026904 0 0.015168536267064976 0.026628815474114238 0 0.015508083971233991 0.026506264226970371 0 0.01536542602546199 0.026738513511015402 0 0.014891792872221629 0.02675574529437676 0 0.015168536267064976 0.026628815474114238 0 0.015028209564376397 0.026752162049026904 0 0.014891792872221629 0.02675574529437676 0 0.015028209564376397 0.026752162049026904 0 0.014997826628572635 0.026728885337060776 0 0.014891792872221629 0.02675574529437676 0 0.014995626710010623 0.02679053738872483 0 0.014997826628572635 0.026728885337060776 0 0.014773985460594587 0.026808843246307598 0 0.014891792872221629 0.02675574529437676 0 0.014995626710010623 0.02679053738872483 0 0.01395167427745549 0.028111028405323337 0 0.016216519353336446 0.01968711842168077 0 0.014995626710010623 0.02679053738872483 0 0.01504750716543349 0.026632423070102957 0 0.015078153547903324 0.02658206773243714 0 0.01504750716543349 0.026632423070102957 0 0.014991965784201684 0.026606601765996891 0 0.014997826628572635 0.026728885337060776 0 0.014995626710010623 0.02679053738872483 0 0.01504750716543349 0.026632423070102957 0 0.014997826628572635 0.026728885337060776 0 0.01504750716543349 0.026632423070102957 0 0.014991965784201684 0.026606601765996891 0 0.015018422072923181 0.026383377390404656 0 0.015028209564376397 0.026752162049026904 0 0.014936629891197033 0.026461518108510076 0 0.014821900518957805 0.026414214147110242 0 0.015028209564376397 0.026752162049026904 0 0.014991965784201684 0.026606601765996891 0 0.014936629891197033 0.026461518108510076 0 0.015028209564376397 0.026752162049026904 0 0.014991965784201684 0.026606601765996891 0 0.014997826628572635 0.026728885337060776 0 0.014991965784201684 0.026606601765996891 0 0.014936629891197033 0.026461518108510076 0 0.015018422072923181 0.026383377390404656 0 0.020845118377202054 0.0053105902888655118 0 0.020579542798834782 0.0051909009503009846 0 0.021022345954782442 0.0051820076428978762 0 0.014936629891197033 0.026461518108510076 0 0.015018422072923181 0.026383377390404656 0 0.014848763052940549 0.026353335782220492 0 0.017685482888456661 0.015793555935385683 0 0.02013080491924427 0.011681783036935888 0 0.020845118377202054 0.0053105902888655118 0 0.020579542798834782 0.0051909009503009846 0 0.020676075124146452 0.0053851267834506816 0 0.020579542798834782 0.0051909009503009846 0 0.020373205125838591 0.0054225950843284788 0 0.020123223550283995 0.0052371374701757284 0 0.01504750716543349 0.026632423070102957 0 0.015018422072923181 0.026383377390404656 0 0.015453346222700092 0.026285653040781135 0 0.017685482888456661 0.015793555935385683 0 0.016216519353336446 0.01968711842168077 0 0.020579542798834782 0.0051909009503009846 0 0.020373205125838591 0.0054225950843284788 0 0.020676075124146452 0.0053851267834506816 0 0.020373205125838591 0.0054225950843284788 0 0.020676075124146452 0.0053851267834506816 0 0.020675978884191447 0.0055449233837735305 0 0.018211380569059549 -0.0057351118919611744 0 0.01857770593688176 -0.0046067813668248057 0 0.019796707499965038 -0.0045227383868534626 0 0.018764998005114088 -0.0006635607116499615 0 0.024591132285760472 -0.0077841478435563645 0 0.018211380569059549 -0.0057351118919611744 0 0.01857770593688176 -0.0046067813668248057 0 0.016853690573409776 -0.0047233469099063723 0 0.029068226351076119 -0.0077894058635395854 0 0.02927463385729849 -0.007558472788876381 0 0.028786401217445176 -0.0074790241540723459 0 0.020845118377202054 0.0053105902888655118 0 0.020676075124146452 0.0053851267834506816 0 0.020908281957305593 0.0054348703083977861 0 0.020676075124146452 0.0053851267834506816 0 0.020908281957305593 0.0054348703083977861 0 0.020675978884191447 0.0055449233837735305 0 0.029068226351076119 -0.0077894058635395854 0 0.028786401217445176 -0.0074790241540723459 0 0.028706224135273697 -0.0075378934889841183 0 0.024249668497556123 -0.0005328123750433755 0 0.024591132285760472 -0.0077841478435563645 0 0.029068226351076119 -0.0077894058635395854 0 0.029369507238172738 -0.0077708104400541307 0 0.02927463385729849 -0.007558472788876381 0 0.029369507238172738 -0.0077708104400541307 0 0.02927463385729849 -0.007558472788876381 0 0.029729290696696588 -0.0076662374209990657 0 0.020845118377202054 0.0053105902888655118 0 0.020908281957305593 0.0054348703083977861 0 0.021009296392067403 0.0053435948189277304 0 0.029068226351076119 -0.0077894058635395854 0 0.029369507238172738 -0.0077708104400541307 0 0.029403870548528239 -0.0080236281527565345 0 0.031711494986622159 -0.015200718691508904 0 0.034928701994902778 -0.014401430993254114 0 0.034928701994902778 -0.014401430993254114 0 0.028497704857809329 -0.00025044466982159132 0 0.029369507238172738 -0.0077708104400541307 0 0.029729290696696588 -0.0076662374209990657 0 0.029403870548528239 -0.0080236281527565345 0 0.037226538829379839 -0.0069921905049954427 0 0.037045265404904042 -0.0077475328794029148 0 0.036413104045013349 -0.00799842951833004 0 0.037226538829379839 -0.0069921905049954427 0 0.037528533222408227 -0.0075218507800957554 0 0.037045265404904042 -0.0077475328794029148 0 0.03635789524764009 0.0041628299873648624 0 0.028489530870800573 0.0075334602245269774 0 0.037644569193320931 -0.0083040057036031668 0 0.037580490183008443 -0.008198778052828844 0 0.036413104045013349 -0.00799842951833004 0 0.037644569193320931 -0.0083040057036031668 0 0.036220349878319236 -0.0082328603107621138 0 0.036413104045013349 -0.00799842951833004 0 0.037045265404904042 -0.0077475328794029148 0 0.037580490183008443 -0.008198778052828844 0 0.036413104045013349 -0.00799842951833004 0 0.032764541999771669 0.01645202428147742 0 0.032932552755381539 0.016517498878090418 0 0.033035628616331421 0.016480726965485477 0 0.037528533222408227 -0.0075218507800957554 0 0.037045265404904042 -0.0077475328794029148 0 0.037580490183008443 -0.008198778052828844 0 0.032835985721563321 0.016583352764232982 0 0.032826272621748559 0.016525859570982005 0 0.032932552755381539 0.016517498878090418 0 0.032764541999771669 0.01645202428147742 0 0.032826272621748559 0.016525859570982005 0 0.032932552755381539 0.016517498878090418 0 0.032764541999771669 0.01645202428147742 0 0.032826272621748559 0.016525859570982005 0 0.032769277940315575 0.016552248995259089 0 0.032835985721563321 0.016583352764232982 0 0.032826272621748559 0.016525859570982005 0 0.032769277940315575 0.016552248995259089 0 0.032932552755381539 0.016517498878090418 0 0.033035628616331421 0.016480726965485477 0 0.033085412884230454 0.016573432997203444 0 0.028489530870800573 0.0075334602245269774 0 0.028497704857809329 -0.00025044466982159132 0 0.028489530870800573 0.0075334602245269774 0 0.02013080491924427 0.011681783036935888 0 0.021315412744776253 0.0050030989293183472 0 0.021163090387447597 0.0050048926656283185 0 0.021400130726040377 0.0051247781331284926 0 0.022594050144825045 0.010355317891013852 0 0.023766158964758564 0.012174271293878765 0 0.024253207086718135 0.010384150050544766 0 0.028489530870800573 0.0075334602245269774 0 0.021824830477604942 0.01953735950008989 0 0.021824830477604942 0.01953735950008989 0 0.02013080491924427 0.011681783036935888 0 0.014936629891197033 0.026461518108510076 0 0.014821900518957805 0.026414214147110242 0 0.014848763052940549 0.026353335782220492 0 0.024249668497556123 -0.0005328123750433755 0 0.028497704857809329 -0.00025044466982159132 0 0.020845118377202054 0.0053105902888655118 0 0.021009296392067403 0.0053435948189277304 0 0.021022345954782442 0.0051820076428978762 0 0.020908281957305593 0.0054348703083977861 0 0.021009296392067403 0.0053435948189277304 0 0.021400130726040377 0.0051247781331284926 0 0.021578367497454894 0.00402047386268925 0 0.02013080491924427 0.011681783036935888 0 0.021009296392067403 0.0053435948189277304 0 0.021163090387447597 0.0050048926656283185 0 0.021400130726040377 0.0051247781331284926 0 0.01070868241353381 0.015101480683963569 0 0.011199845637228438 0.015521420212863214 0 0.010593475474308766 0.015660008173274186 0 0.011856584039602087 0.027603272002250021 0 0.012463635984894649 0.02805932507649361 0 0.012386199377969117 0.027515274602124721 0 0.012463635984894649 0.02805932507649361 0 0.012386199377969117 0.027515274602124721 0 0.012868255035443371 0.027474339371754187 0 0.012330186902775221 0.02693346003906253 0 0.012386199377969117 0.027515274602124721 0 0.012868255035443371 0.027474339371754187 0 0.012463635984894649 0.02805932507649361 0 0.012868255035443371 0.027474339371754187 0 0.013462813398329188 0.02795397363966097 0 0.014268939201662497 0.027035162905225906 0 0.013292224279292738 0.027397967171765149 0 0.013963085498649844 0.027605695260089595 0 0.013404109263832063 0.027723340465794073 0 0.012892733942513994 0.024607561622047521 0 0.01256420285588499 0.021372650114926735 0 0.012892733942513994 0.024607561622047521 0 0.01070868241353381 0.015101480683963569 0 0.011364305445767121 0.015076248555739769 0 0.011199845637228438 0.015521420212863214 0 0.011364305445767121 0.015076248555739769 0 0.011696885764686693 0.015314073371558568 0 0.011199845637228438 0.015521420212863214 0 0.014987824240299111 0.026443274380602896 0 0.015079983149742224 0.026512633904887555 0 0.015122558184007043 0.026535304774316058 0 0.012892733942513994 0.024607561622047521 0 0.015128242183260596 0.027024017455099723 0 0.015079983149742224 0.026512633904887555 0 0.015122558184007043 0.026535304774316058 0 0.015104199145029357 0.026518810994253378 0 0.015079983149742224 0.026512633904887555 0 0.015104199145029357 0.026518810994253378 0 0.015110485213635326 0.026446553380764407 0 0.012892733942513994 0.024607561622047521 0 0.013756030022282394 0.020995833694492157 0 0.014268939201662497 0.027035162905225906 0 0.014773985460594587 0.026808843246307598 0 0.014611220874222921 0.027245341998965899 0 0.014268939201662497 0.027035162905225906 0 0.013963085498649844 0.027605695260089595 0 0.014611220874222921 0.027245341998965899 0 0.014773985460594587 0.026808843246307598 0 0.014995626710010623 0.02679053738872483 0 0.014611220874222921 0.027245341998965899 0 0.014995626710010623 0.02679053738872483 0 0.015078153547903324 0.02658206773243714 0 0.015122558184007043 0.026535304774316058 0 0.01504750716543349 0.026632423070102957 0 0.015078153547903324 0.02658206773243714 0 0.015082617743698141 0.026464980848789808 0 0.014831542843721467 0.026805310477702092 0 0.015128242183260596 0.027024017455099723 0 0.015078153547903324 0.02658206773243714 0 0.015122558184007043 0.026535304774316058 0 0.015104199145029357 0.026518810994253378 0 0.015078153547903324 0.02658206773243714 0 0.015104199145029357 0.026518810994253378 0 0.015082617743698141 0.026464980848789808 0 0.015104199145029357 0.026518810994253378 0 0.015082617743698141 0.026464980848789808 0 0.015110485213635326 0.026446553380764407 0 0.015079983149742224 0.026512633904887555 0 0.015110485213635326 0.026446553380764407 0 0.015119607187054062 0.026425281391279656 0 0.015139552115630698 0.026400538732939998 0 0.015110485213635326 0.026446553380764407 0 0.015119607187054062 0.026425281391279656 0 0.016216519353336446 0.01968711842168077 0 0.015501337034453281 0.02146528835637191 0 0.016216519353336446 0.01968711842168077 0 0.016233907403485671 0.010983940591736912 0 0.018764998005114088 -0.0006635607116499615 0 0.016233907403485671 0.010983940591736912 0 0.020373205125838591 0.0054225950843284788 0 0.020123223550283995 0.0052371374701757284 0 0.020054520903640051 0.0052848244904630396 0 0.016593190337568377 -0.0069910080057351718 0 0.016853690573409776 -0.0047233469099063723 0 0.014817351292406418 -0.0058250851340116965 0 0.018211380569059549 -0.0057351118919611744 0 0.016593190337568377 -0.0069910080057351718 0 0.016853690573409776 -0.0047233469099063723 0 0.016853690573409776 -0.0047233469099063723 0 0.014817351292406418 -0.0058250851340116965 0 0.014803516108066664 -0.0044989951469617366 0 0.016233907403485671 0.010983940591736912 0 0.014042348423552984 0.0041038581247336966 0 0.011696885764686693 0.015314073371558568 0 0.012030417062372931 0.015528708947119291 0 0.011583858510651726 0.015808456216184597 0 0.011696885764686693 0.015314073371558568 0 0.011583858510651726 0.015808456216184597 0 0.011199845637228438 0.015521420212863214 0 0.013756030022282394 0.020995833694492157 0 0.016233907403485671 0.010983940591736912 0 0.014817351292406418 -0.0058250851340116965 0 0.014803516108066664 -0.0044989951469617366 0 0.012961493503479308 -0.0045794161835160489 0 0.014042348423552984 0.0041038581247336966 0 0.0082954211133272494 0.0078385447152038139 0 0.011583858510651726 0.015808456216184597 0 0.011199845637228438 0.015521420212863214 0 0.011123657044742413 0.016082933779829625 0 -0.0050637351515223986 0.017650395370660932 0 -0.0079148946910811615 0.017123554612715544 0 -0.0052096943658048881 0.019919956575707956 0 0.0082954211133272494 0.0078385447152038139 0 0.0014961484984305422 0.018441718634931843 0 0.011199845637228438 0.015521420212863214 0 0.011123657044742413 0.016082933779829625 0 0.010593475474308766 0.015660008173274186 0 0.015623148837489564 -0.029301983250905054 0 0.018372248805595313 -0.029415104932439172 0 0.01789361794375937 -0.027948798298414686 0 0.0079987931041300819 -0.011363740966789724 0 0.016613862989765357 -0.0168376685505198 0 0.0090419823277211459 -0.0021648342095742872 0 0.010978546721908237 -0.0033605456378949313 0 0.012477886979417362 -0.002647551749342609 0 0.0082954211133272494 0.0078385447152038139 0 -2.0183804382090497e-05 0.0081636709946075747 0 -0.0050637351515223986 0.017650395370660932 0 -0.0079148946910811615 0.017123554612715544 0 -0.005926724237686266 0.015417049445388999 0 0.012917496033108723 -0.0046175170507314163 0 0.010978546721908237 -0.0033605456378949313 0 0.012477886979417362 -0.002647551749342609 0 0.012917496033108723 -0.0046175170507314163 0 0.013493522792424979 -0.0040322681309355049 0 0.012477886979417362 -0.002647551749342609 0 0.014803516108066664 -0.0044989951469617366 0 0.012961493503479308 -0.0045794161835160489 0 0.013493522792424979 -0.0040322681309355049 0 0.013493522792424979 -0.0040322681309355049 0 0.012477886979417362 -0.002647551749342609 0 0.015856109024640418 -0.0033116913831566538 0 0.016613862989765357 -0.0168376685505198 0 0.017140684823185866 -0.015668077709567005 0 0.0082954211133272494 0.0078385447152038139 0 0.0083648813629214978 0.0013025793766288135 0 0.018372248805595313 -0.029415104932439172 0 0.019955055139139758 -0.027867289030248231 0 0.01789361794375937 -0.027948798298414686 0 0.020321337844471876 -0.029468777295358385 0 0.020961585018276576 -0.028800611724057765 0 0.019955055139139758 -0.027867289030248231 0 0.018372248805595313 -0.029415104932439172 0 0.020321337844471876 -0.029468777295358385 0 0.019955055139139758 -0.027867289030248231 0 0.014803516108066664 -0.0044989951469617366 0 0.013493522792424979 -0.0040322681309355049 0 0.015856109024640418 -0.0033116913831566538 0 0.016853690573409776 -0.0047233469099063723 0 0.014803516108066664 -0.0044989951469617366 0 0.015856109024640418 -0.0033116913831566538 0 0.017140684823185866 -0.015668077709567005 0 0.023533468826284945 -0.019834507408789569 0 0.020321337844471876 -0.029468777295358385 0 0.020961585018276576 -0.028800611724057765 0 0.021925987610518911 -0.029452914718515705 0 0.016853690573409776 -0.0047233469099063723 0 0.015856109024640418 -0.0033116913831566538 0 0.019157652745717103 -0.0039424611745288527 0 0.023326834781897638 -0.031615427115623596 0 0.020530706784172247 -0.028159104229563456 0 0.024055875804317506 -0.027485993819603809 0 0.02162768190766947 -0.029172033444729528 0 0.024981143554552474 -0.029328241390541927 0 0.024182086189643456 -0.031057016269077985 0 0.02162768190766947 -0.029172033444729528 0 0.024981143554552474 -0.029328241390541927 0 0.024055875804317506 -0.027485993819603809 0 0.022254287754922157 -0.026215879552685943 0 0.024732585770707357 -0.025387568664667511 0 0.024055875804317506 -0.027485993819603809 0 0.022254287754922157 -0.026215879552685943 0 0.02162768190766947 -0.029172033444729528 0 0.022254287754922157 -0.026215879552685943 0 0.02162768190766947 -0.029172033444729528 0 0.018925067373636233 -0.026753079035441205 0 0.020530706784172247 -0.028159104229563456 0 0.019141256590074953 -0.026997908020658115 0 0.019955055139139758 -0.027867289030248231 0 0.018925067373636233 -0.026753079035441205 0 0.01789361794375937 -0.027948798298414686 0 0.022254287754922157 -0.026215879552685943 0 0.018925067373636233 -0.026753079035441205 0 0.020375285197280889 -0.025042004677040774 0 0.018925067373636233 -0.026753079035441205 0 0.017046206905920073 -0.025993259182675144 0 0.01789361794375937 -0.027948798298414686 0 0.016048139228833552 -0.027206488185425762 0 0.017046206905920073 -0.025993259182675144 0 0.01789361794375937 -0.027948798298414686 0 0.034117716506888066 -0.021933445690255467 0 0.034465733532402065 -0.020965140692443891 0 0.035298531156852921 -0.021142013921064108 0 0.034117716506888066 -0.021933445690255467 0 0.034465733532402065 -0.020965140692443891 0 0.03279597667830593 -0.021291763237131046 0 0.034117716506888066 -0.021933445690255467 0 0.035298531156852921 -0.021142013921064108 0 0.035045637394923411 -0.022173500789239468 0 0.036182559284047552 -0.021865257880314088 0 0.035298531156852921 -0.021142013921064108 0 0.035045637394923411 -0.022173500789239468 0 0.036182559284047552 -0.021865257880314088 0 0.035394261434827289 -0.023060949538356933 0 0.035045637394923411 -0.022173500789239468 0 0.034211667588916743 -0.022844775459846256 0 0.035394261434827289 -0.023060949538356933 0 0.035045637394923411 -0.022173500789239468 0 0.034211667588916743 -0.022844775459846256 0 0.034117716506888066 -0.021933445690255467 0 0.035045637394923411 -0.022173500789239468 0 0.034211667588916743 -0.022844775459846256 0 0.034117716506888066 -0.021933445690255467 0 0.033193582584096215 -0.022617019066959315 0 0.031711494986622159 -0.015200718691508904 0 0.028895049657698468 -0.015675083889131674 0 0.032018019834975417 -0.02394351945768039 0 0.030711769401581268 -0.023594436623578553 0 0.03279597667830593 -0.021291763237131046 0 0.034117716506888066 -0.021933445690255467 0 0.032018019834975417 -0.02394351945768039 0 0.03279597667830593 -0.021291763237131046 0 0.03407331041593524 -0.023413066957020542 0 0.028895049657698468 -0.015675083889131674 0 0.023533468826284945 -0.019834507408789569 0 0.030587280167009442 -0.027073247299867483 0 0.032018019834975417 -0.02394351945768039 0 0.030976383650683323 -0.023799032065741653 0 0.030711769401581268 -0.023594436623578553 0 0.028895049657698468 -0.015675083889131674 0 0.024591132285760472 -0.0077841478435563645 0 0.028895049657698468 -0.015675083889131674 0 0.025013843408681517 -0.016020730709489363 0 0.026846730183596023 -0.015389617541828377 0 0.025896928815646533 -0.016197528440576335 0 0.024415317016638845 -0.014932702239269038 0 0.024591132285760472 -0.0077841478435563645 0 0.025013843408681517 -0.016020730709489363 0 0.01857770593688176 -0.0046067813668248057 0 0.016853690573409776 -0.0047233469099063723 0 0.019157652745717103 -0.0039424611745288527 0 0.023326834781897638 -0.031615427115623596 0 0.023533468826284945 -0.019834507408789569 0 0.01857770593688176 -0.0046067813668248057 0 0.019796707499965038 -0.0045227383868534626 0 0.01932956468164989 -0.004136214056041595 0 0.01857770593688176 -0.0046067813668248057 0 0.01932956468164989 -0.004136214056041595 0 0.019140715151612309 -0.003983394763255755 0 0.024096588444584115 -0.0087903111792230048 0 0.023533468826284945 -0.019834507408789569 0 0.025013843408681517 -0.016020730709489363 0 0.023533468826284945 -0.019834507408789569 0 0.024182086189643456 -0.031057016269077985 0 0.026515520574829695 -0.032657054217198569 0 0.02621339346839479 -0.030635749097074477 0 0.024182086189643456 -0.031057016269077985 0 0.02621339346839479 -0.030635749097074477 0 0.024981143554552474 -0.029328241390541927 0 0.02621339346839479 -0.030635749097074477 0 0.028162144704421667 -0.030689701852001965 0 0.026917715462619639 -0.029274389349708985 0 0.026515520574829695 -0.032657054217198569 0 0.02621339346839479 -0.030635749097074477 0 0.028162144704421667 -0.030689701852001965 0 0.028162144704421667 -0.030689701852001965 0 0.02819072806030434 -0.02841863321692778 0 0.026917715462619639 -0.029274389349708985 0 0.02819072806030434 -0.02841863321692778 0 0.026917715462619639 -0.029274389349708985 0 0.026545984691201476 -0.027441434092161963 0 0.028162144704421667 -0.030689701852001965 0 0.02819072806030434 -0.02841863321692778 0 0.029898524273311272 -0.028656584964651118 0 0.026917715462619639 -0.029274389349708985 0 0.024981143554552474 -0.029328241390541927 0 0.026545984691201476 -0.027441434092161963 0 0.024055875804317506 -0.027485993819603809 0 0.024981143554552474 -0.029328241390541927 0 0.026545984691201476 -0.027441434092161963 0 0.02621339346839479 -0.030635749097074477 0 0.026917715462619639 -0.029274389349708985 0 0.024981143554552474 -0.029328241390541927 0 0.024055875804317506 -0.027485993819603809 0 0.026545984691201476 -0.027441434092161963 0 0.024732585770707357 -0.025387568664667511 0 0.02819072806030434 -0.02841863321692778 0 0.026545984691201476 -0.027441434092161963 0 0.028709785167141275 -0.026742505912648797 0 0.026545984691201476 -0.027441434092161963 0 0.028709785167141275 -0.026742505912648797 0 0.027723210584572479 -0.025355727966216851 0 0.030015205795582194 -0.026341739186444436 0 0.029898524273311272 -0.028656584964651118 0 0.031091741425356874 -0.026647539008508997 0 0.028709785167141275 -0.026742505912648797 0 0.030015205795582194 -0.026341739186444436 0 0.029898524273311272 -0.028656584964651118 0 0.02819072806030434 -0.02841863321692778 0 0.028709785167141275 -0.026742505912648797 0 0.029898524273311272 -0.028656584964651118 0 0.030015205795582194 -0.026341739186444436 0 0.031091741425356874 -0.026647539008508997 0 0.030954710741700531 -0.02558638374338424 0 0.030587280167009442 -0.027073247299867483 0 0.032286084520027694 -0.024070552357287826 0 0.034465733532402065 -0.020965140692443891 0 0.03279597667830593 -0.021291763237131046 0 0.034417231840862608 -0.020120619648367252 0 0.034465733532402065 -0.020965140692443891 0 0.034417231840862608 -0.020120619648367252 0 0.035493582054875884 -0.02008369141410218 0 0.036038056337576993 -0.020492779598046306 0 0.035298531156852921 -0.021142013921064108 0 0.035493582054875884 -0.02008369141410218 0 0.034465733532402065 -0.020965140692443891 0 0.035298531156852921 -0.021142013921064108 0 0.035493582054875884 -0.02008369141410218 0 0.029898524273311272 -0.028656584964651118 0 0.031091741425356874 -0.026647539008508997 0 0.031672033805298552 -0.026445599965153097 0 0.034417231840862608 -0.020120619648367252 0 0.035493582054875884 -0.02008369141410218 0 0.035556200261163504 -0.019439319468247465 0 0.036316658263640077 -0.01998160926491975 0 0.035493582054875884 -0.02008369141410218 0 0.035903344849722713 -0.019804376822433658 0 0.035493582054875884 -0.02008369141410218 0 0.035903344849722713 -0.019804376822433658 0 0.035556200261163504 -0.019439319468247465 0 0.032286084520027694 -0.024070552357287826 0 0.033197380888874521 -0.02399548846720426 0 0.031091741425356874 -0.026647539008508997 0 0.031594719599530946 -0.026378941491454599 0 0.031393001911098346 -0.025858368982837446 0 0.031594719599530946 -0.026378941491454599 0 0.03186203436418765 -0.025834029414361748 0 0.031393001911098346 -0.025858368982837446 0 0.031855626186954568 -0.02485178738180898 0 0.033197380888874521 -0.02399548846720426 0 0.036283297374842031 -0.019796431091696695 0 0.035903344849722713 -0.019804376822433658 0 0.035556200261163504 -0.019439319468247465 0 0.033197380888874521 -0.02399548846720426 0 0.032356160365138054 -0.025113687166986975 0 0.03186203436418765 -0.025834029414361748 0 0.031393001911098346 -0.025858368982837446 0 0.031758217411321191 -0.025011588966332515 0 0.031758217411321191 -0.025011588966332515 0 0.030287030807038616 -0.024941074612092204 0 0.032506104395986384 -0.024021800414974016 0 0.031091741425356874 -0.026647539008508997 0 0.030954710741700531 -0.02558638374338424 0 0.031393001911098346 -0.025858368982837446 0 0.030954710741700531 -0.02558638374338424 0 0.031393001911098346 -0.025858368982837446 0 0.031758217411321191 -0.025011588966332515 0 0.030954710741700531 -0.02558638374338424 0 0.031758217411321191 -0.025011588966332515 0 0.030287030807038616 -0.024941074612092204 0 0.030425161077245428 -0.02486512834954702 0 0.032170102016272392 -0.024160531249941997 0 0.031036576737339349 -0.023408930461658862 0 0.030287030807038616 -0.024941074612092204 0 0.031956143495457855 -0.024214942789425285 0 0.031036576737339349 -0.023408930461658862 0 0.031847070912831336 -0.023932460740442155 0 0.031956143495457855 -0.024214942789425285 0 0.031036576737339349 -0.023408930461658862 0 0.029046868472481266 -0.02397593410657306 0 0.02826444285788304 -0.021854330341266347 0 0.031036576737339349 -0.023408930461658862 0 0.030287030807038616 -0.024941074612092204 0 0.029046868472481266 -0.02397593410657306 0 0.028709785167141275 -0.026742505912648797 0 0.030015205795582194 -0.026341739186444436 0 0.030287030807038616 -0.024941074612092204 0 0.030015205795582194 -0.026341739186444436 0 0.030954710741700531 -0.02558638374338424 0 0.030287030807038616 -0.024941074612092204 0 0.030287030807038616 -0.024941074612092204 0 0.027723210584572479 -0.025355727966216851 0 0.029046868472481266 -0.02397593410657306 0 0.028709785167141275 -0.026742505912648797 0 0.030287030807038616 -0.024941074612092204 0 0.027723210584572479 -0.025355727966216851 0 0.027723210584572479 -0.025355727966216851 0 0.026794073590827555 -0.023578501468106066 0 0.024732585770707357 -0.025387568664667511 0 0.026545984691201476 -0.027441434092161963 0 0.027723210584572479 -0.025355727966216851 0 0.024732585770707357 -0.025387568664667511 0 0.026794073590827555 -0.023578501468106066 0 0.024732585770707357 -0.025387568664667511 0 0.024064189926441645 -0.023105398645866328 0 0.026794073590827555 -0.023578501468106066 0 0.025677459603828189 -0.021510108969429082 0 0.024064189926441645 -0.023105398645866328 0 0.026794073590827555 -0.023578501468106066 0 0.029046868472481266 -0.02397593410657306 0 0.02826444285788304 -0.021854330341266347 0 0.027723210584572479 -0.025355727966216851 0 0.026794073590827555 -0.023578501468106066 0 0.029046868472481266 -0.02397593410657306 0 0.02826444285788304 -0.021854330341266347 0 0.025677459603828189 -0.021510108969429082 0 0.028769528882908561 -0.019497812146322204 0 0.026794073590827555 -0.023578501468106066 0 0.02826444285788304 -0.021854330341266347 0 0.025677459603828189 -0.021510108969429082 0 0.025677459603828189 -0.021510108969429082 0 0.025053550253474527 -0.019103568860131523 0 0.028769528882908561 -0.019497812146322204 0 0.025677459603828189 -0.021510108969429082 0 0.025053550253474527 -0.019103568860131523 0 0.023463109221483112 -0.021022977850283467 0 0.03299881220716866 -0.024244046506418513 0 0.03207131537051662 -0.024091209712463726 0 0.032594325896467449 -0.02490217024466326 0 0.03207131537051662 -0.024091209712463726 0 0.032594325896467449 -0.02490217024466326 0 0.032024327200522583 -0.024401084830691675 0 0.03207131537051662 -0.024091209712463726 0 0.031847070912831336 -0.023932460740442155 0 0.032024327200522583 -0.024401084830691675 0 0.031036576737339349 -0.023408930461658862 0 0.03207131537051662 -0.024091209712463726 0 0.031847070912831336 -0.023932460740442155 0 0.031115278453839375 -0.023411530964924807 0 0.030894912489334118 -0.021966333469578114 0 0.031036576737339349 -0.023408930461658862 0 0.02826444285788304 -0.021854330341266347 0 0.028769528882908561 -0.019497812146322204 0 0.031036576737339349 -0.023408930461658862 0 0.03299881220716866 -0.024244046506418513 0 0.03207131537051662 -0.024091209712463726 0 0.015796069950905978 -0.02192768287810419 0 0.017428221518610967 -0.024050558698093184 0 0.018130427807508336 -0.021940845496867298 0 0.017428221518610967 -0.024050558698093184 0 0.019898545095790476 -0.023163582586093804 0 0.018130427807508336 -0.021940845496867298 0 0.018925067373636233 -0.026753079035441205 0 0.017046206905920073 -0.025993259182675144 0 0.017428221518610967 -0.024050558698093184 0 0.017428221518610967 -0.024050558698093184 0 0.020375285197280889 -0.025042004677040774 0 0.019898545095790476 -0.023163582586093804 0 0.018925067373636233 -0.026753079035441205 0 0.017428221518610967 -0.024050558698093184 0 0.020375285197280889 -0.025042004677040774 0 0.020375285197280889 -0.025042004677040774 0 0.019898545095790476 -0.023163582586093804 0 0.022231906036311842 -0.024173776282211103 0 0.019898545095790476 -0.023163582586093804 0 0.022231906036311842 -0.024173776282211103 0 0.021833726101417397 -0.022311672212427424 0 0.022254287754922157 -0.026215879552685943 0 0.020375285197280889 -0.025042004677040774 0 0.022231906036311842 -0.024173776282211103 0 0.022254287754922157 -0.026215879552685943 0 0.022231906036311842 -0.024173776282211103 0 0.024732585770707357 -0.025387568664667511 0 0.022231906036311842 -0.024173776282211103 0 0.024732585770707357 -0.025387568664667511 0 0.024064189926441645 -0.023105398645866328 0 0.022231906036311842 -0.024173776282211103 0 0.024064189926441645 -0.023105398645866328 0 0.021833726101417397 -0.022311672212427424 0 0.024064189926441645 -0.023105398645866328 0 0.023463109221483112 -0.021022977850283467 0 0.021833726101417397 -0.022311672212427424 0 0.025677459603828189 -0.021510108969429082 0 0.024064189926441645 -0.023105398645866328 0 0.023463109221483112 -0.021022977850283467 0 0.025053550253474527 -0.019103568860131523 0 0.023463109221483112 -0.021022977850283467 0 0.022742715542724685 -0.019320320351118307 0 0.023463109221483112 -0.021022977850283467 0 0.022742715542724685 -0.019320320351118307 0 0.021585728917868967 -0.020691676915685148 0 0.022742715542724685 -0.019320320351118307 0 0.021585728917868967 -0.020691676915685148 0 0.020926058503305832 -0.019246922375163397 0 0.021585728917868967 -0.020691676915685148 0 0.019628099647650495 -0.019594989309824649 0 0.020926058503305832 -0.019246922375163397 0 0.021585728917868967 -0.020691676915685148 0 0.021833726101417397 -0.022311672212427424 0 0.019910381717232535 -0.021198573248371631 0 0.023463109221483112 -0.021022977850283467 0 0.021585728917868967 -0.020691676915685148 0 0.021833726101417397 -0.022311672212427424 0 0.019898545095790476 -0.023163582586093804 0 0.019910381717232535 -0.021198573248371631 0 0.018130427807508336 -0.021940845496867298 0 0.019898545095790476 -0.023163582586093804 0 0.021833726101417397 -0.022311672212427424 0 0.019910381717232535 -0.021198573248371631 0 0.019910381717232535 -0.021198573248371631 0 0.018692758189034479 -0.019744199762145784 0 0.018130427807508336 -0.021940845496867298 0 0.019910381717232535 -0.021198573248371631 0 0.019628099647650495 -0.019594989309824649 0 0.018692758189034479 -0.019744199762145784 0 0.019628099647650495 -0.019594989309824649 0 0.018692758189034479 -0.019744199762145784 0 0.019102958795854597 -0.01913276094299211 0 0.021585728917868967 -0.020691676915685148 0 0.019910381717232535 -0.021198573248371631 0 0.019628099647650495 -0.019594989309824649 0 0.015720960538425768 -0.019876484699366481 0 0.018692758189034479 -0.019744199762145784 0 0.018130427807508336 -0.021940845496867298 0 0.019709399230363408 -0.020046475573091443 0 0.019553619571964533 -0.019194717840640634 0 0.019102958795854597 -0.01913276094299211 0 0.019709399230363408 -0.020046475573091443 0 0.019062960352926667 -0.020001252415760753 0 0.019274105355851737 -0.020979354369260933 0 0.019709399230363408 -0.020046475573091443 0 0.019062960352926667 -0.020001252415760753 0 0.019102958795854597 -0.01913276094299211 0 0.019553619571964533 -0.019194717840640634 0 0.018692758189034479 -0.019744199762145784 0 0.019102958795854597 -0.01913276094299211 0 0.018242909578575706 -0.018662374059125984 0 0.018720726648596215 -0.019636594136902538 0 0.019102958795854597 -0.01913276094299211 0 0.01946282763551492 -0.018800444807201538 0 0.01880961942455546 -0.019582589501856269 0 0.019628099647650495 -0.019594989309824649 0 0.019102958795854597 -0.01913276094299211 0 0.01946282763551492 -0.018800444807201538 0 0.019628099647650495 -0.019594989309824649 0 0.01946282763551492 -0.018800444807201538 0 0.020926058503305832 -0.019246922375163397 0 0.01946282763551492 -0.018800444807201538 0 0.01880961942455546 -0.019582589501856269 0 0.017502370221043537 -0.019963380936799339 0 0.019062960352926667 -0.020001252415760753 0 0.019102958795854597 -0.01913276094299211 0 0.01880961942455546 -0.019582589501856269 0 0.019062960352926667 -0.020001252415760753 0 0.01880961942455546 -0.019582589501856269 0 0.018409441543985716 -0.020538044335190037 0 0.01880961942455546 -0.019582589501856269 0 0.017502370221043537 -0.019963380936799339 0 0.018409441543985716 -0.020538044335190037 0 0.021233112235527964 -0.018283537474246998 0 0.022775140978798038 -0.014290961890597318 0 0.01931158612999449 -0.018831450844055474 0 0.019332190011720211 -0.018182693548318692 0 0.021027433673229103 -0.016412183153648067 0 0.021311056602533129 -0.018017322119473312 0 0.021971983951447897 -0.015407104346400011 0 0.01946282763551492 -0.018800444807201538 0 0.021027433673229103 -0.016412183153648067 0 0.021311056602533129 -0.018017322119473312 0 0.01946282763551492 -0.018800444807201538 0 0.020926058503305832 -0.019246922375163397 0 0.021311056602533129 -0.018017322119473312 0 0.022742715542724685 -0.019320320351118307 0 0.020926058503305832 -0.019246922375163397 0 0.021311056602533129 -0.018017322119473312 0 0.025053550253474527 -0.019103568860131523 0 0.022742715542724685 -0.019320320351118307 0 0.024174843082821411 -0.017221058086186871 0 0.022742715542724685 -0.019320320351118307 0 0.021311056602533129 -0.018017322119473312 0 0.024174843082821411 -0.017221058086186871 0 0.021311056602533129 -0.018017322119473312 0 0.023322822552643861 -0.016265666592663104 0 0.022943626311728672 -0.014772679522815879 0 0.021311056602533129 -0.018017322119473312 0 0.023322822552643861 -0.016265666592663104 0 0.024174843082821411 -0.017221058086186871 0 0.023322822552643861 -0.016265666592663104 0 0.024174843082821411 -0.017221058086186871 0 0.024640388160577287 -0.015197850173423047 0 0.022943626311728672 -0.014772679522815879 0 0.024299531691540342 -0.014045410415719056 0 0.024640388160577287 -0.015197850173423047 0 0.023322822552643861 -0.016265666592663104 0 0.022943626311728672 -0.014772679522815879 0 0.024640388160577287 -0.015197850173423047 0 0.021689346099835163 -0.016676846782018251 0 0.022775140978798038 -0.014290961890597318 0 0.021689346099835163 -0.016676846782018251 0 0.018788130329064456 -0.018624912539511988 0 0.022516714752016834 -0.013628722009226992 0 0.021971983951447897 -0.015407104346400011 0 0.02189207734195343 -0.014873955977068788 0 0.024064041493998628 -0.012480308133336506 0 0.022943626311728672 -0.014772679522815879 0 0.024299531691540342 -0.014045410415719056 0 0.015524349295168617 -0.023023803014036157 0 0.016381166860568955 -0.021497259204074571 0 0.016322387340730403 -0.022668325305583516 0 0.016381166860568955 -0.021497259204074571 0 0.016718385695144708 -0.022270548358926362 0 0.017317628338726809 -0.021949240158872781 0 0.016381166860568955 -0.021497259204074571 0 0.016322387340730403 -0.022668325305583516 0 0.016718385695144708 -0.022270548358926362 0 0.01700669768283038 -0.022875452044061488 0 0.016322387340730403 -0.022668325305583516 0 0.016718385695144708 -0.022270548358926362 0 0.01700669768283038 -0.022875452044061488 0 0.016718385695144708 -0.022270548358926362 0 0.017317628338726809 -0.021949240158872781 0 0.01700669768283038 -0.022875452044061488 0 0.017317628338726809 -0.021949240158872781 0 0.01788730741649951 -0.022700757087929794 0 0.016381166860568955 -0.021497259204074571 0 0.017317628338726809 -0.021949240158872781 0 0.017591296620176885 -0.021138056283380287 0 0.019332190011720211 -0.018182693548318692 0 0.018788130329064456 -0.018624912539511988 0 0.017502370221043537 -0.019963380936799339 0 0.016381166860568955 -0.021497259204074571 0 0.017591296620176885 -0.021138056283380287 0 0.021027433673229103 -0.016412183153648067 0 0.021971983951447897 -0.015407104346400011 0 0.02189207734195343 -0.014873955977068788 0 0.017502370221043537 -0.019963380936799339 0 0.017591296620176885 -0.021138056283380287 0 0.018409441543985716 -0.020538044335190037 0 0.018409441543985716 -0.020538044335190037 0 0.018377851931103854 -0.021753716846626261 0 0.019274105355851737 -0.020979354369260933 0 0.017591296620176885 -0.021138056283380287 0 0.018409441543985716 -0.020538044335190037 0 0.018377851931103854 -0.021753716846626261 0 0.017317628338726809 -0.021949240158872781 0 0.01788730741649951 -0.022700757087929794 0 0.018377851931103854 -0.021753716846626261 0 0.017317628338726809 -0.021949240158872781 0 0.017591296620176885 -0.021138056283380287 0 0.018377851931103854 -0.021753716846626261 0 0.01788730741649951 -0.022700757087929794 0 0.018377851931103854 -0.021753716846626261 0 0.018718841665868832 -0.022832657751173577 0 0.018377851931103854 -0.021753716846626261 0 0.019640279724696407 -0.022386089101993432 0 0.019274105355851737 -0.020979354369260933 0 0.018377851931103854 -0.021753716846626261 0 0.018718841665868832 -0.022832657751173577 0 0.019640279724696407 -0.022386089101993432 0 0.019062960352926667 -0.020001252415760753 0 0.018409441543985716 -0.020538044335190037 0 0.019274105355851737 -0.020979354369260933 0 0.020289135739519442 -0.021151315676670435 0 0.019640279724696407 -0.022386089101993432 0 0.019274105355851737 -0.020979354369260933 0 0.033213615077061796 -0.025656066137184429 0 0.032594325896467449 -0.02490217024466326 0 0.033990890877456416 -0.025306904282156758 0 0.033213615077061796 -0.025656066137184429 0 0.03263662662826438 -0.025738433009725097 0 0.032594325896467449 -0.02490217024466326 0 0.03263662662826438 -0.025738433009725097 0 0.032594325896467449 -0.02490217024466326 0 0.03206450411517129 -0.025005663531852702 0 0.03299881220716866 -0.024244046506418513 0 0.032594325896467449 -0.02490217024466326 0 0.033990890877456416 -0.025306904282156758 0 0.030894912489334118 -0.021966333469578114 0 0.03043727186769787 -0.021009604108965955 0 0.025053550253474527 -0.019103568860131523 0 0.028769528882908561 -0.019497812146322204 0 0.027064896378439649 -0.016532791238276282 0 0.025053550253474527 -0.019103568860131523 0 0.024174843082821411 -0.017221058086186871 0 0.027064896378439649 -0.016532791238276282 0 0.024174843082821411 -0.017221058086186871 0 0.027064896378439649 -0.016532791238276282 0 0.024640388160577287 -0.015197850173423047 0 0.03043727186769787 -0.021009604108965955 0 0.030920180771090693 -0.01983159671893522 0 0.033990890877456416 -0.025306904282156758 0 0.034758722952485291 -0.026559466583876326 0 0.033534670958052022 -0.026625073646227508 0 0.027064896378439649 -0.016532791238276282 0 0.024640388160577287 -0.015197850173423047 0 0.025560103494143706 -0.013836985375707312 0 0.024299531691540342 -0.014045410415719056 0 0.024640388160577287 -0.015197850173423047 0 0.025560103494143706 -0.013836985375707312 0 0.024064041493998628 -0.012480308133336506 0 0.024299531691540342 -0.014045410415719056 0 0.025560103494143706 -0.013836985375707312 0 0.024408626690471637 -0.022423374446064105 0 0.030920180771090693 -0.01983159671893522 0 0.033780404936714969 -0.027692666295666385 0 0.034463062520011079 -0.027537558978305596 0 0.033534670958052022 -0.026625073646227508 0 0.034463062520011079 -0.027537558978305596 0 0.034758722952485291 -0.026559466583876326 0 0.033534670958052022 -0.026625073646227508 0 0.033213615077061796 -0.025656066137184429 0 0.03263662662826438 -0.025738433009725097 0 0.033534670958052022 -0.026625073646227508 0 0.033213615077061796 -0.025656066137184429 0 0.033990890877456416 -0.025306904282156758 0 0.033534670958052022 -0.026625073646227508 0 0.03263662662826438 -0.025738433009725097 0 0.033534670958052022 -0.026625073646227508 0 0.032575633348547593 -0.026775583131411724 0 0.033120555371783052 -0.027896715884799164 0 0.033534670958052022 -0.026625073646227508 0 0.032575633348547593 -0.026775583131411724 0 0.032248366404784602 -0.027823180687958023 0 0.032575633348547593 -0.026775583131411724 0 0.0318359086003316 -0.026751000198963083 0 0.0318359086003316 -0.026751000198963083 0 0.032032206637194513 -0.025829309666583523 0 0.031341440266854308 -0.025729608581647603 0 0.032575633348547593 -0.026775583131411724 0 0.0318359086003316 -0.026751000198963083 0 0.032032206637194513 -0.025829309666583523 0 0.03263662662826438 -0.025738433009725097 0 0.032575633348547593 -0.026775583131411724 0 0.032032206637194513 -0.025829309666583523 0 0.03263662662826438 -0.025738433009725097 0 0.032032206637194513 -0.025829309666583523 0 0.03206450411517129 -0.025005663531852702 0 0.032032206637194513 -0.025829309666583523 0 0.03206450411517129 -0.025005663531852702 0 0.031754985033176017 -0.025120892087798708 0 0.03206450411517129 -0.025005663531852702 0 0.031754985033176017 -0.025120892087798708 0 0.031893167979526592 -0.024450887004281815 0 0.03206450411517129 -0.025005663531852702 0 0.032024327200522583 -0.024401084830691675 0 0.031893167979526592 -0.024450887004281815 0 0.032594325896467449 -0.02490217024466326 0 0.03206450411517129 -0.025005663531852702 0 0.032024327200522583 -0.024401084830691675 0 0.031697944089429456 -0.024776137540124053 0 0.031662331070244798 -0.024599614875278168 0 0.031697944089429456 -0.024776137540124053 0 0.031795128804692104 -0.025069297901205177 0 0.032048379392706085 -0.024470115907096975 0 0.031754985033176017 -0.025120892087798708 0 0.031893167979526592 -0.024450887004281815 0 0.032032206637194513 -0.025829309666583523 0 0.031754985033176017 -0.025120892087798708 0 0.031341440266854308 -0.025729608581647603 0 0.031202185419469005 -0.024967145081193097 0 0.031754985033176017 -0.025120892087798708 0 0.031341440266854308 -0.025729608581647603 0 0.031341440266854308 -0.025729608581647603 0 0.030869087630570734 -0.02598916908660678 0 0.030828287718985933 -0.025239229724728168 0 0.031202185419469005 -0.024967145081193097 0 0.031341440266854308 -0.025729608581647603 0 0.030828287718985933 -0.025239229724728168 0 0.031341440266854308 -0.025729608581647603 0 0.031152762167771623 -0.02674256455378405 0 0.030869087630570734 -0.02598916908660678 0 0.0318359086003316 -0.026751000198963083 0 0.031341440266854308 -0.025729608581647603 0 0.031152762167771623 -0.02674256455378405 0 0.031534106640335388 -0.027706248487237968 0 0.0318359086003316 -0.026751000198963083 0 0.031152762167771623 -0.02674256455378405 0 0.031152762167771623 -0.02674256455378405 0 0.030541829702027207 -0.026742287030367757 0 0.030869087630570734 -0.02598916908660678 0 0.030810984760199681 -0.027669997879664829 0 0.031152762167771623 -0.02674256455378405 0 0.030541829702027207 -0.026742287030367757 0 0.029908334424745959 -0.026843884065839443 0 0.030447213615025146 -0.025874214525980939 0 0.029994868088794979 -0.025862943542058335 0 0.030541829702027207 -0.026742287030367757 0 0.029908334424745959 -0.026843884065839443 0 0.030447213615025146 -0.025874214525980939 0 0.030447213615025146 -0.025874214525980939 0 0.029994868088794979 -0.025862943542058335 0 0.03057875883826499 -0.025117830967121363 0 0.030447213615025146 -0.025874214525980939 0 0.030869087630570734 -0.02598916908660678 0 0.030828287718985933 -0.025239229724728168 0 0.030541829702027207 -0.026742287030367757 0 0.030447213615025146 -0.025874214525980939 0 0.030869087630570734 -0.02598916908660678 0 0.029210606583700154 -0.027033468624442766 0 0.028865245567802608 -0.026405105485580931 0 0.029994868088794979 -0.025862943542058335 0 0.029210606583700154 -0.027033468624442766 0 0.029908334424745959 -0.026843884065839443 0 0.029994868088794979 -0.025862943542058335 0 0.030512392029609439 -0.026410735941037124 0 0.030679783014054652 -0.025303573866582781 0 0.028865245567802608 -0.026405105485580931 0 0.029994868088794979 -0.025862943542058335 0 0.030718053169130982 -0.025058583083728592 0 0.030718053169130982 -0.025058583083728592 0 0.03057875883826499 -0.025117830967121363 0 0.030924572006094723 -0.024740110968194066 0 0.029994868088794979 -0.025862943542058335 0 0.030718053169130982 -0.025058583083728592 0 0.03057875883826499 -0.025117830967121363 0 0.03057875883826499 -0.025117830967121363 0 0.030850669912590434 -0.024768978585034428 0 0.030924572006094723 -0.024740110968194066 0 0.030850669912590434 -0.024768978585034428 0 0.030924572006094723 -0.024740110968194066 0 0.030976548164560896 -0.024685135567300412 0 0.031241089086478636 -0.024519246506639215 0 0.030718053169130982 -0.025058583083728592 0 0.030924572006094723 -0.024740110968194066 0 0.030447213615025146 -0.025874214525980939 0 0.03057875883826499 -0.025117830967121363 0 0.030828287718985933 -0.025239229724728168 0 0.03057875883826499 -0.025117830967121363 0 0.030850669912590434 -0.024768978585034428 0 0.030788500864457811 -0.024905167246883724 0 0.03057875883826499 -0.025117830967121363 0 0.030828287718985933 -0.025239229724728168 0 0.030788500864457811 -0.024905167246883724 0 0.030850669912590434 -0.024768978585034428 0 0.030788500864457811 -0.024905167246883724 0 0.030847051297949006 -0.024775885236460012 0 0.030828287718985933 -0.025239229724728168 0 0.030788500864457811 -0.024905167246883724 0 0.030888123885815095 -0.024792754471009176 0 0.031202185419469005 -0.024967145081193097 0 0.030828287718985933 -0.025239229724728168 0 0.030888123885815095 -0.024792754471009176 0 0.032760280653528026 -0.024469158480229954 0 0.032903023998174762 -0.024479633646585446 0 0.032273898719751511 -0.024461282710023322 0 0.032760280653528026 -0.024469158480229954 0 0.032903023998174762 -0.024479633646585446 0 0.032659390236873621 -0.024365642903369577 0 0.030788500864457811 -0.024905167246883724 0 0.030888123885815095 -0.024792754471009176 0 0.030847051297949006 -0.024775885236460012 0 0.032760280653528026 -0.024469158480229954 0 0.032180251200039069 -0.024475676718750634 0 0.032659390236873621 -0.024365642903369577 0 0.031662331070244798 -0.024599614875278168 0 0.032208732686068296 -0.024686005531428624 0 0.030888123885815095 -0.024792754471009176 0 0.030847051297949006 -0.024775885236460012 0 0.030878487393547756 -0.024733433732726275 0 0.030850669912590434 -0.024768978585034428 0 0.030847051297949006 -0.024775885236460012 0 0.030924625965888068 -0.024709311229367752 0 0.030847051297949006 -0.024775885236460012 0 0.030878487393547756 -0.024733433732726275 0 0.030924625965888068 -0.024709311229367752 0 0.032208732686068296 -0.024686005531428624 0 0.031584653547196459 -0.024977827646139258 0 0.032180251200039069 -0.024475676718750634 0 0.032579309086681642 -0.024002173809035476 0 0.032659390236873621 -0.024365642903369577 0 0.032180251200039069 -0.024475676718750634 0 0.032579309086681642 -0.024002173809035476 0 0.032576866811219775 -0.02318274834333103 0 0.033986126130397254 -0.025563659662093761 0 0.035325166824566316 -0.023658347755552398 0 0.034288491510629814 -0.024008753450410314 0 0.033986126130397254 -0.025563659662093761 0 0.03370588817651661 -0.024291141669425458 0 0.034288491510629814 -0.024008753450410314 0 0.032208732686068296 -0.024686005531428624 0 0.034073951068068591 -0.023393896222009443 0 0.032579309086681642 -0.024002173809035476 0 0.03281547583171808 -0.023755381148919997 0 0.032576866811219775 -0.02318274834333103 0 0.032579309086681642 -0.024002173809035476 0 0.03281547583171808 -0.023755381148919997 0 0.032825788295734258 -0.024094764531330699 0 0.03281547583171808 -0.023755381148919997 0 0.032825788295734258 -0.024094764531330699 0 0.033330474750281606 -0.0237053464147686 0 0.032825788295734258 -0.024094764531330699 0 0.033330474750281606 -0.0237053464147686 0 0.032903023998174762 -0.024479633646585446 0 0.032825788295734258 -0.024094764531330699 0 0.032903023998174762 -0.024479633646585446 0 0.032659390236873621 -0.024365642903369577 0 0.032579309086681642 -0.024002173809035476 0 0.032825788295734258 -0.024094764531330699 0 0.032659390236873621 -0.024365642903369577 0 0.031241089086478636 -0.024519246506639215 0 0.030924572006094723 -0.024740110968194066 0 0.031160109620791694 -0.024565659056913252 0 0.031241089086478636 -0.024519246506639215 0 0.031682247924292473 -0.024280564860382922 0 0.031160109620791694 -0.024565659056913252 0 0.031160109620791694 -0.024565659056913252 0 0.030976548164560896 -0.024685135567300412 0 0.030924625965888068 -0.024709311229367752 0 0.030916253938477984 -0.024725838884722844 0 0.031160109620791694 -0.024565659056913252 0 0.030924625965888068 -0.024709311229367752 0 0.030924572006094723 -0.024740110968194066 0 0.031160109620791694 -0.024565659056913252 0 0.030976548164560896 -0.024685135567300412 0 0.030850669912590434 -0.024768978585034428 0 0.030976548164560896 -0.024685135567300412 0 0.030924625965888068 -0.024709311229367752 0 0.032208732686068296 -0.024686005531428624 0 0.032076042849330563 -0.024674980970198379 0 0.030916253938477984 -0.024725838884722844 0 0.031160109620791694 -0.024565659056913252 0 0.031287958420165227 -0.024596534591124201 0 0.033986126130397254 -0.025563659662093761 0 0.032737219030951878 -0.024613093929345582 0 0.03370588817651661 -0.024291141669425458 0 0.031986508164444427 -0.024390189603844401 0 0.031682247924292473 -0.024280564860382922 0 0.031287958420165227 -0.024596534591124201 0 0.031682247924292473 -0.024280564860382922 0 0.031160109620791694 -0.024565659056913252 0 0.031287958420165227 -0.024596534591124201 0 0.031986508164444427 -0.024390189603844401 0 0.032825480376480934 -0.02386958796690257 0 0.032260709970663576 -0.023838043348988248 0 0.031898642787392191 -0.024375954520852453 0 0.032076042849330563 -0.024674980970198379 0 0.031986508164444427 -0.024390189603844401 0 0.032737219030951878 -0.024613093929345582 0 0.032825480376480934 -0.02386958796690257 0 0.032737219030951878 -0.024613093929345582 0 0.032825480376480934 -0.02386958796690257 0 0.033233085119927154 -0.024081011525335861 0 0.032825480376480934 -0.02386958796690257 0 0.033233085119927154 -0.024081011525335861 0 0.033766280292222096 -0.023483774077138603 0 0.032737219030951878 -0.024613093929345582 0 0.033233085119927154 -0.024081011525335861 0 0.03370588817651661 -0.024291141669425458 0 0.033233085119927154 -0.024081011525335861 0 0.03370588817651661 -0.024291141669425458 0 0.033766280292222096 -0.023483774077138603 0 0.032825480376480934 -0.02386958796690257 0 0.033766280292222096 -0.023483774077138603 0 0.033459859332771964 -0.023014524446445049 0 0.034070038936816135 -0.021980431708712559 0 0.034211400814728919 -0.023427562210493934 0 0.035866353635695368 -0.023037827149972726 0 0.035445372106992994 -0.022811744049762495 0 0.035876936395707604 -0.02282428440174961 0 0.032825480376480934 -0.02386958796690257 0 0.033459859332771964 -0.023014524446445049 0 0.032260709970663576 -0.023838043348988248 0 0.033330474750281606 -0.0237053464147686 0 0.032576866811219775 -0.02318274834333103 0 0.034174727852458432 -0.022989585623872225 0 0.03281547583171808 -0.023755381148919997 0 0.033330474750281606 -0.0237053464147686 0 0.032576866811219775 -0.02318274834333103 0 0.03370588817651661 -0.024291141669425458 0 0.033766280292222096 -0.023483774077138603 0 0.034288491510629814 -0.024008753450410314 0 0.033766280292222096 -0.023483774077138603 0 0.034288491510629814 -0.024008753450410314 0 0.0347505270174647 -0.022887706982358959 0 0.035325166824566316 -0.023658347755552398 0 0.034288491510629814 -0.024008753450410314 0 0.0347505270174647 -0.022887706982358959 0 0.035325166824566316 -0.023658347755552398 0 0.0347505270174647 -0.022887706982358959 0 0.035264760662063903 -0.021576983864021109 0 0.032427408702049403 -0.021087017821797487 0 0.0347505270174647 -0.022887706982358959 0 0.034346197887103067 -0.021050774305315004 0 0.033766280292222096 -0.023483774077138603 0 0.033459859332771964 -0.023014524446445049 0 0.0347505270174647 -0.022887706982358959 0 0.034070038936816135 -0.021980431708712559 0 0.034334983023133536 -0.022764446577355015 0 0.0347505270174647 -0.022887706982358959 0 0.034346197887103067 -0.021050774305315004 0 0.035264760662063903 -0.021576983864021109 0 0.034070038936816135 -0.021980431708712559 0 0.034013766847979028 -0.021208079852561755 0 0.034268230270958842 -0.019939328624916056 0 0.033915401661259587 -0.020482919005364864 0 0.034346197887103067 -0.021050774305315004 0 0.035261090791937975 -0.020056855824281808 0 0.034346197887103067 -0.021050774305315004 0 0.035264760662063903 -0.021576983864021109 0 0.034073951068068591 -0.023393896222009443 0 0.035493328567136863 -0.020652038558894741 0 0.032576866811219775 -0.02318274834333103 0 0.034409516012225555 -0.020455574048611074 0 0.034174727852458432 -0.022989585623872225 0 0.035325166824566316 -0.023658347755552398 0 0.035264760662063903 -0.021576983864021109 0 0.036552487026800015 -0.020609596358110643 0 0.035261090791937975 -0.020056855824281808 0 0.035264760662063903 -0.021576983864021109 0 0.036552487026800015 -0.020609596358110643 0 0.035681690298871034 -0.020909361083968847 0 0.034174727852458432 -0.022989585623872225 0 0.03680308273374408 -0.021157181729711576 0 0.034409516012225555 -0.020455574048611074 0 0.035681690298871034 -0.020909361083968847 0 0.034174727852458432 -0.022989585623872225 0 0.035983191873502393 -0.020155042208180648 0 0.034409516012225555 -0.020455574048611074 0 0.035681690298871034 -0.020909361083968847 0 0.036536060042757307 -0.020243265341020576 0 0.035983191873502393 -0.020155042208180648 0 0.035681690298871034 -0.020909361083968847 0 0.033330474750281606 -0.0237053464147686 0 0.034174727852458432 -0.022989585623872225 0 0.034562529231934314 -0.023627128307796987 0 0.034174727852458432 -0.022989585623872225 0 0.034534891762301789 -0.023847070495252212 0 0.034562529231934314 -0.023627128307796987 0 0.034227350446060227 -0.022984200172121071 0 0.035460353223479256 -0.022550328599962512 0 0.034534891762301789 -0.023847070495252212 0 0.034061284537335444 -0.023518728365183469 0 0.034562529231934314 -0.023627128307796987 0 0.036536060042757307 -0.020243265341020576 0 0.035681690298871034 -0.020909361083968847 0 0.03680308273374408 -0.021157181729711576 0 0.036855695418727075 -0.020113943684438463 0 0.036536060042757307 -0.020243265341020576 0 0.03680308273374408 -0.021157181729711576 0 0.035460353223479256 -0.022550328599962512 0 0.035184645280322148 -0.022294406022283202 0 0.036855695418727075 -0.020113943684438463 0 0.03680308273374408 -0.021157181729711576 0 0.036778902880278984 -0.019804394526149346 0 0.033197380888874521 -0.02399548846720426 0 0.035184645280322148 -0.022294406022283202 0 0.031758217411321191 -0.025011588966332515 0 0.03355199768579422 -0.024964974700408194 0 0.032506104395986384 -0.024021800414974016 0 0.03186203436418765 -0.025834029414361748 0 0.031758217411321191 -0.025011588966332515 0 0.03355199768579422 -0.024964974700408194 0 0.031626341003009241 -0.026241796600454972 0 0.03186203436418765 -0.025834029414361748 0 0.03355199768579422 -0.024964974700408194 0 0.03355199768579422 -0.024964974700408194 0 0.032506104395986384 -0.024021800414974016 0 0.034061284537335444 -0.023518728365183469 0 0.032170102016272392 -0.024160531249941997 0 0.033027833077338815 -0.02393168781317399 0 0.031956143495457855 -0.024214942789425285 0 0.031968877900048126 -0.02430979020627504 0 0.031945137135652217 -0.024227570446441287 0 0.034534891762301789 -0.023847070495252212 0 0.03355199768579422 -0.024964974700408194 0 0.034061284537335444 -0.023518728365183469 0 0.031968877900048126 -0.02430979020627504 0 0.031945137135652217 -0.024227570446441287 0 0.031893167979526592 -0.024450887004281815 0 0.031847070912831336 -0.023932460740442155 0 0.031956143495457855 -0.024214942789425285 0 0.031945137135652217 -0.024227570446441287 0 0.031847070912831336 -0.023932460740442155 0 0.031945137135652217 -0.024227570446441287 0 0.032024327200522583 -0.024401084830691675 0 0.031945137135652217 -0.024227570446441287 0 0.032024327200522583 -0.024401084830691675 0 0.031893167979526592 -0.024450887004281815 0 0.032048379392706085 -0.024470115907096975 0 0.031893167979526592 -0.024450887004281815 0 0.032273898719751511 -0.024461282710023322 0 0.031893167979526592 -0.024450887004281815 0 0.032273898719751511 -0.024461282710023322 0 0.032083003724656965 -0.024600243689683179 0 0.032048379392706085 -0.024470115907096975 0 0.032760280653528026 -0.024469158480229954 0 0.032273898719751511 -0.024461282710023322 0 0.03292795742954005 -0.024429064977760033 0 0.033289504698312322 -0.024117355289238303 0 0.033330474750281606 -0.0237053464147686 0 0.032903023998174762 -0.024479633646585446 0 0.034562529231934314 -0.023627128307796987 0 0.032903023998174762 -0.024479633646585446 0 0.032273898719751511 -0.024461282710023322 0 0.032083003724656965 -0.024600243689683179 0 0.033027833077338815 -0.02393168781317399 0 0.033289504698312322 -0.024117355289238303 0 0.031968877900048126 -0.02430979020627504 0 0.031893167979526592 -0.024450887004281815 0 0.032083003724656965 -0.024600243689683179 0 
</DataArray>
</PointData>
<CellData Scalars="region_id,cross_section_updated," Vectors="" Tensors="stress,">
<DataArray type="Float64" Name="region_id" format="ascii">
5 5 5 5 6 5 5 6 5 5 6 5 5 6 6 6 5 5 5 5 6 6 5 6 5 5 5 5 5 5 5 5 5 5 6 5 5 5 6 5 5 5 6 5 5 5 5 5 6 5 5 6 6 5 6 5 5 5 5 5 5 6 5 5 5 5 6 5 5 5 5 5 5 6 5 5 5 5 6 5 5 5 5 5 5 5 5 5 5 5 5 5 5 5 5 5 5 5 5 5 6 5 5 5 6 5 5 5 5 5 5 5 5 5 5 5 5 5 5 5 5 5 6 5 5 5 5 5 5 5 5 5 5 6 5 5 5 5 5 6 5 5 6 5 5 5 5 5 5 5 5 5 6 6 5 5 5 5 5 5 5 6 5 5 5 5 5 5 5 5 5 5 5 5 5 5 5 5 5 5 5 5 5 5 6 5 5 5 5 5 5 5 5 5 5 5 5 5 5 5 5 5 5 5 5 6 5 5 5 5 5 6 5 5 5 6 5 5 5 6 5 5 6 5 5 6 6 5 5 5 5 5 5 5 5 6 5 5 5 6 5 5 5 6 5 5 6 5 5 5 5 5 5 5 5 5 5 5 5 5 5 5 5 6 5 5 6 5 5 5 5 5 6 5 5 6 5 5 6 5 5 5 5 5 5 6 5 5 5 6 5 5 5 5 5 5 5 6 5 5 5 5 5 5 5 5 5 6 6 5 5 6 5 5 5 6 5 5 5 5 5 6 5 6 5 5 5 5 5 6 5 5 6 5 5 6 6 6 5 5 5 5 5 5 5 6 5 5 5 5 5 5 5 5 5 6 5 5 5 5 5 6 5 5 5 5 5 5 5 5 6 5 5 5 6 5 5 5 5 5 5 5 6 5 6 5 5 5 6 5 5 5 5 5 5 5 5 5 6 5 5 6 6 6 5 5 5 5 6 6 5 5 5 5 5 5 5 6 6 5 5 5 5 5 5 5 6 6 5 6 6 5 5 5 6 5 5 5 5 6 5 5 5 5 5 6 5 5 5 5 5 5 5 6 6 5 5 6 5 6 5 5 6 5 5 5 5 5 5 5 5 6 5 6 5 5 5 6 6 5 6 5 6 5 6 5 5 6 6 5 5 6 5 5 5 6 5 5 5 5 5 5 5 5 5 5 5 5 5 5 5 5 6 5 6 5 5 5 5 6 5 5 5 5 5 5 5 5 5 5 5 6 6 5 5 5 5 5 5 5 5 5 6 5 5 5 5 5 5 5 5 5 5 5 5 5 5 5 5 5 6 5 5 6 5 6 5 5 5 5 5 5 6 6 5 5 5 5 5 6 6 5 5 5 5 5 5 5 6 5 5 5 5 5 5 5 6 5 6 5 5 5 5 6 5 5 5 5 6 5 5 6 5 5 6 5 5 5 5 5 5 5 5 5 6 5 5 5 5 5 5 5 5 6 5 6 5 6 5 5 5 5 5 5 5 5 5 5 5 5 5 6 5 6 6 5 5 5 5 5 5 5 5 5 5 5 5 6 5 5 5 6 5 5 5 5 5 5 5 5 5 5 5 5 5 5 5 5 5 5 5 5 5 5 5 5 5 5 5 5 5 5 6 5 6 6 5 5 5 5 5 6 5 5 5 5 5 5 5 5 5 5 5 6 5 5 5 6 5 5 5 5 6 5 5 5 5 6 5 5 5 5 5 5 5 5 5 5 5 5 5 5 6 5 5 5 5 5 5 5 5 5 5 5 6 5 6 5 5 5 5 5 5 5 5 5 5 5 6 5 5 5 6 5 5 5 5 5 5 5 5 5 5 5 5 5 5 5 6 5 5 5 5 5 5 5 5 5 5 5 5 5 5 5 5 5 5 6 5 5 5 5 5 5 5 5 5 6 6 5 5 5 5 6 5 6 6 5 5 5 5 6 5 6 5 5 6 5 5 5 5 5 5 5 5 6 5 5 6 5 6 5 6 5 5 5 5 5 5 6 6 5 5 5 5 5 5 5 6 5 5 5 5 5 6 5 6 5 5 5 5 6 6 5 5 5 5 5 6 5 5 5 5 5 5 5 6 5 5 5 5 5 5 5 5 5 6 5 5 5 5 5 6 5 5 5 5 5 5 5 5 5 5 5 5 5 5 5 5 5 5 5 5 5 5 5 5 5 5 5 5 5 5 5 5 6 5 5 6 5 6 6 5 6 5 5 5 5 5 5 5 5 5 5 5 5 5 5 5 5 5 5 5 5 5 5 5 5 5 5 5 6 5 5 5 5 5 5 5 5 5 5 5 5 5 5 5 5 5 5 5 6 6 5 5 5 5 5 5 5 5 5 5 5 5 5 6 6 5 5 5 5 5 5 5 5 5 5 5 5 5 5 5 5 5 5 5 5 5 5 5 5 5 5 5 5 5 5 5 5 5 5 5 5 5 5 5 5 5 5 5 5 5 5 5 5 5 5 5 5 5 5 5 5 5 5 5 5 5 5 5 5 5 5 5 5 5 5 5 5 5 5 5 5 5 6 5 6 5 5 5 5 5 5 5 5 5 5 5 5 5 5 5 5 5 5 5 5 5 5 5 5 5 5 5 6 5 5 5 6 5 6 5 5 5 5 5 5 5 5 5 5 5 5 5 5 6 5 5 6 5 5 5 5 5 5 5 5 5 5 5 5 5 5 5 5 5 5 5 5 5 6 5 5 5 6 5 5 5 5 5 5 5 5 5 5 5 5 5 5 5 5 6 6 5 5 5 5 5 5 5 5 5 5 5 5 5 5 5 5 5 6 5 5 6 5 5 5 5 5 5 5 5 5 5 5 5 5 5 5 5 5 6 5 5 5 5 5 5 5 5 5 5 5 6 5 5 5 5 5 5 6 5 6 5 5 5 5 5 6 5 5 5 5 5 5 5 5 5 5 5 6 5 5 5 5 5 5 5 6 5 5 5 5 5 6 6 6 5 5 5 6 5 5 5 5 5 5 5 5 5 5 5 5 5 5 5 5 5 5 5 5 5 5 5 5 5 5 6 5 5 5 5 6 5 5 5 5 5 5 6 5 5 5 5 5 5 5 6 5 5 5 5 5 5 5 5 5 5 5 5 5 5 6 6 5 6 5 5 5 5 5 5 5 5 5 6 5 5 6 5 6 5 6 5 5 5 5 5 5 5 6 5 5 5 5 5 5 5 5 5 5 5 5 5 5 5 5 5 5 5 5 5 5 5 5 5 5 5 5 5 5 5 5 5 5 5 5 5 5 5 6 5 6 5 5 5 5 5 5 5 5 5 5 5 5 5 5 5 5 5 5 5 5 5 5 5 5 5 6 5 5 5 5 5 5 5 5 5 5 5 5 5 5 6 5 5 5 5 5 5 5 5 5 5 5 6 5 5 6 5 5 5 5 5 5 5 5 5 5 5 5 5 5 5 5 5 5 5 5 5 5 5 5 5 5 5 5 5 5 5 5 5 5 5 5 5 5 5 5 5 5 5 5 5 5 6 5 5 6 5 5 5 5 5 5 5 5 5 5 5 5 5 5 5 5 5 5 5 5 5 5 5 5 5 5 5 6 5 5 6 5 5 5 5 5 5 5 5 5 5 5 5 5 5 5 5 5 5 5 5 6 5 5 5 5 5 5 5 5 5 5 5 5 5 5 5 5 5 5 5 5 5 5 5 5 5 5 5 5 5 5 5 5 5 5 5 5 5 5 5 5 5 5 5 5 5 5 5 5 5 5 5 5 5 5 5 5 5 5 5 5 5 5 5 5 5 5 5 5 5 6 5 5 5 5 5 5 5 5 6 5 6 5 5 5 5 5 5 5 5 5 5 5 5 6 5 5 5 5 5 5 5 5 5 5 6 5 6 5 5 6 5 5 6 5 6 6 5 5 6 5 5 5 5 6 5 5 5 5 5 5 5 6 5 6 5 5 5 5 6 5 5 5 5 6 5 5 6 5 5 5 5 6 5 5 5 5 5 5 6 5 5 5 5 5 5 5 6 6 6 5 5 5 6 5 5 5 5 6 5 5 5 5 5 5 5 5 5 5 5 5 5 5 5 5 5 6 5 5 6 5 5 5 5 5 5 5 5 5 5 5 5 5 5 6 5 5 5 6 5 5 6 5 5 5 5 6 5 5 6 5 6 5 6 5 5 6 6 6 5 5 5 5 5 5 5 5 6 5 6 5 5 5 5 5 5 5 6 5 5 5 5 5 6 5 5 5 5 5 5 5 5 5 5 5 5 5 5 5 5 5 5 5 5 5 5 5 5 5 5 5 5 5 5 5 5 5 5 5 5 5 5 5 5 5 5 6 5 5 6 6 6 5 5 5 5 5 5 5 5 5 5 5 5 5 5 5 5 5 5 5 5 5 5 5 5 5 5 5 6 5 6 6 5 5 5 5 5 5 5 5 6 5 6 5 5 5 5 5 5 5 5 5 5 5 5 5 5 5 5 5 5 5 5 5 5 5 5 5 5 5 5 5 5 5 5 6 5 5 6 5 5 5 5 5 5 5 5 5 5 5 5 5 5 5 6 5 5 5 5 5 5 5 5 5 5 5 6 5 5 5 5 5 5 5 5 5 6 5 5 5 5 5 5 5 5 5 5 5 5 5 5 5 5 5 5 5 5 5 5 5 5 5 5 5 5 5 5 5 5 5 5 5 5 5 5 5 5 6 5 5 5 5 5 6 6 5 5 5 5 5 5 5 5 5 5 5 5 5 6 5 5 5 5 5 5 5 6 5 5 5 5 6 5 5 6 5 5 5 5 5 6 5 5 5 5 5 5 6 6 5 5 5 5 5 5 5 5 5 5 5 5 5 5 5 5 5 6 5 5 5 5 5 5 5 5 5 5 5 5 5 5 5 5 6 5 5 5 5 5 6 5 6 5 5 5 5 5 5 5 5 5 5 5 5 5 5 5 5 5 5 5 5 5 5 6 5 5 5 5 5 5 6 5 5 6 5 5 5 5 5 5 5 5 5 5 5 5 5 5 5 5 5 5 5 5 5 5 5 5 5 5 5 5 5 5 5 5 5 5 5 5 5 5 5 5 5 5 6 5 5 5 5 5 5 5 5 5 5 5 6 5 5 5 5 5 5 5 5 5 5 5 5 5 5 5 5 5 5 5 5 5 5 5 5 5 6 6 5 5 5 6 5 5 5 5 5 6 5 5 6 6 5 5 5 5 5 5 5 5 5 5 5 5 5 5 5 5 5 5 5 5 5 5 5 5 5 5 5 5 6 5 6 5 6 5 5 6 5 5 5 5 6 5 5 5 6 5 5 5 5 5 5 5 5 5 5 6 5 5 5 5 5 5 5 5 5 5 5 5 5 5 5 5 5 5 5 5 5 5 6 5 5 5 5 5 5 5 5 5 5 5 5 5 6 5 5 5 5 5 5 5 5 5 5 5 5 5 5 5 5 5 5 5 5 5 5 5 6 5 5 5 6 5 5 5 6 6 5 5 5 5 6 5 5 6 5 5 5 5 5 5 5 5 5 5 5 5 5 5 5 5 5 5 6 5 5 5 5 5 5 5 5 5 5 5 5 5 5 5 6 5 5 5 5 5 5 5 5 5 5 5 5 5 5 5 6 5 5 5 5 5 5 5 5 5 5 5 5 5 5 5 5 5 5 5 5 5 5 5 5 5 5 6 5 5 5 5 5 6 5 5 5 5 5 5 5 5 5 6 6 5 6 5 6 5 5 5 5 5 6 5 5 5 5 6 5 5 6 6 5 5 5 5 5 5 5 5 6 6 5 5 6 5 6 6 5 5 5 5 5 6 5 5 5 5 5 6 5 5 6 5 5 5 5 6 5 5 5 5 5 5 5 5 5 5 5 6 5 5 5 5 6 5 5 5 6 5 5 5 5 5 5 5 5 5 5 5 6 5 5 5 5 6 5 5 5 5 5 5 5 5 5 5 6 5 6 5 5 5 5 5 5 6 5 5 5 5 5 6 5 5 5 6 5 5 5 5 6 5 5 5 5 5 5 5 5 5 5 5 5 5 6 5 5 5 5 5 5 5 5 5 5 5 5 6 5 5 5 5 5 5 6 5 6 5 5 5 5 5 5 5 5 5 5 5 5 5 5 5 5 5 6 5 5 5 5 6 6 6 5 5 5 5 5 5 5 5 5 5 5 5 5 5 6 5 5 5 5 6 5 5 6 5 6 5 5 5 5 5 5 6 5 5 5 5 5 5 5 5 5 6 5 5 6 5 5 6 5 5 5 5 5 5 6 5 5 5 5 5 6 5 5 5 5 5 5 5 5 5 5 5 5 6 5 5 5 5 5 5 5 5 5 5 5 5 6 5 5 5 5 5 5 5 5 5 5 6 5 5 5 5 6 5 5 6 5 5 5 6 5 6 5 5 5 5 5 5 5 5 5 5 5 5 5 5 5 5 5 5 5 5 5 5 5 5 5 5 5 5 5 5 5 5 5 5 5 5 5 5 6 6 5 5 5 5 5 5 5 5 5 6 6 5 5 5 5 5 6 6 5 5 6 6 5 5 5 5 5 5 6 5 5 5 5 5 5 5 5 5 5 5 5 5 5 5 5 5 5 5 5 5 5 6 5 5 5 5 5 5 5 6 6 5 5 5 5 5 5 5 5 5 5 5 5 5 5 5 5 5 5 5 5 5 5 5 5 5 5 5 5 5 5 5 6 5 6 5 5 5 5 5 5 5 5 5 5 5 5 5 5 5 5 5 5 5 5 5 5 5 5 5 6 5 5 6 5 6 6 5 5 5 5 5 5 5 5 5 5 5 5 5 5 5 5 5 5 5 5 5 5 5 5 5 5 5 5 5 5 5 5 5 5 5 5 5 5 5 5 5 5 5 5 5 5 5 5 5 5 5 5 5 5 5 5 5 5 5 5 6 5 5 5 5 5 5 5 5 5 5 5 5 5 5 5 5 5 5 5 5 6 5 5 5 5 5 5 5 5 5 5 6 5 5 5 5 5 5 6 5 6 5 5 5 6 6 6 5 5 5 5 5 5 6 5 6 5 5 5 5 5 5 5 5 5 5 5 5 5 5 5 5 5 5 5 6 5 5 5 5 6 6 5 5 6 5 5 5 6 6 5 5 5 5 6 6 5 5 5 5 5 5 6 5 5 5 5 5 5 5 5 5 5 6 5 6 5 5 5 5 5 5 5 5 5 6 5 5 5 5 5 5 5 5 5 5 5 5 5 5 5 5 5 6 5 5 5 5 5 5 5 5 5 5 5 6 5 5 5 5 6 5 5 5 5 6 5 5 5 6 5 5 6 5 5 5 6 5 5 5 6 5 5 5 5 5 5 5 5 6 5 5 5 5 6 5 5 5 5 5 5 5 5 5 6 5 5 5 5 5 6 5 5 5 6 6 5 5 5 5 5 5 5 5 5 6 5 5 5 5 5 6 5 5 6 5 5 5 6 5 5 6 5 5 5 5 5 6 6 5 5 5 5 5 5 5 5 5 5 5 6 5 5 5 5 5 6 5 5 5 5 5 6 6 5 5 5 5 6 5 5 5 6 5 5 5 5 5 5 5 5 5 6 5 5 5 6 6 5 5 5 5 5 5 5 5 5 6 5 5 5 5 5 5 5 5 6 5 5 5 5 5 5 5 5 5 5 5 5 5 5 5 5 5 5 5 5 5 5 5 5 5 5 5 5 5 6 5 5 5 5 5 6 5 5 6 6 5 5 5 5 5 5 5 5 5 5 5 5 5 5 5 5 5 5 5 5 5 6 5 5 5 6 5 5 5 5 6 5 5 5 5 5 5 5 5 5 5 5 5 5 5 5 6 5 6 5 5 5 5 5 5 5 5 6 5 6 5 6 5 6 5 5 5 5 5 5 5 6 5 5 5 5 6 6 5 5 5 5 5 5 5 5 5 5 5 6 5 5 5 5 5 5 5 5 5 5 5 6 5 5 5 6 5 5 5 5 5 5 5 5 5 5 5 5 5 5 5 5 5 5 5 5 5 5 5 5 5 5 5 6 5 6 5 5 6 5 5 5 5 5 5 5 6 5 5 6 5 6 5 6 5 5 6 5 6 5 5 5 6 5 5 5 5 5 5 5 5 5 6 5 5 5 6 5 6 5 5 5 5 6 5 5 5 5 5 5 5 5 5 6 5 5 5 5 5 5 5 5 6 5 5 5 5 5 5 5 5 5 5 5 5 5 5 5 5 5 5 5 5 5 5 5 5 5 6 6 5 5 6 5 5 5 5 5 5 5 6 5 5 6 5 5 5 5 5 5 5 5 5 5 5 5 5 5 5 5 5 6 5 5 5 5 5 5 5 5 5 5 5 5 5 5 5 5 5 5 5 5 5 5 5 5 5 5 5 5 5 5 5 6 6 5 5 5 5 6 5 5 5 5 5 5 5 5 5 6 5 5 5 5 5 6 5 6 5 5 6 5 5 5 5 5 5 5 6 5 5 5 5 5 6 5 5 5 5 5 5 5 5 5 6 5 5 5 5 5 5 6 5 5 5 5 5 5 5 6 5 5 5 5 5 5 5 5 5 5 5 5 5 6 5 5 5 5 5 5 6 5 5 5 5 5 6 5 5 6 5 6 5 5 5 5 5 6 5 5 5 5 5 5 5 6 5 5 5 6 5 6 5 5 6 5 5 5 5 5 5 5 5 5 5 5 5 5 5 5 6 5 6 5 5 5 5 5 5 5 5 5 5 6 5 5 5 5 5 5 5 5 5 6 5 5 5 5 5 6 5 5 5 6 5 5 5 6 5 5 5 5 5 5 5 6 5 5 5 6 5 5 5 6 5 5 5 5 5 6 5 5 5 5 6 5 5 5 6 5 5 5 5 5 5 5 5 6 5 5 5 5 5 5 5 5 5 6 5 5 5 5 5 6 5 5 5 5 5 5 5 5 5 5 5 5 5 5 5 5 5 5 5 5 5 5 5 5 5 6 5 5 5 5 5 5 5 5 6 5 5 5 5 5 5 5 5 6 5 5 5 5 5 5 5 5 6 5 5 5 6 5 5 6 5 6 6 5 6 5 5 6 5 5 5 5 5 5 5 5 5 6 5 5 5 5 6 5 5 6 5 6 5 5 5 5 5 5 5 5 5 5 5 5 5 5 5 5 5 5 5 5 5 5 5 5 5 5 5 5 5 5 5 5 5 5 5 5 5 5 5 5 5 5 5 5 5 5 5 5 5 5 5 5 5 5 5 5 5 5 5 5 5 6 5 5 5 5 5 5 5 5 5 5 5 5 5 5 5 5 5 5 5 5 5 5 5 5 6 6 5 6 5 5 5 5 6 5 5 5 5 5 6 5 5 5 6 5 5 5 5 5 6 5 5 5 5 5 5 5 5 6 5 5 5 5 5 5 5 5 5 5 5 5 5 5 5 5 5 5 5 5 5 5 5 6 5 5 5 5 5 5 5 5 5 5 5 5 5 5 5 5 6 5 5 5 5 5 5 5 6 5 5 5 5 5 5 5 5 5 5 5 5 5 5 5 6 5 5 5 5 5 5 6 5 5 6 5 6 6 5 5 5 5 5 6 5 6 5 5 5 5 5 5 5 5 5 6 5 5 5 6 5 6 5 5 6 5 5 6 5 5 6 5 5 5 6 5 5 6 5 5 6 6 5 5 5 5 6 5 5 5 5 5 5 5 5 5 5 5 5 5 5 5 6 5 5 5 6 5 5 6 5 5 5 5 6 5 5 5 5 5 5 6 5 5 5 5 5 5 6 5 5 5 5 5 5 5 5 5 6 5 5 5 5 5 5 5 5 5 5 5 5 6 5 5 5 5 5 6 6 5 5 5 5 6 6 5 5 6 5 5 6 5 6 5 6 5 5 5 6 6 5 5 5 5 5 5 5 5 6 5 5 6 5 5 5 5 5 5 5 5 6 5 5 5 5 5 5 5 5 5 5 5 5 5 5 5 5 5 5 5 5 5 5 5 5 5 5 5 5 5 5 5 5 5 5 5 5 5 6 6 5 5 6 5 5 5 6 6 5 6 5 5 5 5 5 6 5 5 6 5 5 5 5 5 5 5 6 5 5 5 6 6 5 5 5 5 5 5 5 5 5 5 5 6 5 5 5 5 5 5 5 5 5 5 5 5 5 5 5 6 5 5 5 5 5 5 5 5 5 5 5 5 5 5 5 5 6 6 5 5 6 5 5 6 5 5 5 5 6 5 5 5 5 6 6 5 5 5 5 6 5 5 5 5 6 6 5 5 5 5 5 6 6 5 5 5 6 5 6 6 5 6 6 5 6 5 5 5 5 6 5 5 5 5 5 5 5 5 5 6 6 6 6 5 5 5 5 5 5 5 6 5 5 5 5 5 5 5 5 5 5 6 5 5 5 5 5 5 6 5 5 6 5 5 5 5 5 5 5 5 6 5 5 5 5 5 6 5 6 5 5 5 5 5 5 5 5 5 5 5 5 5 5 5 5 5 5 5 5 5 5 5 5 5 5 5 5 5 5 5 5 5 5 5 5 5 5 5 6 5 6 5 6 5 5 5 6 5 6 6 5 5 6 5 6 6 6 5 5 5 5 5 5 5 5 5 5 6 5 5 6 5 6 5 5 6 5 6 6 5 5 6 5 5 5 5 6 5 5 6 6 5 5 5 5 5 5 5 5 5 5 5 5 5 5 5 5 6 6 5 5 5 6 5 5 6 5 5 6 5 5 5 6 5 5 5 5 5 5 5 5 5 5 6 5 5 5 5 5 6 5 5 5 5 5 5 5 6 5 5 5 5 5 5 5 5 5 5 5 5 5 5 5 5 6 5 5 5 5 5 5 5 5 5 5 5 5 6 5 5 5 5 5 5 5 5 5 5 5 5 5 5 5 5 5 5 5 6 5 5 5 5 5 5 6 5 5 5 5 5 6 5 5 5 5 5 5 5 5 5 5 5 5 5 5 5 5 5 5 5 5 6 6 5 5 5 5 5 5 5 5 6 5 5 5 5 5 5 5 5 6 5 5 5 5 5 6 5 5 5 5 5 5 5 5 5 5 5 5 5 5 5 6 6 5 5 5 5 5 5 5 6 5 5 5 5 5 5 5 5 5 5 5 5 5 5 6 5 5 5 5 5 6 5 5 5 5 6 5 6 5 6 5 6 6 5 6 5 5 6 5 5 5 5 5 5 5 5 6 5 5 5 5 6 6 5 6 6 5 5 5 6 6 5 6 5 6 5 5 5 6 5 5 5 6 5 6 5 5 5 6 5 5 5 5 5 6 6 5 5 5 6 5 5 5 5 5 5 5 6 5 5 6 6 5 6 5 6 5 5 5 6 5 6 5 5 6 5 5 6 6 6 5 6 5 5 5 6 6 5 5 5 5 5 5 5 5 6 5 5 5 6 5 6 5 6 5 6 6 5 5 5 6 5 6 6 5 5 5 5 5 5 5 5 5 5 6 6 5 5 6 5 5 5 5 5 5 5 5 5 5 6 5 5 5 6 5 5 5 5 5 5 5 5 6 5 5 5 5 5 5 5 6 5 5 5 5 5 6 5 5 5 5 5 5 5 5 5 5 5 5 5 5 5 6 5 5 6 6 6 6 5 6 5 5 6 5 5 5 5 6 5 5 5 6 5 5 5 5 5 5 5 5 6 5 6 5 5 6 5 5 5 6 5 5 5 6 5 5 6 5 5 5 6 5 5 5 5 5 5 5 5 5 5 5 5 5 5 6 5 5 6 5 5 6 5 5 6 5 5 5 5 5 5 6 5 6 5 5 5 5 5 5 6 5 5 5 6 5 6 5 6 6 5 5 5 5 5 5 5 6 5 6 5 6 5 6 5 6 5 5 6 5 5 5 6 5 5 5 5 5 5 5 5 6 5 5 5 5 5 5 5 5 6 5 5 6 5 5 5 5 5 5 6 5 5 5 5 6 5 5 5 5 5 6 5 6 5 5 5 5 5 5 6 5 5 5 5 6 5 5 5 6 6 5 6 5 5 5 5 5 5 5 5 5 5 5 5 6 5 5 5 6 5 5 6 5 5 5 6 5 5 5 6 5 5 5 5 6 5 5 5 5 5 5 5 5 5 5 5 5 5 6 5 6 5 6 5 6 5 5 5 5 6 5 5 5 5 5 6 5 5 5 5 5 6 6 5 5 6 5 5 5 5 5 5 6 5 6 5 5 5 5 5 5 5 6 5 6 5 5 5 5 6 5 5 5 5 6 5 6 5 6 5 5 5 5 5 5 5 5 6 5 5 5 5 5 5 5 5 5 5 5 5 5 5 6 6 5 5 6 5 5 6 5 5 6 6 5 6 5 5 5 6 6 5 5 6 5 6 5 5 5 6 5 5 5 6 5 5 5 5 5 5 5 5 6 5 5 5 5 5 5 5 5 6 5 5 5 5 5 5 5 6 5 5 6 5 5 5 5 5 6 5 5 5 6 5 5 5 5 5 5 6 5 5 5 5 5 5 6 5 5 6 5 6 5 5 5 5 5 5 6 5 5 5 6 5 5 5 5 5 5 5 5 6 5 5 5 5 5 5 6 5 5 5 6 6 5 6 6 6 5 6 5 5 5 5 6 6 6 5 5 5 5 6 5 5 5 5 5 6 5 5 5 5 5 6 5 5 5 5 5 5 6 5 5 5 5 6 6 5 5 5 5 5 5 5 5 5 6 5 5 5 6 5 5 5 5 5 6 6 5 6 5 5 6 5 5 5 5 5 5 5 5 5 6 6 5 5 5 5 5 5 5 5 5 5 5 6 6 5 6 5 5 5 5 5 5 5 6 5 5 5 6 5 5 5 6 5 5 5 5 5 5 5 6 6 5 5 5 6 5 6 5 5 5 5 5 5 5 5 5 5 5 5 5 5 5 5 5 5 5 5 5 5 5 5 6 5 5 5 5 5 5 5 5 5 5 5 5 5 5 5 6 5 5 5 5 5 5 5 5 6 5 5 5 5 5 5 6 5 6 5 5 5 6 6 5 5 5 6 5 5 5 6 5 5 5 6 5 5 5 5 5 5 5 6 5 5 5 5 6 5 5 5 5 5 5 5 6 5 5 5 5 5 6 5 5 5 6 6 5 5 5 5 5 5 5 5 5 5 5 5 5 5 5 5 5 6 5 5 6 5 5 6 6 5 5 5 5 5 5 5 5 5 5 5 5 5 5 5 6 5 5 5 6 5 5 5 5 5 5 5 5 5 5 5 5 5 5 5 5 5 6 6 5 5 5 5 5 5 5 5 5 6 5 6 5 5 5 5 5 5 5 5 6 6 5 5 5 6 5 5 5 5 5 5 5 5 5 5 5 5 6 5 5 5 5 5 5 6 5 5 5 5 5 6 5 5 5 6 5 5 5 5 6 6 5 5 5 5 5 5 5 5 5 5 6 5 6 5 5 5 5 5 6 5 5 5 5 5 5 5 5 5 5 5 5 5 5 5 5 5 5 6 5 5 5 5 6 5 5 5 5 5 5 5 6 5 5 5 5 5 5 5 5 5 6 5 5 5 5 6 6 5 5 5 5 5 6 6 5 5 5 5 5 5 5 5 6 5 5 5 6 6 5 5 5 5 5 5 5 5 5 5 5 5 5 5 5 5 5 5 5 5 5 5 5 5 5 5 5 5 5 5 5 6 5 5 5 5 6 5 5 5 6 6 5 5 5 5 5 5 6 6 5 5 5 5 5 5 6 5 6 6 5 5 5 6 5 5 6 5 6 5 6 5 5 5 5 6 5 5 5 5 6 5 5 5 5 5 5 5 5 5 5 5 5 5 5 5 5 5 5 5 5 5 5 5 5 5 5 5 5 6 5 5 5 5 5 5 5 5 5 5 5 5 5 6 5 5 5 5 5 5 5 5 5 5 5 5 5 5 5 5 5 6 6 5 5 5 5 5 6 6 5 6 5 5 6 6 5 6 5 5 5 5 6 5 5 5 6 5 6 6 5 5 5 5 5 5 5 5 5 6 6 6 6 6 5 5 5 5 5 5 5 5 5 5 5 5 5 5 5 5 5 5 5 5 5 5 5 5 5 6 5 5 5 5 5 6 6 5 5 5 5 5 5 5 5 6 5 6 5 5 5 5 5 5 6 5 5 6 5 6 5 5 5 6 5 5 5 6 5 5 5 5 5 5 5 5 5 6 5 6 5 5 6 5 5 5 5 6 5 5 5 5 5 5 5 5 5 6 5 6 6 5 6 5 5 5 5 5 6 5 6 6 5 5 5 5 5 6 5 5 5 5 5 5 5 5 5 5 5 5 5 5 5 5 5 5 5 5 5 5 5 5 5 5 5 5 5 5 5 6 5 5 5 5 5 5 5 6 5 5 5 5 6 5 5 5 5 5 5 5 5 5 5 5 5 6 5 5 5 5 5 5 5 5 5 6 5 6 5 5 6 5 5 5 6 5 5 5 5 5 5 5 5 5 5 5 5 5 5 6 5 5 5 6 5 5 5 5 6 5 5 5 5 5 5 5 5 5 5 5 5 5 5 5 5 5 5 5 5 5 5 6 5 5 5 5 5 5 5 5 5 6 6 5 5 5 5 6 5 5 5 6 6 5 6 5 5 5 5 6 5 5 5 6 5 5 5 5 5 5 5 5 5 5 5 5 5 5 6 5 6 6 5 5 6 5 6 5 5 5 5 5 5 5 5 5 5 5 6 5 6 5 5 5 5 5 5 5 5 5 5 5 5 6 5 5 5 5 6 5 5 5 5 5 5 5 5 6 5 6 5 5 6 6 5 5 5 5 6 6 6 5 5 5 6 5 5 5 5 5 5 6 5 5 6 5 5 5 5 5 5 5 5 5 5 6 5 6 5 5 6 5 5 6 5 5 5 5 5 5 5 5 5 6 5 6 5 5 5 6 5 5 5 5 5 5 5 5 5 5 6 5 5 5 5 5 5 5 5 5 5 5 5 5 5 5 6 5 5 6 5 5 5 5 5 5 5 5 6 5 5 6 5 6 5 5 5 6 5 5 5 5 5 5 5 5 5 5 5 5 5 5 5 5 6 5 5 5 5 5 5 5 6 5 5 5 6 5 5 5 5 5 5 5 5 6 5 5 5 5 5 5 5 5 5 5 5 5 5 5 5 5 5 5 5 5 5 5 5 5 5 5 5 5 5 5 5 5 5 5 5 5 5 5 5 5 5 5 5 5 5 5 5 5 5 5 5 5 5 5 5 5 5 5 5 5 5 5 5 5 5 6 5 5 5 5 5 5 5 6 5 5 5 5 5 6 5 5 5 5 5 5 5 5 5 5 5 5 5 5 5 5 5 6 5 6 5 5 5 6 5 5 6 5 5 5 6 5 6 6 6 5 5 5 5 6 5 6 5 5 6 5 5 5 5 5 6 5 5 5 5 5 5 5 5 5 5 5 5 5 5 5 5 5 5 6 5 5 5 5 5 5 6 5 5 5 5 5 5 5 5 5 5 6 5 5 6 5 5 5 6 5 5 6 5 6 5 6 5 5 6 6 5 5 5 5 5 5 5 5 5 6 5 5 5 5 5 5 5 5 6 5 5 6 5 5 6 5 5 6 6 5 5 5 6 5 6 6 5 5 6 6 5 5 6 5 6 5 5 5 6 5 5 6 5 6 5 5 6 5 5 5 5 5 5 5 5 5 5 6 5 5 5 5 5 5 5 5 5 5 5 5 5 5 5 5 5 5 5 5 6 5 5 6 5 5 5 5 5 5 5 5 5 5 5 5 5 5 5 5 5 5 6 5 5 5 5 6 5 5 5 5 5 5 6 6 5 5 5 5 5 5 5 5 5 5 5 5 5 5 5 5 5 5 6 5 5 5 6 5 5 5 6 5 5 5 6 5 5 5 6 5 5 5 5 5 5 6 5 5 5 5 5 5 5 5 5 5 5 5 5 5 5 5 5 5 5 5 5 5 5 5 5 6 6 5 5 5 5 6 5 6 5 6 5 6 5 5 5 5 5 5 5 6 5 5 5 5 5 5 5 6 5 5 5 5 5 5 6 5 5 5 5 5 5 5 5 5 5 5 6 6 5 5 5 5 5 6 5 5 5 5 5 5 5 5 5 5 5 5 5 5 5 5 5 5 5 5 5 6 6 5 5 5 6 6 6 5 5 5 5 5 5 5 6 5 5 5 5 5 5 5 5 5 5 5 5 5 5 5 5 5 5 5 5 5 5 5 5 5 5 5 5 5 5 5 5 5 5 5 5 6 5 5 5 5 5 5 5 5 5 5 5 5 5 5 6 5 6 5 5 5 5 5 5 5 5 6 5 5 6 6 5 5 5 5 5 6 6 5 5 5 5 5 5 5 5 5 5 5 5 5 6 5 5 6 5 6 5 6 5 5 5 5 5 5 5 5 5 5 5 5 5 5 5 6 5 5 5 5 5 5 5 6 6 6 5 5 6 5 6 5 5 5 6 5 6 5 6 5 6 5 6 5 5 5 5 5 5 5 6 5 6 5 5 5 6 5 5 5 5 5 6 5 5 6 5 5 6 5 5 5 6 5 5 5 5 5 5 5 5 5 6 5 5 5 5 5 5 6 5 5 5 5 5 6 5 5 5 5 5 5 6 5 5 6 5 5 5 5 5 5 5 5 5 5 5 5 5 5 5 5 6 5 5 5 5 5 5 5 5 5 5 5 5 5 5 5 5 5 5 5 5 5 5 5 5 5 6 5 6 5 5 5 5 5 5 5 5 6 5 5 5 5 6 5 5 5 5 5 5 5 5 5 5 5 5 6 5 5 5 5 5 5 5 5 6 5 5 5 5 5 5 5 5 5 5 5 5 5 5 5 5 5 5 5 5 5 5 5 5 5 6 5 5 5 5 5 5 5 5 5 5 5 5 5 5 5 5 5 5 5 6 5 5 5 5 6 5 5 6 5 6 6 5 5 5 6 5 6 5 5 6 6 5 5 5 5 6 5 5 6 5 5 5 5 5 5 5 6 5 5 5 5 6 5 5 5 5 5 6 5 5 6 5 5 5 6 5 5 5 5 6 5 5 5 5 5 6 5 5 5 5 6 5 5 5 5 5 5 5 5 5 6 5 5 5 5 6 5 5 5 5 5 6 6 5 6 5 5 6 5 6 5 6 5 5 6 6 5 5 5 5 5 6 5 5 5 6 5 5 5 5 5 6 5 5 5 6 5 6 5 6 5 6 6 5 5 5 6 5 5 5 6 6 5 6 5 5 5 6 6 5 6 5 6 5 5 5 6 5 5 5 5 6 5 5 5 5 5 5 5 6 5 6 5 6 5 5 5 6 5 6 5 5 5 6 6 5 5 6 5 5 5 5 5 5 5 5 5 5 5 5 5 5 6 5 6 6 6 6 5 5 5 5 5 5 5 5 5 5 6 5 5 5 5 5 5 5 5 5 5 5 5 5 5 5 5 5 5 5 5 5 5 5 5 5 5 5 5 5 5 5 5 5 5 5 5 5 5 5 5 5 5 5 5 5 5 5 5 5 5 6 5 5 5 5 5 6 5 5 5 5 5 5 5 5 5 6 5 5 5 5 5 5 5 5 5 6 5 5 5 6 6 5 5 5 5 5 5 5 5 5 5 5 5 5 5 5 5 5 5 5 5 5 6 5 5 5 5 5 5 5 5 5 5 5 5 5 5 5 5 5 5 5 5 5 5 5 5 5 5 5 5 5 5 6 5 5 6 5 6 6 5 5 6 6 6 5 5 5 6 6 5 5 5 5 5 6 5 5 5 6 5 6 5 5 5 5 5 5 6 5 5 6 5 5 5 5 5 5 5 5 6 5 5 5 6 5 5 5 5 5 5 5 5 5 5 5 5 6 5 5 5 5 5 5 5 5 5 5 5 5 5 5 5 5 5 5 5 5 5 5 5 5 5 5 5 5 6 5 5 5 5 5 5 5 6 5 5 6 5 6 5 5 5 5 5 5 5 5 6 5 5 6 5 5 5 5 5 5 5 5 5 5 5 5 5 5 5 5 5 5 5 5 5 5 5 5 6 6 6 5 5 5 5 5 6 5 5 5 5 5 6 5 5 5 5 6 6 5 5 5 5 5 5 6 6 5 5 6 5 5 5 5 5 5 5 5 5 5 5 6 5 5 5 5 5 5 5 5 5 5 5 5 6 5 5 5 5 6 5 6 5 5 5 5 5 5 5 5 5 5 5 5 5 5 5 5 5 5 6 5 6 5 5 5 5 5 5 5 5 5 6 5 5 5 5 6 6 5 6 5 5 5 5 5 5 5 5 5 5 5 5 5 5 5 5 5 5 5 5 5 5 5 5 5 5 5 6 6 5 5 5 5 6 6 5 6 5 6 5 5 5 5 5 5 5 5 5 5 5 5 6 5 5 5 5 6 5 5 6 5 5 5 5 5 5 5 5 5 5 5 5 5 5 5 5 5 5 5 5 5 5 6 5 5 5 5 5 5 5 5 5 5 5 6 5 5 5 5 5 5 5 5 5 5 5 5 5 5 5 5 5 5 5 5 5 6 5 5 6 6 5 5 6 5 6 5 5 5 6 5 5 5 5 5 5 5 5 5 6 5 5 5 6 5 5 5 5 5 5 5 5 5 5 5 5 5 5 5 5 5 6 5 5 5 5 5 5 6 5 5 5 5 5 6 5 5 5 5 5 5 5 5 5 5 5 6 5 6 5 5 5 5 5 5 5 5 5 5 5 5 5 5 5 5 6 5 5 5 5 5 5 5 6 5 5 5 5 5 6 5 5 5 6 5 5 5 5 5 6 5 5 5 5 5 6 5 5 5 6 5 6 6 5 6 5 5 5 5 5 5 5 5 5 6 5 5 5 5 5 5 6 5 5 6 5 6 5 6 5 5 5 5 5 5 5 5 5 6 5 5 5 5 5 5 6 5 5 5 5 5 5 5 5 5 5 5 5 5 5 5 5 6 5 5 6 5 5 5 5 5 5 6 5 5 5 5 5 5 5 5 5 5 5 5 6 6 5 6 5 5 5 5 5 5 6 5 5 5 6 5 5 5 5 5 6 5 5 5 6 5 5 5 5 5 5 5 5 5 5 5 5 5 5 5 5 5 5 5 5 5 5 5 5 5 6 5 5 5 6 5 6 5 5 5 5 5 5 5 5 5 5 5 5 5 5 5 5 5 5 5 5 5 5 6 5 5 5 6 5 5 5 5 5 6 5 6 5 5 5 5 6 5 5 5 5 5 5 5 5 5 5 6 5 6 5 5 5 6 6 5 5 5 5 5 5 6 5 5 5 5 6 5 5 6 5 6 5 6 5 5 6 5 5 5 5 5 5 5 5 5 5 5 6 5 5 5 5 5 5 5 5 6 5 5 5 5 5 5 5 5 5 5 5 6 5 5 5 5 5 5 6 5 6 5 6 5 5 6 5 5 5 5 5 5 5 5 5 5 5 5 5 5 6 5 6 5 5 5 5 5 5 5 5 5 5 5 5 6 5 6 5 5 5 5 5 5 6 5 5 6 5 5 6 5 6 5 5 6 5 5 5 5 6 5 5 5 5 5 5 5 5 5 6 5 6 5 5 5 5 5 5 5 5 5 5 5 5 5 5 5 5 5 5 5 5 5 5 5 5 5 5 5 6 5 5 6 5 5 5 5 5 5 5 5 5 5 5 5 5 5 6 5 5 6 5 5 5 5 6 5 5 5 5 5 5 6 5 5 5 5 6 5 6 5 6 5 5 5 5 5 5 5 5 5 5 5 5 6 5 5 5 5 5 5 5 5 5 5 5 5 5 5 5 5 5 6 5 5 5 5 5 5 5 5 5 5 5 5 5 5 5 5 5 5 5 5 5 5 5 5 5 6 5 6 5 6 5 5 5 5 5 6 5 5 5 5 5 5 6 5 5 5 5 5 6 5 5 5 5 5 6 5 5 5 6 5 5 5 5 5 5 5 5 6 5 5 6 5 5 5 5 5 6 6 5 5 5 5 6 6 5 5 5 5 6 5 5 5 5 5 6 5 5 5 5 5 5 6 5 5 5 5 5 5 5 5 6 5 5 5 5 5 5 6 5 5 5 5 5 5 5 5 5 5 5 5 6 5 5 5 5 5 5 5 5 5 6 5 5 5 5 5 5 5 5 5 5 5 5 5 5 5 5 5 5 5 5 5 5 5 5 5 5 5 5 5 5 5 5 5 5 5 5 5 5 5 5 5 5 5 5 5 5 5 5 5 5 5 5 5 5 5 5 5 5 5 5 5 6 5 5 5 5 5 5 5 5 5 5 5 5 5 5 5 5 5 6 5 5 5 5 5 5 5 5 5 5 5 5 5 5 5 5 5 5 6 5 5 5 5 5 5 5 5 5 5 5 5 5 5 5 5 5 5 5 5 5 5 5 5 5 5 5 5 6 5 5 5 5 5 5 5 5 5 5 5 5 5 5 5 5 6 5 5 5 5 5 5 5 6 5 5 5 5 5 5 5 5 6 5 5 5 5 5 6 5 5 5 5 5 5 5 5 5 6 5 5 5 5 5 5 5 5 5 6 5 5 5 5 5 5 5 5 5 5 5 5 5 5 6 5 6 5 5 5 5 5 5 6 5 5 6 5 5 5 6 5 5 6 5 5 5 5 6 5 5 5 5 6 5 5 5 5 5 5 6 5 5 5 5 5 6 6 5 5 5 5 5 5 5 5 5 5 5 5 5 5 5 5 5 5 6 5 5 5 5 5 5 5 5 5 6 5 5 6 5 5 5 5 5 5 5 6 5 5 5 5 5 5 5 5 5 5 5 6 5 5 5 5 5 5 6 5 5 5 5 5 5 5 6 5 5 5 6 5 6 5 5 5 5 5 5 5 5 5 5 5 5 5 5 5 5 5 5 5 6 5 5 5 6 5 5 5 5 5 6 5 5 5 5 5 5 5 5 5 5 5 5 5 5 5 5 6 5 5 5 5 5 6 6 5 5 5 5 5 5 5 5 5 5 5 5 5 5 5 5 5 5 5 5 6 5 5 5 5 5 5 5 5 5 5 5 5 6 5 5 5 5 5 6 6 6 5 6 6 5 5 5 5 5 5 5 6 6 5 5 5 5 6 5 5 5 5 6 5 5 5 5 6 5 5 5 5 5 5 5 5 5 5 5 5 6 5 5 5 5 6 5 5 6 5 5 5 5 5 5 5 5 5 5 5 5 5 5 5 6 5 5 6 5 5 5 6 6 5 5 5 6 5 5 5 5 5 5 6 5 5 5 5 5 5 5 5 5 5 5 5 6 5 5 5 5 5 5 5 5 5 5 5 5 5 5 5 5 5 5 5 5 5 5 5 5 5 5 5 6 5 5 5 5 5 6 5 5 5 6 6 5 5 5 5 5 5 5 5 5 5 5 5 5 5 5 5 5 5 5 5 5 5 6 5 5 5 5 6 6 5 5 5 5 5 5 5 5 5 5 5 5 5 5 5 6 5 5 5 5 5 5 5 5 5 5 5 5 5 5 5 5 5 6 5 6 5 5 5 6 5 5 5 5 5 6 5 5 5 5 5 5 6 5 5 5 5 5 5 6 5 6 5 5 5 6 5 5 5 5 5 5 5 5 5 5 5 5 5 5 6 6 5 5 5 5 5 6 5 6 5 5 6 5 6 5 5 5 5 6 5 5 6 5 5 5 5 5 5 6 5 5 5 5 5 5 5 5 5 5 5 5 5 6 5 5 5 5 5 5 5 5 5 5 5 5 5 6 5 5 5 6 5 5 5 5 5 5 5 5 6 5 5 5 5 6 5 5 6 6 5 5 6 6 5 5 5 5 5 5 5 5 5 5 6 6 5 5 5 5 5 5 5 5 5 6 5 5 6 5 6 5 5 5 5 5 6 5 5 5 5 5 5 5 5 6 5 5 5 5 5 5 5 6 5 5 5 6 6 5 5 5 5 5 5 5 5 5 5 5 5 5 5 5 5 5 5 5 5 5 5 5 5 5 5 5 5 5 5 5 5 6 5 5 5 6 5 5 5 5 5 5 5 5 5 5 5 5 5 5 5 5 5 6 5 5 5 5 6 5 5 5 5 5 5 5 5 5 6 5 5 6 5 5 5 5 5 5 5 6 6 5 5 5 5 5 5 6 5 5 5 5 5 5 5 5 5 5 5 5 5 5 5 5 5 5 5 5 5 5 5 5 5 5 5 5 5 5 5 5 5 5 5 5 6 5 5 5 5 6 5 5 5 5 5 5 5 5 5 5 5 5 5 5 5 5 5 5 5 5 5 5 5 5 5 5 5 5 5 5 5 5 5 5 5 5 5 5 5 5 6 5 5 5 5 6 5 5 5 5 5 5 6 5 5 5 5 5 5 5 5 5 5 6 5 5 5 5 5 5 5 5 5 5 6 5 5 5 5 5 5 5 5 5 5 5 5 5 5 5 5 5 5 5 5 5 5 5 5 5 5 5 5 5 5 5 5 6 5 5 5 5 5 5 6 5 5 5 5 5 5 5 5 5 5 5 5 5 6 5 5 5 6 6 5 5 5 6 5 5 6 5 5 5 5 6 5 5 5 5 5 6 6 5 6 5 5 5 6 6 5 5 5 5 5 5 5 5 5 6 5 5 6 5 5 5 5 5 5 5 5 5 5 5 5 5 5 5 6 5 6 6 5 5 5 5 5 5 6 5 6 5 5 5 5 5 5 5 5 5 5 5 5 5 5 6 5 5 5 6 5 5 5 5 5 5 5 5 5 5 5 5 5 5 6 5 5 5 5 5 5 6 5 5 6 5 5 5 5 5 5 6 5 5 5 5 5 5 5 5 5 5 6 5 5 5 6 5 5 5 6 5 5 5 5 5 6 5 5 5 5 6 6 5 5 5 6 5 5 5 5 5 5 5 5 5 5 6 6 5 5 6 6 5 6 5 5 6 5 5 5 5 5 5 5 6 6 5 5 5 6 5 5 6 5 5 5 5 5 6 5 5 5 5 5 6 6 6 5 5 5 5 6 5 5 6 5 6 5 5 6 5 5 6 5 6 5 5 5 5 5 6 6 5 5 5 5 5 6 5 5 6 5 5 5 5 5 6 5 5 5 5 5 5 5 5 5 5 5 5 6 5 5 6 6 5 6 6 5 6 5 6 5 5 6 6 5 5 5 5 5 5 5 5 5 5 5 5 5 5 5 5 5 6 5 5 5 5 5 5 5 5 6 5 5 6 5 6 5 5 5 5 5 6 5 5 5 5 5 5 5 5 5 5 5 5 5 5 5 5 5 5 5 5 5 5 6 5 5 5 5 5 5 5 5 5 5 5 5 5 5 5 5 5 5 5 5 5 5 5 5 5 5 5 5 5 5 5 5 6 5 5 5 5 5 5 5 6 6 5 5 5 5 5 5 5 5 5 5 5 6 6 5 5 5 5 5 5 5 5 5 6 5 5 5 5 5 5 5 5 5 5 5 5 5 5 5 5 6 5 5 5 6 5 5 5 5 6 5 5 5 5 5 5 5 5 5 5 5 5 5 5 5 6 6 5 5 5 5 5 5 5 5 5 5 5 5 5 5 5 5 5 6 5 5 5 5 5 5 5 5 5 5 5 5 5 5 5 5 6 5 5 5 6 5 5 5 5 6 5 5 5 5 5 5 5 5 5 5 5 5 6 5 5 5 5 5 6 5 5 5 5 5 5 6 5 5 5 5 5 5 5 5 5 5 6 5 6 5 5 6 5 5 5 5 5 5 5 5 5 6 5 5 5 6 5 6 5 5 5 5 6 5 5 5 5 5 5 5 5 5 6 5 5 6 5 
</DataArray>
<DataArray type="Float64" Name="stress" NumberOfComponents="9" format="ascii">
-1.851448316279857 -19.305561241057148 0 -19.305561241057148 1.5287088630138896 0 0 0 0 3638.525882111775 -3052.2728295224078 0 -3052.2728295224078 44.243193199421512 0 0 0 0 2.0641571888554608 -3062.1685403800657 0 -3062.1685403800657 1723.3640875703131 0 0 0 0 2479.0632559036021 -3738.3259338767966 0 -3738.3259338767966 0.39560380774503906 0 0 0 0 4.7839666856908138 -9.0915939988501293 0 -9.0915939988501293 -1.3572267640463451 0 0 0 0 1889.198035042733 -1256.1907086800784 0 -1256.1907086800784 2618.0764400525077 0 0 0 0 -63.653988866688451 -41.800267918253667 0 -41.800267918253667 12.316038677920005 0 0 0 0 -10.461309260074259 -5.502458006247906 0 -5.502458006247906 14.193638106839103 0 0 0 0 -62.781001812225441 -33.267133388246293 0 -33.267133388246293 24.689768236261443 0 0 0 0 -52.916449906682828 -32.988927951999358 0 -32.988927951999358 0.022398013665224425 0 0 0 0 -65.704924572630546 -21.836218586912992 0 -21.836218586912992 3.3687647430265457 0 0 0 0 8.1438286802440416 -17.646745222875325 0 -17.646745222875325 -1.0343645622488111 0 0 0 0 104.92682965264248 -36.152397655772802 0 -36.152397655772802 9.9365228812948772 0 0 0 0 2.9213520958819572 -6.3076736577232282 0 -6.3076736577232282 3.0809621208620683 0 0 0 0 3.6868400522798765 -1.792831062147684 0 -1.792831062147684 3.905952563164 0 0 0 0 31.144755989769408 -22.721043747515608 0 -22.721043747515608 3.8506848061552361 0 0 0 0 0.025377412090282311 -8.336613314586943 0 -8.336613314586943 6.2142023296328261 0 0 0 0 1.1893338988738833 -8.6101502912279102 0 -8.6101502912279102 6.125069524950959 0 0 0 0 -135.79559624098692 -34.720393683190196 0 -34.720393683190196 44.649637740891194 0 0 0 0 90.953137549906387 -48.304257646701444 0 -48.304257646701444 19.807713664340554 0 0 0 0 14.001632242526796 -57.690226974629724 0 -57.690226974629724 25.935660039615527 0 0 0 0 17.608008795355531 -63.306037312851629 0 -63.306037312851629 58.927373944600163 0 0 0 0 63.556643750562216 -88.671394938362937 0 -88.671394938362937 57.573724496971408 0 0 0 0 -1.908289822602697 -4.8892059923701368 0 -4.8892059923701368 2.1671052968357571 0 0 0 0 175.48439166312164 -67.794520583032863 0 -67.794520583032863 20.755483740722411 0 0 0 0 -0.0017647107225877985 -5.072361808906984 0 -5.072361808906984 2.611617392860353 0 0 0 0 -84.515487312281039 -2.5497115000798658 0 -2.5497115000798658 25.798544260440394 0 0 0 0 -236.34628941411211 -49.995339690562105 0 -49.995339690562105 108.88899978983682 0 0 0 0 -87.144281021450297 -28.488093210755324 0 -28.488093210755324 33.623449571372475 0 0 0 0 -95.618661246633565 -15.182111033602268 0 -15.182111033602268 28.807469290390145 0 0 0 0 -75.282809793498018 0.17943462376206298 0 0.17943462376206298 34.740663325734204 0 0 0 0 -57.531719852646347 -14.867739984460059 0 -14.867739984460059 25.105289493807504 0 0 0 0 -78.257622799021192 -56.634281977050705 0 -56.634281977050705 44.208314339819481 0 0 0 0 -50.722914276149822 -22.138297861121828 0 -22.138297861121828 13.855918298111646 0 0 0 0 -51.025991926807478 -13.265074546380731 0 -13.265074546380731 -3.5478254746853182 0 0 0 0 -50.455927794235322 -21.74433011983092 0 -21.74433011983092 0.013931596738984808 0 0 0 0 -43.352497689105803 -13.986849965032889 0 -13.986849965032889 6.5781909716315567 0 0 0 0 -63.09016201859049 5.2348455356259365 0 5.2348455356259365 41.909841819993744 0 0 0 0 -33.936729703487742 -12.504690592512418 0 -12.504690592512418 -1.7048075387556452 0 0 0 0 -31.747710416238988 -13.002770854945993 0 -13.002770854945993 0.0066912342517753132 0 0 0 0 -42.52573254960771 -15.336231959838187 0 -15.336231959838187 -0.0042952551739290357 0 0 0 0 -60.199102993879933 3.803870733398071 0 3.803870733398071 37.299319631609251 0 0 0 0 -2.7599322457515001 4.3010881845050903 0 4.3010881845050903 10.530633615250906 0 0 0 0 -58.705723775958177 0.34376719639112707 0 0.34376719639112707 22.02888374729082 0 0 0 0 -52.784292125128559 -30.997680769949511 0 -30.997680769949511 62.087525904864378 0 0 0 0 -54.970509417835274 10.166101805196377 0 10.166101805196377 35.333382140095637 0 0 0 0 -12.854635092546232 -6.1442643501213752 0 -6.1442643501213752 0.019831507556707043 0 0 0 0 83.208900488883955 -111.10244656138093 0 -111.10244656138093 89.260359493127908 0 0 0 0 -22.311704048519346 -7.545923786448725 0 -7.545923786448725 -0.80299798739622474 0 0 0 0 -33.277591309863055 -13.024541343605961 0 -13.024541343605961 2.3880904928373639 0 0 0 0 -39.042391003284138 -18.998347453423776 0 -18.998347453423776 0.010950975120067596 0 0 0 0 -12.349845603138192 3.9764257256150017 0 3.9764257256150017 -0.94604344181146871 0 0 0 0 -20.529464453540783 -1.6494379891688169 0 -1.6494379891688169 0.6093208953049043 0 0 0 0 -29.388159874546545 26.899104848922434 0 26.899104848922434 -18.458108418504708 0 0 0 0 -5.0285009390047577 -1.8564160147930409 0 -1.8564160147930409 -2.6599433825092547 0 0 0 0 18.847601402041619 -66.564841803854506 0 -66.564841803854506 60.94394709446351 0 0 0 0 185.9562968287064 6.1482863787969109 0 6.1482863787969109 -53.171831305808155 0 0 0 0 202.63915908375566 -155.6865938354531 0 -155.6865938354531 -26.145613732369384 0 0 0 0 310.87263526693278 -72.843751861895726 0 -72.843751861895726 19.362520231690723 0 0 0 0 468.2323635356297 -142.280547418879 0 -142.280547418879 -30.940089607796835 0 0 0 0 311.54380561767903 -76.158360843517585 0 -76.158360843517585 0.60109262383775786 0 0 0 0 2.0045146289328528 -2.0989666120508161 0 -2.0989666120508161 0.47253353539451837 0 0 0 0 37.979201329180796 -6.7062188261697884 0 -6.7062188261697884 -45.187517925340217 0 0 0 0 6.9969094890839187 -63.280889260095137 0 -63.280889260095137 -99.624087857228005 0 0 0 0 58.74704865309468 24.957064418777009 0 24.957064418777009 546.07000340014929 0 0 0 0 130.75065610188176 128.3255000848294 0 128.3255000848294 -59.921207251936721 0 0 0 0 0.87754803040979823 -0.32328096717462529 0 -0.32328096717462529 1.4853405689253236 0 0 0 0 1269.6830803720659 -216.49563278979622 0 -216.49563278979622 20.919768480729545 0 0 0 0 -90.57807812068495 -89.708449436926458 0 -89.708449436926458 675.5916385014425 0 0 0 0 1712.6090247717366 -495.2632885240746 0 -495.2632885240746 130.03138678331743 0 0 0 0 511.80579787967145 -547.44790044185356 0 -547.44790044185356 429.93614401361049 0 0 0 0 1078.2983238010347 -563.39390944420302 0 -563.39390944420302 430.02982159040403 0 0 0 0 -78.455328687326983 -6.0178828297684959 0 -6.0178828297684959 27.066142914787633 0 0 0 0 1.8750714183269963 3.6253109400846597 0 3.6253109400846597 8.6039540412041333 0 0 0 0 -96.596708042248792 36.341976433512173 0 36.341976433512173 4.5767877361504361 0 0 0 0 -92.294695219257846 117.44254410920985 0 117.44254410920985 7.5222011029400164 0 0 0 0 106.91824760075542 139.34700350444473 0 139.34700350444473 -12.279385515357717 0 0 0 0 -90.154522121127229 89.945912612456596 0 89.945912612456596 37.559762847600723 0 0 0 0 0.59448030244686834 1.5446017801809262 0 1.5446017801809262 3.9511195460778481 0 0 0 0 -8.821447973314207 -291.2246002122738 0 -291.2246002122738 654.74132640649623 0 0 0 0 46.647807818182628 -259.92645850164263 0 -259.92645850164263 341.57348809824907 0 0 0 0 49.192751919879811 -239.53762802140409 0 -239.53762802140409 498.70176784119394 0 0 0 0 18.840287189406808 -244.24826565445983 0 -244.24826565445983 682.63592143211281 0 0 0 0 762.51650315511506 -998.35133591671183 0 -998.35133591671183 1650.3004569560289 0 0 0 0 2680.6439221491455 -577.78634140733629 0 -577.78634140733629 1135.5036601801403 0 0 0 0 933.53761595293327 -956.49796418051847 0 -956.49796418051847 1090.585660555982 0 0 0 0 1360.8039304605627 -892.38772576866904 0 -892.38772576866904 736.58911150172935 0 0 0 0 1006.4247888770478 -777.05757413675019 0 -777.05757413675019 1118.6735712939408 0 0 0 0 663.05771941163403 -617.13036109301902 0 -617.13036109301902 1016.0600792753394 0 0 0 0 977.23392002997571 -801.01680748359649 0 -801.01680748359649 862.38229125132784 0 0 0 0 1816.4217480497609 422.82622578600422 0 422.82622578600422 1935.6848823204637 0 0 0 0 1151.870951264922 -1205.8540456435294 0 -1205.8540456435294 1748.3463567054932 0 0 0 0 111.81535424440517 -266.98505317716626 0 -266.98505317716626 1306.4009411918232 0 0 0 0 131.43320503203176 -136.17059234454246 0 -136.17059234454246 517.73317567756749 0 0 0 0 -27.941937929106643 -208.93948921868287 0 -208.93948921868287 879.70087697177223 0 0 0 0 363.03187954594614 -547.3499764737935 0 -547.3499764737935 800.587625445296 0 0 0 0 717.8505091117695 -466.44140621411498 0 -466.44140621411498 375.89313460337689 0 0 0 0 509.44851463018131 -405.74420422293042 0 -405.74420422293042 380.65450757849612 0 0 0 0 1002.0300121046021 -966.26761219152831 0 -966.26761219152831 986.98057620266627 0 0 0 0 548.65213242497703 162.99120696861792 0 162.99120696861792 -91.461909583566012 0 0 0 0 2.8908882618248413 -4.8283290962157537 0 -4.8283290962157537 10.029463059052091 0 0 0 0 1334.9136696846981 -27.997897996889151 0 -27.997897996889151 -91.973308262065984 0 0 0 0 -105.64289146004012 -162.19153308089881 0 -162.19153308089881 1271.2883858365021 0 0 0 0 2007.9083632394904 -579.83522971074854 0 -579.83522971074854 349.10497857519658 0 0 0 0 4.473502302350937 -2.7423425056551309 0 -2.7423425056551309 5.1003279038281732 0 0 0 0 577.67854486111901 -62.859132742669317 0 -62.859132742669317 -34.153153764744275 0 0 0 0 485.58579037192249 -148.18863546928696 0 -148.18863546928696 83.243390559888212 0 0 0 0 971.00706928054569 -202.32524891728826 0 -202.32524891728826 -14.504897525708657 0 0 0 0 424.39054047910031 -203.33073413971943 0 -203.33073413971943 148.19734232703922 0 0 0 0 652.75307523517404 -218.09496879077778 0 -218.09496879077778 77.518128090981918 0 0 0 0 356.20810916017217 -293.31188759634824 0 -293.31188759634824 -18.430683664017124 0 0 0 0 369.67581194661761 -177.5433755829954 0 -177.5433755829954 108.29292388819158 0 0 0 0 123.16281986338436 -69.702510635725048 0 -69.702510635725048 371.8407827608753 0 0 0 0 29.939626807303284 -337.76456060858618 0 -337.76456060858618 142.38018370622012 0 0 0 0 -38.648814786633011 -207.88721251449897 0 -207.88721251449897 33.743377019200125 0 0 0 0 182.30086196833872 -131.25692963213078 0 -131.25692963213078 146.37350485372735 0 0 0 0 324.65666767818766 -341.29780980749274 0 -341.29780980749274 397.17964795246371 0 0 0 0 390.14104906718785 -270.31239897964042 0 -270.31239897964042 -116.68693241968867 0 0 0 0 -59.80665834339743 -181.54317315515073 0 -181.54317315515073 -21.796733421215322 0 0 0 0 185.85540196613874 -341.48189540227759 0 -341.48189540227759 64.19414725824754 0 0 0 0 254.22526037221542 -325.59303130742046 0 -325.59303130742046 -0.11397367702738848 0 0 0 0 255.43311536937836 -293.72272761836939 0 -293.72272761836939 -292.05132402066374 0 0 0 0 -2.2097635059464551 0.69319504340046478 0 0.69319504340046478 -1.7917705359955676 0 0 0 0 155.06476339051733 -260.61335102696466 0 -260.61335102696466 -778.17749649671896 0 0 0 0 -92.426772940963929 -506.75257287632212 0 -506.75257287632212 -289.27530574865523 0 0 0 0 -22.964036557881627 -153.00045704573859 0 -153.00045704573859 -328.71534075711679 0 0 0 0 -22.641794015726191 -188.84552070216159 0 -188.84552070216159 -3.7353382135333959 0 0 0 0 -19.945241850402454 -408.58844391507137 0 -408.58844391507137 -89.670473720470909 0 0 0 0 -107.92171856311325 -286.60803959004261 0 -286.60803959004261 154.24219436031126 0 0 0 0 -98.044116317862063 -256.08292741575133 0 -256.08292741575133 -37.097195176349487 0 0 0 0 -89.536459107563132 -223.23441526165698 0 -223.23441526165698 89.571378539825673 0 0 0 0 -73.417764013123815 -186.61814328630135 0 -186.61814328630135 0.83539129768905696 0 0 0 0 -54.555851480887213 -171.33466941422012 0 -171.33466941422012 -7.8466884024819592 0 0 0 0 11.725671561160894 -72.090317738784279 0 -72.090317738784279 119.88609331885652 0 0 0 0 -106.83284753537737 -79.787391772355477 0 -79.787391772355477 204.72743501473451 0 0 0 0 -0.18278180433844682 -134.27418404627679 0 -134.27418404627679 195.71162435237784 0 0 0 0 -6.4693442343996139 -96.494222406618064 0 -96.494222406618064 142.54339176705253 0 0 0 0 -6.1303473869484151 -112.08037358176807 0 -112.08037358176807 73.959167845459888 0 0 0 0 -24.97266520858102 -123.00449792160362 0 -123.00449792160362 91.739615725600743 0 0 0 0 19.214664689451041 -69.3680298747704 0 -69.3680298747704 90.124691827068432 0 0 0 0 -4.751381846217555 -115.78249338502064 0 -115.78249338502064 63.495233959831239 0 0 0 0 0.754140198987443 -129.33506635483354 0 -129.33506635483354 82.359260889686993 0 0 0 0 -1.3750120289872569 -4.5878892667459752 0 -4.5878892667459752 1.7263325529675626 0 0 0 0 246.65825264862724 -127.63779114247336 0 -127.63779114247336 37.803251413613907 0 0 0 0 0.0012905920739285648 -5.0635290566060576 0 -5.0635290566060576 2.6138292600498971 0 0 0 0 -192.32436897402658 -45.99666669612634 0 -45.99666669612634 496.99882483590045 0 0 0 0 -193.72576039665728 -81.476760541430849 0 -81.476760541430849 61.450488304522878 0 0 0 0 11.050281845433346 -362.81835223190683 0 -362.81835223190683 202.08582413186377 0 0 0 0 -319.6816827275743 -121.99062683736702 0 -121.99062683736702 235.82915418542689 0 0 0 0 -1263.3602752329498 -967.59413121472971 0 -967.59413121472971 -376.5634343529091 0 0 0 0 -1081.3086893515647 -905.36620437358215 0 -905.36620437358215 -451.08407670674933 0 0 0 0 -1150.4080749655041 -1061.899576211712 0 -1061.899576211712 -870.65445350203663 0 0 0 0 4.4132544198287036 -12.270593474093779 0 -12.270593474093779 11.856806739914362 0 0 0 0 3.7503108414238824 -10.326111422120306 0 -10.326111422120306 10.767188558992018 0 0 0 0 -1240.3084693277524 -664.55969809492672 0 -664.55969809492672 -303.98308627588267 0 0 0 0 -1229.6247907422767 -788.7182575299812 0 -788.7182575299812 0.01199075642216485 0 0 0 0 -1369.1820728045495 -591.24690110221491 0 -591.24690110221491 -209.34489129211579 0 0 0 0 -1577.1077149438424 -925.94655352115296 0 -925.94655352115296 -243.47442377654079 0 0 0 0 -371.07644993110443 -592.13796802457364 0 -592.13796802457364 -336.87260763722588 0 0 0 0 -1578.3769718736876 -665.7477747667217 0 -665.7477747667217 -0.57024195989652071 0 0 0 0 949.0764215478157 -771.247750327635 0 -771.247750327635 -322.67597070033662 0 0 0 0 -0.13868750207944913 -3.5742840777805966 0 -3.5742840777805966 5.4993233392865477 0 0 0 0 12.108805736264912 -1381.2555645589637 0 -1381.2555645589637 -0.63721927096776199 0 0 0 0 20.225101416071993 -896.70300145907822 0 -896.70300145907822 -305.31419089368137 0 0 0 0 -488.52014976539795 -650.7109290360313 0 -650.7109290360313 -294.90818143442448 0 0 0 0 -442.74978580591414 -614.46254642823624 0 -614.46254642823624 -526.76772577978409 0 0 0 0 -700.3273340947635 -759.41257260450948 0 -759.41257260450948 -337.42695763758093 0 0 0 0 -573.52214412776812 -463.9670375188507 0 -463.9670375188507 -446.34678907659691 0 0 0 0 -629.26871777429187 -446.2940917465603 0 -446.2940917465603 -225.75878139702991 0 0 0 0 -326.01420715085987 -784.70479276711558 0 -784.70479276711558 -236.57790291622837 0 0 0 0 -219.4109395427804 -737.5304033197317 0 -737.5304033197317 -165.7092387178418 0 0 0 0 -192.85221819207072 -554.09776467768097 0 -554.09776467768097 260.8796421863517 0 0 0 0 -85.600317360847839 -589.48103723517124 0 -589.48103723517124 206.25652908638585 0 0 0 0 -115.92421778723656 -678.23722194729635 0 -678.23722194729635 26.693470804020762 0 0 0 0 -494.57713139174439 -761.77348318872328 0 -761.77348318872328 258.31707285498851 0 0 0 0 -472.8722861271599 -1029.3603289987805 0 -1029.3603289987805 -54.403039838514815 0 0 0 0 -366.4722824964847 -842.72957957075414 0 -842.72957957075414 93.842733746118029 0 0 0 0 -237.8878720675857 -1167.0995068854572 0 -1167.0995068854572 13.745024974414264 0 0 0 0 -311.54601000288676 -1156.2405855934048 0 -1156.2405855934048 17.879781813215232 0 0 0 0 -576.86942474573152 -1391.6994855166195 0 -1391.6994855166195 1.2011003289080691 0 0 0 0 -333.68163940441445 -486.27081379087758 0 -486.27081379087758 166.81052794899733 0 0 0 0 -228.3838032027852 -614.16658621124225 0 -614.16658621124225 320.63996900976053 0 0 0 0 -1471.8316953141766 -709.27864223604047 0 -709.27864223604047 356.85429999673215 0 0 0 0 -364.72534192499006 -37.776753262602142 0 -37.776753262602142 357.0229367967695 0 0 0 0 -7.4932232802067915 -4.4837091943851135 0 -4.4837091943851135 -0.75782723357554005 0 0 0 0 -12.876569160434883 -6.1768293456407264 0 -6.1768293456407264 -0.0019748924133937149 0 0 0 0 101.20715934645705 -147.91757244196197 0 -147.91757244196197 6.5825801264290931 0 0 0 0 137.74932141057798 -131.19553825505136 0 -131.19553825505136 2.0726099846415309 0 0 0 0 231.22564582506311 -578.03388880582497 0 -578.03388880582497 218.61099707166431 0 0 0 0 103.73696977384679 -481.31918873259565 0 -481.31918873259565 166.77170656225917 0 0 0 0 -152.08632280788152 -653.40197965869447 0 -653.40197965869447 347.57831107260427 0 0 0 0 25.206545749751967 -454.08890239054745 0 -454.08890239054745 222.08650128576119 0 0 0 0 31.382713538783719 -527.81423294345223 0 -527.81423294345223 553.85540473822039 0 0 0 0 86.922468674252741 -450.91087360178062 0 -450.91087360178062 462.23644445417449 0 0 0 0 323.08745754501433 -501.24780195621133 0 -501.24780195621133 230.23628052842105 0 0 0 0 153.23462834919337 -568.29330835620931 0 -568.29330835620931 618.44653043526341 0 0 0 0 543.22717042273143 -669.93639875199005 0 -669.93639875199005 352.24890473295818 0 0 0 0 -18.416996379950433 -331.50859822904749 0 -331.50859822904749 940.55959708677256 0 0 0 0 155.61820862553577 -345.03661826892858 0 -345.03661826892858 768.17283349347417 0 0 0 0 62.118956107355189 -419.69926237605978 0 -419.69926237605978 1315.6162962915841 0 0 0 0 350.28534219945141 -573.33090631421328 0 -573.33090631421328 591.25058000098215 0 0 0 0 368.72641087972443 -684.18666835268959 0 -684.18666835268959 969.51046481457888 0 0 0 0 -9.8745011325117957 -168.2065659036889 0 -168.2065659036889 504.15580461447826 0 0 0 0 4.6348118156893179 -219.44039735817933 0 -219.44039735817933 403.26779652998084 0 0 0 0 18.831994874184602 -141.80698012961875 0 -141.80698012961875 124.52079538663384 0 0 0 0 1.9021552123793697 0.47579119104761958 0 0.47579119104761958 1.7916522199689098 0 0 0 0 88.98762308138248 104.80217683254159 0 104.80217683254159 213.53020356086199 0 0 0 0 2.3248107400213485 30.950596279106321 0 30.950596279106321 254.48426544520771 0 0 0 0 31.755436353661935 -62.643212795097497 0 -62.643212795097497 -25.793082527612569 0 0 0 0 94.266151760785306 -32.604029485030651 0 -32.604029485030651 -72.588139318453614 0 0 0 0 -13.921723152860068 309.0261250447802 0 309.0261250447802 580.83581413775755 0 0 0 0 10.233937439583599 -14.976971167857634 0 -14.976971167857634 21.25215412520447 0 0 0 0 -14.685074624721892 -101.81146645311674 0 -101.81146645311674 -41.090840888326056 0 0 0 0 100.86026362474513 -169.98617706914229 0 -169.98617706914229 113.61938494583592 0 0 0 0 45.649172261815693 -3.3747897442299291 0 -3.3747897442299291 -71.816023544495692 0 0 0 0 11.848972644956916 -13.05958456665671 0 -13.05958456665671 13.798515886206928 0 0 0 0 21.227139093942242 -18.211818099051015 0 -18.211818099051015 43.604563490240253 0 0 0 0 88.854298139413004 40.008585587936977 0 40.008585587936977 55.714607967869597 0 0 0 0 58.976514277594106 -46.198443928416964 0 -46.198443928416964 17.865803955937736 0 0 0 0 9.5595491514407342 -3.7418605127774072 0 -3.7418605127774072 0.79983441438639602 0 0 0 0 27.743662107153796 -38.894109378787107 0 -38.894109378787107 33.411741143019754 0 0 0 0 29.711498890785151 -33.493498857089435 0 -33.493498857089435 36.856873319906299 0 0 0 0 32.21919483298467 -37.639439346921648 0 -37.639439346921648 33.39627699220074 0 0 0 0 22.946528905493324 -18.386219948733924 0 -18.386219948733924 12.098923278797884 0 0 0 0 45.359982896537986 -48.936239778413437 0 -48.936239778413437 29.000736355043045 0 0 0 0 -0.28425252945589818 -14.104584556067721 0 -14.104584556067721 11.143691481792075 0 0 0 0 15.762455980273728 -12.695571258127757 0 -12.695571258127757 -1.8195539594137529 0 0 0 0 35.670817279169569 -38.114092219911981 0 -38.114092219911981 40.48495053165243 0 0 0 0 25.66174470250553 -62.169411384747946 0 -62.169411384747946 -1.6233104590501171 0 0 0 0 -11.206206523725996 -54.22160814020026 0 -54.22160814020026 24.778347631072393 0 0 0 0 23.860876826613094 -18.061223664044519 0 -18.061223664044519 7.1033515919734782 0 0 0 0 -33.571178937796503 -44.477455695683602 0 -44.477455695683602 48.375478644185932 0 0 0 0 62.203563827948528 -34.090431514850934 0 -34.090431514850934 49.50049588371985 0 0 0 0 9.3599244790057128 -144.60194381956899 0 -144.60194381956899 17.161801571637625 0 0 0 0 89.991967248206493 -132.59758280217648 0 -132.59758280217648 18.798514452486415 0 0 0 0 1.2797107804481698 0.16457681174364325 0 0.16457681174364325 -3.7198293354342695 0 0 0 0 -304.49531012674561 -113.37703500447242 0 -113.37703500447242 49.938895958519424 0 0 0 0 -8.8393144907422538 -30.120116224378762 0 -30.120116224378762 -11.227303868799936 0 0 0 0 15.792287555435905 -63.04271080865874 0 -63.04271080865874 -12.341542696385204 0 0 0 0 -1.9626915263925184 -3.5863333104048252 0 -3.5863333104048252 -3.7820241821725347 0 0 0 0 -474.3022529085647 23.94341301156237 0 23.94341301156237 119.70902436271717 0 0 0 0 -27.443297092955618 -24.728174364878214 0 -24.728174364878214 34.806343885778915 0 0 0 0 15.839947135711554 -93.675563352924655 0 -93.675563352924655 63.636329463559377 0 0 0 0 -5.7491100572198093 -9.2905068383654452 0 -9.2905068383654452 -4.1338958272553157 0 0 0 0 28.273171629523858 -88.014150972318021 0 -88.014150972318021 11.171816041358397 0 0 0 0 197.71093877068779 -348.46491692699055 0 -348.46491692699055 297.72929446402122 0 0 0 0 2.6855181879337238 1.697596250652424 0 1.697596250652424 -1.6421399711395566 0 0 0 0 -145.40454396078712 28.548632374106091 0 28.548632374106091 10.781515307076916 0 0 0 0 -81.081474828990395 -290.52983517190751 0 -290.52983517190751 -508.24160459263658 0 0 0 0 -464.69490981687704 -709.04697015659622 0 -709.04697015659622 -30.732185756431136 0 0 0 0 -496.62289616997077 -409.76978448308364 0 -409.76978448308364 -625.40944679865788 0 0 0 0 -291.74336854190915 -310.75449392142036 0 -310.75449392142036 -597.43062238860512 0 0 0 0 -438.53300509421751 -380.21408142618384 0 -380.21408142618384 -94.661328561342089 0 0 0 0 -606.1338389818211 -408.07944805577063 0 -408.07944805577063 -44.713116189668654 0 0 0 0 -253.93017960608267 -195.44738372143911 0 -195.44738372143911 43.26505135523621 0 0 0 0 -273.32919750726433 -191.17593350849347 0 -191.17593350849347 45.86462201156246 0 0 0 0 -88.217296674549289 -230.27756831184524 0 -230.27756831184524 -32.354675740250968 0 0 0 0 10.991010212848778 -404.23937672806642 0 -404.23937672806642 24.455464367518289 0 0 0 0 -284.04373993783111 -337.65573666514183 0 -337.65573666514183 42.225092220993247 0 0 0 0 -42.897227585330256 -370.53931476792786 0 -370.53931476792786 -189.17413248770026 0 0 0 0 41.634449783313357 -1024.4207960240901 0 -1024.4207960240901 334.4507952069107 0 0 0 0 1716.1820001747255 -212.63820704104728 0 -212.63820704104728 -261.79726582681906 0 0 0 0 1780.9026947612874 921.19354878085142 0 921.19354878085142 501.0699397570761 0 0 0 0 -9.1995370087215065 -6.339476919619301 0 -6.339476919619301 -3.3076114926535638 0 0 0 0 343.27799782750662 -223.14659848883457 0 -223.14659848883457 -1102.7445124890655 0 0 0 0 614.77637747841072 -923.22401501376589 0 -923.22401501376589 -154.72602916144569 0 0 0 0 10.99904772170234 -24.39476329846056 0 -24.39476329846056 15.443910283736386 0 0 0 0 -37.440703082349501 -399.46397627882834 0 -399.46397627882834 -1901.5880353812499 0 0 0 0 1167.0100063407372 563.05659465226199 0 563.05659465226199 -743.67082348933036 0 0 0 0 -80.265807098221558 86.526200997890555 0 86.526200997890555 574.48478200097452 0 0 0 0 -1879.9754689615802 -1898.095754964088 0 -1898.095754964088 -722.50672216452949 0 0 0 0 -1494.0618067917676 -2142.6061520322983 0 -2142.6061520322983 -1262.4245299148897 0 0 0 0 4.7543745405043154 -5.4961818856934173 0 -5.4961818856934173 4.9004276948757592 0 0 0 0 -1627.9795706631558 -2278.9177556302748 0 -2278.9177556302748 -358.9173490657995 0 0 0 0 -2166.8036186531099 -2282.5849273353633 0 -2282.5849273353633 -355.71120517920644 0 0 0 0 -0.95694733413762378 -5.3696435709655717 0 -5.3696435709655717 7.1168418360281294 0 0 0 0 -557.64280952147237 -232.67778381984681 0 -232.67778381984681 -361.15911677033 0 0 0 0 -298.52137988581126 -565.34380104914089 0 -565.34380104914089 -900.02587624288572 0 0 0 0 -14.55380950984074 -34.050216669707112 0 -34.050216669707112 -7.7223965478224841 0 0 0 0 -72.695656740597769 -39.508869619896359 0 -39.508869619896359 31.486624748344184 0 0 0 0 217.25682987895561 -160.96505523366068 0 -160.96505523366068 19.083934768341351 0 0 0 0 210.99770834364608 -145.15045226838629 0 -145.15045226838629 -20.650299169807113 0 0 0 0 252.24200533116527 -84.616610985613079 0 -84.616610985613079 -0.62273127351363655 0 0 0 0 241.17718614543628 -161.1910729738338 0 -161.1910729738338 -25.62317240331322 0 0 0 0 -61.790199726303399 -16.219096820484992 0 -16.219096820484992 27.978854116634466 0 0 0 0 -15.521848262137404 -34.396430237218937 0 -34.396430237218937 -0.13010988057550321 0 0 0 0 337.57060406314849 -150.88744603252417 0 -150.88744603252417 46.604349983332213 0 0 0 0 389.27072748270439 -204.36152183792001 0 -204.36152183792001 180.49932702165097 0 0 0 0 360.45011954338406 -424.76517249257449 0 -424.76517249257449 -37.965723613451701 0 0 0 0 -6.7296703430496976 -32.900367683544175 0 -32.900367683544175 6.076628352381249 0 0 0 0 510.778407241276 -323.16788971449569 0 -323.16788971449569 30.682480658346321 0 0 0 0 175.98471450645229 -304.36786892445161 0 -304.36786892445161 454.6146519290196 0 0 0 0 224.90973593483068 -296.05354662665923 0 -296.05354662665923 131.20278696576133 0 0 0 0 247.01197861452238 -97.06636728894955 0 -97.06636728894955 106.41530863159278 0 0 0 0 229.91073109462832 -194.38390733239521 0 -194.38390733239521 149.68748337816214 0 0 0 0 105.81574434922368 -97.417708515102277 0 -97.417708515102277 237.46882567275316 0 0 0 0 10.551500071469491 -205.00931485570254 0 -205.00931485570254 413.65149217787257 0 0 0 0 -30.579549759506307 -14.365170313268322 0 -14.365170313268322 -8.6721493728842347 0 0 0 0 -162.11258179251308 -218.90229814720806 0 -218.90229814720806 -12.504275926679838 0 0 0 0 14.491782230863464 29.370226542887394 0 29.370226542887394 186.86017185656965 0 0 0 0 -92.210036525910255 -261.63725418931426 0 -261.63725418931426 32.599962432199391 0 0 0 0 105.5606618820093 -112.20710817129293 0 -112.20710817129293 -97.0258118736092 0 0 0 0 90.25880425304058 -114.24669541741605 0 -114.24669541741605 104.62415225233417 0 0 0 0 64.302298232443718 -163.26073749978241 0 -163.26073749978241 2.1726640420092735 0 0 0 0 86.412748564165668 -203.3152769022563 0 -203.3152769022563 0.74899387436744291 0 0 0 0 -212.75611787951857 -105.9369615177784 0 -105.9369615177784 54.47658857042552 0 0 0 0 -64.596745749819092 -285.94867679766321 0 -285.94867679766321 -18.066709270293359 0 0 0 0 26.468867606418883 -16.009652408943083 0 -16.009652408943083 7.0597469958970009 0 0 0 0 19.817172587349404 -29.506799812798022 0 -29.506799812798022 1.6242066162827768 0 0 0 0 154.2970060015432 -99.019322960280988 0 -99.019322960280988 39.066845896333689 0 0 0 0 161.98612648675771 -99.011432541883551 0 -99.011432541883551 33.843084403662942 0 0 0 0 66.332813967344407 -74.714185756344918 0 -74.714185756344918 39.9497766651495 0 0 0 0 107.34667334918504 -83.95032067932334 0 -83.95032067932334 44.584120068349876 0 0 0 0 149.40947510502883 -106.11381311724836 0 -106.11381311724836 17.877940678292362 0 0 0 0 106.93956233853532 -87.726068000862142 0 -87.726068000862142 28.857840690645389 0 0 0 0 75.209490152675016 -78.289287959725584 0 -78.289287959725584 33.826000529964688 0 0 0 0 104.66145025244987 -65.945678029231203 0 -65.945678029231203 31.125787192024291 0 0 0 0 105.03640502014605 -64.261353638285073 0 -64.261353638285073 31.103948531141214 0 0 0 0 108.78342057084774 -75.089609578258205 0 -75.089609578258205 -0.63814633313450031 0 0 0 0 143.33387214181494 -91.575737865627161 0 -91.575737865627161 26.989994992865832 0 0 0 0 -98.847570074416581 -234.79009083156416 0 -234.79009083156416 -31.398850287798268 0 0 0 0 31.546466903624747 -15.549834417387643 0 -15.549834417387643 4.7915726358252755 0 0 0 0 -19.656880490572348 -361.95931666955403 0 -361.95931666955403 119.84048333305691 0 0 0 0 -37.669614213742818 -36.8567099283988 0 -36.8567099283988 0.079109933558981993 0 0 0 0 -65.409818313946744 39.05651758717795 0 39.05651758717795 16.142483720614109 0 0 0 0 -15.374494859519473 -66.033124567366031 0 -66.033124567366031 148.35570464155171 0 0 0 0 44.288072229714089 -67.22160062742114 0 -67.22160062742114 59.900506954378216 0 0 0 0 29.755205627684973 -29.493229542781137 0 -29.493229542781137 42.463252310175449 0 0 0 0 28.509110134880757 -46.86784970331064 0 -46.86784970331064 93.762407187517965 0 0 0 0 9.1204839465734153 -12.331958892805574 0 -12.331958892805574 9.6433321660106799 0 0 0 0 40.57505917151866 -81.60822627331072 0 -81.60822627331072 88.617474498019874 0 0 0 0 36.004004295740742 -55.520537179487292 0 -55.520537179487292 83.443859836668707 0 0 0 0 -3.2412593967582666 -51.307634753117505 0 -51.307634753117505 29.489517384169289 0 0 0 0 34.118580683352775 -48.60088736313628 0 -48.60088736313628 26.656895928754238 0 0 0 0 84.315265038079815 -69.825315415655496 0 -69.825315415655496 58.599386272777338 0 0 0 0 61.186847678818708 -33.223562229444326 0 -33.223562229444326 3.4705518565826878 0 0 0 0 4.9632769176055263 -34.721200861055081 0 -34.721200861055081 32.084755752515775 0 0 0 0 2.8471584373943983 -5.054047241336491 0 -5.054047241336491 9.3707100888220793 0 0 0 0 105.08952842393774 -86.336830899206689 0 -86.336830899206689 79.042729256987514 0 0 0 0 63.533259917167015 -111.12024246821238 0 -111.12024246821238 134.82216032773431 0 0 0 0 74.172837597754551 -72.717680048896 0 -72.717680048896 63.228423034684965 0 0 0 0 65.294063857814763 -72.454568528817617 0 -72.454568528817617 83.670998858986422 0 0 0 0 28.626724379020743 -73.20178902123007 0 -73.20178902123007 114.9399023996375 0 0 0 0 30.668602066434687 -57.290699356104597 0 -57.290699356104597 48.199255846644519 0 0 0 0 21.075952270693961 -91.465979549437179 0 -91.465979549437179 64.84390151307889 0 0 0 0 32.50443133340903 -51.372006992289386 0 -51.372006992289386 49.757366029712671 0 0 0 0 20.214015225428739 -62.064609262175509 0 -62.064609262175509 61.239418899807788 0 0 0 0 68.942681568689295 -41.83802922317409 0 -41.83802922317409 18.804322214244166 0 0 0 0 82.128200262130122 -62.59858570311917 0 -62.59858570311917 44.533077631596825 0 0 0 0 80.965293257046142 -58.692546397916885 0 -58.692546397916885 50.300113514473196 0 0 0 0 76.389353184211359 -49.837722428343113 0 -49.837722428343113 68.825930347607937 0 0 0 0 95.708098828705261 -63.242707140248967 0 -63.242707140248967 67.833494989514293 0 0 0 0 66.441180409186927 -77.185245416934777 0 -77.185245416934777 105.73151402111398 0 0 0 0 76.306638005396962 -94.871261128970218 0 -94.871261128970218 67.670565471227746 0 0 0 0 50.113874933624174 -140.9046668163237 0 -140.9046668163237 40.451862324989634 0 0 0 0 -2.798058069179632 -0.71362561603592667 0 -0.71362561603592667 2.6570359217637929 0 0 0 0 54.88169492103043 -101.77332164837571 0 -101.77332164837571 82.90150549286227 0 0 0 0 97.747392665798543 -88.578682118328288 0 -88.578682118328288 80.081471248297021 0 0 0 0 68.428250778582878 -49.295877094496973 0 -49.295877094496973 32.607335468725068 0 0 0 0 45.521247141965432 -11.419662548825727 0 -11.419662548825727 -43.299471619597171 0 0 0 0 86.634947873419151 -59.639387878036359 0 -59.639387878036359 31.117567208770197 0 0 0 0 2.868260370093509 -8.1989307028314329 0 -8.1989307028314329 9.0830140296365585 0 0 0 0 88.591729277337436 -52.903540593179059 0 -52.903540593179059 20.82163991802372 0 0 0 0 79.621370557812043 -61.760358591214754 0 -61.760358591214754 30.488137541113247 0 0 0 0 88.594480973239115 -80.841240097121045 0 -80.841240097121045 -71.54534855732345 0 0 0 0 68.605366990435869 -89.031998947059037 0 -89.031998947059037 14.612462947668973 0 0 0 0 86.968490541388746 -71.576883681700565 0 -71.576883681700565 9.6836853136483114 0 0 0 0 92.312645043683005 -108.03620978436084 0 -108.03620978436084 1.818340228881425 0 0 0 0 39.23246333746647 -125.61162750970107 0 -125.61162750970107 -16.300507696549175 0 0 0 0 24.562716757951421 -55.582621379149714 0 -55.582621379149714 13.776695923443185 0 0 0 0 90.378819304439276 -73.276087495114652 0 -73.276087495114652 30.355329956694639 0 0 0 0 55.688602659123717 -64.80830617092397 0 -64.80830617092397 45.752573022866272 0 0 0 0 78.794452614645706 -98.090044548185688 0 -98.090044548185688 18.066026352782501 0 0 0 0 93.227589989444823 -99.134648206847487 0 -99.134648206847487 9.0448937741166446 0 0 0 0 80.609471479393392 -72.715570280756637 0 -72.715570280756637 26.684924727297783 0 0 0 0 113.85944313804794 -53.806495599714253 0 -53.806495599714253 97.583802894863766 0 0 0 0 114.08387407600367 -34.038044534803475 0 -34.038044534803475 43.333070072316332 0 0 0 0 112.14168983065338 -62.485448145831015 0 -62.485448145831015 -31.124079802233609 0 0 0 0 43.196311358544335 -149.05366199991477 0 -149.05366199991477 -24.417443159632967 0 0 0 0 95.540698404875002 -84.142208765417308 0 -84.142208765417308 19.168976920249406 0 0 0 0 84.211661583554815 -280.0371080446057 0 -280.0371080446057 -286.45269978018769 0 0 0 0 -36.293822386680404 -23.371707534566667 0 -23.371707534566667 76.664143599022282 0 0 0 0 -4.1214918421019604 -0.015610205859445614 0 -0.015610205859445614 -3.9953576278478522 0 0 0 0 -18.461527464780374 -304.0155883817788 0 -304.0155883817788 17.981448258336371 0 0 0 0 1.4677760612613042 0.55170757781030488 0 0.55170757781030488 0.71643518282965601 0 0 0 0 257.07323472030112 -209.69114524096949 0 -209.69114524096949 11.429981823879643 0 0 0 0 131.90639676603314 -111.6501316629292 0 -111.6501316629292 19.779037096639513 0 0 0 0 120.28218009906413 -90.405019522570001 0 -90.405019522570001 92.527803078970464 0 0 0 0 14.955508208151628 -20.877592668767647 0 -20.877592668767647 1.109404286824315 0 0 0 0 149.88843134006311 -109.652406920668 0 -109.652406920668 37.680674442093732 0 0 0 0 152.8822768694663 -98.508871647980413 0 -98.508871647980413 45.33451126152795 0 0 0 0 193.1803160094787 -88.969633480261109 0 -88.969633480261109 -9.3608679847384337 0 0 0 0 186.63064579691854 -92.880490148840181 0 -92.880490148840181 32.68426929837733 0 0 0 0 142.03357673395658 -127.99753074086038 0 -127.99753074086038 40.784908660563815 0 0 0 0 134.88122022623429 -117.74765211372141 0 -117.74765211372141 39.790378841509664 0 0 0 0 135.19975792709738 -122.98413966080989 0 -122.98413966080989 56.049694128712872 0 0 0 0 98.784289982635528 -107.13944225168234 0 -107.13944225168234 56.818008783695404 0 0 0 0 75.115446230309317 -72.322252261394169 0 -72.322252261394169 66.824268230964663 0 0 0 0 107.5478412855208 -63.090158443665757 0 -63.090158443665757 20.184164759381829 0 0 0 0 139.94577229128481 -90.342246489668469 0 -90.342246489668469 8.5668342689168639 0 0 0 0 152.93904846560326 -113.60462371727044 0 -113.60462371727044 49.253379924441106 0 0 0 0 22.146477507132914 -22.23891216026982 0 -22.23891216026982 21.28758086889539 0 0 0 0 107.02550515790614 -62.277002747041067 0 -62.277002747041067 11.392509576681164 0 0 0 0 5.1190593127739703 -44.012124465899689 0 -44.012124465899689 -1.3004861567425792 0 0 0 0 151.93519639776787 -117.52413719613105 0 -117.52413719613105 39.975253505686851 0 0 0 0 108.39233149761276 -116.55150923230394 0 -116.55150923230394 21.156778308795765 0 0 0 0 118.24368522116856 -102.71484571210021 0 -102.71484571210021 36.91565655026352 0 0 0 0 144.79729815764586 -99.011755675448512 0 -99.011755675448512 39.722987517918227 0 0 0 0 24.755878977107443 -39.222145702178068 0 -39.222145702178068 16.112811758091823 0 0 0 0 58.737987634868944 -70.598843624335927 0 -70.598843624335927 56.659549555723402 0 0 0 0 4.4352478775690543 -126.46916186841554 0 -126.46916186841554 50.756618171322771 0 0 0 0 -9.6435168393181812 -148.08898628184397 0 -148.08898628184397 25.236079197449726 0 0 0 0 83.956875320276595 -205.9767231233709 0 -205.9767231233709 -2.4420877735456088 0 0 0 0 68.019651472506666 -161.67576538557478 0 -161.67576538557478 18.777082339278422 0 0 0 0 77.437678358488483 -151.54953609433142 0 -151.54953609433142 24.976626099913574 0 0 0 0 109.84354447104852 -127.9691110906715 0 -127.9691110906715 85.263530979933421 0 0 0 0 45.25596914133348 -116.47325800302497 0 -116.47325800302497 9.0301857960294001 0 0 0 0 82.979435403073694 -80.196895240517264 0 -80.196895240517264 46.623806347640453 0 0 0 0 87.756363455546094 -81.864002478986677 0 -81.864002478986677 43.777296945135788 0 0 0 0 79.292180667107459 -118.59479271583405 0 -118.59479271583405 63.983903096145696 0 0 0 0 126.84676493556617 -130.53440665481321 0 -130.53440665481321 65.468983714701608 0 0 0 0 79.019318533028127 -99.750341573824699 0 -99.750341573824699 73.696514897790621 0 0 0 0 81.086257037852192 -109.43964875839447 0 -109.43964875839447 81.021018327224738 0 0 0 0 13.629063080596097 -118.09100455826774 0 -118.09100455826774 40.434760185540654 0 0 0 0 98.64041121857008 -105.12592151177523 0 -105.12592151177523 48.431977724598255 0 0 0 0 147.46607194803073 -124.37779300484544 0 -124.37779300484544 55.550599603986484 0 0 0 0 48.289646861562346 -85.430291334490775 0 -85.430291334490775 37.32535098419504 0 0 0 0 97.481192111639587 -87.677664445786831 0 -87.677664445786831 37.524803139818687 0 0 0 0 60.738938115508063 -114.5346950191306 0 -114.5346950191306 25.085623419334297 0 0 0 0 41.013138203870653 -85.499103391398336 0 -85.499103391398336 68.881238696566186 0 0 0 0 0.60752484462704004 -91.712307723939858 0 -91.712307723939858 21.187950919973446 0 0 0 0 -88.238940471559545 -123.5685876230873 0 -123.5685876230873 66.135255424946081 0 0 0 0 -138.43410706965005 -106.36575631518645 0 -106.36575631518645 131.34065492960508 0 0 0 0 -157.79349969610485 -62.607480342609051 0 -62.607480342609051 75.505624412733596 0 0 0 0 -52.371510529118495 -43.850715038064976 0 -43.850715038064976 24.64245826408397 0 0 0 0 -95.030906828204024 -99.446207314878848 0 -99.446207314878848 7.117486132090562 0 0 0 0 -48.153975342320336 -67.461237256822642 0 -67.461237256822642 31.845514799904777 0 0 0 0 -38.84481538426553 -70.522072442972785 0 -70.522072442972785 23.278883341074106 0 0 0 0 58.552567967431969 -156.6665266983473 0 -156.6665266983473 21.384919809323037 0 0 0 0 -19.263405195521564 -50.377125406843234 0 -50.377125406843234 -7.8521129342415747 0 0 0 0 93.102390550100608 -137.25330994759588 0 -137.25330994759588 24.448967014963273 0 0 0 0 2.9436576109583257 -36.636093291905127 0 -36.636093291905127 -6.3718452302418882 0 0 0 0 -9.9806398619257379 -76.363109160447493 0 -76.363109160447493 373.20865057394258 0 0 0 0 112.67655176825428 -273.72457346112242 0 -273.72457346112242 139.54287603120611 0 0 0 0 -48.827838527562562 -71.92141558683943 0 -71.92141558683943 385.7748629723792 0 0 0 0 -26.217401612068812 28.711895354785412 0 28.711895354785412 10.144807721725044 0 0 0 0 260.09685366228223 -373.50266912512598 0 -373.50266912512598 350.85881991949282 0 0 0 0 22.756450545712141 -256.40833449497586 0 -256.40833449497586 527.10077929747058 0 0 0 0 69.618457440665225 -334.95263287214766 0 -334.95263287214766 501.07083679910284 0 0 0 0 56.120976382255321 -209.4490474077902 0 -209.4490474077902 245.17166672745952 0 0 0 0 38.400941677566152 -30.89477568527218 0 -30.89477568527218 227.19054193437842 0 0 0 0 -208.47273402364226 -324.88418401897798 0 -324.88418401897798 185.65745089611301 0 0 0 0 224.33439869992435 -204.31132547265588 0 -204.31132547265588 -157.87192139017861 0 0 0 0 92.659324456338709 -101.97794478178983 0 -101.97794478178983 41.273073580168578 0 0 0 0 90.824899218575183 -110.31190877769491 0 -110.31190877769491 52.962833529933803 0 0 0 0 289.48287277038617 -466.34123472763531 0 -466.34123472763531 -463.03607273898888 0 0 0 0 -10.792533786749118 -76.198715745813388 0 -76.198715745813388 82.608543465887124 0 0 0 0 -1.3105888024489332 -18.681397614588235 0 -18.681397614588235 9.8841870326948822 0 0 0 0 182.73131051080418 164.98549767773147 0 164.98549767773147 -1888.0505827309462 0 0 0 0 -1.7114399117021435 -3.1092168031814964 0 -3.1092168031814964 21.783683389655323 0 0 0 0 -0.03360039641847834 -209.74197952002578 0 -209.74197952002578 326.35853386227973 0 0 0 0 -82.971226587789715 -117.13129693673545 0 -117.13129693673545 544.54596149850113 0 0 0 0 -80.640745120613644 -0.24786102544436517 0 -0.24786102544436517 120.56541649312837 0 0 0 0 -7.8567394532583421 -96.062315099519765 0 -96.062315099519765 322.17522723818547 0 0 0 0 -15.36218155755887 -136.44215239958612 0 -136.44215239958612 199.66163610917283 0 0 0 0 23.674511428675032 -143.79571585390659 0 -143.79571585390659 67.792145040046307 0 0 0 0 -0.28919274019426666 -199.84504427922366 0 -199.84504427922366 139.02984332649794 0 0 0 0 -0.0361906016478315 -198.85549527022522 0 -198.85549527022522 -0.87068402310251258 0 0 0 0 -13.087269790616119 -108.03393739735475 0 -108.03393739735475 162.42718140875513 0 0 0 0 -8.1744838291488122 -95.608312111122359 0 -95.608312111122359 34.599677381811489 0 0 0 0 -44.756210808977812 -30.646482617672746 0 -30.646482617672746 418.11493224355218 0 0 0 0 -2.707518384755474 5.4060837058675588 0 5.4060837058675588 7.9265375869877843 0 0 0 0 54.71358248280012 -101.10847078008374 0 -101.10847078008374 -272.87257248284004 0 0 0 0 4.2719395222571279 6.0548941919360288 0 6.0548941919360288 3.7366294497030594 0 0 0 0 0.035873615299351513 22.820199397334363 0 22.820199397334363 31.24242457611399 0 0 0 0 9.7032288402260747 -35.903709499965771 0 -35.903709499965771 74.688448050219449 0 0 0 0 -46.68326481166855 -90.848184701490254 0 -90.848184701490254 190.20692469866481 0 0 0 0 28.34913059655571 -41.474416273661461 0 -41.474416273661461 36.294229086992743 0 0 0 0 -30.520578772699309 -5.2488719666412464 0 -5.2488719666412464 40.303455252632943 0 0 0 0 -32.609569960593944 -148.47547860498889 0 -148.47547860498889 319.78848201171786 0 0 0 0 1.468182375898607 -19.805195452942201 0 -19.805195452942201 25.076689197465285 0 0 0 0 62.294593163067475 -164.33390621047874 0 -164.33390621047874 42.852084620142705 0 0 0 0 21.812374053311487 -47.524270406739618 0 -47.524270406739618 80.661092232987414 0 0 0 0 -0.94580091061652638 -54.302429084898904 0 -54.302429084898904 201.90313795089605 0 0 0 0 -2.3191934453837675 -48.441577700855987 0 -48.441577700855987 98.640514477946681 0 0 0 0 20.583478600165108 -73.434743215890194 0 -73.434743215890194 168.33151318656746 0 0 0 0 -17.415179412866564 -28.273734213204079 0 -28.273734213204079 59.615273962728679 0 0 0 0 18.05794069316886 -46.159466296613175 0 -46.159466296613175 57.248565903356649 0 0 0 0 -6.6977497067045419 -14.392051509233511 0 -14.392051509233511 44.902749043202334 0 0 0 0 11.995808199339081 -96.006060887302738 0 -96.006060887302738 264.4908343854986 0 0 0 0 13.390279641666439 -123.24013772991657 0 -123.24013772991657 663.82091496948851 0 0 0 0 1.967885128225987 -2.1828559611029448 0 -2.1828559611029448 7.3541291337488701 0 0 0 0 75.177736611512955 -10.872516792973329 0 -10.872516792973329 22.673741512291599 0 0 0 0 40.935306637627946 -197.51084512714442 0 -197.51084512714442 204.92930125346174 0 0 0 0 228.24011157962377 102.34555882092536 0 102.34555882092536 288.18044174829265 0 0 0 0 -0.68247964477046708 -5.6963949194523025 0 -5.6963949194523025 5.2370298022991051 0 0 0 0 147.34572389876121 -458.22699493655819 0 -458.22699493655819 173.5231915137847 0 0 0 0 -570.33159931196133 -354.46059011382749 0 -354.46059011382749 604.21153989748564 0 0 0 0 196.54303847531264 -477.40008612266683 0 -477.40008612266683 176.29754976739059 0 0 0 0 198.38988479539694 -469.49814045189123 0 -469.49814045189123 -65.484720429449226 0 0 0 0 242.92880838259589 -384.17335372592788 0 -384.17335372592788 -57.097210070423898 0 0 0 0 186.91164367205056 -393.86334626015741 0 -393.86334626015741 134.32341269525932 0 0 0 0 119.43809141346719 -339.4265462767944 0 -339.4265462767944 128.11498705630765 0 0 0 0 80.525848998193396 -156.16844790558389 0 -156.16844790558389 411.07651038706263 0 0 0 0 78.93251524886 -128.88014452064817 0 -128.88014452064817 154.27396288295495 0 0 0 0 158.3568641118618 -283.74736632187705 0 -283.74736632187705 206.17596380360192 0 0 0 0 111.80143922121351 -386.50316114413727 0 -386.50316114413727 387.62332016290748 0 0 0 0 441.27619131333631 -104.35423576020548 0 -104.35423576020548 -56.361180196763598 0 0 0 0 152.25027770326415 -75.066385615296895 0 -75.066385615296895 -27.884461473320698 0 0 0 0 299.12839182530297 -279.72449119028533 0 -279.72449119028533 19.491590972233098 0 0 0 0 238.06712283627712 -170.41751429957367 0 -170.41751429957367 44.822546372306533 0 0 0 0 153.48550539484131 -240.84071936266264 0 -240.84071936266264 40.634989971757022 0 0 0 0 -1.9772232073991063 -4.5757024494260463 0 -4.5757024494260463 -11.38886000510945 0 0 0 0 95.847978242265526 -83.084780532939476 0 -83.084780532939476 45.537059355123347 0 0 0 0 -4.8365287413875535 -8.2091923714931454 0 -8.2091923714931454 -24.374448729123856 0 0 0 0 131.47307923655171 -126.29950111208018 0 -126.29950111208018 19.455195276081213 0 0 0 0 96.144773520456511 -101.40709115161735 0 -101.40709115161735 53.969308800036742 0 0 0 0 128.72400329843367 -145.87201432333313 0 -145.87201432333313 77.656569229904562 0 0 0 0 147.87157475492859 -100.55427866897662 0 -100.55427866897662 19.319446937115572 0 0 0 0 11.466514966161498 -36.74185459155197 0 -36.74185459155197 -15.688046275690681 0 0 0 0 88.413719396659872 -46.142692213361443 0 -46.142692213361443 31.69978693122539 0 0 0 0 107.88013400943601 -99.013192953003454 0 -99.013192953003454 41.213218863296788 0 0 0 0 110.82988843078783 -106.39224579783331 0 -106.39224579783331 -54.924663823345327 0 0 0 0 364.34775401742081 -151.45635057307663 0 -151.45635057307663 150.12574950429553 0 0 0 0 168.41332073295052 -109.32196383534392 0 -109.32196383534392 -116.03353428469563 0 0 0 0 15.546788986757747 -103.73615595853335 0 -103.73615595853335 155.72336803466715 0 0 0 0 -62.526178123138379 118.9350904056846 0 118.9350904056846 73.525490759362583 0 0 0 0 44.052004994839081 -325.44114067358623 0 -325.44114067358623 -29.016728957911255 0 0 0 0 -346.53007988986792 -145.06108465305442 0 -145.06108465305442 -101.36791368703416 0 0 0 0 149.20687883056235 9.4225086890655803 0 9.4225086890655803 359.89404195835232 0 0 0 0 -45.938444631989114 -49.381735095208569 0 -49.381735095208569 456.95850956418872 0 0 0 0 88.577185964851424 -102.81512286770794 0 -102.81512286770794 42.885288690911537 0 0 0 0 2.0138224520663073 -34.800023388839634 0 -34.800023388839634 39.430343173573078 0 0 0 0 277.85247755789896 -169.72992836400226 0 -169.72992836400226 -14.192677040060516 0 0 0 0 181.02375612057222 -238.14026547195681 0 -238.14026547195681 -353.67608468477556 0 0 0 0 -174.58271513134241 -177.12237453418493 0 -177.12237453418493 -154.83395477775048 0 0 0 0 169.34982557425974 -283.2022448728203 0 -283.2022448728203 -124.10543393346597 0 0 0 0 26.314110642531887 -185.0584033291525 0 -185.0584033291525 1.5634573641837051 0 0 0 0 -82.489761644596001 -222.53261250452124 0 -222.53261250452124 -507.02305565746792 0 0 0 0 -508.97200237585639 -426.58698501444451 0 -426.58698501444451 -175.47183496724756 0 0 0 0 101.44392287125811 -78.935509022463521 0 -78.935509022463521 20.018191579161794 0 0 0 0 102.6785652926992 -71.565942938300395 0 -71.565942938300395 53.089752110754489 0 0 0 0 100.00980777237987 -77.93741722577596 0 -77.93741722577596 19.407013750803245 0 0 0 0 77.134789494564757 13.77111886790226 0 13.77111886790226 210.46633299126916 0 0 0 0 299.05669157387274 19.14209470546848 0 19.14209470546848 -23.886432491213782 0 0 0 0 88.004621352214599 -45.147885395563208 0 -45.147885395563208 432.50412878625502 0 0 0 0 130.73779535430367 -35.280870760427206 0 -35.280870760427206 -119.28950487620023 0 0 0 0 45.320753696898464 -175.04064080586977 0 -175.04064080586977 -151.12944764637359 0 0 0 0 137.58100120471499 -3.4489703404215106 0 -3.4489703404215106 -5.4083082957658917 0 0 0 0 96.370870374070364 -105.82119178138237 0 -105.82119178138237 38.024833841478539 0 0 0 0 80.237841114678304 -17.366926368635177 0 -17.366926368635177 108.83155847226408 0 0 0 0 -63.459610775811598 -194.57191499536566 0 -194.57191499536566 -135.11190543997509 0 0 0 0 90.723074533976614 -193.72485706353473 0 -193.72485706353473 -292.56930854795792 0 0 0 0 85.032681898082956 -176.10053701437937 0 -176.10053701437937 -14.465027821315743 0 0 0 0 -590.4775273983978 -418.01250746117148 0 -418.01250746117148 -155.23758285431541 0 0 0 0 -629.42398963084452 -317.1131197898967 0 -317.1131197898967 -341.96413690004556 0 0 0 0 -133.18870169535512 -374.55141286783328 0 -374.55141286783328 -493.39876077904773 0 0 0 0 -132.0904122570355 -335.63592856472678 0 -335.63592856472678 -289.06755444045848 0 0 0 0 3.6924448313620815 -349.25965583649304 0 -349.25965583649304 -345.80168001590937 0 0 0 0 -257.58343341703585 -328.18543376067828 0 -328.18543376067828 -324.07554327020262 0 0 0 0 16.954803366258716 -23.771693729310485 0 -23.771693729310485 18.463812244721609 0 0 0 0 -240.80777399225917 -261.68076636789874 0 -261.68076636789874 -152.58966101685655 0 0 0 0 305.47882582896273 -73.17290344646608 0 -73.17290344646608 -383.7128327984974 0 0 0 0 -3.5335586439341427 -23.23074521262356 0 -23.23074521262356 3.5493415769036574 0 0 0 0 -47.369297192417434 -59.518106857605744 0 -59.518106857605744 22.42394061507548 0 0 0 0 -6.9106426336617233 -1.4672302281758789 0 -1.4672302281758789 7.1483815951022223 0 0 0 0 -69.562708492012462 7.3024657362766447 0 7.3024657362766447 18.84833560991683 0 0 0 0 -47.356639745121356 -73.776991217757313 0 -73.776991217757313 65.051478896632034 0 0 0 0 27.140974872309016 -46.280493509199005 0 -46.280493509199005 -21.760078314277052 0 0 0 0 -1.7567452299408615 -115.57940894089552 0 -115.57940894089552 -63.904640721309988 0 0 0 0 -26.130254416639218 -72.690422135550762 0 -72.690422135550762 13.07249766557652 0 0 0 0 -20.019462038530037 -42.841332235446316 0 -42.841332235446316 91.481218061628169 0 0 0 0 -10.11298726354272 -32.133313483314765 0 -32.133313483314765 25.186368864531488 0 0 0 0 -7.6322546874800992 -8.33036120231165 0 -8.33036120231165 7.7116658980008452 0 0 0 0 -719.62799841910601 -851.64386127148464 0 -851.64386127148464 -927.59541664860444 0 0 0 0 200.63993325496267 -391.73377571664787 0 -391.73377571664787 -1026.9392544370057 0 0 0 0 -262.82493138013524 -297.70058334366331 0 -297.70058334366331 -739.13371031919087 0 0 0 0 -694.80314308305424 -909.40995076087074 0 -909.40995076087074 -844.96502104221145 0 0 0 0 -527.71775158312812 -431.90281894208238 0 -431.90281894208238 -228.10544959532854 0 0 0 0 6.2300266387272387 -7.0516166083680503 0 -7.0516166083680503 1.1721998618442626 0 0 0 0 38.105023305130203 -17.410116155665932 0 -17.410116155665932 4.3439083483899594 0 0 0 0 -85.831731814709201 -432.91984895423593 0 -432.91984895423593 -33.817862240874092 0 0 0 0 -6.1328027010767983 -484.37103910753535 0 -484.37103910753535 -337.54363010187808 0 0 0 0 -3.2527280167778372 -379.82409815741494 0 -379.82409815741494 -24.499306417899788 0 0 0 0 -202.87324085761793 -573.59920922618767 0 -573.59920922618767 -187.87412286261315 0 0 0 0 7.25996446312638 -2372.7649207896902 0 -2372.7649207896902 -410.18858978264325 0 0 0 0 40.395902418938931 -593.12146769607352 0 -593.12146769607352 -260.1583780480214 0 0 0 0 -358.78268552372538 -348.46838280890915 0 -348.46838280890915 1913.3492312696108 0 0 0 0 13.302396328560519 -3.8301394851947492 0 -3.8301394851947492 2.6189022200962313 0 0 0 0 0.040428671723930165 -171.83860084626212 0 -171.83860084626212 -178.60275821173127 0 0 0 0 -46.462523961250554 -113.24245579292256 0 -113.24245579292256 26.982611464220099 0 0 0 0 5.3107686534058303 -30.242727374003152 0 -30.242727374003152 -48.337876832592883 0 0 0 0 20.776859549499932 -95.539459428895498 0 -95.539459428895498 69.325783508262248 0 0 0 0 -35.88042247100384 -31.531435043449164 0 -31.531435043449164 222.60883523457233 0 0 0 0 0.0028552684816531837 -169.44247128001007 0 -169.44247128001007 53.963295597099204 0 0 0 0 -0.02716775803526528 -24.677839424602951 0 -24.677839424602951 -2.3948780795908533 0 0 0 0 2.3614810005801132 1.5163589778486113 0 1.5163589778486113 -4.1947905443820588 0 0 0 0 7.8653914900496602 -23.693962527369877 0 -23.693962527369877 -30.893086341380695 0 0 0 0 -15.484114383493875 -15.995368208889204 0 -15.995368208889204 -12.607013086089069 0 0 0 0 -23.467077807912574 37.480620254492806 0 37.480620254492806 -128.33554872950481 0 0 0 0 74.898528280551545 35.373515024199151 0 35.373515024199151 577.5740098664246 0 0 0 0 213.9143757064594 -264.92906636987755 0 -264.92906636987755 -145.39150481692786 0 0 0 0 0.036171379601000808 -24.757740178338281 0 -24.757740178338281 -2.3544720037953084 0 0 0 0 -5.4712904439093109 -4.6435465842461099 0 -4.6435465842461099 -3.5595554802256686 0 0 0 0 -107.6045059763419 224.68241976061472 0 224.68241976061472 561.49244225674192 0 0 0 0 -90.688819299385955 -14.836714150853624 0 -14.836714150853624 9.7270431026699953 0 0 0 0 -91.716052388250091 258.43387666371632 0 258.43387666371632 -243.74713173724012 0 0 0 0 600.5435081483156 -312.47465748801915 0 -312.47465748801915 -215.56117768849072 0 0 0 0 -5.3812518404908474 -5.2540774545879145 0 -5.2540774545879145 8.741484905312916 0 0 0 0 -652.119336563861 481.73942226385407 0 481.73942226385407 -863.69566456206667 0 0 0 0 0.78406080406966794 -78.473931358464142 0 -78.473931358464142 -39.337672654444759 0 0 0 0 -31.60342612712526 -11.32880538714889 0 -11.32880538714889 9.5901224375445437 0 0 0 0 -248.63804038005765 -162.30468192431726 0 -162.30468192431726 -38.852856226832955 0 0 0 0 -844.41393045410223 365.02975927303851 0 365.02975927303851 998.93188750281115 0 0 0 0 -9.3560208189424969 3.9112351171109481 0 3.9112351171109481 36.179774769936159 0 0 0 0 61.177348200348206 -186.81698673891515 0 -186.81698673891515 -97.596456225139264 0 0 0 0 -80.564015363983344 -697.58010050089069 0 -697.58010050089069 1702.1336648205397 0 0 0 0 -88.694580196490278 -237.06463761221312 0 -237.06463761221312 -296.35302413314639 0 0 0 0 -714.4868922132955 76.586777868658828 0 76.586777868658828 459.61957823764533 0 0 0 0 547.76231505506439 620.86787982359238 0 620.86787982359238 636.41694298254151 0 0 0 0 1289.5021143389895 -90.591734563735372 0 -90.591734563735372 -216.11943108716514 0 0 0 0 320.97061013501661 -782.75239203732417 0 -782.75239203732417 636.32867812642507 0 0 0 0 -73.006491979664133 -187.4327206490052 0 -187.4327206490052 133.14872861039476 0 0 0 0 -4.5852856151759624 -481.39768676900349 0 -481.39768676900349 1366.7802039547678 0 0 0 0 -0.080951149899249231 1.4160346600754679 0 1.4160346600754679 14.473637975187131 0 0 0 0 -428.97415237218956 499.05851234624424 0 499.05851234624424 1206.8429604892735 0 0 0 0 191.14672612329014 -951.43331705025048 0 -951.43331705025048 1095.467368103542 0 0 0 0 1594.8095195220667 1273.7686921315471 0 1273.7686921315471 1247.3989872861966 0 0 0 0 -14.815486041508848 -319.86912966856471 0 -319.86912966856471 1869.179165517271 0 0 0 0 -125.26356226799544 362.50716717870819 0 362.50716717870819 373.01033178075159 0 0 0 0 -510.3608455384383 -41.446560597207281 0 -41.446560597207281 2399.5414845381893 0 0 0 0 862.1828594104154 -23.301098624368024 0 -23.301098624368024 321.9835275726 0 0 0 0 -18.925091944242013 -423.89721406332501 0 -423.89721406332501 -1486.1452575313197 0 0 0 0 -1.6583094084874119 0.0028470575138186405 0 0.0028470575138186405 5.4435354492193895 0 0 0 0 -1456.8953355376143 -1256.8794841577474 0 -1256.8794841577474 1591.2295136605389 0 0 0 0 3.0245195427229987 2.7997331975392541 0 2.7997331975392541 -5.540917227167526 0 0 0 0 178.5089303458808 98.920183993759565 0 98.920183993759565 189.46443474418629 0 0 0 0 23.402173780381986 -18.897768525871307 0 -18.897768525871307 6.5587123010450625 0 0 0 0 -187.87565374103724 -332.50549063655308 0 -332.50549063655308 -1326.1873217859247 0 0 0 0 87.214626494213007 41.557722434095922 0 41.557722434095922 344.0377679091398 0 0 0 0 646.45275017997483 -199.91091355595563 0 -199.91091355595563 247.17786957966018 0 0 0 0 -677.07938602787908 -397.7856894539218 0 -397.7856894539218 3443.7387320060152 0 0 0 0 -0.95375583678833209 -1829.6308538625162 0 -1829.6308538625162 1935.9455468272208 0 0 0 0 200.00037146545947 -72.51931401231559 0 -72.51931401231559 573.57324047054135 0 0 0 0 -173.87449381352053 -177.52320209144818 0 -177.52320209144818 1562.2031779272365 0 0 0 0 -153.88236456245068 67.507919053161459 0 67.507919053161459 1499.203493230787 0 0 0 0 -423.25555857273866 -11.00599626674375 0 -11.00599626674375 1482.6652831813008 0 0 0 0 -242.31772786501097 -256.58913087768451 0 -256.58913087768451 1795.1889194489195 0 0 0 0 561.35309337015497 344.6757157252141 0 344.6757157252141 1681.2091804316588 0 0 0 0 20.429086531978101 -42.608871717879083 0 -42.608871717879083 1799.6902754880866 0 0 0 0 -112.52141898474656 -421.19707089112489 0 -421.19707089112489 -1374.9721354419371 0 0 0 0 14.249755434154849 -14.687788669183831 0 -14.687788669183831 6.6209438763354882 0 0 0 0 0.95282278262311593 -967.51848298931873 0 -967.51848298931873 -2078.2833809647564 0 0 0 0 3.9670223039959183 -4.0475562121633288 0 -4.0475562121633288 1.6889767947227057 0 0 0 0 3.7473464378254562 0.92666701087312475 0 0.92666701087312475 -3.5501952843093392 0 0 0 0 27.729474279563874 -441.61081756880594 0 -441.61081756880594 -1870.2636804158756 0 0 0 0 -192.64355899580551 -315.63203642009648 0 -315.63203642009648 -1420.3477880778155 0 0 0 0 -91.831816139427247 -396.3344407463992 0 -396.3344407463992 -1565.4484129924422 0 0 0 0 -0.41420197335646003 -494.87737439283705 0 -494.87737439283705 -1732.7212259554944 0 0 0 0 31.566890142683405 -406.93930559431828 0 -406.93930559431828 -1564.6535953961065 0 0 0 0 -0.079192215998773463 -511.11483238379878 0 -511.11483238379878 -1243.6029640399283 0 0 0 0 15.41443776601227 -507.89333774892293 0 -507.89333774892293 -1454.0230625990971 0 0 0 0 -106.55062386167265 -486.87564824291439 0 -486.87564824291439 -1172.273008305041 0 0 0 0 -152.70093371248367 -558.70149812732689 0 -558.70149812732689 -1628.7658241488098 0 0 0 0 -74.960091496730456 -320.99504055969737 0 -320.99504055969737 -1735.0639424881192 0 0 0 0 -35.270254753995687 -530.3835283745575 0 -530.3835283745575 -1839.4059741416022 0 0 0 0 -151.9818368346605 -405.52624764949724 0 -405.52624764949724 -1492.7188110240131 0 0 0 0 7.1342730128576477 -1.2225877333350041 0 -1.2225877333350041 -3.7203427680838601 0 0 0 0 -47.920094066445017 -379.81521498474467 0 -379.81521498474467 -1737.7223506997652 0 0 0 0 -52.266744834225392 -555.02541282129096 0 -555.02541282129096 -1613.4509738151846 0 0 0 0 -40.457210291046067 -568.49176003148023 0 -568.49176003148023 -1569.2302648760015 0 0 0 0 6.7996788722170436 -1.6824152904301819 0 -1.6824152904301819 -3.347767598649277 0 0 0 0 -207.11188489641063 -488.1125208905778 0 -488.1125208905778 -1393.2327148397526 0 0 0 0 -26.417898283390969 -502.54176574036319 0 -502.54176574036319 -1398.4765637678065 0 0 0 0 -121.09767304435081 -588.11855441033549 0 -588.11855441033549 -1127.2045037860298 0 0 0 0 -176.68587599450257 -518.60115922064142 0 -518.60115922064142 -1132.9199612742304 0 0 0 0 -62.891547666629776 -528.13303960612211 0 -528.13303960612211 -827.73560092061689 0 0 0 0 66.638852949832653 -507.1858071134584 0 -507.1858071134584 -1132.3849126378336 0 0 0 0 0.45409757120069116 -614.8376666199074 0 -614.8376666199074 -1151.9322366003034 0 0 0 0 2.3304372535931179 -706.69467638171591 0 -706.69467638171591 -914.01948668225668 0 0 0 0 -5.7121011428534985 -606.28736075103006 0 -606.28736075103006 -755.7065663646481 0 0 0 0 234.20169402039028 -446.80747083165261 0 -446.80747083165261 -821.71160204903526 0 0 0 0 0.07871556883037556 -516.266186380828 0 -516.266186380828 -716.62579696204011 0 0 0 0 -7.7979399379146344 -322.56702752949786 0 -322.56702752949786 -962.69844836678385 0 0 0 0 75.481693052242917 -484.32688271607094 0 -484.32688271607094 -1173.0447098057921 0 0 0 0 -237.04620752845403 -526.88472444305671 0 -526.88472444305671 -893.62204191235651 0 0 0 0 -184.56346776225837 -668.89784372880786 0 -668.89784372880786 -715.39309182289253 0 0 0 0 -224.75776805819442 -622.35803902940404 0 -622.35803902940404 -782.28337467531674 0 0 0 0 -294.37368305203563 -605.97270371434024 0 -605.97270371434024 -533.36268823468345 0 0 0 0 -147.63389815723349 -507.51460127921018 0 -507.51460127921018 -694.69962339447557 0 0 0 0 -295.96416330880311 -620.36935289593202 0 -620.36935289593202 -663.303524847277 0 0 0 0 92.991603528047563 -690.82942070855643 0 -690.82942070855643 -912.90034241836838 0 0 0 0 -8.6670074757857947 -871.37013899427075 0 -871.37013899427075 -713.20888664122322 0 0 0 0 -89.626694450125797 -710.07496617177821 0 -710.07496617177821 -914.67761722006162 0 0 0 0 -34.941841745334386 -703.42517327124642 0 -703.42517327124642 -1049.2522777945123 0 0 0 0 -51.854207560594659 -716.75399467301395 0 -716.75399467301395 -901.32754935696357 0 0 0 0 -189.72981427711784 -699.27449059133141 0 -699.27449059133141 -874.1642267656498 0 0 0 0 -65.362690942523841 -681.07550259979371 0 -681.07550259979371 -950.19054900615447 0 0 0 0 -115.16098837518075 -604.22680137644056 0 -604.22680137644056 -833.35458031568851 0 0 0 0 -76.448335110777407 -428.34759983089316 0 -428.34759983089316 -1433.9967877552335 0 0 0 0 -162.69229675212409 -509.3591952747629 0 -509.3591952747629 -1013.7544306677678 0 0 0 0 -103.07646538916742 -458.27175595928566 0 -458.27175595928566 -1794.1898844875086 0 0 0 0 17.866092315147455 -23.30539933314693 0 -23.30539933314693 12.851826351835449 0 0 0 0 -219.61849567320314 -452.69289594844668 0 -452.69289594844668 -1783.5377997234464 0 0 0 0 3.2245389271645308 0.058709588852854822 0 0.058709588852854822 -2.7472580880165296 0 0 0 0 15.850391218683797 -27.632742018521967 0 -27.632742018521967 14.554123020764031 0 0 0 0 -29.027883479768207 -929.52723201457729 0 -929.52723201457729 -1304.3931342040851 0 0 0 0 -205.33861998628709 -62.128319004481455 0 -62.128319004481455 228.27277381697422 0 0 0 0 -61.075974017730914 -647.11245751856404 0 -647.11245751856404 -971.99849667488706 0 0 0 0 -127.93205191538436 -469.47882433963605 0 -469.47882433963605 -1242.7937370380605 0 0 0 0 -286.18861219948303 -494.98151465085448 0 -494.98151465085448 -870.62994376143251 0 0 0 0 38.030775984953095 -34.30605743600691 0 -34.30605743600691 30.666742830900603 0 0 0 0 121.22601546008809 -152.78041709276476 0 -152.78041709276476 -210.83890957846961 0 0 0 0 268.23827562434599 19.958267728087321 0 19.958267728087321 -59.683892522953101 0 0 0 0 -0.95106264133210061 -517.44694926400007 0 -517.44694926400007 -202.31884194185841 0 0 0 0 220.60068111371311 -460.1424895630737 0 -460.1424895630737 -230.58475252063363 0 0 0 0 -177.13002003038127 130.57311208942338 0 130.57311208942338 229.03804160163054 0 0 0 0 -87.707851158722406 -357.52666804095043 0 -357.52666804095043 420.69520112351165 0 0 0 0 228.52163285879942 -607.14412772930518 0 -607.14412772930518 1019.2540853036626 0 0 0 0 -210.1019779285416 158.55840062311472 0 158.55840062311472 312.10268362701026 0 0 0 0 66.0048684006033 -60.969629455554241 0 -60.969629455554241 173.3292677361751 0 0 0 0 263.46129331205157 -0.20390811377001228 0 -0.20390811377001228 -147.43272725904535 0 0 0 0 -266.91097436309792 -317.09508580662077 0 -317.09508580662077 -103.89096509017872 0 0 0 0 26.999593666222495 -25.357827697367526 0 -25.357827697367526 21.924196098943213 0 0 0 0 -80.235217825946165 211.06286089426067 0 211.06286089426067 659.02325197355094 0 0 0 0 235.55696649366291 -483.16337588327224 0 -483.16337588327224 -320.78154682641616 0 0 0 0 -191.04730141752225 116.38050549832496 0 116.38050549832496 51.943963784302468 0 0 0 0 10.308734549209021 -9.0769001153033599 0 -9.0769001153033599 8.6643998431944453 0 0 0 0 369.76211743045133 -852.3677413150217 0 -852.3677413150217 1334.7154805243645 0 0 0 0 -102.22051392777939 390.37530832792254 0 390.37530832792254 1734.001232392955 0 0 0 0 -145.88062356604496 186.51345189798667 0 186.51345189798667 730.52137477768702 0 0 0 0 -5.6735674840383581 -417.64012384307807 0 -417.64012384307807 363.77685793359706 0 0 0 0 14.665225659824557 -16.625244179787462 0 -16.625244179787462 15.254486136280576 0 0 0 0 -211.52463061605522 -451.71214030720512 0 -451.71214030720512 -404.30426162638469 0 0 0 0 -202.32176455519948 -27.91951739443175 0 -27.91951739443175 457.55747470738424 0 0 0 0 87.967749507399276 -220.28130986286487 0 -220.28130986286487 -418.47394172821078 0 0 0 0 111.91971485245449 -543.24452489813484 0 -543.24452489813484 -431.91274767095456 0 0 0 0 5.0143635450218653 -6.4414523460829507 0 -6.4414523460829507 6.7291894643696821 0 0 0 0 -192.9002813983534 435.13693239102577 0 435.13693239102577 1458.1463377808032 0 0 0 0 -190.08942871025647 -209.47053289422911 0 -209.47053289422911 -257.40188537399627 0 0 0 0 233.45176149521285 -417.33038327285249 0 -417.33038327285249 -202.8291791501033 0 0 0 0 -56.947754843655275 -345.48777835538567 0 -345.48777835538567 1184.1641428692674 0 0 0 0 -33.627489176637027 -292.22238149457189 0 -292.22238149457189 259.2216096355296 0 0 0 0 -120.91840935315122 -104.48835574553232 0 -104.48835574553232 79.061391327268211 0 0 0 0 87.413228487435845 -329.96223977124646 0 -329.96223977124646 -122.93508982049389 0 0 0 0 172.65433156509971 -131.29586132872282 0 -131.29586132872282 -18.02700710244244 0 0 0 0 183.25128322478849 -197.25408437457372 0 -197.25408437457372 17.784201433016278 0 0 0 0 102.15243132805335 -257.28821034148496 0 -257.28821034148496 186.03939322012593 0 0 0 0 137.84997894900152 -181.35450615232185 0 -181.35450615232185 244.67555061578605 0 0 0 0 213.11724255299487 -293.32324193284148 0 -293.32324193284148 187.36954915293973 0 0 0 0 -39.29773106315406 -112.78719550671667 0 -112.78719550671667 170.61597061935026 0 0 0 0 -339.81412134920538 -146.99708782618745 0 -146.99708782618745 158.53108209677157 0 0 0 0 1.1175139842703317 -2.5894894046745094 0 -2.5894894046745094 1.1506355142302027 0 0 0 0 478.78255186876777 -91.67096902171761 0 -91.67096902171761 36.673108433242305 0 0 0 0 115.8590801506507 -86.214975710667204 0 -86.214975710667204 141.92090169018047 0 0 0 0 126.61342469857482 -3.129207383008179 0 -3.129207383008179 20.620928080112208 0 0 0 0 53.282486825424712 -90.847916571467067 0 -90.847916571467067 -4.6101603976203478 0 0 0 0 83.803614607983036 82.737773226876016 0 82.737773226876016 120.17887855344088 0 0 0 0 73.870250085979933 -43.684353261076467 0 -43.684353261076467 138.5128681847782 0 0 0 0 381.31859681826791 210.40268922334053 0 210.40268922334053 338.55639234679984 0 0 0 0 -35.005768703158537 -71.718946325222532 0 -71.718946325222532 507.9951174796588 0 0 0 0 -59.268805659499776 -303.18296222449135 0 -303.18296222449135 -24.097880672095926 0 0 0 0 -18.258465235310723 -213.85035897710623 0 -213.85035897710623 -18.180725401018663 0 0 0 0 -137.07130067722755 -261.52278142156865 0 -261.52278142156865 104.84793018971686 0 0 0 0 11.743478017099861 -59.250148240828622 0 -59.250148240828622 44.162636038551398 0 0 0 0 116.55897272656148 -65.629599901250913 0 -65.629599901250913 51.316998244386923 0 0 0 0 82.207198749132587 -103.48201507770972 0 -103.48201507770972 46.806372589171872 0 0 0 0 135.93088036600966 -100.92493746116816 0 -100.92493746116816 28.901910484455584 0 0 0 0 332.65387585165445 -189.10674983514036 0 -189.10674983514036 68.38381627848139 0 0 0 0 1741.0970381188904 -1349.0631369898767 0 -1349.0631369898767 448.44286653981544 0 0 0 0 50.296847042394802 -62.821508181303216 0 -62.821508181303216 49.448839674209012 0 0 0 0 129.05714371817885 -114.48679485471439 0 -114.48679485471439 68.442467517139448 0 0 0 0 -0.7888806769187795 -142.40415251035301 0 -142.40415251035301 92.57764680123455 0 0 0 0 129.07021336382604 -161.43774426906839 0 -161.43774426906839 94.8203243920143 0 0 0 0 -42.864177473515156 37.95695675148454 0 37.95695675148454 -22.537250357272569 0 0 0 0 -60.391237004951108 -180.28497862631775 0 -180.28497862631775 17.333884979525465 0 0 0 0 -70.668357513874071 -64.543741131798015 0 -64.543741131798015 -44.223885007028002 0 0 0 0 -56.185091805411503 -18.635114821925526 0 -18.635114821925526 -149.17404274111323 0 0 0 0 0.017977358860427728 -7.2387270076415007 0 -7.2387270076415007 2.8696650824093695 0 0 0 0 109.58082103640481 -101.73844629612722 0 -101.73844629612722 42.496117551092084 0 0 0 0 2191.1716850452358 -503.52950548568333 0 -503.52950548568333 -554.54197743564146 0 0 0 0 -401.2469889050335 -29.27534649914378 0 -29.27534649914378 119.54640899482183 0 0 0 0 -25.983354519690764 -50.411501824859101 0 -50.411501824859101 27.208359844306443 0 0 0 0 1743.403118395614 -1213.4176662064033 0 -1213.4176662064033 768.95342395955231 0 0 0 0 -268.76196709880605 -315.18842758928804 0 -315.18842758928804 85.265132258107769 0 0 0 0 9.6206931346387137 -174.36167799215036 0 -174.36167799215036 120.65309872166108 0 0 0 0 -150.6399137419794 -29.188517146882077 0 -29.188517146882077 57.373969324893551 0 0 0 0 -162.54833018020145 77.835353148751892 0 77.835353148751892 -84.612735062837601 0 0 0 0 -189.41363962425385 2.8979980047370191 0 2.8979980047370191 1.550962635781616 0 0 0 0 -121.95302574813832 -100.1985889919888 0 -100.1985889919888 49.860450658519767 0 0 0 0 -54.008528710823157 -28.630308693063853 0 -28.630308693063853 -26.669806943129515 0 0 0 0 -51.403705738484859 -36.993214220186928 0 -36.993214220186928 -106.10780552425422 0 0 0 0 -71.338796454190742 -36.400329866359243 0 -36.400329866359243 -22.832119917147793 0 0 0 0 -42.384567170258379 -91.389903966672136 0 -91.389903966672136 1.7493505234524491 0 0 0 0 -41.938178419804899 -55.707106074580224 0 -55.707106074580224 -61.244620640500216 0 0 0 0 20.104065659077605 -76.776021615078207 0 -76.776021615078207 -61.067507610277971 0 0 0 0 136.09881787678751 -141.03305420880861 0 -141.03305420880861 30.667253961619281 0 0 0 0 21.379265944742656 -67.525541135860294 0 -67.525541135860294 2.2748062716709683 0 0 0 0 117.20715692131792 -110.1229391685583 0 -110.1229391685583 53.005479134253221 0 0 0 0 138.11697706592531 -84.263641621600982 0 -84.263641621600982 83.848013808135875 0 0 0 0 15.724649083478198 -38.040373551701009 0 -38.040373551701009 68.548988270427799 0 0 0 0 161.49089451564942 -131.39514232477632 0 -131.39514232477632 37.941028500688844 0 0 0 0 115.48080953495082 -63.24407251550474 0 -63.24407251550474 76.609811693269876 0 0 0 0 153.09566191350314 -94.307334379976965 0 -94.307334379976965 17.87779547489481 0 0 0 0 114.95967965896125 -133.88077182023699 0 -133.88077182023699 -2.1400648627281953 0 0 0 0 33.251139467553003 -113.51631075899786 0 -113.51631075899786 49.529683643853787 0 0 0 0 19.795131197068258 -72.041084902346483 0 -72.041084902346483 36.461365612136433 0 0 0 0 -25.710149621241726 -55.922537941107294 0 -55.922537941107294 16.508446066640317 0 0 0 0 19.547387892707775 -77.067597986089822 0 -77.067597986089822 -11.473501794418553 0 0 0 0 -74.519243790011387 -60.268342551717069 0 -60.268342551717069 21.737049395422218 0 0 0 0 -34.338799886900233 -68.333638473464816 0 -68.333638473464816 40.757185585607658 0 0 0 0 43.306512228329666 -65.558019382537168 0 -65.558019382537168 27.604691466360237 0 0 0 0 -4.4913241248032136 -51.852994950499124 0 -51.852994950499124 61.183448115101783 0 0 0 0 57.964152923144866 -101.58254862940521 0 -101.58254862940521 64.636025252649233 0 0 0 0 76.051863137923647 -136.68018379661953 0 -136.68018379661953 124.33273263959927 0 0 0 0 57.892810573684983 -122.67846435725005 0 -122.67846435725005 113.92683662788477 0 0 0 0 53.072274554084288 -95.161855835438473 0 -95.161855835438473 80.138985203659104 0 0 0 0 -3.3742366638315247 -65.99821252105184 0 -65.99821252105184 -6.4310437392430515 0 0 0 0 317.22389618090529 -250.90163076960744 0 -250.90163076960744 300.52589961434205 0 0 0 0 88.628762087464565 -84.03617351718276 0 -84.03617351718276 41.566098917282943 0 0 0 0 4.5656876475150057 0.73402382411222789 0 0.73402382411222789 15.141916835185839 0 0 0 0 47.595643761847896 -40.806779716914207 0 -40.806779716914207 4.896625461493386 0 0 0 0 -68.189071521483129 -13.446047429271857 0 -13.446047429271857 52.509805849578697 0 0 0 0 -83.80198954341904 -37.506617363913392 0 -37.506617363913392 32.138547848619055 0 0 0 0 1124.5452936199363 -99.956146656411875 0 -99.956146656411875 627.44204281736165 0 0 0 0 1234.955252244923 -93.911269593700126 0 -93.911269593700126 -267.072100041667 0 0 0 0 223.91099489932822 -134.51293930553948 0 -134.51293930553948 -104.8460752711253 0 0 0 0 -5.9998541321698369 -8.9659433606621235 0 -8.9659433606621235 7.5031366390237793 0 0 0 0 -23.557589676607947 -50.144615124705922 0 -50.144615124705922 9.4779154605352005 0 0 0 0 11.578064653978799 54.615578954842931 0 54.615578954842931 -37.001970979559701 0 0 0 0 -328.32437717153516 -100.39713528962602 0 -100.39713528962602 87.263646650004375 0 0 0 0 96.537395637744339 -45.43274804606699 0 -45.43274804606699 -73.779742720565991 0 0 0 0 -52.259108892525546 -182.48538696476317 0 -182.48538696476317 30.620438817005379 0 0 0 0 10.403538598264632 -12.330781095999328 0 -12.330781095999328 -1.6314165555174327 0 0 0 0 80.610552918064059 -78.076461657656182 0 -78.076461657656182 -50.468073973985156 0 0 0 0 20.259152959982316 -48.078204272966886 0 -48.078204272966886 -6.064876770389958 0 0 0 0 26.55281397647606 -46.52596847394264 0 -46.52596847394264 -7.3960097958973847 0 0 0 0 60.158211406611372 -58.86103078780252 0 -58.86103078780252 -4.7641815768347442 0 0 0 0 97.222698349498387 -99.030799263684457 0 -99.030799263684457 -78.557540755005903 0 0 0 0 -0.89216516469605267 -104.78230255098606 0 -104.78230255098606 -49.244256542966468 0 0 0 0 389.60572586586932 111.01450069307975 0 111.01450069307975 108.03680317493308 0 0 0 0 26.296801319368342 -10.12254768078526 0 -10.12254768078526 -47.690241320846098 0 0 0 0 394.91979854786769 177.79157345159547 0 177.79157345159547 57.597472584224306 0 0 0 0 45.007069467505957 -27.855240936098085 0 -27.855240936098085 -76.312909686936663 0 0 0 0 435.16122286018799 -183.2989632551562 0 -183.2989632551562 -348.59650036768289 0 0 0 0 450.83366949380434 -218.45338680331224 0 -218.45338680331224 -616.21154196432326 0 0 0 0 41.663785947364545 -64.927146580334977 0 -64.927146580334977 16.088439174457008 0 0 0 0 111.48271695687436 -197.51592363780583 0 -197.51592363780583 127.40597510321459 0 0 0 0 287.10609952283266 -314.10169447944736 0 -314.10169447944736 -443.96626554167233 0 0 0 0 124.28615430932405 -140.20822559562521 0 -140.20822559562521 -616.74235078349011 0 0 0 0 208.80696502390145 -432.95837844527546 0 -432.95837844527546 -339.61415421241327 0 0 0 0 435.33468735986389 -185.3515671687237 0 -185.3515671687237 -214.4232012280645 0 0 0 0 207.46258977369871 14.767697243512885 0 14.767697243512885 -201.24600250627918 0 0 0 0 341.41436662813067 -98.654125761953765 0 -98.654125761953765 -118.18902348086704 0 0 0 0 94.314675749395974 -147.68606803028524 0 -147.68606803028524 55.386215625796467 0 0 0 0 30.081778816570967 -29.47993144104521 0 -29.47993144104521 21.597427199763644 0 0 0 0 477.86047172635153 -133.16702612823428 0 -133.16702612823428 -18.443155267043039 0 0 0 0 117.15891796718279 -126.28062169284385 0 -126.28062169284385 73.163835888437461 0 0 0 0 154.3458624530312 -127.22586100716839 0 -127.22586100716839 20.556520986224029 0 0 0 0 89.424264034532825 -160.89496152346328 0 -160.89496152346328 99.449144000564047 0 0 0 0 169.15567920361536 -115.11002658823242 0 -115.11002658823242 51.158039928651341 0 0 0 0 229.84579923612182 -234.48022306044368 0 -234.48022306044368 -416.13859395701957 0 0 0 0 142.07346210522269 -108.13551185350443 0 -108.13551185350443 52.791292306516695 0 0 0 0 190.48908099152322 -151.12352960918361 0 -151.12352960918361 -37.075800804857863 0 0 0 0 230.94634618386044 -196.49401204101741 0 -196.49401204101741 -78.089027954825724 0 0 0 0 284.58656537876232 -293.36520157655468 0 -293.36520157655468 177.93763084445527 0 0 0 0 91.339265922053528 -176.27906390377211 0 -176.27906390377211 149.15261496475432 0 0 0 0 120.23958340034005 -130.70653734275402 0 -130.70653734275402 109.66388281728723 0 0 0 0 124.13192323812837 -160.61113729103363 0 -160.61113729103363 322.98966820996429 0 0 0 0 9.0661408493165254 -36.709186159430594 0 -36.709186159430594 30.404709694086641 0 0 0 0 47.601704459623875 -41.085005000524916 0 -41.085005000524916 17.952566815254784 0 0 0 0 -187.97172266717826 -595.22480624818672 0 -595.22480624818672 -857.52573990138262 0 0 0 0 -128.44992258292041 -139.24195348542889 0 -139.24195348542889 85.736090948284982 0 0 0 0 17.745295052431175 -210.99655286392226 0 -210.99655286392226 -257.55489595629479 0 0 0 0 94.247498389755492 6.0141670914563292 0 6.0141670914563292 -228.838954245286 0 0 0 0 -224.30498177668778 -69.80446471198411 0 -69.80446471198411 -51.490247518857359 0 0 0 0 36.398302859204705 -81.589975663338464 0 -81.589975663338464 -59.344043098557449 0 0 0 0 115.37790760904318 -3.6378972479178628 0 -3.6378972479178628 -68.264593700201658 0 0 0 0 0.208525250389485 -2.9780167076902728 0 -2.9780167076902728 3.4957997572804516 0 0 0 0 34.516540869721211 -27.201619207509793 0 -27.201619207509793 14.868230042746291 0 0 0 0 159.43094351394757 1.5678076499016242 0 1.5678076499016242 -9.754769515217049 0 0 0 0 71.345974800293334 -48.793143971364771 0 -48.793143971364771 -5.4516826906547067 0 0 0 0 50.476337945030537 -9.3037213038769551 0 -9.3037213038769551 -68.884949594532372 0 0 0 0 73.754996679010219 -108.88189824440997 0 -108.88189824440997 -127.69932980326121 0 0 0 0 21.54462551630553 -42.936861629977358 0 -42.936861629977358 33.844983621178613 0 0 0 0 34.470553685314371 -15.453808368478349 0 -15.453808368478349 -10.430012107281073 0 0 0 0 32.991567947964995 -29.386540572766819 0 -29.386540572766819 26.597657749204828 0 0 0 0 -82.595655483659357 -91.391937447398959 0 -91.391937447398959 -3.3272789932962041 0 0 0 0 107.00928238712368 -135.87899347841994 0 -135.87899347841994 -124.23804776774705 0 0 0 0 -51.931173965538619 -45.566438264628232 0 -45.566438264628232 38.634181953915686 0 0 0 0 95.586826225102413 -32.721987416378397 0 -32.721987416378397 -102.38073001244629 0 0 0 0 39.896899367260232 -44.209590452760445 0 -44.209590452760445 27.724516439969449 0 0 0 0 29.393350290140631 -30.987361574292805 0 -30.987361574292805 11.375083094291881 0 0 0 0 -384.41053694865514 -272.60548906155907 0 -272.60548906155907 -166.13547253167053 0 0 0 0 -442.93024348322069 -738.69338077815519 0 -738.69338077815519 -721.97086479581594 0 0 0 0 -344.1582126059584 -775.74372677494512 0 -775.74372677494512 -1055.7469135297142 0 0 0 0 -448.7500585327216 -458.24746248986594 0 -458.24746248986594 -363.58082001041475 0 0 0 0 -371.39786739984993 -573.83838112858211 0 -573.83838112858211 -526.74749259838427 0 0 0 0 43.687475010363244 -36.807602168070375 0 -36.807602168070375 9.5043979870361568 0 0 0 0 -330.11655126673213 -695.61751686446132 0 -695.61751686446132 -733.35604805317053 0 0 0 0 -285.27508146490436 -426.43686130202695 0 -426.43686130202695 -514.75683869719069 0 0 0 0 -217.04988646218408 -537.28200840173213 0 -537.28200840173213 -717.89408027103855 0 0 0 0 -96.27726814939524 -691.81161893134413 0 -691.81161893134413 -831.82650202228979 0 0 0 0 -524.81729178380192 -641.3384997944022 0 -641.3384997944022 -188.24082944682414 0 0 0 0 -154.36705247487407 -457.82390609012873 0 -457.82390609012873 -141.62639078658867 0 0 0 0 -310.97425706195281 -457.39167953941478 0 -457.39167953941478 -113.08727333281058 0 0 0 0 1.3628166741590917 -3.9795152058518966 0 -3.9795152058518966 -6.1977475338571679 0 0 0 0 516.47849685394613 -302.05117508072726 0 -302.05117508072726 -589.26939247243718 0 0 0 0 -768.99761352309724 -749.99292478873122 0 -749.99292478873122 -475.42983181331874 0 0 0 0 -1118.6196362624614 -1079.4879291778198 0 -1079.4879291778198 -548.98093914891797 0 0 0 0 -1126.4938116188569 -738.96534529999008 0 -738.96534529999008 -408.45998363631588 0 0 0 0 -648.22211750247516 -571.539941263316 0 -571.539941263316 -670.08052258499811 0 0 0 0 -437.74056447435578 -650.27245120030057 0 -650.27245120030057 -1200.886566691639 0 0 0 0 -902.61806484352564 -1012.311241760598 0 -1012.311241760598 -1357.5681053035587 0 0 0 0 -738.37064376007766 -69.078546260067014 0 -69.078546260067014 -414.66235598699677 0 0 0 0 -730.14208518025407 160.80210058114335 0 160.80210058114335 -1984.6560883870843 0 0 0 0 2.1423012777426891 -4.8832493808706943 0 -4.8832493808706943 -10.964466084277504 0 0 0 0 -363.54629652909352 -369.71686547528043 0 -369.71686547528043 -313.69328586855318 0 0 0 0 -65.567912728525698 -187.93374424708236 0 -187.93374424708236 -662.73567561960772 0 0 0 0 -426.98709213564871 135.10547803460759 0 135.10547803460759 -702.56101832866625 0 0 0 0 -491.0523652665579 37.99815915029194 0 37.99815915029194 108.26348908962245 0 0 0 0 -328.3037415046565 53.316017993867717 0 53.316017993867717 6.7426469948386512 0 0 0 0 0.86454542602676554 -3.6788638535851135 0 -3.6788638535851135 -8.2896713174067074 0 0 0 0 -974.27948921249117 -411.43356923176884 0 -411.43356923176884 30.181282670617293 0 0 0 0 -339.82294105686015 73.58761585018874 0 73.58761585018874 55.791876114084516 0 0 0 0 -473.19808462676883 -673.43307103239113 0 -673.43307103239113 -172.94973018658129 0 0 0 0 -724.29524125533135 -812.00991595728442 0 -812.00991595728442 -87.607428020219231 0 0 0 0 -368.85386811096396 -734.7882888412305 0 -734.7882888412305 -150.92036182332231 0 0 0 0 -870.87174521756242 -418.60275024329258 0 -418.60275024329258 -113.88726842574033 0 0 0 0 -4.4270322103786839 -399.361292647136 0 -399.361292647136 -7.3361825350693834 0 0 0 0 -630.04143716173712 185.25646090046757 0 185.25646090046757 -533.18953661391424 0 0 0 0 -348.53486458415864 -689.63420497542938 0 -689.63420497542938 -445.07014021182476 0 0 0 0 -3.5484275482376688 -304.61694269792542 0 -304.61694269792542 -210.7849126833371 0 0 0 0 341.72148314237893 -380.749591440941 0 -380.749591440941 -998.81792139638856 0 0 0 0 329.88361758816427 -295.93267928932221 0 -295.93267928932221 -710.20156882570882 0 0 0 0 65.293166725707124 -367.55757510615285 0 -367.55757510615285 -483.83459789988774 0 0 0 0 392.59315176078235 -171.23400027542084 0 -171.23400027542084 -575.78552274592494 0 0 0 0 360.1617044267914 -66.349595101288969 0 -66.349595101288969 -601.95959935828796 0 0 0 0 624.12174957004027 -222.27966293894315 0 -222.27966293894315 -750.13859371296803 0 0 0 0 -7.7372160980012268 -212.83546852422478 0 -212.83546852422478 -265.036530420286 0 0 0 0 586.39571251267625 -123.32743444599919 0 -123.32743444599919 -974.51627140495839 0 0 0 0 952.23888282413827 -621.07595962143023 0 -621.07595962143023 -669.58631011366924 0 0 0 0 374.95674760246766 -816.85848571694078 0 -816.85848571694078 -1597.3110167373954 0 0 0 0 679.434131151982 139.1049085600589 0 139.1049085600589 -745.30817969734926 0 0 0 0 694.11111301265191 482.98130034439237 0 482.98130034439237 -1582.7623437796028 0 0 0 0 687.79451520077419 91.013681119013199 0 91.013681119013199 -723.54630198095583 0 0 0 0 371.30270825390471 93.418613494268357 0 93.418613494268357 -326.42437685369077 0 0 0 0 260.51730604734621 -329.57986636434907 0 -329.57986636434907 -195.39482357809175 0 0 0 0 719.64127031597309 86.912110590044904 0 86.912110590044904 -78.793980941428345 0 0 0 0 350.56645501573803 -203.92004397111305 0 -203.92004397111305 -28.588172196417872 0 0 0 0 966.91457018395886 -145.55622192565352 0 -145.55622192565352 -78.697140147984101 0 0 0 0 376.0524959678005 16.148280280686777 0 16.148280280686777 268.22726153468102 0 0 0 0 412.49654413346434 586.31632150557562 0 586.31632150557562 -618.44304205109074 0 0 0 0 733.9176955709263 -261.89733516616343 0 -261.89733516616343 232.12078844030475 0 0 0 0 358.66637166473083 223.09646132140369 0 223.09646132140369 -367.60087400814518 0 0 0 0 5.3520254127199962 -7.7044934702444721 0 -7.7044934702444721 -8.8925452020652713 0 0 0 0 -1235.4033459665079 -870.33957693606135 0 -870.33957693606135 -566.9075979798472 0 0 0 0 9.522056803558371 2.9264799285183472 0 2.9264799285183472 -23.775012313390107 0 0 0 0 2.6416977378988804 -0.61298426573242182 0 -0.61298426573242182 -8.5545034607615804 0 0 0 0 812.49537778129888 430.33306808332918 0 430.33306808332918 129.91396454347705 0 0 0 0 5.8410274398162869 -1.8634242298524271 0 -1.8634242298524271 -9.8108218762016826 0 0 0 0 25.110749585762022 -4.9905561828329894 0 -4.9905561828329894 -36.110656034273333 0 0 0 0 45.971892746223602 -7.5123628404762712 0 -7.5123628404762712 -14.976924022717867 0 0 0 0 25.3423061343276 -20.818654789334218 0 -20.818654789334218 -42.644584763285522 0 0 0 0 460.98598291678354 240.05746399934651 0 240.05746399934651 111.93019822720089 0 0 0 0 -38.160077257722151 -358.42306268222274 0 -358.42306268222274 -1733.4440996068188 0 0 0 0 -288.9989697682031 -154.78858294260317 0 -154.78858294260317 -844.50401258368584 0 0 0 0 -529.42947327718139 -699.63561596972067 0 -699.63561596972067 -1592.4412057918798 0 0 0 0 -1351.4817931345606 -229.88718263529336 0 -229.88718263529336 -636.04072299352265 0 0 0 0 -636.86641969432821 84.326764065761381 0 84.326764065761381 -523.00601079067383 0 0 0 0 -325.36275989444403 -652.17574521695269 0 -652.17574521695269 -336.34064311812472 0 0 0 0 -328.75369547469018 -334.39505617425448 0 -334.39505617425448 483.3440543904253 0 0 0 0 -728.72325909930078 -277.77915534053318 0 -277.77915534053318 -51.716615114870365 0 0 0 0 -230.96246595249977 45.320048873612905 0 45.320048873612905 149.84602889897178 0 0 0 0 -10.152813007123768 -211.93176548649535 0 -211.93176548649535 232.77520023723628 0 0 0 0 -263.24726204114268 -315.11457553747096 0 -315.11457553747096 600.56857913922249 0 0 0 0 113.87144786852878 -652.73383019151788 0 -652.73383019151788 572.10521686025459 0 0 0 0 925.53675761295017 -747.73959489595654 0 -747.73959489595654 636.49192278658916 0 0 0 0 514.0666450492572 -408.3924105399492 0 -408.3924105399492 662.07206044702616 0 0 0 0 1975.1293137822649 -1089.3272167011855 0 -1089.3272167011855 637.92259038310658 0 0 0 0 908.25721236110257 -1041.9905886975412 0 -1041.9905886975412 776.37604179227492 0 0 0 0 1208.3639818671509 -700.90640468719357 0 -700.90640468719357 394.66145899926596 0 0 0 0 285.66593851888319 -418.02142678513337 0 -418.02142678513337 -250.26194738258346 0 0 0 0 285.12918489112053 -804.78938641943023 0 -804.78938641943023 547.2379090116392 0 0 0 0 645.40063054242637 -276.89938149416321 0 -276.89938149416321 -538.63173773845119 0 0 0 0 904.94357343582669 -533.79477423731078 0 -533.79477423731078 -539.99716859264299 0 0 0 0 417.97144147485233 -399.27032803769725 0 -399.27032803769725 -201.18689475084466 0 0 0 0 368.02753152980586 -339.42981729355415 0 -339.42981729355415 114.4639385252849 0 0 0 0 673.8994697584676 -1113.3477200892444 0 -1113.3477200892444 1113.474670195108 0 0 0 0 -2493.5046571313869 1449.9833516317995 0 1449.9833516317995 3029.2108283291745 0 0 0 0 1749.3812695428496 -2049.5136390906919 0 -2049.5136390906919 1151.4902943592947 0 0 0 0 -5.2943191509548058 -9.4258155219205548 0 -9.4258155219205548 3.2947772612500827 0 0 0 0 3423.4111413268547 -1834.22104572234 0 -1834.22104572234 226.63036008252675 0 0 0 0 -3284.493344176939 -351.23048883366482 0 -351.23048883366482 1882.9120224123835 0 0 0 0 -1865.8398026881478 -1316.1675274260306 0 -1316.1675274260306 645.4669320503308 0 0 0 0 -36.392521022207802 -394.84317706164984 0 -394.84317706164984 961.14523966745583 0 0 0 0 -1323.4252397779783 928.90477937342439 0 928.90477937342439 2705.3876674446947 0 0 0 0 -264.91219206892492 -677.4017592042901 0 -677.4017592042901 570.43526367187224 0 0 0 0 155.28354285890236 -625.79368383346628 0 -625.79368383346628 24.413857773139171 0 0 0 0 -211.51670974437729 -914.26257043369515 0 -914.26257043369515 -133.23740837835794 0 0 0 0 -82.880199218867347 -467.94098311994276 0 -467.94098311994276 -12.995272367064899 0 0 0 0 47.86024299566634 -359.39822179110161 0 -359.39822179110161 -285.30545314406754 0 0 0 0 -525.02183123124996 -384.96148495741454 0 -384.96148495741454 -119.99382905992934 0 0 0 0 -110.76286656598677 -433.95354136789183 0 -433.95354136789183 -272.19400374023098 0 0 0 0 -95.637153689342085 -395.81348818006336 0 -395.81348818006336 -288.92715619900082 0 0 0 0 36.324015804042574 -546.54389252326109 0 -546.54389252326109 -412.29249731357777 0 0 0 0 -413.52801506046671 -467.94511966110986 0 -467.94511966110986 -262.24696393272279 0 0 0 0 -315.06310317682801 -519.12555097001132 0 -519.12555097001132 -340.63993681724787 0 0 0 0 203.11184175021481 -347.59680420172299 0 -347.59680420172299 -396.06274151246362 0 0 0 0 140.06887081060268 -301.92063943701896 0 -301.92063943701896 -215.88680966917309 0 0 0 0 424.95192059062356 23.286800499431308 0 23.286800499431308 -193.82749911682913 0 0 0 0 -0.35467533659931405 -37.666987525456506 0 -37.666987525456506 14.171665968358507 0 0 0 0 11.565724612559791 -2.7747440923559736 0 -2.7747440923559736 0.69181050398672284 0 0 0 0 508.77859009832173 -561.25240066011838 0 -561.25240066011838 -594.17979486216063 0 0 0 0 -483.80679095920641 -686.51967165205315 0 -686.51967165205315 -131.4324533997351 0 0 0 0 -912.86982130841352 -859.93101226427825 0 -859.93101226427825 -427.74943549288855 0 0 0 0 -768.88297928361135 -912.09650905380579 0 -912.09650905380579 -405.85515251916149 0 0 0 0 -1430.2695756905014 -487.95927824146202 0 -487.95927824146202 -329.77896478587354 0 0 0 0 -1075.8282331692535 -406.56940565812329 0 -406.56940565812329 -1907.4551350870242 0 0 0 0 -1052.2207674386445 -221.36549923337225 0 -221.36549923337225 -491.69641304637571 0 0 0 0 -1060.3753616811009 1592.9789945117841 0 1592.9789945117841 -2575.1098978557711 0 0 0 0 -991.83096356672468 1190.0782582626252 0 1190.0782582626252 -243.80008329117845 0 0 0 0 2486.6928855098668 -525.51431350354687 0 -525.51431350354687 516.39695113714697 0 0 0 0 -886.19493554788642 -435.26132049785519 0 -435.26132049785519 -1970.5333380872125 0 0 0 0 -2075.003252705952 -498.53349477217716 0 -498.53349477217716 -161.9827345416561 0 0 0 0 -2039.53646643518 -874.02205647241863 0 -874.02205647241863 -573.85702516947276 0 0 0 0 -13.648712427369361 -25.365172578727964 0 -25.365172578727964 1.0723069098251514 0 0 0 0 -8.8099044075366919 -8.8120670662530642 0 -8.8120670662530642 2.1791862702884188 0 0 0 0 110.25944366701879 307.65924733021166 0 307.65924733021166 261.24642141300137 0 0 0 0 -1842.1856828441669 148.72040959899505 0 148.72040959899505 87.994131192775967 0 0 0 0 -2014.0075404032832 -218.98409552730027 0 -218.98409552730027 10.984165524976561 0 0 0 0 -1738.3452879586839 94.884395893050623 0 94.884395893050623 102.3873803964234 0 0 0 0 -1767.9877181123011 -113.5528492854246 0 -113.5528492854246 114.12560692771513 0 0 0 0 -1537.2518759664381 -284.73199987824773 0 -284.73199987824773 -31.389539472962497 0 0 0 0 -1441.4531582104973 -160.17973425700256 0 -160.17973425700256 14.674924222294067 0 0 0 0 -1428.9528824179433 -16.549432916406658 0 -16.549432916406658 39.902733291412005 0 0 0 0 -1604.6141864507226 -295.8379698503777 0 -295.8379698503777 5.7313414480668143 0 0 0 0 -1633.4117292586016 -564.84946756662976 0 -564.84946756662976 -157.90289833499992 0 0 0 0 -1909.0531441876083 -259.42690439644684 0 -259.42690439644684 17.359326791702188 0 0 0 0 -1441.0942740561441 -485.7857731204158 0 -485.7857731204158 -201.46964160553034 0 0 0 0 -1175.1124188093236 -624.38198836272932 0 -624.38198836272932 -188.29838652970193 0 0 0 0 -1391.6309264248703 -277.87485751681743 0 -277.87485751681743 -96.763505221570085 0 0 0 0 -299.31240033287031 -568.15216575214254 0 -568.15216575214254 -478.83997457980149 0 0 0 0 -871.3801006214926 -427.96132891081288 0 -427.96132891081288 -211.97451370765339 0 0 0 0 -797.80167349788826 -592.51426779400572 0 -592.51426779400572 -257.68620243115583 0 0 0 0 -472.78722901688889 -549.82235042790853 0 -549.82235042790853 -277.61604725186771 0 0 0 0 -870.53668631904293 -494.09661004141526 0 -494.09661004141526 -179.51695943852428 0 0 0 0 -1156.917690356262 -293.91387089207274 0 -293.91387089207274 -35.133194792624181 0 0 0 0 -1149.4898408916197 -295.95517630443919 0 -295.95517630443919 -93.223198244566447 0 0 0 0 -1051.0837010914693 -155.47687567910179 0 -155.47687567910179 -25.50374482319603 0 0 0 0 -767.68362219783012 -321.747097512236 0 -321.747097512236 -92.762702550537483 0 0 0 0 -813.25189578905702 -409.15610634463337 0 -409.15610634463337 -105.97746972983805 0 0 0 0 -714.22584912722232 -360.66057150236702 0 -360.66057150236702 -144.733845912986 0 0 0 0 -508.9460532189114 -345.90483835475698 0 -345.90483835475698 -123.84984953654111 0 0 0 0 -748.37593491162261 -268.654061708688 0 -268.654061708688 8.219414402381517 0 0 0 0 -868.49465135333594 -216.65746317393859 0 -216.65746317393859 -9.4164099692466152 0 0 0 0 -738.20708831981756 -163.78683904793979 0 -163.78683904793979 -24.594093613355653 0 0 0 0 -1022.6585321782622 31.487004891370816 0 31.487004891370816 -11.686724787534331 0 0 0 0 -1042.1271413328941 30.068478815765047 0 30.068478815765047 14.597362442633312 0 0 0 0 -841.27834605169483 168.98105603889599 0 168.98105603889599 -58.568086841751892 0 0 0 0 -1305.6251765782799 547.25523837042147 0 547.25523837042147 -61.855316273169592 0 0 0 0 -1278.2699985255022 268.77910909500497 0 268.77910909500497 -64.824335003542501 0 0 0 0 -1415.1827022229554 217.05875857687715 0 217.05875857687715 74.196667980497296 0 0 0 0 -1362.9927258757525 88.385778174859297 0 88.385778174859297 55.135089398521814 0 0 0 0 -1440.7133273086511 121.03741307345626 0 121.03741307345626 57.536926647990185 0 0 0 0 -1481.1939593586139 14.429159272698598 0 14.429159272698598 47.803890234135906 0 0 0 0 -1147.4689330344554 -192.13433177280604 0 -192.13433177280604 18.040347015270527 0 0 0 0 -1349.8137681792723 94.398917364450426 0 94.398917364450426 12.821573302797333 0 0 0 0 -1259.6927006755723 43.507767325500026 0 43.507767325500026 32.480645493464181 0 0 0 0 2105.0229671876295 -1022.8286650200898 0 -1022.8286650200898 286.13884215234066 0 0 0 0 1316.5334481812315 -424.59034024433276 0 -424.59034024433276 417.13517448576999 0 0 0 0 883.31737702933606 -801.53467028591785 0 -801.53467028591785 387.49447038764538 0 0 0 0 1232.698387938246 -723.67757310284605 0 -723.67757310284605 254.74354319093254 0 0 0 0 1425.5234412035497 -885.05028572000992 0 -885.05028572000992 355.82508242002586 0 0 0 0 919.33422791314661 -600.95852853362521 0 -600.95852853362521 437.71179330585801 0 0 0 0 1918.0170840871288 -491.87693314782155 0 -491.87693314782155 164.83904577123576 0 0 0 0 1628.8902212749817 -959.88084948606775 0 -959.88084948606775 832.7145474539393 0 0 0 0 1630.4279488482134 -973.41225572256053 0 -973.41225572256053 507.74189625030704 0 0 0 0 1783.0778791810735 -609.37114583856965 0 -609.37114583856965 908.30124438512667 0 0 0 0 917.19681548711378 -773.31608346681605 0 -773.31608346681605 798.60245118247258 0 0 0 0 1644.9498671074689 -942.94942635338157 0 -942.94942635338157 671.19457837779191 0 0 0 0 464.85437733941944 -722.20256597164553 0 -722.20256597164553 742.62767852849356 0 0 0 0 1124.375839790795 -785.32364145013344 0 -785.32364145013344 741.45945725827914 0 0 0 0 1117.9413701963349 -816.56176524225702 0 -816.56176524225702 589.86612902174238 0 0 0 0 1105.5230233782204 -691.48756979171958 0 -691.48756979171958 459.42470708474048 0 0 0 0 973.64985980663914 -829.12277483248181 0 -829.12277483248181 492.89881099538616 0 0 0 0 627.18422169366386 -545.88736901721495 0 -545.88736901721495 506.42522448005707 0 0 0 0 260.80928508355282 -543.18912549812876 0 -543.18912549812876 774.20240981449024 0 0 0 0 298.1849879226138 -372.32840543033274 0 -372.32840543033274 270.72341411624438 0 0 0 0 190.33747569448315 -689.79356461748557 0 -689.79356461748557 529.87015911914932 0 0 0 0 859.79561991617084 -795.33278556586083 0 -795.33278556586083 308.92414429977225 0 0 0 0 425.81643264149898 -494.68865295408523 0 -494.68865295408523 392.63834479118668 0 0 0 0 245.3697950784117 -651.23253295790437 0 -651.23253295790437 420.12151537226782 0 0 0 0 862.81276781507768 -735.60889409844276 0 -735.60889409844276 187.13919176777745 0 0 0 0 157.17198266400737 -772.8547682875876 0 -772.8547682875876 288.60905550334064 0 0 0 0 1021.311255961773 -517.36574483109962 0 -517.36574483109962 176.68329717417146 0 0 0 0 169.40413071791045 -446.58321084916179 0 -446.58321084916179 260.13372984584248 0 0 0 0 460.37609982196591 -477.44896406928888 0 -477.44896406928888 203.87319417954018 0 0 0 0 159.13577206608352 -544.15145281068828 0 -544.15145281068828 348.09179973346443 0 0 0 0 -113.96999818319455 -600.14847608184823 0 -600.14847608184823 345.88650996250209 0 0 0 0 -383.79601357213687 -91.803816026711047 0 -91.803816026711047 77.64668606617397 0 0 0 0 -258.65063341369387 -56.613302113308237 0 -56.613302113308237 81.314236555089792 0 0 0 0 -59.066359046351863 -47.287214930243863 0 -47.287214930243863 -45.677816607827481 0 0 0 0 -178.45024838446989 -27.403244520361085 0 -27.403244520361085 -45.744430500122007 0 0 0 0 383.09356880326231 -450.89674808510119 0 -450.89674808510119 -199.05494246853823 0 0 0 0 -26.04809752604379 -34.471885747079511 0 -34.471885747079511 -6.8144390315800614 0 0 0 0 1123.5361172209523 -758.78390653351516 0 -758.78390653351516 125.85078699793485 0 0 0 0 0.62811476001118649 -14.118566012621926 0 -14.118566012621926 -6.996728553042189 0 0 0 0 1046.8112738477648 -583.93747590224302 0 -583.93747590224302 417.47989158588445 0 0 0 0 -474.38592095521744 337.98779408413384 0 337.98779408413384 -103.44636478880648 0 0 0 0 -804.64042022638023 507.74739277371737 0 507.74739277371737 -177.5288311765562 0 0 0 0 -618.19642365028267 -66.577293268470441 0 -66.577293268470441 96.559094092393252 0 0 0 0 -450.71095677214907 144.66189131236627 0 144.66189131236627 -51.736828329624643 0 0 0 0 -607.20767413539579 -81.032345118487797 0 -81.032345118487797 73.879678601411001 0 0 0 0 -864.69793568951718 181.74039559314383 0 181.74039559314383 -38.635335335104173 0 0 0 0 -687.6549428369035 -12.295087405117556 0 -12.295087405117556 16.383149809853421 0 0 0 0 -959.04295084747719 -32.368588180335792 0 -32.368588180335792 38.331910871402215 0 0 0 0 -628.40485854097642 -192.31617041010122 0 -192.31617041010122 -21.380387826546666 0 0 0 0 -751.33743043884169 -155.49952540050162 0 -155.49952540050162 69.583185848990979 0 0 0 0 -498.97292062892666 -219.45261177666021 0 -219.45261177666021 27.158797526952185 0 0 0 0 -640.95463092799764 -295.79143782718529 0 -295.79143782718529 10.346882641141065 0 0 0 0 -516.20120506722014 -139.90060079646503 0 -139.90060079646503 66.451592897770752 0 0 0 0 -550.85073403536808 -257.21459387001244 0 -257.21459387001244 91.538431157725313 0 0 0 0 -451.98496937326854 -208.92961711537509 0 -208.92961711537509 108.22627593352399 0 0 0 0 -400.74192700188723 -234.40350570474948 0 -234.40350570474948 115.75537809621528 0 0 0 0 -386.54528421908617 -91.977134782396206 0 -91.977134782396206 95.805199859354616 0 0 0 0 -356.17879737718613 -177.97414890078289 0 -177.97414890078289 -8.7725671212538145 0 0 0 0 -345.03047164107556 -198.63399892948473 0 -198.63399892948473 -13.214328836435016 0 0 0 0 -367.03204256930621 -168.02004866094921 0 -168.02004866094921 67.534125345428038 0 0 0 0 -386.59477846737718 -190.68828878915156 0 -190.68828878915156 82.199730567371262 0 0 0 0 -454.67606214171974 -183.10074229728252 0 -183.10074229728252 107.23556859767086 0 0 0 0 -365.00988526531728 -214.60084592344356 0 -214.60084592344356 74.254062630629733 0 0 0 0 -682.19704230688512 105.50212169833321 0 105.50212169833321 -183.79220819275361 0 0 0 0 -345.12385311655817 -195.13504380315499 0 -195.13504380315499 46.390194603678538 0 0 0 0 -339.48206867501722 -179.34523489418757 0 -179.34523489418757 71.136926090580346 0 0 0 0 -92.353239037401607 -104.89282014121368 0 -104.89282014121368 5.3142292986501154 0 0 0 0 -127.15979649973451 65.99168298528275 0 65.99168298528275 31.073692072091944 0 0 0 0 -187.62591966947366 -16.194480915378335 0 -16.194480915378335 -59.522720546883647 0 0 0 0 -183.73933044853038 17.708584157133373 0 17.708584157133373 5.9926921945807408 0 0 0 0 -52.875669512338391 -4.205463536745043 0 -4.205463536745043 -0.74912770656777994 0 0 0 0 -250.3596152664104 -37.117206780073957 0 -37.117206780073957 14.429400611556048 0 0 0 0 -119.23332904558967 -102.73526434076331 0 -102.73526434076331 -10.020065291121902 0 0 0 0 271.4961422260676 -362.16535032272975 0 -362.16535032272975 -34.788161484928878 0 0 0 0 -4.9296532289590687 -143.78504494210847 0 -143.78504494210847 52.131885659829379 0 0 0 0 -316.34481943352148 -175.04313866524308 0 -175.04313866524308 71.149292786825299 0 0 0 0 -312.44577047601342 -212.80669925407074 0 -212.80669925407074 74.14103840459012 0 0 0 0 -299.033057947614 -236.00960268628728 0 -236.00960268628728 77.373488665414243 0 0 0 0 -17.077852901362348 -233.91698943371989 0 -233.91698943371989 -70.092196186222964 0 0 0 0 -310.31105792528251 -281.97214580756827 0 -281.97214580756827 26.108770493239717 0 0 0 0 -488.02425733440759 -304.41343143490838 0 -304.41343143490838 36.90010412601805 0 0 0 0 -236.89093761827098 -316.39155043806886 0 -316.39155043806886 -108.91357454788294 0 0 0 0 -222.91794723257772 -278.12834696328378 0 -278.12834696328378 -69.299968039926171 0 0 0 0 131.64943220370333 -244.67461600062666 0 -244.67461600062666 -185.01719292541793 0 0 0 0 -25.00923327030614 -287.73785457579629 0 -287.73785457579629 -4.2548020330559666 0 0 0 0 -1317.1498363177452 -82.785728525951299 0 -82.785728525951299 843.13911763865235 0 0 0 0 -17.799900777739822 -729.84702606289284 0 -729.84702606289284 -926.22123778147125 0 0 0 0 -14.522666010185617 -7.6595626777362611 0 -7.6595626777362611 -2.851248818698437 0 0 0 0 -1710.9202043945697 -353.36384042145164 0 -353.36384042145164 48.955811628080482 0 0 0 0 -1240.0250265675495 -1215.9966235964316 0 -1215.9966235964316 -375.69250602885768 0 0 0 0 0.55045041922400628 -3.2549910794527079 0 -3.2549910794527079 -3.7865747380938544 0 0 0 0 -1042.9693040889106 -294.54597099942839 0 -294.54597099942839 -651.57081525417925 0 0 0 0 -252.20017390567227 -405.47569251902496 0 -405.47569251902496 333.32274305827059 0 0 0 0 218.64888575557598 -871.0689131053266 0 -871.0689131053266 -66.17773604802278 0 0 0 0 -66.780959805248131 -341.1353515341616 0 -341.1353515341616 142.62707195427538 0 0 0 0 -1945.5443587898335 -1417.6360305892567 0 -1417.6360305892567 16.241976778778735 0 0 0 0 -845.2229536678642 -621.25936609182349 0 -621.25936609182349 627.57741081770382 0 0 0 0 -862.24688280206465 -702.32616835306067 0 -702.32616835306067 417.61266538994005 0 0 0 0 -688.40985228485079 -1052.8908461910942 0 -1052.8908461910942 368.60512261941994 0 0 0 0 134.25481961204423 -697.30300025758231 0 -697.30300025758231 422.4694557435314 0 0 0 0 -388.89544384181499 -774.57414023461774 0 -774.57414023461774 453.73671692102312 0 0 0 0 -558.55530478529545 -549.76946711213122 0 -549.76946711213122 547.37738498553517 0 0 0 0 -786.8231025763962 -662.68223338054418 0 -662.68223338054418 614.96018444599895 0 0 0 0 -755.82051375057199 -332.02473001895464 0 -332.02473001895464 648.09486903464381 0 0 0 0 -948.89671006854769 -500.0541843584694 0 -500.0541843584694 892.20821359307479 0 0 0 0 -1196.1880908799358 -669.34342289091364 0 -669.34342289091364 823.02028594413719 0 0 0 0 -898.89328005285643 126.37731416855991 0 126.37731416855991 816.42660953212999 0 0 0 0 -759.17766331724124 -326.99243184285888 0 -326.99243184285888 914.71244671933073 0 0 0 0 139.10930584173184 -473.06043458378412 0 -473.06043458378412 668.08065886703048 0 0 0 0 589.00741887664481 -534.87532134055732 0 -534.87532134055732 724.47234371306354 0 0 0 0 19.418061875287094 -54.831618563300708 0 -54.831618563300708 169.32534285797533 0 0 0 0 413.7458664671849 -1208.338164555493 0 -1208.338164555493 1111.1997261818406 0 0 0 0 -32.657025550606022 -28.648238579030618 0 -28.648238579030618 -21.02424745555345 0 0 0 0 -31.332542361276865 -109.63321297838411 0 -109.63321297838411 204.01097105865301 0 0 0 0 16.516514792325324 -196.20203057416256 0 -196.20203057416256 253.61711178116184 0 0 0 0 -31.623680733100628 -760.62795007176362 0 -760.62795007176362 1275.6190159060836 0 0 0 0 -29.542210114571503 -21.242802623639022 0 -21.242802623639022 -12.569410031530131 0 0 0 0 65.582601543659621 -93.03346872311738 0 -93.03346872311738 -139.18535133794285 0 0 0 0 -127.66623238666216 -173.93785249923167 0 -173.93785249923167 250.70079621457012 0 0 0 0 -46.327952300176548 -82.940559119911541 0 -82.940559119911541 226.02188449053938 0 0 0 0 -91.765837177212234 -392.93895100244936 0 -392.93895100244936 69.285267411438781 0 0 0 0 -363.14149271183123 -750.05090668111643 0 -750.05090668111643 -301.29617595607715 0 0 0 0 486.3298027584824 -391.38155395044237 0 -391.38155395044237 263.76099960560168 0 0 0 0 231.85350286666653 -447.86492069220731 0 -447.86492069220731 470.78527215313261 0 0 0 0 -0.89990282927465159 -215.2846024457981 0 -215.2846024457981 367.59270034410656 0 0 0 0 -2.4816493210673798 -89.894176762966708 0 -89.894176762966708 217.50095842287737 0 0 0 0 12.312202897272073 -126.80343044086021 0 -126.80343044086021 354.0855497573375 0 0 0 0 30.254984428203898 20.144463843801077 0 20.144463843801077 227.99280775709758 0 0 0 0 3.5436622085107956 -148.05480841092549 0 -148.05480841092549 324.38700786984373 0 0 0 0 23.121994204411749 -96.853456826738693 0 -96.853456826738693 60.969757796629892 0 0 0 0 -250.40315120961168 -114.18001331590858 0 -114.18001331590858 68.755353958552405 0 0 0 0 40.526379378754427 -91.355812728067804 0 -91.355812728067804 17.82787076983368 0 0 0 0 250.41386650633183 -256.16868574127824 0 -256.16868574127824 160.17696489956066 0 0 0 0 0.8596310229527071 -7.2710457834980389 0 -7.2710457834980389 27.414715688517703 0 0 0 0 0.69458192219134274 -5.1832475410173515 0 -5.1832475410173515 10.07759192392956 0 0 0 0 1506.799620229227 -937.58156442345853 0 -937.58156442345853 336.01615505253721 0 0 0 0 911.28725211811252 -585.13405590538514 0 -585.13405590538514 304.74547001821975 0 0 0 0 -368.77394085010746 126.1284295193318 0 126.1284295193318 487.84123532003923 0 0 0 0 0.079901990218786523 -455.52392604265219 0 -455.52392604265219 540.24574493515183 0 0 0 0 237.0494113193854 -547.87325543793168 0 -547.87325543793168 288.20897497628198 0 0 0 0 70.090053321357118 -280.5521849848393 0 -280.5521849848393 236.50184575162527 0 0 0 0 -22.065924572307267 -499.35898449690603 0 -499.35898449690603 603.80520524761687 0 0 0 0 -39.665962468658108 -509.95233317107522 0 -509.95233317107522 821.5649192137198 0 0 0 0 -0.086135247693164274 -446.76817474038398 0 -446.76817474038398 558.06365932155131 0 0 0 0 2.8126005740195978 -402.58294028090677 0 -402.58294028090677 656.67594825737251 0 0 0 0 49.093020656364388 -375.12897024890117 0 -375.12897024890117 534.75776942766106 0 0 0 0 26.202322322635155 -385.83543300934207 0 -385.83543300934207 531.96828279052352 0 0 0 0 51.545364662699285 -373.64745056285938 0 -373.64745056285938 490.5623136981576 0 0 0 0 770.31286572756471 -695.83468743181311 0 -695.83468743181311 408.3723048942029 0 0 0 0 121.62746660766425 -540.69178975119394 0 -540.69178975119394 979.17849639497308 0 0 0 0 665.38005226914538 -176.98374697598956 0 -176.98374697598956 876.404760199267 0 0 0 0 588.13077777558647 -1108.2111275342363 0 -1108.2111275342363 1062.6071303109402 0 0 0 0 -4.3576441948542879 -2.781294161321199 0 -2.781294161321199 2.1269959318384366 0 0 0 0 546.13934077642625 -615.37851101642718 0 -615.37851101642718 379.49704366697279 0 0 0 0 318.40755352687847 -632.19929142146339 0 -632.19929142146339 622.45412197285259 0 0 0 0 -7.3083964346033099 -6.91130621523331 0 -6.91130621523331 -1.5042891420364128 0 0 0 0 304.66055965442411 -413.03093781045828 0 -413.03093781045828 320.09103597437206 0 0 0 0 107.49472287121171 -357.20880151944766 0 -357.20880151944766 389.66703725251864 0 0 0 0 310.59600721772586 -329.32770237789373 0 -329.32770237789373 276.31079876885451 0 0 0 0 507.00852789727287 -735.40049798389737 0 -735.40049798389737 284.38212566388393 0 0 0 0 0.012763856269884855 -475.3413617063552 0 -475.3413617063552 371.93111277219396 0 0 0 0 106.06077177606494 -451.93700002293508 0 -451.93700002293508 -16.821826828396297 0 0 0 0 8.7694776361167897 -324.94684420296289 0 -324.94684420296289 212.22144820950962 0 0 0 0 -0.029845788012607954 -481.91870450891838 0 -481.91870450891838 -90.393024205823167 0 0 0 0 88.634210083488142 -285.55762451022019 0 -285.55762451022019 -89.611710393101021 0 0 0 0 -9.3244427496319986 -486.967311044707 0 -486.967311044707 -326.44704810586336 0 0 0 0 39.317635376264661 -321.22523117125866 0 -321.22523117125866 -416.08927242753998 0 0 0 0 262.36831156100743 -658.12201710211662 0 -658.12201710211662 -783.8115076588474 0 0 0 0 162.99119722972318 -346.58531811687044 0 -346.58531811687044 -393.20114861923503 0 0 0 0 288.90560675400775 -441.67632208780742 0 -441.67632208780742 -112.14503696128668 0 0 0 0 110.41750851951656 -505.37800825657541 0 -505.37800825657541 -132.53470074044071 0 0 0 0 342.90500194438209 -310.93184508414834 0 -310.93184508414834 -124.58962290555064 0 0 0 0 590.06530058811768 -923.65842648257876 0 -923.65842648257876 -971.14618543863617 0 0 0 0 -5.2537216198006718 -4.6590805348343736 0 -4.6590805348343736 -1.0971699070568732 0 0 0 0 -771.80800658689259 -956.06219973430143 0 -956.06219973430143 326.44074722117512 0 0 0 0 -379.66516994316771 -878.23483472326188 0 -878.23483472326188 -634.12241517490293 0 0 0 0 -407.35475506179864 -655.60443140387815 0 -655.60443140387815 -557.01058059790739 0 0 0 0 -274.32125945278676 -690.73770365160271 0 -690.73770365160271 -582.57159745727313 0 0 0 0 -305.93861438315071 -875.47328772474611 0 -875.47328772474611 -302.51722725997206 0 0 0 0 -283.91263131823507 -875.64555929926246 0 -875.64555929926246 -877.85076213829598 0 0 0 0 -406.90117098405608 -827.0692204178722 0 -827.0692204178722 -41.823362032760997 0 0 0 0 -379.23127170294174 -780.82185611580007 0 -780.82185611580007 -145.87464613966313 0 0 0 0 -167.04219551380811 -398.80398562110076 0 -398.80398562110076 174.64532035896809 0 0 0 0 339.80538048701419 -502.39453025655439 0 -502.39453025655439 176.24944033603242 0 0 0 0 340.35758968515438 -561.80310405751425 0 -561.80310405751425 540.72172270001829 0 0 0 0 -8.7664171038155132 -8.8670169165635571 0 -8.8670169165635571 -4.1428644146462048 0 0 0 0 -147.94019221136114 -332.18895787038309 0 -332.18895787038309 390.68533732648939 0 0 0 0 -139.95498493136984 -261.46475827001268 0 -261.46475827001268 -258.30293008023727 0 0 0 0 -146.07160359986847 -261.4470934645251 0 -261.4470934645251 -226.27109162579291 0 0 0 0 -92.336060382815049 -373.5554272968111 0 -373.5554272968111 -498.03236672919593 0 0 0 0 -32.284403385478072 -122.22788208347629 0 -122.22788208347629 -344.92085081713594 0 0 0 0 93.603275041492452 -72.696103350872363 0 -72.696103350872363 27.701827675526147 0 0 0 0 4.9158538582193572 -6.7892301149299357 0 -6.7892301149299357 2.6536457454021729 0 0 0 0 -341.40592659835238 -277.71292742564401 0 -277.71292742564401 -239.54839671784066 0 0 0 0 2.5477986884268446 -3.7572929475870573 0 -3.7572929475870573 0.026259669710896105 0 0 0 0 -272.6249481946179 -383.50341628873139 0 -383.50341628873139 -131.36783588565595 0 0 0 0 -246.84000340921921 -412.10119487862539 0 -412.10119487862539 -321.1136775013365 0 0 0 0 -434.03683501874912 -364.82944152384152 0 -364.82944152384152 47.522159297557664 0 0 0 0 -26.938639591546234 -71.128415600316657 0 -71.128415600316657 92.447672831607633 0 0 0 0 -173.52091371728966 -23.378967629600083 0 -23.378967629600083 495.0169994263706 0 0 0 0 0.43882439936348305 2.4390992021648401 0 2.4390992021648401 -2.2557645480289921 0 0 0 0 -651.75877135079645 -536.64191430046776 0 -536.64191430046776 -684.36346642454737 0 0 0 0 -307.182184346133 -81.21241167926928 0 -81.21241167926928 -809.68740216350125 0 0 0 0 -88.368793011366506 -216.52341538100154 0 -216.52341538100154 -957.01162610743631 0 0 0 0 -329.30363547086017 -388.69678229538113 0 -388.69678229538113 -305.65705642300236 0 0 0 0 -475.04310633614659 -710.07415785420744 0 -710.07415785420744 -896.03018065134529 0 0 0 0 -530.46239865249663 -712.51416393777254 0 -712.51416393777254 -649.31752580062312 0 0 0 0 -420.03394215194567 -674.63133156711046 0 -674.63133156711046 -871.87140956512303 0 0 0 0 -220.72726828642772 -293.59506893633079 0 -293.59506893633079 -500.76455113968404 0 0 0 0 -176.38979704815574 -326.46630207378621 0 -326.46630207378621 -503.65517280636413 0 0 0 0 179.09160718217026 100.11599878517882 0 100.11599878517882 -390.4163343354594 0 0 0 0 -96.992084426776273 -230.78653200619738 0 -230.78653200619738 -636.84894467709819 0 0 0 0 -4.2953186487680597 -3.7292212390181021 0 -3.7292212390181021 1.0069783214052279 0 0 0 0 -640.0608711767054 0.90428497638640692 0 0.90428497638640692 -69.198614566455944 0 0 0 0 -474.20148227724621 -645.56351684360743 0 -645.56351684360743 -674.94612522887473 0 0 0 0 -160.11189702990669 -234.29994776142121 0 -234.29994776142121 -232.84574300950044 0 0 0 0 -186.52304619937786 -251.50152365370741 0 -251.50152365370741 110.64182742324192 0 0 0 0 -167.34814249798728 -352.02095288080091 0 -352.02095288080091 -168.62515115446877 0 0 0 0 -401.88265963023514 -91.060658544214675 0 -91.060658544214675 173.69047349717584 0 0 0 0 -83.667975082513294 -157.81616987264715 0 -157.81616987264715 186.97470903864451 0 0 0 0 -0.64706088618453705 -7.151739097822194 0 -7.151739097822194 4.7116478337692342 0 0 0 0 -80.414627961050428 -34.616409901100269 0 -34.616409901100269 148.91100272140466 0 0 0 0 -18.097865808638744 -19.497521500172297 0 -19.497521500172297 4.5589675764567801 0 0 0 0 -59.133124935950036 -36.425302098694374 0 -36.425302098694374 21.366224849858554 0 0 0 0 -133.77679733047262 51.324975081704906 0 51.324975081704906 -80.762502537612818 0 0 0 0 -132.29387322589901 29.784586776462675 0 29.784586776462675 199.97616544923221 0 0 0 0 -0.41035920219385957 -5.5832226923547452 0 -5.5832226923547452 2.6885749435505204 0 0 0 0 -9.5556720638212482 -9.4644381564093862 0 -9.4644381564093862 -3.3491611580139988 0 0 0 0 -1.462881825585967 -8.4322011514846338 0 -8.4322011514846338 -6.5031039019136756 0 0 0 0 27.624561739943601 55.894941983577155 0 55.894941983577155 -71.873595356941223 0 0 0 0 -50.123303068365203 -37.450664668838726 0 -37.450664668838726 181.66694871040818 0 0 0 0 14.226395073543245 -5.3816563585060067 0 -5.3816563585060067 -4.786913721007295 0 0 0 0 3.5483035707645953 -10.731989348747646 0 -10.731989348747646 5.2724683946692039 0 0 0 0 -138.46256208794512 -60.398934339420521 0 -60.398934339420521 -2.7620680100371828 0 0 0 0 -7.694440990620933 -35.679348754732928 0 -35.679348754732928 14.41621494141873 0 0 0 0 -14.67380290408255 -35.430590899220988 0 -35.430590899220988 16.999553754067165 0 0 0 0 8.7944442170846742 20.178677016418078 0 20.178677016418078 -38.615226392445038 0 0 0 0 3.7025280473972089 -43.698897264534025 0 -43.698897264534025 4.9449304083937022 0 0 0 0 -143.54254989826268 -197.90690345673192 0 -197.90690345673192 -28.212530263714143 0 0 0 0 -176.88106368624722 -12.932302349581732 0 -12.932302349581732 21.026852819108171 0 0 0 0 -176.29066508296819 -190.87349052549689 0 -190.87349052549689 29.468798151952797 0 0 0 0 -2.0353604579722742 -220.02354171666229 0 -220.02354171666229 32.158763694794743 0 0 0 0 78.332402385316527 -394.65873514366558 0 -394.65873514366558 51.491509732426493 0 0 0 0 49.899639382310852 -290.05621281284402 0 -290.05621281284402 -46.950528921290243 0 0 0 0 -14.943873164516845 -317.29067868554557 0 -317.29067868554557 -261.89040790720901 0 0 0 0 -28.398039798084938 -294.360526719669 0 -294.360526719669 -10.077600576587429 0 0 0 0 132.28305399246892 -333.06254498784256 0 -333.06254498784256 -46.46346238888043 0 0 0 0 118.9643504910855 -347.59385945748181 0 -347.59385945748181 -55.955178345066088 0 0 0 0 -14.86817578690534 -268.50253146745308 0 -268.50253146745308 82.801589871982287 0 0 0 0 68.037054204713058 -239.17812826065347 0 -239.17812826065347 153.27318631188064 0 0 0 0 77.918336505468687 -194.57431235586046 0 -194.57431235586046 140.17961630511127 0 0 0 0 251.232271941406 -282.13014625381038 0 -282.13014625381038 -41.027689230431861 0 0 0 0 23.030598543835367 -196.0906792628266 0 -196.0906792628266 54.102498179054237 0 0 0 0 -87.295029406632239 -281.74356885964517 0 -281.74356885964517 187.51899909542772 0 0 0 0 145.48641821876663 -70.745830522442702 0 -70.745830522442702 -7.0881252981853322 0 0 0 0 155.98129185692233 -303.23146618169994 0 -303.23146618169994 140.05681541380181 0 0 0 0 769.90475803444861 -141.22468918523373 0 -141.22468918523373 -39.776735304050817 0 0 0 0 279.66586191587339 -569.52913118946526 0 -569.52913118946526 115.94934095338976 0 0 0 0 -8.9819002523108793 -165.14729376514879 0 -165.14729376514879 149.15999929897953 0 0 0 0 -6.883937434319904 -8.6803109171627568 0 -8.6803109171627568 -11.526316221115621 0 0 0 0 -657.55299880258099 -117.34407316307988 0 -117.34407316307988 157.06101650200981 0 0 0 0 -454.7755751115983 -835.03923536807997 0 -835.03923536807997 -272.1601176276672 0 0 0 0 -16.646264036025968 -420.91519520495785 0 -420.91519520495785 93.182270041372249 0 0 0 0 224.61420270446251 -247.57448097617089 0 -247.57448097617089 -97.974120533748646 0 0 0 0 -19.390035111765016 -25.241760044192034 0 -25.241760044192034 -30.825527260569373 0 0 0 0 114.35366546566365 -186.69603497039861 0 -186.69603497039861 -82.201388749264879 0 0 0 0 247.20641101394358 -147.69602670988752 0 -147.69602670988752 -247.25610251945182 0 0 0 0 246.67357756862248 -114.81129643987879 0 -114.81129643987879 -1039.5266823059937 0 0 0 0 121.93914771523123 -286.57035780041042 0 -286.57035780041042 -383.07884112618194 0 0 0 0 48.774262243328849 -284.96265098667209 0 -284.96265098667209 349.48187257579411 0 0 0 0 317.35573397741973 -676.52334591766703 0 -676.52334591766703 -56.876260835779249 0 0 0 0 2.4802239192615616 -1.3361434985231426 0 -1.3361434985231426 -3.4796075409556693 0 0 0 0 256.70574482558004 -697.95462762510942 0 -697.95462762510942 -816.71961408740026 0 0 0 0 -803.13741061873225 -34.846556781933032 0 -34.846556781933032 451.73086870222323 0 0 0 0 -370.04507373317756 -809.95802501966682 0 -809.95802501966682 -289.38772240795515 0 0 0 0 64.169923823919817 361.30446227277571 0 361.30446227277571 -156.09968902626133 0 0 0 0 427.69661922613159 14.004461346710741 0 14.004461346710741 166.18578244363925 0 0 0 0 27.296833518877975 16.543390152030042 0 16.543390152030042 269.52084758973797 0 0 0 0 184.93224808148079 -205.44433748938536 0 -205.44433748938536 574.41443898671423 0 0 0 0 7.3082238993378041 1.7724201172268721 0 1.7724201172268721 -1.9720717466767752 0 0 0 0 297.43187010801921 -80.930626449975534 0 -80.930626449975534 -191.94252510862134 0 0 0 0 463.41770928258484 -424.86888366789935 0 -424.86888366789935 -483.98045587893284 0 0 0 0 172.8486551364058 -672.51567799978147 0 -672.51567799978147 -469.68468359387771 0 0 0 0 -76.70244479963003 -228.36549628155626 0 -228.36549628155626 -204.5104383151629 0 0 0 0 -143.62608597122016 -286.91091455792775 0 -286.91091455792775 -102.49857105518458 0 0 0 0 -152.12336198205958 -320.77507699239504 0 -320.77507699239504 -165.80014415430196 0 0 0 0 -689.33766541260047 -590.62719566742089 0 -590.62719566742089 -77.300392757126247 0 0 0 0 1.1108936094824458 -659.78824518601687 0 -659.78824518601687 -105.82685409385886 0 0 0 0 -68.299203728935254 -115.78706330648879 0 -115.78706330648879 61.273875795988715 0 0 0 0 -217.01134283854117 -252.08711420758846 0 -252.08711420758846 -49.405889727146132 0 0 0 0 -65.52091757090966 -146.45701743611426 0 -146.45701743611426 -2.933313876243119 0 0 0 0 -24.941085064314393 -135.96112451665249 0 -135.96112451665249 31.590870997286402 0 0 0 0 -35.375803388955319 -104.12286036376918 0 -104.12286036376918 -41.982088891149033 0 0 0 0 57.948416677223577 -72.892206158201589 0 -72.892206158201589 -45.147667946890579 0 0 0 0 34.349409265530255 -49.729442036975783 0 -49.729442036975783 47.258316379414453 0 0 0 0 63.586794754005496 -96.532877576369714 0 -96.532877576369714 76.466247997059838 0 0 0 0 -117.26246873482887 -390.57567841405216 0 -390.57567841405216 172.29540377602825 0 0 0 0 8.5213750515864035 -18.850875818678276 0 -18.850875818678276 16.046877501419566 0 0 0 0 -116.46007471902703 -75.964329910682864 0 -75.964329910682864 234.74256251954284 0 0 0 0 1.8007837313080017 -137.27142270897593 0 -137.27142270897593 84.888314747775439 0 0 0 0 509.07508531013445 -532.95347818823939 0 -532.95347818823939 17.308507535133685 0 0 0 0 33.512835559056839 200.51010693022545 0 200.51010693022545 368.35978718890692 0 0 0 0 102.84882597089745 -398.43533448819653 0 -398.43533448819653 331.88880966644501 0 0 0 0 -66.582530516694533 -142.92908889623504 0 -142.92908889623504 112.10141870921507 0 0 0 0 -187.32156173558906 200.59840013206122 0 200.59840013206122 72.275437908960157 0 0 0 0 836.54891915176995 65.69079924228754 0 65.69079924228754 -88.465585166108212 0 0 0 0 -392.35078663370223 -215.79915536987392 0 -215.79915536987392 265.18276513065211 0 0 0 0 2.4932190149724534 -2.8558624842077336 0 -2.8558624842077336 2.9169644151093337 0 0 0 0 -254.23381141196296 -443.81990415662221 0 -443.81990415662221 -176.17178168100145 0 0 0 0 256.46500400472723 32.640967199338775 0 32.640967199338775 -11.742249665810959 0 0 0 0 87.055722885734724 -44.576766390370338 0 -44.576766390370338 22.666263591843496 0 0 0 0 183.37750931363553 -53.348808519378508 0 -53.348808519378508 -78.724481404584367 0 0 0 0 19.608913563918208 -8.5431752202949411 0 -8.5431752202949411 0.88385379114939155 0 0 0 0 60.566088406558265 243.16868989574868 0 243.16868989574868 382.70791031646161 0 0 0 0 2.8090180039032759 -2.4845829756874878 0 -2.4845829756874878 0.59805569873421405 0 0 0 0 -241.69128637424728 -712.11568902350336 0 -712.11568902350336 -771.04030004116066 0 0 0 0 -103.66375212570711 -164.31587085702267 0 -164.31587085702267 380.50587849312433 0 0 0 0 137.6556538300938 -164.01593983657222 0 -164.01593983657222 121.43898039397027 0 0 0 0 155.58789355790941 -76.187229574214143 0 -76.187229574214143 127.17833895573858 0 0 0 0 50.623706557496917 -175.95629323575122 0 -175.95629323575122 119.96282216771942 0 0 0 0 27.836397218721686 -77.426237507410406 0 -77.426237507410406 129.1968958004054 0 0 0 0 -26.307421139063081 -119.53040773788962 0 -119.53040773788962 79.537161515283515 0 0 0 0 8.1374427807931156 -47.789870704445377 0 -47.789870704445377 55.555173628546356 0 0 0 0 -26.39410389092518 -135.77680602273176 0 -135.77680602273176 -63.369477902211656 0 0 0 0 -130.09443596738856 -111.26582617916574 0 -111.26582617916574 85.746708013990428 0 0 0 0 -212.95344234458753 8.9240487247807323 0 8.9240487247807323 108.34648385034961 0 0 0 0 -6.0066501145483926 -33.809654415257683 0 -33.809654415257683 12.888286636014527 0 0 0 0 -226.37555336556397 -183.69614755450311 0 -183.69614755450311 17.740655804620474 0 0 0 0 -144.73471455444815 -171.83063429829781 0 -171.83063429829781 -11.376659165340243 0 0 0 0 -163.66795750521123 -188.94977096285584 0 -188.94977096285584 -6.1113757619168609 0 0 0 0 -258.07620395364938 -127.96752362130792 0 -127.96752362130792 31.048463939543581 0 0 0 0 -195.68293689144775 -151.46328221199656 0 -151.46328221199656 21.292500127266976 0 0 0 0 -207.91001235842123 -149.42366167691216 0 -149.42366167691216 27.670743171096547 0 0 0 0 -131.99188397568651 -136.9025906973111 0 -136.9025906973111 10.689569537600619 0 0 0 0 -113.92776085942751 -34.456939726092969 0 -34.456939726092969 66.296185759705622 0 0 0 0 -79.032961855002213 -74.763747998440522 0 -74.763747998440522 14.501432432527508 0 0 0 0 -165.46069470053772 -104.60528041995713 0 -104.60528041995713 30.85289307833591 0 0 0 0 -189.75301508207849 -69.757314505611248 0 -69.757314505611248 -15.113727387419203 0 0 0 0 -117.44692199281417 -106.19022971072991 0 -106.19022971072991 -24.743048369608005 0 0 0 0 -68.084725542343222 -104.73201023519505 0 -104.73201023519505 7.4348972356820013 0 0 0 0 -143.01580608924269 -130.71403771038604 0 -130.71403771038604 21.351308455588878 0 0 0 0 -105.8391778137302 -101.23195025764289 0 -101.23195025764289 25.723715166403053 0 0 0 0 -118.37238098007219 -142.90577519169892 0 -142.90577519169892 -4.3651145951153012 0 0 0 0 -127.80737757240422 -127.10975179351954 0 -127.10975179351954 14.718236199143576 0 0 0 0 -139.1925288354978 -148.2324415561161 0 -148.2324415561161 5.9018677769490751 0 0 0 0 -162.38607977016363 -166.34764322483534 0 -166.34764322483534 -1.1109101613983512 0 0 0 0 -101.89715598078328 -90.351885428735841 0 -90.351885428735841 24.315826331367134 0 0 0 0 -97.163502657669596 -107.91532819662461 0 -107.91532819662461 -0.42679128848249093 0 0 0 0 -106.00136599308462 -110.61178976072551 0 -110.61178976072551 47.168188280105824 0 0 0 0 -58.411547201161738 -95.534234948732774 0 -95.534234948732774 30.434370563791163 0 0 0 0 -68.385528471553698 -109.93409204773707 0 -109.93409204773707 47.639364677204867 0 0 0 0 -59.755150874261744 -63.840065746175242 0 -63.840065746175242 56.353477268518873 0 0 0 0 -9.9047331813490018 -25.497244627862528 0 -25.497244627862528 106.25237386501431 0 0 0 0 -42.80309993060655 -92.158255775306316 0 -92.158255775306316 99.328308570307854 0 0 0 0 -61.602029567060526 -78.14370348149896 0 -78.14370348149896 81.140410198306199 0 0 0 0 -102.52840261498932 -92.302849450999929 0 -92.302849450999929 67.991334372789424 0 0 0 0 -61.63034915481694 -75.124688573399908 0 -75.124688573399908 60.415027206243394 0 0 0 0 -100.1755506128502 -83.36083835179079 0 -83.36083835179079 82.349727745924611 0 0 0 0 -98.956529640214285 -90.283845292720798 0 -90.283845292720798 61.28438438809826 0 0 0 0 47.135434022246045 -54.290547981327109 0 -54.290547981327109 -124.31006584025454 0 0 0 0 -438.28341815039312 -140.91857816182892 0 -140.91857816182892 290.69475032670016 0 0 0 0 36.697485027194489 -77.497803731517706 0 -77.497803731517706 14.885298459048499 0 0 0 0 15.093991461101744 -54.113940278920126 0 -54.113940278920126 69.492020209363048 0 0 0 0 -242.77343800489325 68.280998233327409 0 68.280998233327409 178.08123704654645 0 0 0 0 -21.95817122840262 2.3598734178333416 0 2.3598734178333416 17.241843180355076 0 0 0 0 94.40229282353539 -57.931225106580314 0 -57.931225106580314 38.07369592285977 0 0 0 0 -1845.0695467735059 -586.03735896910075 0 -586.03735896910075 2158.9964231809136 0 0 0 0 -653.58274722535862 -1208.5384587127846 0 -1208.5384587127846 -270.42843157183961 0 0 0 0 160.23434588662349 -655.19490284335188 0 -655.19490284335188 -509.57974229152751 0 0 0 0 -74.238498408027226 -81.030851958825224 0 -81.030851958825224 82.189940411655698 0 0 0 0 -100.37594155309489 -90.80051887013542 0 -90.80051887013542 83.795124227879569 0 0 0 0 -61.231055578857195 -71.045290410576854 0 -71.045290410576854 75.360603261538927 0 0 0 0 -50.261634053982561 -82.782331296337361 0 -82.782331296337361 75.466512842467637 0 0 0 0 -32.266506214975379 -68.123168255340715 0 -68.123168255340715 78.880630614852635 0 0 0 0 57.653570649854373 -20.240706265285553 0 -20.240706265285553 64.27518488309579 0 0 0 0 -9.2189410920254886 -46.716313251999964 0 -46.716313251999964 80.234152115051984 0 0 0 0 9.1272671855986118 -70.544465425246017 0 -70.544465425246017 59.368451727219508 0 0 0 0 70.001508618457592 -110.35607389350116 0 -110.35607389350116 59.305026809524861 0 0 0 0 36.274171518860385 -61.063451313151745 0 -61.063451313151745 59.971362495504309 0 0 0 0 -19.40426314715296 -86.874957667729177 0 -86.874957667729177 80.287792136397911 0 0 0 0 32.312408309429884 -96.685520412080223 0 -96.685520412080223 80.557185086065147 0 0 0 0 6.2599230224441271 -93.268231809823192 0 -93.268231809823192 70.833610982648679 0 0 0 0 -62.817307593300939 -92.658476898806839 0 -92.658476898806839 81.814276874094503 0 0 0 0 -55.660466180881485 -76.266892104482395 0 -76.266892104482395 84.906290617858758 0 0 0 0 -30.299541363317985 -94.546141820232151 0 -94.546141820232151 86.789911065541673 0 0 0 0 -39.951435342431068 -79.986979231689475 0 -79.986979231689475 86.941917746680929 0 0 0 0 -79.878970131045207 -96.591294121666579 0 -96.591294121666579 83.533056969456084 0 0 0 0 -24.400322068220703 -53.669198339975992 0 -53.669198339975992 46.901579262918858 0 0 0 0 -701.35400681472311 -714.25394825317517 0 -714.25394825317517 -559.17610229984712 0 0 0 0 -731.72781555043912 -829.98338999404223 0 -829.98338999404223 -275.97922906009626 0 0 0 0 30.513262523142259 -50.425792673423985 0 -50.425792673423985 61.966008379765185 0 0 0 0 -29.352095824346179 -53.768833551142961 0 -53.768833551142961 83.888850980167263 0 0 0 0 -62.184232381317997 -92.825175779111305 0 -92.825175779111305 65.56930614454177 0 0 0 0 -64.104805308292271 -82.685935298857657 0 -82.685935298857657 79.032293908414431 0 0 0 0 -60.137618101958651 -90.732281607852201 0 -90.732281607852201 86.363830014393898 0 0 0 0 -36.19502346846275 -74.14023466900835 0 -74.14023466900835 74.374760785955004 0 0 0 0 -3.0784212831058539 -101.80704386885918 0 -101.80704386885918 112.46596336427319 0 0 0 0 -18.707214991212822 -100.42570589796014 0 -100.42570589796014 98.232657924367231 0 0 0 0 -35.639625875985075 -77.682606840818153 0 -77.682606840818153 95.156613138242392 0 0 0 0 30.018697789015278 -120.30333734115311 0 -120.30333734115311 91.95775116533332 0 0 0 0 143.46693600332947 -837.4980307499718 0 -837.4980307499718 -509.89270636744914 0 0 0 0 -207.33821213812917 -656.08134717879875 0 -656.08134717879875 -327.91717690585938 0 0 0 0 -547.12507150322199 -484.95351410383591 0 -484.95351410383591 -1139.3149627587118 0 0 0 0 -111.29219504377397 -748.12557862997346 0 -748.12557862997346 -1149.9531716300407 0 0 0 0 -855.74765873083379 -261.96582834594301 0 -261.96582834594301 -1173.7628842203922 0 0 0 0 5.0972880639793914 -10.012859269123112 0 -10.012859269123112 -2.4384627935402818 0 0 0 0 -3087.9794484774393 -719.74751056825517 0 -719.74751056825517 -905.34020968727418 0 0 0 0 -984.01072279521031 -94.411667490465334 0 -94.411667490465334 -338.24817444565997 0 0 0 0 -1174.9293338552234 -96.478433992320788 0 -96.478433992320788 -104.40156516249408 0 0 0 0 -737.45410684373928 329.21105264028301 0 329.21105264028301 533.83839096553857 0 0 0 0 -642.89759393272107 -100.7905092604633 0 -100.7905092604633 -476.00828944705427 0 0 0 0 -1156.5535872637993 -252.88557508964732 0 -252.88557508964732 234.74586214614101 0 0 0 0 -233.93339905701578 -122.62720076626283 0 -122.62720076626283 -71.91700849692279 0 0 0 0 -628.92323220959224 -335.74997128473842 0 -335.74997128473842 641.57917152602749 0 0 0 0 87.266080962304841 -33.940855415137776 0 -33.940855415137776 57.502755673898946 0 0 0 0 54.764860956851408 -54.009466006800722 0 -54.009466006800722 58.542299309192458 0 0 0 0 -393.92875573877245 -266.1044518603594 0 -266.1044518603594 353.78532644685765 0 0 0 0 56.128721208074154 -49.486137665276239 0 -49.486137665276239 44.551854266913693 0 0 0 0 434.36949665686188 -163.97177582955283 0 -163.97177582955283 -291.88478751589719 0 0 0 0 -25.296299754816573 1261.430071388575 0 1261.430071388575 -682.58737273837505 0 0 0 0 0.81605292765937065 -12.803895931947977 0 -12.803895931947977 12.481267889986782 0 0 0 0 -226.96554899791954 -100.98985689540859 0 -100.98985689540859 -202.76349087136168 0 0 0 0 -252.15297493358958 -191.71850420361284 0 -191.71850420361284 -263.54444737034396 0 0 0 0 -261.24072251559119 -247.25774331476259 0 -247.25774331476259 -322.77961044419737 0 0 0 0 -206.6814806028633 -206.52116098603733 0 -206.52116098603733 -299.5125374407653 0 0 0 0 -249.80046040756861 -186.55342608710725 0 -186.55342608710725 -269.50489274125266 0 0 0 0 -205.02138144425408 -174.09651430298754 0 -174.09651430298754 -216.99425700049869 0 0 0 0 -232.00500675299554 -151.43568025523018 0 -151.43568025523018 -225.91004163985417 0 0 0 0 -161.62610312824836 -119.37017940900114 0 -119.37017940900114 -234.43808964612208 0 0 0 0 -199.67992995932582 -67.216768166015754 0 -67.216768166015754 -99.878783359115914 0 0 0 0 -212.67178451975269 -123.23657155039928 0 -123.23657155039928 -153.87548166793204 0 0 0 0 -210.90082144495682 -112.7509469871693 0 -112.7509469871693 -197.24288805242304 0 0 0 0 -156.36620668193791 -37.535713647446755 0 -37.535713647446755 -97.567695693252404 0 0 0 0 -178.33981949582812 -52.468010816968672 0 -52.468010816968672 -71.137124681339628 0 0 0 0 -135.00124513130868 -15.997023671172428 0 -15.997023671172428 -0.085984901508709299 0 0 0 0 -116.9624908141268 10.375199565190997 0 10.375199565190997 -35.841281913322746 0 0 0 0 -141.59731165730045 -53.099172733762316 0 -53.099172733762316 -19.973616131708695 0 0 0 0 -107.51530176858068 -70.875938215609494 0 -70.875938215609494 -106.37996407418541 0 0 0 0 -180.88027145178057 -92.732494819021667 0 -92.732494819021667 -105.19500890255154 0 0 0 0 -137.51963277044706 -54.019696931867657 0 -54.019696931867657 -134.75817565390207 0 0 0 0 -168.53293174752616 -112.1199989954257 0 -112.1199989954257 -152.00011893243743 0 0 0 0 -127.24396565806819 -107.49993665928014 0 -107.49993665928014 -207.090779385715 0 0 0 0 -163.3863725643896 -193.92728952935977 0 -193.92728952935977 -204.90375402957625 0 0 0 0 -67.961751335271401 -55.651031522233097 0 -55.651031522233097 -151.47273520763684 0 0 0 0 -72.987549803101501 -134.87079824411995 0 -134.87079824411995 -194.40942554630601 0 0 0 0 -103.08297900369507 -188.22428148996823 0 -188.22428148996823 -225.24574998951721 0 0 0 0 -148.46349172454211 -138.74714178073191 0 -138.74714178073191 -83.095354665219929 0 0 0 0 -256.60622301066178 -205.50646104803491 0 -205.50646104803491 -207.57440175663578 0 0 0 0 -178.95685532144125 -159.31093579439789 0 -159.31093579439789 -258.48745493965544 0 0 0 0 -203.9151020579593 -245.68093519770605 0 -245.68093519770605 -311.29748185012068 0 0 0 0 -254.58772689435864 -226.1400758257987 0 -226.1400758257987 -318.81133293686071 0 0 0 0 -292.48863788823655 -328.74950886480792 0 -328.74950886480792 -375.40536960291138 0 0 0 0 -231.50747828304884 -283.97664167383118 0 -283.97664167383118 -397.85488629389874 0 0 0 0 -213.36625116993673 -236.35164820940099 0 -236.35164820940099 -356.54530385216276 0 0 0 0 -270.67135148291709 -278.90954259726004 0 -278.90954259726004 -329.96171487213633 0 0 0 0 -235.89328784041572 -241.71475015335909 0 -241.71475015335909 -291.25497722884757 0 0 0 0 -205.05055915642879 -154.22183844792835 0 -154.22183844792835 -246.84125729998868 0 0 0 0 -181.41894361164304 -211.21441633558925 0 -211.21441633558925 -320.63127256448752 0 0 0 0 -233.95668942923385 -241.08032769665346 0 -241.08032769665346 -337.25770383626786 0 0 0 0 -286.23437905922765 -230.68416121818518 0 -230.68416121818518 -302.11381088728149 0 0 0 0 -235.60720959410537 -201.96525533839167 0 -201.96525533839167 -296.69748699964703 0 0 0 0 -317.15148256201064 -230.52258114356943 0 -230.52258114356943 -331.88097234042561 0 0 0 0 -383.90766616008477 -298.46660950201522 0 -298.46660950201522 -314.12627691854715 0 0 0 0 -325.97926502593327 -362.26354423612122 0 -362.26354423612122 -370.07952278344493 0 0 0 0 -269.67557262908667 -291.61027523939356 0 -291.61027523939356 -342.98484655512357 0 0 0 0 -93.732130745687755 -55.594180565653005 0 -55.594180565653005 1.6825829813133168 0 0 0 0 -153.21103786195454 -80.853942222600381 0 -80.853942222600381 74.156454070944164 0 0 0 0 -75.674131823132143 -14.275259689485381 0 -14.275259689485381 73.553867366097791 0 0 0 0 -245.64494298034697 -344.49732070729783 0 -344.49732070729783 -556.14171580088248 0 0 0 0 -220.81068675342249 -261.17420517889695 0 -261.17420517889695 -87.226161930899252 0 0 0 0 -11.626046609313448 -13.830341496686046 0 -13.830341496686046 -14.841859487706742 0 0 0 0 -159.10493437083642 -91.034194392964309 0 -91.034194392964309 86.111406909760262 0 0 0 0 -164.62319692110759 -99.142448685586714 0 -99.142448685586714 91.684390829635959 0 0 0 0 -161.34214942989638 -99.254155399026786 0 -99.254155399026786 84.432901225489331 0 0 0 0 -157.9000296498416 -90.506053975625036 0 -90.506053975625036 58.61889766875538 0 0 0 0 -306.85012337833177 69.249104912631083 0 69.249104912631083 -662.11115403098574 0 0 0 0 -598.07027958356775 256.78387067418953 0 256.78387067418953 39.022864260605274 0 0 0 0 -317.01770500055864 -204.3278726970193 0 -204.3278726970193 -292.69413013124722 0 0 0 0 -290.18370755334035 -229.06986213514483 0 -229.06986213514483 -303.87105046621946 0 0 0 0 -244.21633871470112 -337.02077860896679 0 -337.02077860896679 -450.48608800523289 0 0 0 0 -245.49995044688694 -229.87573916289693 0 -229.87573916289693 -474.40368628077567 0 0 0 0 -255.51186163630337 -243.43056276718562 0 -243.43056276718562 -298.14675591578907 0 0 0 0 -373.82418877538748 -252.94403134735398 0 -252.94403134735398 -185.15027664518129 0 0 0 0 -211.81300095104962 -272.51927273816636 0 -272.51927273816636 -158.06665805432931 0 0 0 0 -299.46518257667776 -377.90264925326937 0 -377.90264925326937 -181.91300158833474 0 0 0 0 -234.20458338328172 -246.10666396256056 0 -246.10666396256056 -185.64200752390627 0 0 0 0 -394.91179442807334 -595.90430406356791 0 -595.90430406356791 -234.25292791267566 0 0 0 0 -298.83382631419227 -569.30506594285362 0 -569.30506594285362 -261.71575719924658 0 0 0 0 -219.24002486781683 -408.28453238586008 0 -408.28453238586008 -204.30599023763716 0 0 0 0 -300.66501452741795 -310.50891729176328 0 -310.50891729176328 -122.10891257410367 0 0 0 0 -508.21614444785519 -494.40780570529932 0 -494.40780570529932 -181.56311243469781 0 0 0 0 -429.08513308200054 -313.14048076895233 0 -313.14048076895233 -143.66762286494486 0 0 0 0 -865.62130027462263 -599.7285018831426 0 -599.7285018831426 -9.0376662841717916 0 0 0 0 -372.57520246308104 -297.5446263773581 0 -297.5446263773581 -139.62389762011298 0 0 0 0 -586.0270203705295 -145.56190170487753 0 -145.56190170487753 -235.88607337855501 0 0 0 0 -584.04906510415958 -265.44123541918066 0 -265.44123541918066 361.71754500756288 0 0 0 0 -173.27332210750319 -201.6628104687552 0 -201.6628104687552 -32.502197133071604 0 0 0 0 1111.0152658453444 601.16888063716578 0 601.16888063716578 305.00077438533845 0 0 0 0 -54.388068512590451 -29.317729302648289 0 -29.317729302648289 98.332725015290876 0 0 0 0 -93.791662327799713 959.01173140313313 0 959.01173140313313 1059.3191413090692 0 0 0 0 1018.4664727096097 -3105.8391710832193 0 -3105.8391710832193 78.932018224768399 0 0 0 0 9.7117142803784873 -11.713714118378391 0 -11.713714118378391 11.129284960890026 0 0 0 0 -524.85461195102107 -937.71175040982598 0 -937.71175040982598 -466.24812819031285 0 0 0 0 -139.5252403820632 -144.69126198395679 0 -144.69126198395679 -103.65970977534016 0 0 0 0 -418.70501709810924 -529.733420649256 0 -529.733420649256 -233.29454122992848 0 0 0 0 -138.44609060860239 -176.52132417005487 0 -176.52132417005487 -80.341929940244881 0 0 0 0 -152.84993399819359 -176.16478982254921 0 -176.16478982254921 -12.678664733684855 0 0 0 0 -148.6480289321189 -189.46683834509713 0 -189.46683834509713 -42.514973765122704 0 0 0 0 -137.93981726385391 -168.90044736796926 0 -168.90044736796926 -28.888532334356569 0 0 0 0 -129.81981425650883 -159.52428044007684 0 -159.52428044007684 -59.826227287856454 0 0 0 0 -138.85206399625167 -155.86232127628318 0 -155.86232127628318 -48.823552166402806 0 0 0 0 -131.68386738502886 -131.76427353199688 0 -131.76427353199688 -65.00227192548482 0 0 0 0 -142.58534357894678 -159.4130805224122 0 -159.4130805224122 -17.517511082332931 0 0 0 0 -120.80785603716504 -141.63409881386906 0 -141.63409881386906 -34.56179697704647 0 0 0 0 -122.73565733540454 -107.2173861655283 0 -107.2173861655283 -21.47512991700205 0 0 0 0 -135.8315666244016 -136.12701366226975 0 -136.12701366226975 -13.192978313978529 0 0 0 0 -125.30108510609716 -114.19555243910145 0 -114.19555243910145 31.476437589590205 0 0 0 0 -143.85239339468535 -109.2391563764686 0 -109.2391563764686 14.851840153924059 0 0 0 0 -131.0543893550639 -89.699981278012274 0 -89.699981278012274 11.464042320163571 0 0 0 0 -151.62518969585653 -131.35783050319151 0 -131.35783050319151 -39.895338250600616 0 0 0 0 -143.08700271596899 -100.1140617923229 0 -100.1140617923229 -47.539543990773382 0 0 0 0 -166.49234165961388 -103.36648280684312 0 -103.36648280684312 -90.053561426098895 0 0 0 0 -70.122842484901525 -39.060258199161467 0 -39.060258199161467 79.685976651687099 0 0 0 0 -250.89668118808186 -140.53111995780637 0 -140.53111995780637 -49.842339630864444 0 0 0 0 -212.56461108569056 -187.5816706946207 0 -187.5816706946207 -62.074119562574197 0 0 0 0 -148.77940248328377 -71.117485218604997 0 -71.117485218604997 13.983979099954013 0 0 0 0 -175.86537896620575 -101.96167859855632 0 -101.96167859855632 12.389985442277975 0 0 0 0 -149.00764996313956 -119.08456954931899 0 -119.08456954931899 -71.780084320773312 0 0 0 0 -154.05796105839545 -91.314133524188946 0 -91.314133524188946 9.8176829106396326 0 0 0 0 -172.06258313066792 -98.987177325463563 0 -98.987177325463563 59.399975566338981 0 0 0 0 -161.66902398876846 -106.29497118675499 0 -106.29497118675499 46.323976222818601 0 0 0 0 -162.26796394668054 -105.93551936246513 0 -105.93551936246513 68.954024302845937 0 0 0 0 -161.40637843392324 -101.57050919777976 0 -101.57050919777976 72.921568779296649 0 0 0 0 -159.04326857003616 -105.0386643109814 0 -105.0386643109814 71.688796738322708 0 0 0 0 -161.8332114093937 -96.348575856041862 0 -96.348575856041862 59.892812715872424 0 0 0 0 -160.74435264745262 -92.662866279308219 0 -92.662866279308219 72.435573665468837 0 0 0 0 -131.27676732675172 -86.923543050099397 0 -86.923543050099397 70.507899924667072 0 0 0 0 -139.90673547738697 -93.880113900857395 0 -93.880113900857395 51.727722243129392 0 0 0 0 -140.48509087204002 -98.320970253203996 0 -98.320970253203996 69.424209522416277 0 0 0 0 -123.17337068769848 -80.718315249039733 0 -80.718315249039733 60.94062252913136 0 0 0 0 -129.05750924634049 -100.03289269248489 0 -100.03289269248489 54.734286421531579 0 0 0 0 -157.55599343974609 -97.907090960732603 0 -97.907090960732603 53.15712396708841 0 0 0 0 -130.50737554325315 -98.585851816613285 0 -98.585851816613285 82.154805142781697 0 0 0 0 -131.64008550549624 -95.897404573574022 0 -95.897404573574022 88.901346323520556 0 0 0 0 -125.890973161906 -94.851581370363419 0 -94.851581370363419 82.035452452561003 0 0 0 0 -104.80827244822285 -85.480174728956626 0 -85.480174728956626 80.182546498224838 0 0 0 0 -150.85708586475812 -96.200314627516491 0 -96.200314627516491 84.387219488824485 0 0 0 0 -141.15114625965361 -101.97942476897515 0 -101.97942476897515 76.727839685074287 0 0 0 0 -151.72788783785654 -104.74816971906694 0 -104.74816971906694 82.263769860757748 0 0 0 0 -160.1806302529294 -98.534307035268284 0 -98.534307035268284 77.817615645872138 0 0 0 0 -160.4048362087924 -102.78690695911064 0 -102.78690695911064 84.39795873973344 0 0 0 0 -163.34257885901025 -104.92540211232699 0 -104.92540211232699 83.36646445596125 0 0 0 0 -164.65641044877702 -101.49437715768363 0 -101.49437715768363 86.928218126413412 0 0 0 0 -163.51744266677997 -105.53908860612137 0 -105.53908860612137 85.769458226466668 0 0 0 0 -149.58680336450925 -100.77164104119583 0 -100.77164104119583 89.652934236859437 0 0 0 0 -160.50062449078541 -103.20641153861288 0 -103.20641153861288 87.833361659460934 0 0 0 0 -149.00447026349138 -101.95766698929219 0 -101.95766698929219 85.119789189586299 0 0 0 0 -152.44896089100803 -102.10590224738735 0 -102.10590224738735 91.251540865923744 0 0 0 0 -153.42809029843193 -97.999887979094638 0 -97.999887979094638 84.86047993815373 0 0 0 0 -160.48834025469841 -106.00553366313397 0 -106.00553366313397 87.69213075004518 0 0 0 0 -164.56063275225461 -103.85184019514782 0 -103.85184019514782 83.329950058236136 0 0 0 0 -104.27162836695788 -93.591630806928151 0 -93.591630806928151 81.561154908340541 0 0 0 0 -125.51489511085674 -106.53655692358734 0 -106.53655692358734 84.307611681048002 0 0 0 0 -129.81555188749917 -99.196619984195422 0 -99.196619984195422 86.892147684498923 0 0 0 0 -129.07619961095043 -100.61243122567248 0 -100.61243122567248 85.36003229747439 0 0 0 0 -110.10202626266982 -89.403124699645559 0 -89.403124699645559 84.520699382977909 0 0 0 0 -104.54440643003909 -97.116628475479956 0 -97.116628475479956 88.382993871884537 0 0 0 0 -105.67182082287036 -86.29477294607932 0 -86.29477294607932 88.215489062724146 0 0 0 0 -100.60600265747189 -104.4534388298575 0 -104.4534388298575 68.484718534695276 0 0 0 0 -100.23819485926651 -85.391897916339076 0 -85.391897916339076 83.742980109745986 0 0 0 0 -177.48928997997427 -107.89048726697001 0 -107.89048726697001 76.045419168491208 0 0 0 0 -152.42265987588326 -101.37661919659149 0 -101.37661919659149 86.789900472722366 0 0 0 0 -156.21552430775046 -90.992693724273522 0 -90.992693724273522 77.503307827733806 0 0 0 0 -177.48803823831258 -102.51134887881199 0 -102.51134887881199 74.134696624147182 0 0 0 0 -204.92336820493801 -87.220729936529096 0 -87.220729936529096 82.904385291796643 0 0 0 0 -186.96313702949556 -75.520214532654791 0 -75.520214532654791 64.899322981538717 0 0 0 0 -288.15131195372669 -46.066568260299391 0 -46.066568260299391 77.653787334444132 0 0 0 0 -217.90310222172411 -63.198476070843753 0 -63.198476070843753 81.510584458439553 0 0 0 0 -199.56274701446819 -61.889474884740594 0 -61.889474884740594 69.524390178245085 0 0 0 0 -171.99242096496164 -72.653230220061232 0 -72.653230220061232 72.633079115767032 0 0 0 0 -193.72944144852227 -45.379728188425361 0 -45.379728188425361 47.604477329552537 0 0 0 0 -184.19483219576068 -83.302919607129297 0 -83.302919607129297 75.232402553287102 0 0 0 0 -171.8953592547914 -94.065678954211762 0 -94.065678954211762 79.703025821310803 0 0 0 0 -173.64113539707614 -94.733953571561869 0 -94.733953571561869 83.29678372592025 0 0 0 0 -165.41379447723739 -103.48094884759485 0 -103.48094884759485 82.483691348023967 0 0 0 0 -170.36330124165397 -101.01978885766221 0 -101.01978885766221 85.297333783149952 0 0 0 0 -163.00866559182759 -101.83060678227048 0 -101.83060678227048 84.932858287902491 0 0 0 0 -165.6194996588747 -103.5337677098978 0 -103.5337677098978 84.705166480780463 0 0 0 0 -152.16185088659404 -106.48152330315133 0 -106.48152330315133 82.67201760775788 0 0 0 0 -128.88728022469149 -81.035436490785287 0 -81.035436490785287 54.873089210654143 0 0 0 0 -164.34884650819004 -103.2744323495499 0 -103.2744323495499 90.613806888221006 0 0 0 0 -161.8079620138742 -95.125245124538196 0 -95.125245124538196 69.891246070281341 0 0 0 0 -127.77111844076802 -6.6619892122758984 0 -6.6619892122758984 51.013914123732235 0 0 0 0 -178.77507944584067 5.8929783959192719 0 5.8929783959192719 71.815315873118379 0 0 0 0 -161.33456413949898 -31.570657693934663 0 -31.570657693934663 47.327382491515891 0 0 0 0 -148.38349326438038 -26.421784123453108 0 -26.421784123453108 -96.235475868283856 0 0 0 0 -250.33206842312939 -236.83248034766871 0 -236.83248034766871 -348.39230541377651 0 0 0 0 -184.94614257187641 -28.725790793740089 0 -28.725790793740089 76.234202386018296 0 0 0 0 -193.21460348267283 -7.5876682317812083 0 -7.5876682317812083 38.115683177999017 0 0 0 0 -237.45105629210593 -24.137518368228484 0 -24.137518368228484 75.906851078849286 0 0 0 0 -187.1169027404103 -20.153949488058061 0 -20.153949488058061 63.881512834493151 0 0 0 0 -26.581398744436513 -9.3045930378534649 0 -9.3045930378534649 19.370360084113514 0 0 0 0 40.081749684046372 -302.28909691684021 0 -302.28909691684021 576.78625425819155 0 0 0 0 -101.90441884994635 -115.84897317249406 0 -115.84897317249406 -4.879371736953253 0 0 0 0 -322.80838202041923 -169.85970013082579 0 -169.85970013082579 -250.38888108621586 0 0 0 0 163.87366071686847 -337.67155560678577 0 -337.67155560678577 -295.18531373098085 0 0 0 0 -279.19407487101853 -266.92550651885085 0 -266.92550651885085 -339.52591572208917 0 0 0 0 -316.92762927496915 -243.42066343339047 0 -243.42066343339047 -303.95603213189588 0 0 0 0 860.47363044405938 -328.61611719811663 0 -328.61611719811663 129.97763379977187 0 0 0 0 228.58699852295103 -765.65778631246394 0 -765.65778631246394 644.95721945525747 0 0 0 0 -49.618083768582437 -340.15046042573158 0 -340.15046042573158 276.49387483240025 0 0 0 0 480.7131600909488 -526.30416096177942 0 -526.30416096177942 451.15014824705213 0 0 0 0 -30.152021772817534 -444.60142344632004 0 -444.60142344632004 465.07491136340832 0 0 0 0 959.06364572078746 -1017.5969730456691 0 -1017.5969730456691 376.95941339813726 0 0 0 0 -396.69713892194704 51.546381196739276 0 51.546381196739276 29.150951758685551 0 0 0 0 -243.36304492890486 23.785189236781662 0 23.785189236781662 18.490364204932121 0 0 0 0 -1.2374609767132938 -4.000566837852972 0 -4.000566837852972 2.3577417865764119 0 0 0 0 -314.8149821391562 -23.585696700161861 0 -23.585696700161861 17.83745512393034 0 0 0 0 -151.86522210278781 -136.65727371716639 0 -136.65727371716639 -50.865491394375567 0 0 0 0 -440.07932768200408 -285.55839514790023 0 -285.55839514790023 8.1729595773058463 0 0 0 0 -676.55534045695094 141.00063560358467 0 141.00063560358467 -56.784042568468067 0 0 0 0 -219.17912243894534 -102.53335430874813 0 -102.53335430874813 50.955885010880593 0 0 0 0 -364.89072091567505 -66.785384966687161 0 -66.785384966687161 48.707794303230912 0 0 0 0 -157.89487783062759 -103.43707665602483 0 -103.43707665602483 13.719493752785638 0 0 0 0 -63.462857949867612 -130.54030726159726 0 -130.54030726159726 0.67484722307563061 0 0 0 0 -746.2363171869074 -694.23323755622187 0 -694.23323755622187 49.619445481323055 0 0 0 0 -208.38376019219868 -325.93747126544258 0 -325.93747126544258 -390.81672357303069 0 0 0 0 21.128348276798079 -31.223825628263086 0 -31.223825628263086 42.385589506586264 0 0 0 0 -39.648629057628568 9.2715950737883759 0 9.2715950737883759 -303.30796243756549 0 0 0 0 -6.8194187224968914 -77.724228778663871 0 -77.724228778663871 92.424135059133988 0 0 0 0 39.503516292176755 -140.69999158100882 0 -140.69999158100882 8.8847392042807769 0 0 0 0 39.105061033473703 -136.05356401600716 0 -136.05356401600716 -2.1140510279801674 0 0 0 0 77.543337166982838 -80.963060135910467 0 -80.963060135910467 55.325372952991017 0 0 0 0 -64.847375265249866 -493.89411875342194 0 -493.89411875342194 -485.13786509873171 0 0 0 0 14.200558009470114 -124.80552562662342 0 -124.80552562662342 -75.586742492854682 0 0 0 0 17.913722891239843 -67.133009202396991 0 -67.133009202396991 50.958864412267232 0 0 0 0 -311.02503363532014 -1628.2036700585486 0 -1628.2036700585486 292.1546241459946 0 0 0 0 75.424956131729232 -53.783921171820126 0 -53.783921171820126 16.233393785372797 0 0 0 0 51.708139731785252 -83.356408538229005 0 -83.356408538229005 63.403244879730067 0 0 0 0 225.8989893613616 -461.44887096877937 0 -461.44887096877937 -516.91725219281216 0 0 0 0 -454.64823937549227 -411.48783494924578 0 -411.48783494924578 79.312029930082645 0 0 0 0 0.45134215547670919 -10.077176720862951 0 -10.077176720862951 20.694472214341275 0 0 0 0 -900.05642423318932 -144.10537540866062 0 -144.10537540866062 -31.103920142238167 0 0 0 0 1703.1778885204972 -1066.7263924007348 0 -1066.7263924007348 -186.11306765930567 0 0 0 0 1712.1239849099575 -1657.4525315904591 0 -1657.4525315904591 254.21963780369697 0 0 0 0 -1011.3433672097453 106.45898150155153 0 106.45898150155153 42.736197715712478 0 0 0 0 0.1509977586238449 -1.673341317459915 0 -1.673341317459915 -1.0895557029269298 0 0 0 0 196.11942325855489 -427.96375126755993 0 -427.96375126755993 304.12032744285534 0 0 0 0 742.79175225991639 -947.90418506905007 0 -947.90418506905007 724.8236229887807 0 0 0 0 677.66813306428958 -1326.0478150699491 0 -1326.0478150699491 265.2186885394417 0 0 0 0 221.4130829628848 -160.42085977288662 0 -160.42085977288662 -143.54601919303968 0 0 0 0 244.47938594982043 1617.47343868762 0 1617.47343868762 -199.2120806203493 0 0 0 0 772.87363688863115 -132.10080161691803 0 -132.10080161691803 -1336.9730225696399 0 0 0 0 52.716427098261192 -92.441672563152679 0 -92.441672563152679 -103.70799939654535 0 0 0 0 107.7445649859618 -88.501917324101527 0 -88.501917324101527 38.149054170302364 0 0 0 0 -345.42879379888473 281.64876349154747 0 281.64876349154747 -894.50534820721987 0 0 0 0 33.815084635166897 -34.564846951987846 0 -34.564846951987846 14.961576231874737 0 0 0 0 543.88630886620376 -256.90722664111127 0 -256.90722664111127 -1045.1104804543693 0 0 0 0 -295.28501150908414 -941.28341230327715 0 -941.28341230327715 -170.12118638146239 0 0 0 0 80.714786838594591 -51.675613407442142 0 -51.675613407442142 58.347517916845163 0 0 0 0 106.76071907438745 -364.30649002554128 0 -364.30649002554128 -728.00838961137924 0 0 0 0 85.522869141232476 -55.765786170251531 0 -55.765786170251531 25.748571860986843 0 0 0 0 76.371556269019493 -63.948280458229419 0 -63.948280458229419 56.927070126461331 0 0 0 0 -33.427118518535281 -345.07765373967413 0 -345.07765373967413 -630.81340035612811 0 0 0 0 -182.10604386046907 -207.09361323272606 0 -207.09361323272606 -715.91660729474097 0 0 0 0 -47.353277846443234 -275.50897388892918 0 -275.50897388892918 -742.85430512356106 0 0 0 0 -12.498106067110598 -9.6136378049503293 0 -9.6136378049503293 21.9750544146506 0 0 0 0 -18.932935655815527 -263.9863466280367 0 -263.9863466280367 -796.13769510806742 0 0 0 0 -42.552032874809811 -340.5638836735161 0 -340.5638836735161 -756.61174684949947 0 0 0 0 24.72004006202468 -52.235221205468889 0 -52.235221205468889 62.725823425111628 0 0 0 0 82.358759758859378 -56.273336953246144 0 -56.273336953246144 64.393712726458034 0 0 0 0 -46.281050011748448 -91.437325691687874 0 -91.437325691687874 132.9096078252187 0 0 0 0 208.3721069447638 466.87276473766542 0 466.87276473766542 -54.120666392886051 0 0 0 0 87.293953700293059 -40.718228226734936 0 -40.718228226734936 74.654147083965654 0 0 0 0 50.099467031424894 -65.089543436441616 0 -65.089543436441616 74.036952817593104 0 0 0 0 14.855644876661245 -740.68569320564711 0 -740.68569320564711 -665.86101351338584 0 0 0 0 -565.63817048602505 -265.55731276468214 0 -265.55731276468214 -58.727929173895973 0 0 0 0 469.11919092586322 -253.53546614124207 0 -253.53546614124207 -514.1956993004751 0 0 0 0 -100.48621324326086 -523.9077872173275 0 -523.9077872173275 354.20902708739595 0 0 0 0 -397.777913587488 11.10230871307067 0 11.10230871307067 -577.67509435460579 0 0 0 0 625.72785356239183 86.316269133421883 0 86.316269133421883 313.80239443071332 0 0 0 0 45.61047371587162 -75.341051994557191 0 -75.341051994557191 103.21852559907978 0 0 0 0 -545.62262318661669 -263.81838715263075 0 -263.81838715263075 354.9753997834996 0 0 0 0 63.099567766126711 -58.269068945952313 0 -58.269068945952313 85.171753797929341 0 0 0 0 104.62791084487981 -53.736303121751916 0 -53.736303121751916 39.288067515000876 0 0 0 0 208.32319820914199 -541.89308122792863 0 -541.89308122792863 -299.69534873559314 0 0 0 0 -118.69873529870165 -606.56019131000357 0 -606.56019131000357 384.14747716089187 0 0 0 0 93.287629186619597 -94.601131857249129 0 -94.601131857249129 2.102926135994494 0 0 0 0 113.39376151161559 27.500397553805669 0 27.500397553805669 -16.604191907139466 0 0 0 0 49.805287600488612 -69.769570923615774 0 -69.769570923615774 67.382882934051224 0 0 0 0 87.139847355054883 -64.596737532594062 0 -64.596737532594062 38.022550469499322 0 0 0 0 74.53945075278564 -45.691929790403634 0 -45.691929790403634 10.108891108901531 0 0 0 0 -198.5899420453643 162.40520901083892 0 162.40520901083892 63.047919553413521 0 0 0 0 -27.881684874155326 -161.7496661113255 0 -161.7496661113255 -40.543287389169564 0 0 0 0 -555.99734306160826 -381.44378794651129 0 -381.44378794651129 -462.93577338359319 0 0 0 0 0.52611794042911697 -23.018067651909462 0 -23.018067651909462 16.029280744537914 0 0 0 0 -176.64079806342852 -146.08252407571854 0 -146.08252407571854 205.64523910850403 0 0 0 0 159.54851060205328 -395.53408931551894 0 -395.53408931551894 -1474.5751063988864 0 0 0 0 59.703023778616625 -499.94813657952909 0 -499.94813657952909 -1555.3732774121672 0 0 0 0 -168.7147874453658 -86.595380465816561 0 -86.595380465816561 914.12618640728761 0 0 0 0 3.213705413900783 1.1866419980424325 0 1.1866419980424325 -1.580028366965486 0 0 0 0 104.37038016372389 -225.69544797611888 0 -225.69544797611888 10.876688023665338 0 0 0 0 45.32256702147788 -308.74088118708823 0 -308.74088118708823 -336.13929101989197 0 0 0 0 -25.346201708365697 -366.67066385800717 0 -366.67066385800717 -85.798516175629629 0 0 0 0 0.60207018444452842 -191.84578661816886 0 -191.84578661816886 -402.70858611204312 0 0 0 0 43.87424481016933 -291.89135600451482 0 -291.89135600451482 -334.19437356122944 0 0 0 0 90.344948206846311 -291.83328309396893 0 -291.83328309396893 -707.77953254136082 0 0 0 0 23.216467434620427 -322.6688588080724 0 -322.6688588080724 -632.57236909840867 0 0 0 0 -65.833363311445282 -317.49954895858536 0 -317.49954895858536 -624.15886912151473 0 0 0 0 47.448647472621815 -410.3069839253294 0 -410.3069839253294 -624.89998185684635 0 0 0 0 -185.42713914020715 -432.06284148502891 0 -432.06284148502891 -300.93815949744021 0 0 0 0 108.15704243919026 -377.70908760249586 0 -377.70908760249586 62.527452133095721 0 0 0 0 20.03586837790499 -288.31693209471996 0 -288.31693209471996 -231.17434557048546 0 0 0 0 161.01892380492791 -99.033259717347391 0 -99.033259717347391 131.40875872225115 0 0 0 0 -83.943409796229389 -315.14971817527839 0 -315.14971817527839 51.881430397959775 0 0 0 0 19.676372230023844 -276.97555696461495 0 -276.97555696461495 -3.5340948300654418 0 0 0 0 -78.359319338404021 -342.60210949325847 0 -342.60210949325847 334.79999743535882 0 0 0 0 190.40045563354943 -173.46016666341893 0 -173.46016666341893 72.041109562924248 0 0 0 0 -4.1986009319229254 -4.9459427305335453 0 -4.9459427305335453 -1.5928841726097005 0 0 0 0 131.73905445496712 -274.86042389643262 0 -274.86042389643262 -83.10939347573003 0 0 0 0 -230.16594549345609 -459.91867887636181 0 -459.91867887636181 723.94214542003465 0 0 0 0 -2.5945299368346468 -2.4236042421112813 0 -2.4236042421112813 -1.1371168433423691 0 0 0 0 -28.866173251364671 -355.46326568968652 0 -355.46326568968652 65.875294572484563 0 0 0 0 43.832590273712412 -119.23142757451569 0 -119.23142757451569 440.60146465762955 0 0 0 0 -124.76785363521049 -592.60621193757106 0 -592.60621193757106 -199.44774689464248 0 0 0 0 -128.58881708686386 -633.61177169515577 0 -633.61177169515577 262.12977660933393 0 0 0 0 -166.97490782065142 -275.32326969310816 0 -275.32326969310816 279.45596954218399 0 0 0 0 -232.20015385879378 -391.30474004696589 0 -391.30474004696589 140.87199653919379 0 0 0 0 -172.68307876034305 -347.31346652941284 0 -347.31346652941284 73.89025140531885 0 0 0 0 -7.2566621175756154 -347.1101927952368 0 -347.1101927952368 -226.26127673526935 0 0 0 0 -309.14197789192258 -329.31934451282723 0 -329.31934451282723 92.391543478021049 0 0 0 0 104.14829761400324 -302.31984419744549 0 -302.31984419744549 -25.090787288900174 0 0 0 0 80.373199486733938 -177.70247553594527 0 -177.70247553594527 36.311493472165239 0 0 0 0 65.210027530869411 -238.44874291146698 0 -238.44874291146698 -41.744830310803081 0 0 0 0 -32.210005106608151 -91.322028809074254 0 -91.322028809074254 -193.38359209737882 0 0 0 0 -14.638388983457844 -330.2149218500781 0 -330.2149218500781 -779.69478664049529 0 0 0 0 -0.34475741626678769 -1.0486660928502261 0 -1.0486660928502261 -0.12458533672049299 0 0 0 0 108.85764287381608 -221.66369509057404 0 -221.66369509057404 70.40852052225091 0 0 0 0 -416.20334488658409 -583.67514020672388 0 -583.67514020672388 756.87130925060956 0 0 0 0 124.57374820030236 -358.22700601253018 0 -358.22700601253018 -22.189594927038343 0 0 0 0 0.66645011028924728 -3.2265247561719264 0 -3.2265247561719264 -0.89292746725143957 0 0 0 0 273.13935298212527 -173.67333584234802 0 -173.67333584234802 -1012.0668186005059 0 0 0 0 136.65622287632868 -517.59463690443954 0 -517.59463690443954 548.21898147319735 0 0 0 0 0.61115629111611725 -0.8752607710089535 0 -0.8752607710089535 -0.43222227144567427 0 0 0 0 35.856511935686285 -297.12401987011981 0 -297.12401987011981 398.98595259545255 0 0 0 0 126.35685947877664 -200.64347793805064 0 -200.64347793805064 41.491067122144159 0 0 0 0 123.01172764790681 -228.72989307492753 0 -228.72989307492753 -88.987490096973488 0 0 0 0 441.08260477810109 -63.273910000529213 0 -63.273910000529213 -37.594264935469255 0 0 0 0 -9.1774759476450356 -5.5502181073276304 0 -5.5502181073276304 3.3961065935164925 0 0 0 0 -1.7261333146452671 44.308737549414218 0 44.308737549414218 171.1541433206512 0 0 0 0 119.19938547680795 -76.09269180047886 0 -76.09269180047886 -15.126139062944276 0 0 0 0 33.508374143283021 -43.816715069913869 0 -43.816715069913869 -21.87586318522068 0 0 0 0 9.0316980149621031 -236.27183101212256 0 -236.27183101212256 173.16291951733729 0 0 0 0 71.355280220006648 -81.954813724263914 0 -81.954813724263914 62.499479075478803 0 0 0 0 45.562580382858869 -67.158497458563943 0 -67.158497458563943 26.391087283332354 0 0 0 0 -6.3475092138610307 -17.259629281433021 0 -17.259629281433021 23.628170465020908 0 0 0 0 72.129969708519639 -127.70421077661013 0 -127.70421077661013 29.26376181874366 0 0 0 0 -50.369511393037101 -110.4003628789942 0 -110.4003628789942 261.19237984014035 0 0 0 0 1.214727374414764 -70.291605911419055 0 -70.291605911419055 29.70099576571107 0 0 0 0 57.848087118065635 -78.303118708035754 0 -78.303118708035754 58.230269377044067 0 0 0 0 67.984028701477627 -67.221121786622007 0 -67.221121786622007 35.892194771870322 0 0 0 0 2.6248909339483362 -151.0848425421791 0 -151.0848425421791 46.694817904281081 0 0 0 0 -201.1291852495051 -387.68950812488038 0 -387.68950812488038 -215.75827323268459 0 0 0 0 -131.13675546116428 -259.70483683953353 0 -259.70483683953353 -38.275239093287382 0 0 0 0 -248.10478226688429 -258.84806171397213 0 -258.84806171397213 -33.160141743741406 0 0 0 0 -348.74739388308808 -359.06814584560198 0 -359.06814584560198 -101.95913218803616 0 0 0 0 -346.68921301136788 -288.09342168276726 0 -288.09342168276726 82.963743810192682 0 0 0 0 -381.69768111256781 -238.82451733580092 0 -238.82451733580092 29.988083308839123 0 0 0 0 -227.18217421231566 -214.75687694438602 0 -214.75687694438602 33.460491480313067 0 0 0 0 38.077812899066075 -33.088415067098779 0 -33.088415067098779 -2.7236205018032251 0 0 0 0 173.06197647142289 -201.72213336419372 0 -201.72213336419372 52.222344076973968 0 0 0 0 110.75477692047328 -133.52287917378135 0 -133.52287917378135 82.376283949844662 0 0 0 0 206.58963721089822 -145.46295654593268 0 -145.46295654593268 11.364925263980695 0 0 0 0 72.92414885040489 -227.44802382983471 0 -227.44802382983471 58.526921475742711 0 0 0 0 259.81199300143635 -33.355882585157815 0 -33.355882585157815 130.7703715405878 0 0 0 0 295.51834613973915 -252.87649198112922 0 -252.87649198112922 52.543436631734949 0 0 0 0 -40.12384831795498 -289.59794973238604 0 -289.59794973238604 -71.696166508100305 0 0 0 0 56.250447953916591 -192.75698759399529 0 -192.75698759399529 -75.809000143097364 0 0 0 0 165.53116832606611 -100.07743353905244 0 -100.07743353905244 -4.5306800021553499 0 0 0 0 121.10180387206955 -118.47469759862824 0 -118.47469759862824 68.751740340649405 0 0 0 0 57.178941880025377 -165.83274938316754 0 -165.83274938316754 42.874418019862787 0 0 0 0 -157.659381477024 -452.61028949518368 0 -452.61028949518368 -47.372683940870047 0 0 0 0 -402.94816121200711 -608.63858083016385 0 -608.63858083016385 -139.01269747775223 0 0 0 0 -989.1984995978346 -53.447542399706435 0 -53.447542399706435 45.920792405639077 0 0 0 0 348.51724790459775 -348.50783798870907 0 -348.50783798870907 -430.9570392176538 0 0 0 0 -4.2823622743664771 -3.00743980085673 0 -3.00743980085673 -5.3226422835899712 0 0 0 0 -1469.9683493212069 -254.14344775368227 0 -254.14344775368227 155.92689288386464 0 0 0 0 -184.53983513856065 -303.46217583670534 0 -303.46217583670534 83.979290662726271 0 0 0 0 -182.7566275690624 -429.05358983742917 0 -429.05358983742917 -617.36614523502067 0 0 0 0 -371.07449982291291 -17.334620877754787 0 -17.334620877754787 284.34750899349456 0 0 0 0 -223.60810309369117 -230.32779584296077 0 -230.32779584296077 81.692034175772278 0 0 0 0 -283.35086747384412 -8.534345797239439 0 -8.534345797239439 448.8351790970919 0 0 0 0 19.308147665131401 67.804229522240348 0 67.804229522240348 351.30386219640059 0 0 0 0 -474.54242311405687 -185.09268844762846 0 -185.09268844762846 258.83316241755529 0 0 0 0 -151.3214403035563 -140.93443094641043 0 -140.93443094641043 230.96278030276881 0 0 0 0 -70.342317608226949 -303.57330637241648 0 -303.57330637241648 65.755071911829873 0 0 0 0 -95.036909769356498 -230.99988499564643 0 -230.99988499564643 51.615882570768008 0 0 0 0 -218.13365542222527 -140.47739831111903 0 -140.47739831111903 300.21755766920978 0 0 0 0 -60.557912843556551 -162.28563797773313 0 -162.28563797773313 185.19736314742477 0 0 0 0 -58.582374682824593 -303.46414400111826 0 -303.46414400111826 421.78421313989384 0 0 0 0 15.322787103323208 -164.76835746904544 0 -164.76835746904544 492.48698152137513 0 0 0 0 40.589659582925378 -127.9632721018861 0 -127.9632721018861 508.11016756731988 0 0 0 0 -46.830649338087824 -136.18304890926811 0 -136.18304890926811 657.85558645901619 0 0 0 0 14.05184602967347 -164.58160849873093 0 -164.58160849873093 585.33468895959959 0 0 0 0 -19.120408826318453 -102.05301336249977 0 -102.05301336249977 639.45309540384915 0 0 0 0 -10.586306487211232 -120.86436344689855 0 -120.86436344689855 863.95933325157966 0 0 0 0 -12.691551646639709 -168.74518408585573 0 -168.74518408585573 657.30169378040591 0 0 0 0 -37.201358230116966 -175.22612372220192 0 -175.22612372220192 601.00264899383183 0 0 0 0 -155.28659854660509 -395.70824901589367 0 -395.70824901589367 471.02251012172928 0 0 0 0 30.077738514090015 -135.68310871134236 0 -135.68310871134236 483.34593285068695 0 0 0 0 74.481945353913034 -380.74577580105688 0 -380.74577580105688 79.023063370623277 0 0 0 0 -53.993460122661418 -259.19114007811731 0 -259.19114007811731 72.168415503983852 0 0 0 0 73.513170901642297 -242.70145267879707 0 -242.70145267879707 291.48036638853227 0 0 0 0 150.71257488532137 -260.00028377384297 0 -260.00028377384297 24.04184701142367 0 0 0 0 161.86625510079102 -308.51247159353443 0 -308.51247159353443 41.332566727462108 0 0 0 0 118.97570223949151 -229.26085831127421 0 -229.26085831127421 -109.1256358968385 0 0 0 0 116.5606269887752 -153.27204806534451 0 -153.27204806534451 214.40148444593069 0 0 0 0 65.419523955177283 -194.39485230028367 0 -194.39485230028367 315.39714238391025 0 0 0 0 61.492973812770288 -282.90555235321153 0 -282.90555235321153 252.98728669021511 0 0 0 0 114.29279645351926 -134.35439785863855 0 -134.35439785863855 317.63178591032192 0 0 0 0 -81.925649146272917 -109.87719425225805 0 -109.87719425225805 989.36485338988859 0 0 0 0 30.609013999535819 -28.237928511356586 0 -28.237928511356586 686.42108463373734 0 0 0 0 105.75098428516503 -32.613552230337518 0 -32.613552230337518 337.84208008201313 0 0 0 0 129.15734568200423 -86.607378125874675 0 -86.607378125874675 719.9231501906761 0 0 0 0 45.090808027991443 -95.933426794072147 0 -95.933426794072147 721.21831254643621 0 0 0 0 94.99653315658361 -73.946874083274452 0 -73.946874083274452 265.99338036368863 0 0 0 0 -8.8249214599818515 144.8484671854676 0 144.8484671854676 769.0984590613516 0 0 0 0 6.3565243863413343 113.77345687197885 0 113.77345687197885 188.14607337488997 0 0 0 0 2.0088068738307641 0.44815991579048386 0 0.44815991579048386 3.3021231660963224 0 0 0 0 79.506728372682119 49.241760597069515 0 49.241760597069515 -17.30303089843801 0 0 0 0 12.575296507660823 -67.749055000378576 0 -67.749055000378576 126.48447499373287 0 0 0 0 -27.426175440264032 -49.312487785450429 0 -49.312487785450429 23.722762935375286 0 0 0 0 3.558427055467007 -7.6858614922506092 0 -7.6858614922506092 3.0865244380223835 0 0 0 0 1.4847446846620755 12.501349740753312 0 12.501349740753312 23.4588919888362 0 0 0 0 5.5286171228653984 -10.494838884158526 0 -10.494838884158526 89.045924180078146 0 0 0 0 -8.2253895177855156 52.616889971061028 0 52.616889971061028 189.90548598788882 0 0 0 0 -36.573215257478296 -45.064740939749754 0 -45.064740939749754 833.73892435241578 0 0 0 0 68.029040215224086 -2.0020225744447089 0 -2.0020225744447089 771.89447997603565 0 0 0 0 -6.3617440782400081 -11.857103400747292 0 -11.857103400747292 815.55476047188859 0 0 0 0 -3.4250575578917051 -42.761932824912947 0 -42.761932824912947 755.68105483226827 0 0 0 0 64.614196573995287 -25.414565818253323 0 -25.414565818253323 698.89128080679802 0 0 0 0 5.6729839160252595 -31.101233297849831 0 -31.101233297849831 733.07716136192903 0 0 0 0 -34.133409272908466 -58.093281802459387 0 -58.093281802459387 790.8543232158554 0 0 0 0 -30.524063790988293 -42.209415680108577 0 -42.209415680108577 772.61493998693186 0 0 0 0 -4.948797564364213 -65.375546496346942 0 -65.375546496346942 667.51764738222118 0 0 0 0 -34.557893163022527 -71.255428621952888 0 -71.255428621952888 759.0062082806835 0 0 0 0 75.629807554309082 -38.467639795169816 0 -38.467639795169816 549.20947753437213 0 0 0 0 4.9847103541687829 -92.665685919098905 0 -92.665685919098905 655.69498288209434 0 0 0 0 -17.219477633014321 -52.081499702762812 0 -52.081499702762812 728.31526728934114 0 0 0 0 3.8347572452767054 -52.329964884705987 0 -52.329964884705987 810.34824057031074 0 0 0 0 100.59806887087325 -81.82264232475427 0 -81.82264232475427 749.1387741901126 0 0 0 0 -14.058410328638274 -45.305832878293586 0 -45.305832878293586 759.2114057194317 0 0 0 0 -37.909847118513426 -132.09390915339463 0 -132.09390915339463 761.64635783003177 0 0 0 0 -17.101023019567947 -70.417825086464291 0 -70.417825086464291 798.69554326137586 0 0 0 0 -9.0831472241261508 -57.402540360548301 0 -57.402540360548301 765.85231033074206 0 0 0 0 2.635648141920683 -59.716733010980533 0 -59.716733010980533 765.88499579919153 0 0 0 0 25.298346464631322 -72.912704521942942 0 -72.912704521942942 712.69267122366 0 0 0 0 68.57188029322424 -29.623723537311889 0 -29.623723537311889 747.94266318593873 0 0 0 0 -5.1812010359317355 -27.148800792248949 0 -27.148800792248949 64.447995620386791 0 0 0 0 79.281654186634114 -40.314083554461831 0 -40.314083554461831 676.81305712675385 0 0 0 0 4.9103206284344196 -75.143289460946107 0 -75.143289460946107 123.82077671545267 0 0 0 0 -22.469641471149629 -14.389902569096137 0 -14.389902569096137 11.994451024580769 0 0 0 0 63.408326657518046 -31.329159050888848 0 -31.329159050888848 675.18351796101342 0 0 0 0 8.3490948282891111 -27.836182075634838 0 -27.836182075634838 4.8045006958082723 0 0 0 0 1.6144610360200602 -8.4353423357261761 0 -8.4353423357261761 6.5675961882689435 0 0 0 0 39.712874100194313 -24.877852290315786 0 -24.877852290315786 721.31559550872771 0 0 0 0 -23.880325136605279 -143.65721574240615 0 -143.65721574240615 702.98851455899421 0 0 0 0 1.8838500608108006 -104.32219217033708 0 -104.32219217033708 727.75470441649668 0 0 0 0 -27.266660430817865 -24.836001719755586 0 -24.836001719755586 701.2423026409233 0 0 0 0 77.988816637953278 -52.456844749103766 0 -52.456844749103766 708.1813598756562 0 0 0 0 -49.897809883026639 -61.545219957770314 0 -61.545219957770314 686.40878088551108 0 0 0 0 -66.793945746961981 -79.004820399510209 0 -79.004820399510209 647.90059040818596 0 0 0 0 -70.310169043114001 -178.51067620146205 0 -178.51067620146205 475.33346259302925 0 0 0 0 1.5134024755710414 2.6428607859397459 0 2.6428607859397459 -7.0218565181571932 0 0 0 0 54.664858645483037 -10.105677958767046 0 -10.105677958767046 21.406530070846202 0 0 0 0 6.3403643796287383 -32.381475352109504 0 -32.381475352109504 -1.6596934991061119 0 0 0 0 26.877857756306184 -131.62940512911882 0 -131.62940512911882 604.22546924441122 0 0 0 0 40.698131886660121 -62.305792075130739 0 -62.305792075130739 -55.329614192203735 0 0 0 0 99.975243975946796 -128.94725445426593 0 -128.94725445426593 603.18243749582325 0 0 0 0 30.528803730281652 -2.0226180449099047 0 -2.0226180449099047 116.65374303681892 0 0 0 0 -45.069427808128239 -131.85762880089169 0 -131.85762880089169 -16.726924813381629 0 0 0 0 16.378991908248281 -99.401449270153535 0 -99.401449270153535 720.03117178558023 0 0 0 0 71.84608615237812 -147.77772914731759 0 -147.77772914731759 701.53308885674051 0 0 0 0 55.466845339542488 -211.05169013532577 0 -211.05169013532577 665.3529018634872 0 0 0 0 -56.82418091580621 -167.48318957336596 0 -167.48318957336596 711.32171583373565 0 0 0 0 9.6015032664290629 -193.74474471999565 0 -193.74474471999565 720.84141871650354 0 0 0 0 124.31315350648947 -193.04346661911404 0 -193.04346661911404 826.67578871571459 0 0 0 0 78.28099338861648 -226.51329809046365 0 -226.51329809046365 804.07117245619884 0 0 0 0 40.638855929661077 -100.96189226668503 0 -100.96189226668503 800.67422765446827 0 0 0 0 105.808530092414 -152.15060899028322 0 -152.15060899028322 737.74413776810979 0 0 0 0 81.147427630912716 -284.39609789474707 0 -284.39609789474707 920.90088166404166 0 0 0 0 81.732361079604743 -217.26870062126 0 -217.26870062126 828.50945387006504 0 0 0 0 37.754570657110889 -215.0986006683961 0 -215.0986006683961 838.69015058559307 0 0 0 0 117.91053919099068 -267.37076412640454 0 -267.37076412640454 1028.2893301833246 0 0 0 0 155.72136097446491 -268.63891969283577 0 -268.63891969283577 921.99693351807946 0 0 0 0 185.8356323580083 -286.00058121758047 0 -286.00058121758047 925.95050603205163 0 0 0 0 255.44402795302449 -110.75615122384625 0 -110.75615122384625 853.25373467162717 0 0 0 0 123.88101735941018 -157.35165913896344 0 -157.35165913896344 870.38333427473481 0 0 0 0 84.97592732461635 -16.523251625098055 0 -16.523251625098055 825.76482495610253 0 0 0 0 65.41159121079545 -49.305485426666564 0 -49.305485426666564 783.7862586802803 0 0 0 0 100.88710761490802 -32.411866963928333 0 -32.411866963928333 721.10489181760931 0 0 0 0 87.721603048048564 -157.30141903081676 0 -157.30141903081676 845.86006565854768 0 0 0 0 55.33884892288188 -66.864373955046176 0 -66.864373955046176 769.65525468048872 0 0 0 0 41.899857552081812 -37.880394641222665 0 -37.880394641222665 731.67534238475491 0 0 0 0 15.272939599701203 -134.97895703892573 0 -134.97895703892573 767.46806871506851 0 0 0 0 153.0078691758099 -57.567270605853992 0 -57.567270605853992 767.47582928469637 0 0 0 0 -51.289044357752573 -147.1223770408069 0 -147.1223770408069 1325.0050712550001 0 0 0 0 -40.39871902410232 -159.33202422314935 0 -159.33202422314935 1027.1810648369428 0 0 0 0 1.3953118531474615 0.12434415362358209 0 0.12434415362358209 -9.4779001596998427 0 0 0 0 24.405550746792869 -188.11681403502007 0 -188.11681403502007 830.5101568117334 0 0 0 0 18.450235977594275 -22.655666831677081 0 -22.655666831677081 -184.35570564586669 0 0 0 0 1.2485416198623511 -33.16468450521117 0 -33.16468450521117 -0.74151858040151808 0 0 0 0 -6.1085983222510549 -184.71406288850812 0 -184.71406288850812 884.5139178042009 0 0 0 0 50.303434278467648 -296.25391782075258 0 -296.25391782075258 948.91641220409656 0 0 0 0 80.330562172603095 -351.74027145943546 0 -351.74027145943546 1019.5459004599252 0 0 0 0 43.047137159905105 -299.79994209438155 0 -299.79994209438155 947.19329179657507 0 0 0 0 -19.67118779548764 -371.2204626410421 0 -371.2204626410421 1025.0564831991505 0 0 0 0 -74.754478276001464 -395.59912636808986 0 -395.59912636808986 1064.0087901007209 0 0 0 0 -45.225782524714305 -358.20611189001647 0 -358.20611189001647 1110.2543966036319 0 0 0 0 -99.721856173537162 -332.74178645731263 0 -332.74178645731263 1241.7276098239818 0 0 0 0 -117.32412889276748 -637.2991320666697 0 -637.2991320666697 684.49752491243999 0 0 0 0 -141.40933507910358 -477.49720051379336 0 -477.49720051379336 1098.1421963066969 0 0 0 0 -27.871041093181702 -393.32909481125535 0 -393.32909481125535 1061.1928014452424 0 0 0 0 276.17534101638012 -54.894642018538434 0 -54.894642018538434 911.3320959746834 0 0 0 0 -5.6943314678665047 -451.97553834163045 0 -451.97553834163045 931.58664416952524 0 0 0 0 96.367429761150561 -362.42180240270682 0 -362.42180240270682 1009.8639509278728 0 0 0 0 98.395452090957406 -282.07276030698995 0 -282.07276030698995 1063.9413897449267 0 0 0 0 5.1459797127642446 -14.99526812383786 0 -14.99526812383786 8.8858387913892614 0 0 0 0 29.520663034214522 432.01664289673499 0 432.01664289673499 1269.6670579972561 0 0 0 0 186.69033307631616 -7.1403991472434427 0 -7.1403991472434427 906.74512536235852 0 0 0 0 183.51525465103623 640.80937030272617 0 640.80937030272617 442.11478418238767 0 0 0 0 223.98524427722441 -273.78046474694202 0 -273.78046474694202 47.281344175862614 0 0 0 0 370.58851649706048 -514.93187420830509 0 -514.93187420830509 952.00620267362683 0 0 0 0 102.2759703744232 -413.97087886483496 0 -413.97087886483496 1895.0337116289738 0 0 0 0 304.09574816784152 -278.82272005590494 0 -278.82272005590494 554.53428573253041 0 0 0 0 89.100268655303807 -110.54685444481584 0 -110.54685444481584 1097.4604587783979 0 0 0 0 261.05450139888126 -277.78505480159947 0 -277.78505480159947 1026.34197444651 0 0 0 0 121.36235525847587 -375.13248656515498 0 -375.13248656515498 1239.4993633097038 0 0 0 0 227.52476163393294 -746.83071765966451 0 -746.83071765966451 -1552.6294773504233 0 0 0 0 2.3534906274296077 -5.0525881413992977 0 -5.0525881413992977 3.0886827080738328 0 0 0 0 -47.071175306100486 149.55717521377301 0 149.55717521377301 2270.2115101203381 0 0 0 0 254.66089521936738 176.00225254335601 0 176.00225254335601 1395.5914562397229 0 0 0 0 96.506327205148409 -883.12454386158061 0 -883.12454386158061 -1092.5792824220989 0 0 0 0 97.448559655393183 -773.18567648327735 0 -773.18567648327735 11.058103281757212 0 0 0 0 491.34383864217307 -285.61590184846864 0 -285.61590184846864 -524.37152079280349 0 0 0 0 -69.949568193354935 -642.65773451534915 0 -642.65773451534915 -591.6907419704221 0 0 0 0 312.40931783066117 -365.45530267531649 0 -365.45530267531649 49.753847860003589 0 0 0 0 200.96724489479675 -171.23952997298329 0 -171.23952997298329 77.230204052237241 0 0 0 0 216.01446269387088 -158.89351927749158 0 -158.89351927749158 43.486771436349954 0 0 0 0 0.2870240747866184 -3.40607767246847 0 -3.40607767246847 -1.2422181164703829 0 0 0 0 -722.83914547673885 -410.50522726715644 0 -410.50522726715644 -319.34313495247625 0 0 0 0 636.3819597918955 -58.61094231212337 0 -58.61094231212337 -169.38801113265799 0 0 0 0 -301.66854655226052 -62.458048503351165 0 -62.458048503351165 -86.136770631972468 0 0 0 0 294.06687177320964 49.741417858860586 0 49.741417858860586 139.19890198484063 0 0 0 0 -423.97532788385433 -531.84815453322517 0 -531.84815453322517 -747.29615020343772 0 0 0 0 -10.008665404617204 -362.17872244838509 0 -362.17872244838509 -1337.3637245199061 0 0 0 0 -398.01857119372289 -368.07010372236982 0 -368.07010372236982 -828.69718064978952 0 0 0 0 -385.86996117419039 -433.02666842576582 0 -433.02666842576582 -746.35089238069486 0 0 0 0 -218.66562616261217 -489.21489256637869 0 -489.21489256637869 -831.93846674051019 0 0 0 0 -259.68508999494225 -433.22073486338195 0 -433.22073486338195 -542.76749237041804 0 0 0 0 -419.42942019974907 -494.39931033983521 0 -494.39931033983521 -527.57964957627701 0 0 0 0 -262.80635878117755 -475.12429705685645 0 -475.12429705685645 -757.57753045867867 0 0 0 0 -66.312257507164759 -302.39844958841786 0 -302.39844958841786 -516.74338812583301 0 0 0 0 -105.25038167368621 -410.2606809167919 0 -410.2606809167919 -792.90167505308636 0 0 0 0 -183.64980579028179 -466.66929413187881 0 -466.66929413187881 -455.39635845736484 0 0 0 0 -201.66707083339679 -411.14369185597388 0 -411.14369185597388 -388.97356749291066 0 0 0 0 -272.85632089844148 -489.45423560468771 0 -489.45423560468771 -439.76182768147555 0 0 0 0 -295.86714900266088 -382.27594701433554 0 -382.27594701433554 -427.46671814109141 0 0 0 0 -243.90351596061373 -502.0912240154139 0 -502.0912240154139 -536.09766307919381 0 0 0 0 -205.14842090868478 -415.31893785758439 0 -415.31893785758439 -385.75580363975314 0 0 0 0 -287.50357138458639 -438.28816088248277 0 -438.28816088248277 -383.79363751741766 0 0 0 0 -398.17132305537962 -269.90536518291628 0 -269.90536518291628 -51.635704546468332 0 0 0 0 -184.05814409730374 -251.19709547612001 0 -251.19709547612001 -120.29724828549661 0 0 0 0 -131.23222794289904 -133.27066695225949 0 -133.27066695225949 -61.354042936814949 0 0 0 0 -242.53700802074309 -255.82283615614142 0 -255.82283615614142 -43.757945509336423 0 0 0 0 -36.662290556261723 -131.78922519604384 0 -131.78922519604384 -317.33616106373665 0 0 0 0 -82.446022181291482 -4.0476397259117221 0 -4.0476397259117221 8.0132934073772049 0 0 0 0 -46.867335348390043 -67.993643819150748 0 -67.993643819150748 -102.19469158669381 0 0 0 0 -102.24183960809023 -413.57834009835096 0 -413.57834009835096 -499.29485792378546 0 0 0 0 -151.94825586610386 -296.3791983764313 0 -296.3791983764313 -227.14862370950868 0 0 0 0 13.175412477266491 -133.01109361453246 0 -133.01109361453246 -644.53132530793664 0 0 0 0 -16.365145874436166 50.695384321486017 0 50.695384321486017 -37.427108312229393 0 0 0 0 40.661054846685147 -32.956582440099737 0 -32.956582440099737 -39.805149885680294 0 0 0 0 -7.2260188559666858 30.058066570145456 0 30.058066570145456 32.19534058496356 0 0 0 0 -37.82449710216315 -46.88032511795609 0 -46.88032511795609 58.922874397641863 0 0 0 0 38.509103865844736 -43.786400382534339 0 -43.786400382534339 -14.862183734338032 0 0 0 0 19.113652024701878 46.589091108711727 0 46.589091108711727 12.107847047322139 0 0 0 0 -128.15576232918829 -50.574507244949928 0 -50.574507244949928 392.39978028906626 0 0 0 0 171.66597607541917 -155.20317472311217 0 -155.20317472311217 251.60533776384545 0 0 0 0 -145.04987280365458 -298.85149938565155 0 -298.85149938565155 797.62596926994229 0 0 0 0 -2.3052751701804368 -0.95983108320356791 0 -0.95983108320356791 -0.18730318510745292 0 0 0 0 -164.02231865205977 -2.9369773180005723 0 -2.9369773180005723 565.56985073834949 0 0 0 0 341.82218909735093 -144.24801122337522 0 -144.24801122337522 -928.31102669014945 0 0 0 0 40.582788990395784 -14.476131321595858 0 -14.476131321595858 -349.38842477482103 0 0 0 0 31.018924091564259 -326.84808915757458 0 -326.84808915757458 -13.502870726915717 0 0 0 0 95.837778490778874 -49.433983612965676 0 -49.433983612965676 203.77032029436668 0 0 0 0 0.96145827802206441 -1.1360057931471594 0 -1.1360057931471594 1.0210684278980011 0 0 0 0 0.89588782909435505 -5.9814850060636076 0 -5.9814850060636076 0.26604748847915971 0 0 0 0 87.90115442302158 121.57021072203679 0 121.57021072203679 18.280184547096724 0 0 0 0 19.097748272441095 48.19560672040825 0 48.19560672040825 162.13402563217096 0 0 0 0 67.552200408405042 -478.5900487939989 0 -478.5900487939989 -254.06788134906674 0 0 0 0 141.71405281903208 -1.5164265566054382 0 -1.5164265566054382 -460.70119708357379 0 0 0 0 102.9905743644922 -121.2352744146192 0 -121.2352744146192 -77.936957763078681 0 0 0 0 -163.4239142867591 -169.12752555619227 0 -169.12752555619227 196.98647408914985 0 0 0 0 -112.79249739758598 74.884280267677241 0 74.884280267677241 198.09428422051133 0 0 0 0 43.51994499859029 -209.51784539675464 0 -209.51784539675464 -420.32151224134577 0 0 0 0 124.01417404863605 -89.945859091581951 0 -89.945859091581951 -367.08239124306419 0 0 0 0 42.72966558663029 -161.79045236136517 0 -161.79045236136517 -167.23267188006139 0 0 0 0 84.858870076936 -270.98471637692273 0 -270.98471637692273 -211.51190324593335 0 0 0 0 -98.535633517174574 -253.22877439433796 0 -253.22877439433796 -194.49144077541496 0 0 0 0 -427.54983849284326 22.462785584262747 0 22.462785584262747 26.744909387951338 0 0 0 0 -5.1536041934082277 -2.650996837415704 0 -2.650996837415704 -1.6568606098650775 0 0 0 0 -552.88388786098949 -362.50902276196575 0 -362.50902276196575 -70.116089585253576 0 0 0 0 -272.01982641215727 -535.50739655601501 0 -535.50739655601501 -586.85939032008173 0 0 0 0 -732.71822864147543 -220.04036092337628 0 -220.04036092337628 -356.06032548469375 0 0 0 0 -97.468019064577675 -305.12466593745557 0 -305.12466593745557 -728.36395725315379 0 0 0 0 -116.67451258417987 -59.775461919884037 0 -59.775461919884037 -266.63212188128091 0 0 0 0 -298.07554185338813 -194.02949092881317 0 -194.02949092881317 -356.43848030252991 0 0 0 0 -21.308160492008028 -251.59613095501845 0 -251.59613095501845 -404.26825030516193 0 0 0 0 13.94373334758248 -24.034331580872788 0 -24.034331580872788 13.81402503664566 0 0 0 0 -210.44110271713726 -225.26295962154472 0 -225.26295962154472 -322.42429121313035 0 0 0 0 -6.9524352395674214 429.56667558738263 0 429.56667558738263 1027.1985711337111 0 0 0 0 -474.1513916368167 186.19184243583732 0 186.19184243583732 1107.1741647618219 0 0 0 0 167.84115737671345 -151.3729353411527 0 -151.3729353411527 -157.61340204298904 0 0 0 0 36.779926541534152 -35.535243681078128 0 -35.535243681078128 18.668528849706632 0 0 0 0 71.704614122172643 -90.294838110930868 0 -90.294838110930868 -433.51407477495832 0 0 0 0 -10.755578986767432 -68.282813660611282 0 -68.282813660611282 678.93955664971872 0 0 0 0 70.463364005702857 -49.931822837062839 0 -49.931822837062839 23.465672474121988 0 0 0 0 100.15802946054464 -137.7705361960634 0 -137.7705361960634 -408.52933687045879 0 0 0 0 103.25109440580491 -246.79289744275593 0 -246.79289744275593 272.97763361476245 0 0 0 0 142.16681632924519 -93.83074148547712 0 -93.83074148547712 -80.615491373609984 0 0 0 0 65.721856254702288 -91.557626118548797 0 -91.557626118548797 -79.364603298861766 0 0 0 0 -66.888597586090327 -31.403658874958637 0 -31.403658874958637 -14.186274828694877 0 0 0 0 0.40232166081905518 -4.6763031737456231 0 -4.6763031737456231 -6.8548370509014376 0 0 0 0 -358.32832542224241 -91.689786404465849 0 -91.689786404465849 0.43335768757970072 0 0 0 0 45.460773563630937 147.10799703205703 0 147.10799703205703 -172.88308531485791 0 0 0 0 -335.92096051370027 -82.862841133981419 0 -82.862841133981419 -124.8195102182508 0 0 0 0 -776.66306261681893 700.12466334126657 0 700.12466334126657 -171.87818757681089 0 0 0 0 -188.89298516503914 22.929012935419451 0 22.929012935419451 29.900580948655261 0 0 0 0 -422.40309401479317 344.11369256163016 0 344.11369256163016 -586.54885072500474 0 0 0 0 -27.016062554918761 -20.036561131539059 0 -20.036561131539059 -9.9044011517427748 0 0 0 0 -0.37919909944876906 -2.7744546783367241 0 -2.7744546783367241 -1.3074004514297997 0 0 0 0 -156.48984567163279 -8.702947139085154 0 -8.702947139085154 -81.586763279243314 0 0 0 0 177.54542929610761 -317.49651385078323 0 -317.49651385078323 1464.6478358353343 0 0 0 0 -530.9996588465583 -5.816394029687217 0 -5.816394029687217 -51.716487038182095 0 0 0 0 -428.61650210783409 -102.92110757638875 0 -102.92110757638875 -14.05172171886079 0 0 0 0 342.45031303179621 -543.74454112681633 0 -543.74454112681633 -627.8031817026058 0 0 0 0 96.775938214391658 -46.738670268443684 0 -46.738670268443684 -36.215925791606423 0 0 0 0 84.217897823844396 103.23803380201571 0 103.23803380201571 -49.829155355895637 0 0 0 0 -123.41126088514829 -548.23980082946218 0 -548.23980082946218 13.107778128847713 0 0 0 0 376.52092444157097 203.13379548853118 0 203.13379548853118 -608.42248142772587 0 0 0 0 -114.58492848083552 -36.256677337121801 0 -36.256677337121801 -276.7963091646161 0 0 0 0 301.27869864784589 250.52480944845229 0 250.52480944845229 -120.83836476664874 0 0 0 0 114.30670388761064 -165.15212559248903 0 -165.15212559248903 -264.54713099543005 0 0 0 0 -132.49373577174265 100.71268865432648 0 100.71268865432648 -654.42382869453286 0 0 0 0 116.45756172807887 -354.41673849547806 0 -354.41673849547806 1445.4224755171163 0 0 0 0 87.742646458966192 -528.7909958716773 0 -528.7909958716773 1319.9241853461717 0 0 0 0 31.870153160838527 -390.64517625920416 0 -390.64517625920416 1043.8634736120439 0 0 0 0 171.42867946547631 -456.0420609270368 0 -456.0420609270368 1065.4214425458049 0 0 0 0 -8.0795992577490097 -6.7658628861775298 0 -6.7658628861775298 -3.3007487830847424 0 0 0 0 -5.2327725879149511 -366.13161869517353 0 -366.13161869517353 1084.4768511275761 0 0 0 0 -34.018006599057117 -254.0397223784239 0 -254.0397223784239 1158.760071912242 0 0 0 0 -34.942014507760177 -220.94382115772169 0 -220.94382115772169 1457.9353994737903 0 0 0 0 -22.570206417509326 -371.60936578256951 0 -371.60936578256951 1290.214530410216 0 0 0 0 76.674876091681654 -332.5550103700516 0 -332.5550103700516 1255.9860105349871 0 0 0 0 40.488810258590092 -199.78935058371462 0 -199.78935058371462 1391.7147229292314 0 0 0 0 114.8415561937727 -311.86184519619565 0 -311.86184519619565 1569.7754162386409 0 0 0 0 71.254259341163561 -70.784594038326759 0 -70.784594038326759 1774.7957588236895 0 0 0 0 141.32331806078946 -212.02404150969596 0 -212.02404150969596 1738.1578437343705 0 0 0 0 54.512071625231329 -303.8208505316652 0 -303.8208505316652 1576.1658608216094 0 0 0 0 178.07475992373656 -324.53248082916252 0 -324.53248082916252 1344.0413370112365 0 0 0 0 174.69512079824926 -426.70042212527187 0 -426.70042212527187 1613.5806654318294 0 0 0 0 242.76959448681737 -348.88537270217785 0 -348.88537270217785 1429.611496737416 0 0 0 0 266.81211212879862 -295.55816490529833 0 -295.55816490529833 1482.0422668466344 0 0 0 0 106.25960358450538 -434.00652203508071 0 -434.00652203508071 2132.1915276609848 0 0 0 0 289.55611569204484 -456.91550198073674 0 -456.91550198073674 1671.1056053362554 0 0 0 0 -0.39105783337370781 -7.5668115425136477 0 -7.5668115425136477 2.4577010808319031 0 0 0 0 -451.37019533874991 -982.89319461529522 0 -982.89319461529522 -3685.1990129239202 0 0 0 0 -240.81558829754795 -312.78874394576269 0 -312.78874394576269 2931.7171323445073 0 0 0 0 744.77718656726938 -801.5319026815414 0 -801.5319026815414 -3929.2308590928733 0 0 0 0 213.20996111334534 132.38193734377273 0 132.38193734377273 1594.1907042833045 0 0 0 0 74.065632970843581 136.76652602344984 0 136.76652602344984 2127.3006063794919 0 0 0 0 -8.7896305813330002 -4.4115090333184526 0 -4.4115090333184526 1.948277615115444 0 0 0 0 23.48392866802169 -124.46354915008123 0 -124.46354915008123 1251.3345540718619 0 0 0 0 8.6247893091487242 -19.966186132711783 0 -19.966186132711783 -3.602299589104021 0 0 0 0 -414.88975212848163 -346.58999320390285 0 -346.58999320390285 -121.16409113591362 0 0 0 0 169.91318396124916 25.301204767412855 0 25.301204767412855 1370.3935570508183 0 0 0 0 -308.74446857774092 -873.69288549097837 0 -873.69288549097837 1118.2074036154081 0 0 0 0 -67.366257758374559 -880.66788053310302 0 -880.66788053310302 625.88204167457297 0 0 0 0 28.549743847368518 -415.65613703829877 0 -415.65613703829877 169.54966619120387 0 0 0 0 606.13166117305809 -398.60888714414614 0 -398.60888714414614 838.49700518982718 0 0 0 0 148.9407840774802 -290.78857525961939 0 -290.78857525961939 1472.0193278460138 0 0 0 0 151.62471246700443 -150.73115959425922 0 -150.73115959425922 1381.5116586289369 0 0 0 0 206.36528876444208 -403.98582806240302 0 -403.98582806240302 1174.0927672331163 0 0 0 0 233.15756375322235 -277.31950488811708 0 -277.31950488811708 1450.5607058355818 0 0 0 0 205.20673180226004 -387.69927962831571 0 -387.69927962831571 1480.9025554154941 0 0 0 0 177.63195484958851 -1009.25927142211 0 -1009.25927142211 2014.236015513583 0 0 0 0 244.8685117075438 -351.33956181331814 0 -351.33956181331814 1505.9776384567667 0 0 0 0 153.51233289959782 -1207.5197257037362 0 -1207.5197257037362 392.47222741653968 0 0 0 0 348.32393771669012 -301.5386816600294 0 -301.5386816600294 1085.9779937912535 0 0 0 0 -184.95647086991812 -1216.9434062728833 0 -1216.9434062728833 -3503.4180513143074 0 0 0 0 324.37778204034112 -1874.7559800694435 0 -1874.7559800694435 -2937.4916240871244 0 0 0 0 742.37608474689478 -913.77638888084039 0 -913.77638888084039 -979.55067922927992 0 0 0 0 719.19362625820213 -587.33420065531391 0 -587.33420065531391 -1926.9806404167466 0 0 0 0 431.74896283572161 -575.15382384188706 0 -575.15382384188706 -811.46034300676547 0 0 0 0 221.90601145861365 -774.5398534183405 0 -774.5398534183405 -78.606159437069437 0 0 0 0 -208.8537467982751 90.424046501604607 0 90.424046501604607 -964.31265559267194 0 0 0 0 14.901306398714212 -5.2511577750231879 0 -5.2511577750231879 -2.8233142838481484 0 0 0 0 398.35311066643771 -561.26411038475635 0 -561.26411038475635 -6064.8743414712926 0 0 0 0 -157.07292124714695 -1708.717004210836 0 -1708.717004210836 -3462.9493540042458 0 0 0 0 1107.0663096778262 123.33182765964011 0 123.33182765964011 -8557.4047424899909 0 0 0 0 -808.79349630395336 118.54555452314526 0 118.54555452314526 -4548.6017290960299 0 0 0 0 -676.52452166160219 -717.58590340141382 0 -717.58590340141382 -1984.0722742207145 0 0 0 0 -463.62430240331742 1560.943516209576 0 1560.943516209576 -4686.3197349841648 0 0 0 0 3.6585958490560131 -16.910752074770613 0 -16.910752074770613 -2.5399961411278866 0 0 0 0 -230.63129262796792 -1062.012089945194 0 -1062.012089945194 3735.6993826604739 0 0 0 0 429.94290989469846 -262.37984665311888 0 -262.37984665311888 1343.1555754127912 0 0 0 0 -7.8666512475707719 -47.829891972750147 0 -47.829891972750147 -0.73797074770400783 0 0 0 0 -30.909198191951873 -322.33578665055393 0 -322.33578665055393 1737.228693611527 0 0 0 0 389.27846801874693 -512.82096415445267 0 -512.82096415445267 1232.9233532742219 0 0 0 0 163.80733831219322 -343.91625330750048 0 -343.91625330750048 1173.5054577597766 0 0 0 0 368.87601126193476 -658.06502825536882 0 -658.06502825536882 527.98137172099086 0 0 0 0 357.38500249299477 -533.25972543752505 0 -533.25972543752505 1378.4909233338258 0 0 0 0 596.75724965466361 -974.59605462702166 0 -974.59605462702166 531.75480184237676 0 0 0 0 547.36696335175657 -541.54045018488978 0 -541.54045018488978 -142.40708465949865 0 0 0 0 460.48074025940878 -352.09135907833115 0 -352.09135907833115 195.59849567830679 0 0 0 0 372.29140353348339 -374.76594585443672 0 -374.76594585443672 -10.025448412212427 0 0 0 0 408.93729106150568 -595.35330312256701 0 -595.35330312256701 506.79903725268377 0 0 0 0 -54.689301953396352 -303.88266595790628 0 -303.88266595790628 -416.92700110412261 0 0 0 0 34.434993915190717 -490.98951258579473 0 -490.98951258579473 -216.71445778111229 0 0 0 0 360.30670142329473 -189.08853301683848 0 -189.08853301683848 -223.24574098330049 0 0 0 0 116.67832410079427 -333.00454384242767 0 -333.00454384242767 62.74540561538015 0 0 0 0 305.03070588535411 -308.33908438879007 0 -308.33908438879007 -467.30515120086784 0 0 0 0 773.59462593940498 -498.73397021018172 0 -498.73397021018172 -1.9944006702426123 0 0 0 0 -52.118615105522622 -628.11498014235258 0 -628.11498014235258 550.19397766595648 0 0 0 0 -86.920181310097178 -869.27537120447596 0 -869.27537120447596 -613.18090077105444 0 0 0 0 105.62889216309122 -955.75139362977643 0 -955.75139362977643 -1328.7074372627394 0 0 0 0 881.07185488948744 -2055.7221866933542 0 -2055.7221866933542 2.6839042019710178 0 0 0 0 145.82797990035033 -1657.7106740120944 0 -1657.7106740120944 -6222.7586495761934 0 0 0 0 -210.10580117087375 -2042.2725719096543 0 -2042.2725719096543 -4249.0235001199471 0 0 0 0 -271.09653553387034 -895.00954477587948 0 -895.00954477587948 -3932.676592646224 0 0 0 0 -678.23312081969925 -808.74594970257021 0 -808.74594970257021 -3431.5224022567418 0 0 0 0 -389.17424494658189 -460.54439595279109 0 -460.54439595279109 -4719.3614282726776 0 0 0 0 -513.22296063062095 -1590.6188585711934 0 -1590.6188585711934 -1593.5630056064401 0 0 0 0 218.62411135963339 -1118.3598685150209 0 -1118.3598685150209 -3440.1417908791627 0 0 0 0 -230.48483996722189 -2158.0326787329141 0 -2158.0326787329141 -3158.5358996497234 0 0 0 0 -384.27928130346118 -780.30501171753713 0 -780.30501171753713 -3127.3787775206147 0 0 0 0 -286.61382656848582 -795.71458071238885 0 -795.71458071238885 -2107.5822810544851 0 0 0 0 201.22326998312201 -665.8507989439313 0 -665.8507989439313 -2080.8030910352536 0 0 0 0 232.92344518010214 -872.93296110688243 0 -872.93296110688243 -3140.4147735555598 0 0 0 0 -766.26724151014059 -773.35842772004253 0 -773.35842772004253 -408.57000132802204 0 0 0 0 -626.49962058030178 -1169.9560750609126 0 -1169.9560750609126 -1784.1639361830603 0 0 0 0 -817.03471457876003 -711.95249935265019 0 -711.95249935265019 -1377.2774789656105 0 0 0 0 -395.8029449305177 -636.26882605238643 0 -636.26882605238643 -774.43608705473889 0 0 0 0 -679.4142603993605 -1039.1612314312006 0 -1039.1612314312006 -1061.7120555805304 0 0 0 0 -383.61312917385658 -1327.3668728600824 0 -1327.3668728600824 -1260.8552156139631 0 0 0 0 -162.43422482235474 -201.58116042643087 0 -201.58116042643087 -277.61432385983062 0 0 0 0 -20.578267915218021 -151.86606153952016 0 -151.86606153952016 -940.47223142554867 0 0 0 0 -122.9741494058253 12.660753808886511 0 12.660753808886511 -406.38945331642753 0 0 0 0 -56.207825469013187 -74.136416259250836 0 -74.136416259250836 227.72215933556436 0 0 0 0 -7.4058614549926176 -5.5201661331566925 0 -5.5201661331566925 -6.2032340364392269 0 0 0 0 9.7061879401371698 -430.2475684764504 0 -430.2475684764504 -2548.7890163079137 0 0 0 0 77.881316187878838 -42.927167838570313 0 -42.927167838570313 -1413.6911324471002 0 0 0 0 -468.70106214634143 -794.12078846493387 0 -794.12078846493387 -1186.8462039291917 0 0 0 0 -290.35156059272776 -876.71832557968446 0 -876.71832557968446 -1537.840312040149 0 0 0 0 -60.626732418993925 -619.70599835646135 0 -619.70599835646135 -1262.3248102455254 0 0 0 0 -224.12365282479004 -521.66619910244481 0 -521.66619910244481 -920.22152007446857 0 0 0 0 -405.12407140205323 -768.80818419135176 0 -768.80818419135176 -1142.8816313133721 0 0 0 0 -252.65071872693079 -792.92931676112494 0 -792.92931676112494 -1341.8555009690463 0 0 0 0 -403.20212211299076 -797.8953132029128 0 -797.8953132029128 -1188.2431461839606 0 0 0 0 -125.67974321548536 -496.68674216857471 0 -496.68674216857471 -711.93283116970269 0 0 0 0 -792.75485309890792 -1254.7979916779223 0 -1254.7979916779223 -1343.2131141776044 0 0 0 0 1.615132595161441 -0.81687450401945227 0 -0.81687450401945227 -4.4188870456860059 0 0 0 0 -49.369647076127876 -53.698181090752769 0 -53.698181090752769 -383.14285663834016 0 0 0 0 -445.48085600836203 -673.00464878017374 0 -673.00464878017374 -700.40175902022747 0 0 0 0 -466.48012235235365 -521.31439846772264 0 -521.31439846772264 -185.93682961574086 0 0 0 0 -528.32049071012443 -585.72785911451501 0 -585.72785911451501 -774.89728370593366 0 0 0 0 -677.54027371603297 -851.76175017003698 0 -851.76175017003698 -796.7636229700438 0 0 0 0 -411.52308447739779 -680.25792601391731 0 -680.25792601391731 -828.7046787757663 0 0 0 0 -511.71921615287829 -487.16137720930419 0 -487.16137720930419 -473.59390403571888 0 0 0 0 -386.05619230047569 -391.773021763614 0 -391.773021763614 -386.0508259642811 0 0 0 0 -383.90276623906539 -408.613278805351 0 -408.613278805351 -558.43313356830913 0 0 0 0 -278.43136267554655 -244.06720148187014 0 -244.06720148187014 -793.30885349481832 0 0 0 0 -406.80376863201673 -443.22697335798875 0 -443.22697335798875 -592.43948654412816 0 0 0 0 -408.57966792609636 -473.45072794782641 0 -473.45072794782641 -667.76539401811897 0 0 0 0 -224.43086049523117 -346.33464433469635 0 -346.33464433469635 -918.4681695308318 0 0 0 0 -225.21825652883854 -360.48682038339757 0 -360.48682038339757 -1172.4917643399676 0 0 0 0 -201.1133187769592 -136.80909845255519 0 -136.80909845255519 -1332.7769444183796 0 0 0 0 -246.77509823677156 -369.09080540073319 0 -369.09080540073319 -719.43169452076836 0 0 0 0 -259.43911776993264 -190.74215311183434 0 -190.74215311183434 -747.93175672690268 0 0 0 0 -528.45489275640284 -463.68155567879148 0 -463.68155567879148 -423.98665348666327 0 0 0 0 -281.0210757330351 -545.81763119369862 0 -545.81763119369862 -782.02265529576107 0 0 0 0 -233.40562414180749 -491.08102439409049 0 -491.08102439409049 -1027.7045504814596 0 0 0 0 -224.25017049389135 -781.27177748262329 0 -781.27177748262329 -1319.1442310321509 0 0 0 0 -68.012727767334582 -524.69394717936302 0 -524.69394717936302 -3437.541045861668 0 0 0 0 -105.38508089324023 -224.44739014760125 0 -224.44739014760125 -1654.36407146907 0 0 0 0 -58.040911045245593 -380.3053007957642 0 -380.3053007957642 -1749.878592037654 0 0 0 0 -50.646966487822283 -441.63623712339904 0 -441.63623712339904 -1367.0562995000801 0 0 0 0 48.018193174393048 -19.143835639129435 0 -19.143835639129435 -4.3191234128292422 0 0 0 0 -20.309800154347329 -16.446610062008972 0 -16.446610062008972 -4.6901522305256833 0 0 0 0 -10.878230644007999 -159.24772868393484 0 -159.24772868393484 -1505.5097946211172 0 0 0 0 -29.864772291581176 -225.33826829439568 0 -225.33826829439568 -1735.1098978237715 0 0 0 0 -219.95686328559532 -25.971642767239246 0 -25.971642767239246 194.22535659724963 0 0 0 0 -8.9076237157129867 -1.8738787052235466 0 -1.8738787052235466 -2.0661637788439577 0 0 0 0 33.450334621826187 -169.51179804757703 0 -169.51179804757703 -116.15741274194443 0 0 0 0 -35.06892174681343 -65.804222335100349 0 -65.804222335100349 -2208.4929969361838 0 0 0 0 -72.873292200445576 -199.48586782524217 0 -199.48586782524217 -1468.9674314724689 0 0 0 0 -30.728548225946724 -221.19078105491644 0 -221.19078105491644 -1561.3357166260539 0 0 0 0 -128.83556904040597 -284.88349677548831 0 -284.88349677548831 -1353.6687213561399 0 0 0 0 -4.858367494954166 5.914958131918155 0 5.914958131918155 -16.351281947042565 0 0 0 0 -58.690854476099048 -141.7898898528365 0 -141.7898898528365 -1416.8451113215415 0 0 0 0 38.926661441772012 58.847508734630537 0 58.847508734630537 -157.41880800249055 0 0 0 0 45.576473962932766 -30.109721923212788 0 -30.109721923212788 -14.990536408708337 0 0 0 0 -3.033752611387257 0.51578183065890926 0 0.51578183065890926 -1.3180607148445347 0 0 0 0 -60.093178309776704 60.076575332932407 0 60.076575332932407 43.005724113994802 0 0 0 0 -109.53996231677957 205.58154671150987 0 205.58154671150987 -331.33826834398496 0 0 0 0 103.71001771221927 167.37757584175415 0 167.37757584175415 -863.269667840701 0 0 0 0 63.292465270096727 -110.82796252953995 0 -110.82796252953995 -981.87032437176094 0 0 0 0 -256.46953003949238 26.805027000380505 0 26.805027000380505 -971.28326489479514 0 0 0 0 174.61754816816392 18.816135782341007 0 18.816135782341007 -858.99237993930547 0 0 0 0 254.73404568610204 -90.277803023051092 0 -90.277803023051092 -723.28632681263844 0 0 0 0 103.55485497711197 154.99790706594649 0 154.99790706594649 -604.8675906337885 0 0 0 0 190.46500500336333 -80.399619632407848 0 -80.399619632407848 -613.99954606452957 0 0 0 0 206.8451823457217 -143.89409112945577 0 -143.89409112945577 -463.91894209902966 0 0 0 0 207.05677464281098 -162.56060882239967 0 -162.56060882239967 -390.11298298125621 0 0 0 0 258.74016261259749 -227.50849150237627 0 -227.50849150237627 -600.84700554978917 0 0 0 0 317.4151058468633 -172.1919648923722 0 -172.1919648923722 -567.00878227465728 0 0 0 0 269.62653883814346 -78.654343287500524 0 -78.654343287500524 -732.91721691086423 0 0 0 0 319.67130217760132 -258.62075145919516 0 -258.62075145919516 -663.50939980544354 0 0 0 0 376.82890033732474 -199.61864370248804 0 -199.61864370248804 -605.15033208730165 0 0 0 0 421.59545031940888 -358.00442748441856 0 -358.00442748441856 -528.35306070395745 0 0 0 0 329.48947802188559 -294.43015078007011 0 -294.43015078007011 -397.75425686768722 0 0 0 0 475.80221005415342 -545.89428457183294 0 -545.89428457183294 -116.55760733787611 0 0 0 0 438.58064666151722 -257.13242312846614 0 -257.13242312846614 -394.98793004930485 0 0 0 0 315.10357967470918 -343.42027007877186 0 -343.42027007877186 -448.34222535794834 0 0 0 0 -3.5371418785362039 -216.20600864934386 0 -216.20600864934386 -626.12003638687747 0 0 0 0 -16.59118351530924 -277.91022224962944 0 -277.91022224962944 -429.05923338223511 0 0 0 0 57.81655347126798 -176.72358158492716 0 -176.72358158492716 -1029.8425398493055 0 0 0 0 63.078226186749816 -247.34505900945805 0 -247.34505900945805 -810.21500188659047 0 0 0 0 347.42750977171818 -256.36277371741016 0 -256.36277371741016 -705.67996949821827 0 0 0 0 212.25605033271859 -112.20626982722024 0 -112.20626982722024 -689.31798861506104 0 0 0 0 -82.059440455326694 -40.485023819797789 0 -40.485023819797789 57.663828154996736 0 0 0 0 -2.2002222794851054 -27.330375042993509 0 -27.330375042993509 21.147077590724905 0 0 0 0 -75.09384914515249 -50.947274008038221 0 -50.947274008038221 39.446454721692135 0 0 0 0 -14.721248094722734 -39.324066590790835 0 -39.324066590790835 36.769926067264578 0 0 0 0 -26.660332451465365 -69.272141625187942 0 -69.272141625187942 45.849322647551162 0 0 0 0 -6.0449241476722753 -18.392394645452555 0 -18.392394645452555 3.1196700761565239 0 0 0 0 62.294443126447732 -209.17953175908042 0 -209.17953175908042 200.99371666596562 0 0 0 0 -53.730018709244177 -118.78533823587713 0 -118.78533823587713 184.99913525684678 0 0 0 0 -12.832798006105747 -55.297337279970748 0 -55.297337279970748 27.551418679451047 0 0 0 0 -34.193016117569641 -50.225715058200876 0 -50.225715058200876 75.648627628354006 0 0 0 0 -5.955793733448445 -106.08960363711049 0 -106.08960363711049 -73.675827938888688 0 0 0 0 -127.08162605328289 7.8064426249093231 0 7.8064426249093231 366.71006373905402 0 0 0 0 -23.86978218195145 -73.287063400726765 0 -73.287063400726765 253.73731494033927 0 0 0 0 -20.583274328805288 -51.22499273771183 0 -51.22499273771183 25.042694237898729 0 0 0 0 -75.823474341697874 -39.259900517135975 0 -39.259900517135975 24.135305771251296 0 0 0 0 -231.10301285261085 -265.78227474931919 0 -265.78227474931919 11.895617305272026 0 0 0 0 -103.44165788035389 -276.07762423444365 0 -276.07762423444365 -286.07419073759229 0 0 0 0 -1.6246620497295226 -0.7925121719999666 0 -0.7925121719999666 1.6210460546558352 0 0 0 0 -32.687105169745337 30.398961543134646 0 30.398961543134646 106.92755040272459 0 0 0 0 -69.351426528699449 -79.932732440453037 0 -79.932732440453037 167.74985777730762 0 0 0 0 -473.20265746344376 -547.6652577485147 0 -547.6652577485147 -212.76452271487142 0 0 0 0 -251.17398519690323 -766.37982490070135 0 -766.37982490070135 -733.21686795150163 0 0 0 0 -98.263898546430937 -554.18769793437968 0 -554.18769793437968 -685.75197420080076 0 0 0 0 -47.945703860983485 -298.41601399374485 0 -298.41601399374485 -509.68544050725177 0 0 0 0 -233.31128768834606 -457.39942210801019 0 -457.39942210801019 -362.92252882328467 0 0 0 0 -70.754795788190677 -469.98027626005205 0 -469.98027626005205 -495.56561385154782 0 0 0 0 -46.744949627092865 -200.96121924405452 0 -200.96121924405452 -280.34150686542853 0 0 0 0 -60.508134845685845 -237.31546383771047 0 -237.31546383771047 -224.74468259303831 0 0 0 0 -26.056082825770403 -49.048779580873315 0 -49.048779580873315 24.581027527325091 0 0 0 0 -107.44836057586508 -97.976736270102265 0 -97.976736270102265 -10.555724107973219 0 0 0 0 -56.66735060638166 50.468442761164624 0 50.468442761164624 350.86497878037335 0 0 0 0 44.228843489465362 -90.147877751624037 0 -90.147877751624037 -323.69495234111673 0 0 0 0 -100.53176223594346 -339.87335075008559 0 -339.87335075008559 -392.54359259805642 0 0 0 0 -65.871297560901439 -158.98057463822624 0 -158.98057463822624 -511.06959788160748 0 0 0 0 -118.85484282129619 36.280597724078689 0 36.280597724078689 -58.886455858024419 0 0 0 0 -118.7165300110355 -69.152682865678798 0 -69.152682865678798 -80.448172231583158 0 0 0 0 -36.523589422693476 -286.77823779796017 0 -286.77823779796017 -347.05243008039542 0 0 0 0 91.43819470021117 -137.50742539807106 0 -137.50742539807106 -447.93775566533441 0 0 0 0 94.280600588885136 68.361974235856906 0 68.361974235856906 -281.37460876777186 0 0 0 0 -101.86411372393104 -175.07230246493782 0 -175.07230246493782 -384.14489331253571 0 0 0 0 1.0914172895718366 -81.181947945296997 0 -81.181947945296997 -525.3629810322891 0 0 0 0 -123.87518458090199 -224.89273393100302 0 -224.89273393100302 -455.09333316027187 0 0 0 0 -71.168257440454909 -341.49781343623545 0 -341.49781343623545 -882.08206780542969 0 0 0 0 -139.26081870721828 -374.09443204345007 0 -374.09443204345007 -681.49025937150873 0 0 0 0 -156.4809348017443 -574.91572882796754 0 -574.91572882796754 -1139.0152676143334 0 0 0 0 -429.57587480048824 -669.00865334663831 0 -669.00865334663831 -911.90312562928284 0 0 0 0 -71.655612138427387 -461.26270900365489 0 -461.26270900365489 -804.16510699968785 0 0 0 0 -201.93896618919825 -513.20789905642596 0 -513.20789905642596 -702.61079397973663 0 0 0 0 -79.848183844049345 -494.26761161297327 0 -494.26761161297327 -916.79270803785766 0 0 0 0 -688.14611697425516 -682.05548463925152 0 -682.05548463925152 -834.06166241082246 0 0 0 0 386.66723851445931 -160.32887187580491 0 -160.32887187580491 -567.02226888948644 0 0 0 0 5.0508962904060581 -0.93572398502452359 0 -0.93572398502452359 -9.1747308766544506 0 0 0 0 -177.07017302180975 -486.69375446783306 0 -486.69375446783306 -951.56036346814653 0 0 0 0 -306.74500933157833 -715.90038481957163 0 -715.90038481957163 -979.76773848346784 0 0 0 0 -305.99464490326375 -611.78903491997062 0 -611.78903491997062 -843.00143375826883 0 0 0 0 -42.238335489659221 -745.63968683163694 0 -745.63968683163694 -913.04485386291833 0 0 0 0 -653.95008647645773 -387.78620035516724 0 -387.78620035516724 -971.94092241369071 0 0 0 0 -922.24412474263227 -526.65017509575409 0 -526.65017509575409 -1710.9928020439402 0 0 0 0 -397.38028188238968 -890.80630140156427 0 -890.80630140156427 -1557.138747173798 0 0 0 0 93.198820493307721 -531.62224229320418 0 -531.62224229320418 -2236.7097200785647 0 0 0 0 349.22453373655662 -1420.8035612926979 0 -1420.8035612926979 -1611.1565318597131 0 0 0 0 -735.11902713163727 -603.28127958314872 0 -603.28127958314872 -390.15681806288194 0 0 0 0 1419.0122705699687 -802.81343586677394 0 -802.81343586677394 -1271.4045809856034 0 0 0 0 730.09188486658059 -1536.634301394155 0 -1536.634301394155 -1975.9305170938896 0 0 0 0 -515.6696148867095 -1366.3861484674826 0 -1366.3861484674826 -1999.1956853448064 0 0 0 0 3.1734994861902805 -0.99189819324932671 0 -0.99189819324932671 -6.1657155663428966 0 0 0 0 349.43636500805587 -1432.4811098072023 0 -1432.4811098072023 -778.8516725232912 0 0 0 0 355.23037014590227 -1097.6688733710762 0 -1097.6688733710762 -1220.6655371708912 0 0 0 0 -51.008223551572883 -1118.8067078198656 0 -1118.8067078198656 -1023.7089415585506 0 0 0 0 -51.70061375779386 -1170.6574750975881 0 -1170.6574750975881 -942.76349759797449 0 0 0 0 65.511325128529279 -1144.2541794679055 0 -1144.2541794679055 -1042.6473579131089 0 0 0 0 543.15036254710139 -756.95777242086479 0 -756.95777242086479 -1041.5627113320807 0 0 0 0 -95.223833358202683 -913.95761217976542 0 -913.95761217976542 -909.79390942306782 0 0 0 0 -66.978988086968457 -773.64295337786461 0 -773.64295337786461 -881.38510642232723 0 0 0 0 -99.737954897085729 -761.74863717234621 0 -761.74863717234621 -764.82116014586063 0 0 0 0 -732.04181463782879 -729.88553261321795 0 -729.88553261321795 -675.91386522796893 0 0 0 0 -847.22290414751842 -953.50923771932867 0 -953.50923771932867 -596.19695779199537 0 0 0 0 -1316.7487463452676 -1083.7776747275038 0 -1083.7776747275038 -588.49440640138346 0 0 0 0 -1319.1472131158648 -1111.6596132812901 0 -1111.6596132812901 -624.43285014660796 0 0 0 0 -499.87115080767762 -1014.3447074794021 0 -1014.3447074794021 -780.36506789675332 0 0 0 0 -676.8682868116357 -1192.5665916293492 0 -1192.5665916293492 -824.0423318692774 0 0 0 0 -615.36395480973442 -1055.0096652153443 0 -1055.0096652153443 -890.99065056272957 0 0 0 0 -562.31143526888627 -1315.4194752545154 0 -1315.4194752545154 -766.93816326603701 0 0 0 0 -856.60804575438669 -1078.0084010736682 0 -1078.0084010736682 -769.46830052051519 0 0 0 0 -1225.1808144062379 -1463.5172143105374 0 -1463.5172143105374 -940.2905971162254 0 0 0 0 -1279.8997683349589 -1023.3565699073806 0 -1023.3565699073806 -576.83574246802891 0 0 0 0 -1281.7472647499637 -1056.1394401201951 0 -1056.1394401201951 -642.61049420887139 0 0 0 0 -1704.0167266983335 -1175.1950286958818 0 -1175.1950286958818 -517.47919446645392 0 0 0 0 -1702.2454467344724 -743.65534071646834 0 -743.65534071646834 -335.21096500432395 0 0 0 0 -17.640548954588297 0.94790403309410465 0 0.94790403309410465 7.2646299500580085 0 0 0 0 -1729.9481842714449 -1141.8655757928063 0 -1141.8655757928063 -539.77562749253411 0 0 0 0 -2760.7174166761906 -843.17705495467089 0 -843.17705495467089 -269.61375333124306 0 0 0 0 -1924.941492216698 -1467.9291435893829 0 -1467.9291435893829 -865.81113659075345 0 0 0 0 -5.5145619787062632 -6.5912006670602352 0 -6.5912006670602352 -9.9841234857061636 0 0 0 0 27.092546242552089 -55.160346139158719 0 -55.160346139158719 -47.49005774105899 0 0 0 0 -3813.0713625404533 -1462.1678254660583 0 -1462.1678254660583 -428.60260914664832 0 0 0 0 -29.318845267349388 -19.330090325180208 0 -19.330090325180208 10.153714134430629 0 0 0 0 -16.057061829974074 -16.610126369950663 0 -16.610126369950663 7.0128917466411167 0 0 0 0 -3.6206622813739049 -32.05166527101683 0 -32.05166527101683 -5.7812383394034441 0 0 0 0 10.09689224648173 -17.809064775770821 0 -17.809064775770821 -25.303933565315674 0 0 0 0 -85.397444708810781 -40.712861684545715 0 -40.712861684545715 -10.780553742166376 0 0 0 0 -77.807634797136416 -19.756463288424129 0 -19.756463288424129 6.7868095560261281 0 0 0 0 31.683233591058524 -12.029205909071607 0 -12.029205909071607 -30.582964230547077 0 0 0 0 -3.3523295468530119 -30.025863988522531 0 -30.025863988522531 7.4308640474671392 0 0 0 0 -67.77653589622787 -21.395413160891621 0 -21.395413160891621 -6.429394539729401 0 0 0 0 -69.175794505303202 -23.791719343942532 0 -23.791719343942532 4.04193187537021 0 0 0 0 -5.6688304466064778 1.0128018732434114 0 1.0128018732434114 6.2896259918356918 0 0 0 0 -55.163363986299373 -28.545456625601219 0 -28.545456625601219 5.5962108583189547 0 0 0 0 -61.779681585023354 -11.800795883173123 0 -11.800795883173123 10.369899771176279 0 0 0 0 -1004.6419254832654 -921.0436220952397 0 -921.0436220952397 -387.94460592890209 0 0 0 0 -1086.3589724287449 -887.8177393750957 0 -887.8177393750957 -380.90572888689712 0 0 0 0 -1647.4656759991267 -711.33661079069134 0 -711.33661079069134 -164.16282724417397 0 0 0 0 -1080.4449612777971 -1104.4806965554089 0 -1104.4806965554089 -104.52459470785107 0 0 0 0 -1746.1170798741805 -893.85716841917019 0 -893.85716841917019 -56.437863614199159 0 0 0 0 -1983.8276844063366 -1334.3761190210062 0 -1334.3761190210062 329.99761714115448 0 0 0 0 32.454644110628578 -1249.2607283936522 0 -1249.2607283936522 -371.97549256896309 0 0 0 0 -1049.078523519398 -1141.6976290239727 0 -1141.6976290239727 -815.66261342051439 0 0 0 0 -1606.0108060459934 -941.01248923808453 0 -941.01248923808453 -584.82894536512322 0 0 0 0 -2310.2737704905958 -859.53483826921729 0 -859.53483826921729 -586.96227319995523 0 0 0 0 -1937.7793936047019 -902.65008471596229 0 -902.65008471596229 -1903.5225861424697 0 0 0 0 -2626.4727452559746 -1475.3538532142702 0 -1475.3538532142702 -885.75433812689153 0 0 0 0 -2282.6569211120368 -2159.3352706660371 0 -2159.3352706660371 -1933.1640283286397 0 0 0 0 -2008.61722241182 -1180.4459686250048 0 -1180.4459686250048 -2522.4791847561719 0 0 0 0 -3047.3569265095139 -1760.6906569287967 0 -1760.6906569287967 -1973.0180649443646 0 0 0 0 -2708.7751715286286 -2126.8905502067209 0 -2126.8905502067209 -1750.2800698518404 0 0 0 0 7.3264665571048866 -4.6237784353145912 0 -4.6237784353145912 -8.0854470279172688 0 0 0 0 -1535.3227232107802 -1421.1020401406131 0 -1421.1020401406131 -1100.5107205943787 0 0 0 0 -1580.7816696715308 -1240.695459966184 0 -1240.695459966184 -1798.8744721199619 0 0 0 0 -2528.8721453258477 -1336.6708930535533 0 -1336.6708930535533 -809.67333995644731 0 0 0 0 -2104.606970471199 -1359.1586359279027 0 -1359.1586359279027 -1317.636734303087 0 0 0 0 -1329.8058659679991 -677.65989706598702 0 -677.65989706598702 -740.64784369774861 0 0 0 0 -1771.9865781695335 -661.54194023378659 0 -661.54194023378659 -662.961323254538 0 0 0 0 -1677.4623691137094 -789.56031169704511 0 -789.56031169704511 -1566.8917184575548 0 0 0 0 -1041.4804514767893 -962.65820554894162 0 -962.65820554894162 -962.16257061983742 0 0 0 0 -408.67132615121955 -979.84858102211729 0 -979.84858102211729 -808.64734589091495 0 0 0 0 -863.86916417800239 -1225.7853101964756 0 -1225.7853101964756 -672.39871149271494 0 0 0 0 -445.819391100551 -946.47990379824478 0 -946.47990379824478 -841.61485382403771 0 0 0 0 -795.45913404853491 -595.84676485144882 0 -595.84676485144882 -355.26378112705424 0 0 0 0 -464.32551805946787 -917.50375636890385 0 -917.50375636890385 -43.049605532549322 0 0 0 0 -1138.0907920172613 -1074.1550094178529 0 -1074.1550094178529 -162.94491949572694 0 0 0 0 -1942.080240781288 -1011.7933339982919 0 -1011.7933339982919 -166.17633767551979 0 0 0 0 -1.1185101653437464 -2.0063203276852306 0 -2.0063203276852306 0.76420404127856045 0 0 0 0 14.606929211237002 -731.67120979698666 0 -731.67120979698666 -4.801814084599755 0 0 0 0 396.60649722113521 -513.02758075334714 0 -513.02758075334714 -46.376490531489253 0 0 0 0 -19.477705156066804 -579.40540747592604 0 -579.40540747592604 44.199468956387136 0 0 0 0 506.21436524541423 -694.34019668988185 0 -694.34019668988185 -93.449052013311302 0 0 0 0 -10.340204775133316 -771.45337050444505 0 -771.45337050444505 -404.99020152477897 0 0 0 0 -415.43291027312716 -756.00662602040484 0 -756.00662602040484 -246.14089189612423 0 0 0 0 -100.40115018804136 -943.14456189414341 0 -943.14456189414341 -363.95466571464203 0 0 0 0 -205.4116890858495 -1188.3269903003602 0 -1188.3269903003602 -629.3249618136324 0 0 0 0 174.15070187996753 -1147.4598431178383 0 -1147.4598431178383 -227.83925654969062 0 0 0 0 -49.1130695913821 -569.62863916337483 0 -569.62863916337483 104.13057287142146 0 0 0 0 1521.9840142764624 -1006.2652603088209 0 -1006.2652603088209 109.07950631823041 0 0 0 0 728.22643475646328 -670.21367779323191 0 -670.21367779323191 46.149208725782955 0 0 0 0 391.87307157450596 -646.7623736223286 0 -646.7623736223286 671.02504599290842 0 0 0 0 765.61959015054163 -2084.7048659667853 0 -2084.7048659667853 -68.176159104215913 0 0 0 0 189.06415986725551 -132.13494030325091 0 -132.13494030325091 -201.67138181166956 0 0 0 0 16.215784506242528 -6.5593078581406701 0 -6.5593078581406701 4.0020120484448682 0 0 0 0 -17.159284344976186 -616.23693363516941 0 -616.23693363516941 1412.2629455428032 0 0 0 0 308.06179466311005 -1223.5526851746108 0 -1223.5526851746108 1318.2520173366538 0 0 0 0 302.62104251705387 -1206.5223692233922 0 -1206.5223692233922 1284.2092590575921 0 0 0 0 834.50014817067131 -766.63656548612926 0 -766.63656548612926 8.7373749034595676 0 0 0 0 508.1985711658881 -734.80826096149053 0 -734.80826096149053 112.56262804727885 0 0 0 0 778.2054412211437 -720.91486310210894 0 -720.91486310210894 -67.199786288772884 0 0 0 0 846.08533064144285 -586.48330933325633 0 -586.48330933325633 133.85649852101778 0 0 0 0 959.52700178748057 -613.71273745718486 0 -613.71273745718486 -102.87834010612278 0 0 0 0 960.05679574784881 -692.92269058288366 0 -692.92269058288366 -134.35144186260004 0 0 0 0 459.91395150193421 -639.50685688776139 0 -639.50685688776139 50.331256551195111 0 0 0 0 594.82278161006252 -667.77307788448525 0 -667.77307788448525 -39.962940432051255 0 0 0 0 1084.4648539527843 -819.92260477909076 0 -819.92260477909076 -222.22057042300003 0 0 0 0 1119.4281910390696 -652.56247542395067 0 -652.56247542395067 -58.804924236712395 0 0 0 0 1263.3631516555783 -662.92610697403188 0 -662.92610697403188 -197.51995732935029 0 0 0 0 681.93703150677538 -904.06735444843071 0 -904.06735444843071 -0.2994758390559582 0 0 0 0 42.357035931825521 -728.84554823119834 0 -728.84554823119834 -3.3957889346056618 0 0 0 0 476.67014469492278 -589.652566492201 0 -589.652566492201 -147.90001610566105 0 0 0 0 -28.246743237326882 -812.04106947009859 0 -812.04106947009859 0.19776446926698554 0 0 0 0 -604.92798162579129 -503.36279378538165 0 -503.36279378538165 -13.734153907949803 0 0 0 0 50.876577812084179 -702.50906299169492 0 -702.50906299169492 -186.57071009856008 0 0 0 0 -495.71783183314255 -601.86265412066859 0 -601.86265412066859 -3.6837467551013106 0 0 0 0 -25.23882633059111 -723.64196202899984 0 -723.64196202899984 -97.242500862368615 0 0 0 0 10.553142699282034 -654.21665295177809 0 -654.21665295177809 33.019401015000767 0 0 0 0 568.83959136397698 -746.02348907884698 0 -746.02348907884698 -163.42011435965833 0 0 0 0 450.72237603878693 -687.47721707699384 0 -687.47721707699384 -27.413490029299282 0 0 0 0 -426.897681893759 -384.45607704456779 0 -384.45607704456779 -48.960260489934399 0 0 0 0 -0.87124729391161893 -4.7989646442691907 0 -4.7989646442691907 1.211997864771206 0 0 0 0 -640.5005917202925 -576.68897793885208 0 -576.68897793885208 -245.51869073853595 0 0 0 0 -784.22312025303108 -548.39405255816382 0 -548.39405255816382 43.752226789700217 0 0 0 0 -464.69491508117972 -503.8471343459023 0 -503.8471343459023 -140.3737306214025 0 0 0 0 -1778.6396589619471 -394.61284212645842 0 -394.61284212645842 133.49128711644153 0 0 0 0 -752.57768152017888 -801.49263582528329 0 -801.49263582528329 14.813621193752624 0 0 0 0 -1.3022158307401597 -0.72434151931778956 0 -0.72434151931778956 0.8014256911099551 0 0 0 0 494.91075371222314 -344.61956068280233 0 -344.61956068280233 -198.34284502812079 0 0 0 0 -521.92488529940601 -836.61270939227688 0 -836.61270939227688 -14.308116491374676 0 0 0 0 -748.13420811336982 -531.9347880248024 0 -531.9347880248024 -87.255540832309862 0 0 0 0 -1081.3833987758117 -862.29699321817316 0 -862.29699321817316 -78.701506672040523 0 0 0 0 -713.12758184378617 -757.83375138706469 0 -757.83375138706469 -285.4274737158994 0 0 0 0 -774.94374692005658 -526.80236518270249 0 -526.80236518270249 -15.169130360536656 0 0 0 0 -954.1519202140189 -581.45168089831714 0 -581.45168089831714 -182.01679288484593 0 0 0 0 -1087.3893477325764 -785.38244727831625 0 -785.38244727831625 -206.85634753172053 0 0 0 0 -1095.9311551361407 -911.17285509792055 0 -911.17285509792055 -339.31706910650246 0 0 0 0 2.4853588445928949 -8.6726274205516631 0 -8.6726274205516631 3.0151730598129234 0 0 0 0 11.71797217979514 -6.9679091814319349 0 -6.9679091814319349 4.1813481426488579 0 0 0 0 -106.83764160095961 -152.77085414962494 0 -152.77085414962494 156.14449381013401 0 0 0 0 -3.5840587713959025 -6.8491920884239619 0 -6.8491920884239619 2.2963172557448104 0 0 0 0 184.99182467217906 -63.161612204530684 0 -63.161612204530684 -151.10996745631564 0 0 0 0 -1.5290890116891092 -2.0623054632712581 0 -2.0623054632712581 2.4771088490130637 0 0 0 0 -8.5876757238147547 11.55963016251917 0 11.55963016251917 -3.9019733235836611 0 0 0 0 14.066250474192202 43.438163072307361 0 43.438163072307361 138.61889385350514 0 0 0 0 -23.347184884449234 10.181937440604088 0 10.181937440604088 54.010761535770143 0 0 0 0 23.209200589448301 -16.327449122756661 0 -16.327449122756661 61.336008975398727 0 0 0 0 -85.32661002525856 -58.94664505046967 0 -58.94664505046967 26.369715006876504 0 0 0 0 32.264669589252243 -27.061688846751025 0 -27.061688846751025 20.513046044020598 0 0 0 0 -86.023782722913893 -41.548556011999608 0 -41.548556011999608 94.571804546649219 0 0 0 0 36.319811982859392 -41.528919966687681 0 -41.528919966687681 5.2361971705759061 0 0 0 0 34.995336744213091 -53.024212875796366 0 -53.024212875796366 -43.432070285489317 0 0 0 0 17.931022724474179 -19.562653849880803 0 -19.562653849880803 -23.831580563244643 0 0 0 0 4.7396526072301306 -8.9126160049525822 0 -8.9126160049525822 3.6557927321613306 0 0 0 0 17.907440222019481 -25.243614488688053 0 -25.243614488688053 -9.6331517959188204 0 0 0 0 35.112456973914959 -38.273214310866024 0 -38.273214310866024 -3.520441438879061 0 0 0 0 8.0236829138916228 -16.316225663251714 0 -16.316225663251714 -6.0210618944416581 0 0 0 0 1.4502121694656314 -22.51341770762059 0 -22.51341770762059 -3.9547169167067864 0 0 0 0 12.629129454889494 -28.553787877698596 0 -28.553787877698596 8.0785216404183302 0 0 0 0 12.602983547881877 -28.939768285990795 0 -28.939768285990795 4.310316214512568 0 0 0 0 8.8689892743313976 -23.043862323989742 0 -23.043862323989742 -3.6384586133353878 0 0 0 0 14.886549290858511 -29.369672024071406 0 -29.369672024071406 -1.1531976232654415 0 0 0 0 3.8569221195007231 -35.009944041608833 0 -35.009944041608833 5.497663004869537 0 0 0 0 13.048426665246609 -34.274547954868467 0 -34.274547954868467 0.23369334966992028 0 0 0 0 6.7589454021617712 -26.096926023019478 0 -26.096926023019478 1.0334674538535182 0 0 0 0 4.0025304499395133 0.12682960773236118 0 0.12682960773236118 -5.4176277400692925 0 0 0 0 21.354389048137261 -26.649272812667988 0 -26.649272812667988 -3.818012454617957 0 0 0 0 10.725286991050439 -15.60107635098538 0 -15.60107635098538 13.448017040011564 0 0 0 0 36.307058743654579 17.508523081662133 0 17.508523081662133 -46.209195094881579 0 0 0 0 21.474359455520244 -43.690889041579794 0 -43.690889041579794 -39.322171189320215 0 0 0 0 54.72290883686729 -39.99918870446794 0 -39.99918870446794 -7.1997634862846951 0 0 0 0 24.181192883775111 -71.313290126470747 0 -71.313290126470747 -36.230412516408251 0 0 0 0 16.398912265675818 -12.682870221971456 0 -12.682870221971456 -0.54422060036748121 0 0 0 0 31.155965068069872 -21.700228705864447 0 -21.700228705864447 6.5409532650885467 0 0 0 0 21.975479913884556 -27.658001906980644 0 -27.658001906980644 1.3486145263377693 0 0 0 0 99.555720569434925 -168.4779962363973 0 -168.4779962363973 -372.62494680279633 0 0 0 0 82.618443094328541 -127.29967105052492 0 -127.29967105052492 -194.21824892778386 0 0 0 0 96.948212286784837 -4.7806132209880161 0 -4.7806132209880161 -440.41300035612949 0 0 0 0 91.477627753811248 -8.2756672632240225 0 -8.2756672632240225 -376.40083521816268 0 0 0 0 45.820153406407968 -25.750517539103754 0 -25.750517539103754 -17.243231761396856 0 0 0 0 12.436114867421566 -5.2270325156205217 0 -5.2270325156205217 -13.451643534266623 0 0 0 0 116.4495625724594 36.072829958546208 0 36.072829958546208 -435.60583504760871 0 0 0 0 29.467161389016837 -3.6839237084059278 0 -3.6839237084059278 -43.828887404471061 0 0 0 0 4.2390029151647468 5.2808624280733056 0 5.2808624280733056 -43.39969062624732 0 0 0 0 25.568164204647474 -9.5268186622561188 0 -9.5268186622561188 -66.226519701143843 0 0 0 0 5.0459804043946974 -1.3284764000588609 0 -1.3284764000588609 -0.77595181757629916 0 0 0 0 1.8632511791311117 9.6656585533346515 0 9.6656585533346515 -19.241366449132329 0 0 0 0 19.598260630562436 61.00178604683606 0 61.00178604683606 -118.16960047608154 0 0 0 0 45.611444923885244 -27.37660047148546 0 -27.37660047148546 -16.406296298640939 0 0 0 0 23.874605432980388 10.449760296061868 0 10.449760296061868 -79.453684009931749 0 0 0 0 -23.76973964375793 49.118437994155101 0 49.118437994155101 -33.263904222752899 0 0 0 0 91.850422463699942 46.619592624760116 0 46.619592624760116 -277.55297518133011 0 0 0 0 137.42675942042843 166.80073469633498 0 166.80073469633498 -70.366603617556393 0 0 0 0 2.7970225878784021 -1.392476810734621 0 -1.392476810734621 -1.3287065445758799 0 0 0 0 -33.928705922855443 -0.72470312257792102 0 -0.72470312257792102 37.231653288050438 0 0 0 0 269.85454152242164 -130.68599460396217 0 -130.68599460396217 74.03947298687126 0 0 0 0 386.16877457841247 -63.796039559625569 0 -63.796039559625569 71.730446666450007 0 0 0 0 20.648664361557167 9.7532244852482108 0 9.7532244852482108 -36.436207362232381 0 0 0 0 -3.1777644727808365 36.675005644225166 0 36.675005644225166 -36.892035706026945 0 0 0 0 -466.26699437203933 359.79899762308924 0 359.79899762308924 57.016143388231285 0 0 0 0 -190.53411670291098 -13.97231128544081 0 -13.97231128544081 543.64183243355365 0 0 0 0 98.008425099396845 -252.98307007460971 0 -252.98307007460971 88.114646226764307 0 0 0 0 371.70083132679429 -251.84533459201339 0 -251.84533459201339 -346.02088079809619 0 0 0 0 373.25801554938153 -153.26048388372146 0 -153.26048388372146 202.16022349620471 0 0 0 0 552.02689233337514 -153.99544501931086 0 -153.99544501931086 76.839029855589615 0 0 0 0 1.3915863250824998 -0.56033789576241588 0 -0.56033789576241588 -3.3369347232375048 0 0 0 0 -200.97249103365175 -580.16377581721827 0 -580.16377581721827 621.91840609426436 0 0 0 0 696.5024198202882 -589.90471039296972 0 -589.90471039296972 199.72405488432196 0 0 0 0 887.19532513391641 -643.47079366960315 0 -643.47079366960315 193.52690406184411 0 0 0 0 1149.8720894388789 -712.69057409455127 0 -712.69057409455127 49.441566264969879 0 0 0 0 1.6794422538785767 -2.459724169320566 0 -2.459724169320566 -7.2042287484844678 0 0 0 0 625.5288568172291 -287.07169590079866 0 -287.07169590079866 96.353174207106349 0 0 0 0 930.44913456728864 -693.0354940436664 0 -693.0354940436664 144.32249648346624 0 0 0 0 -64.369216411578236 -12.921554298336559 0 -12.921554298336559 83.541625136276707 0 0 0 0 -1.2145687534251692 -1.6975306399288286 0 -1.6975306399288286 1.4528696659416482 0 0 0 0 225.0689152853156 -94.068051977956202 0 -94.068051977956202 -16.663207660283661 0 0 0 0 191.9528786206065 -168.8488216503174 0 -168.8488216503174 128.28443831264303 0 0 0 0 372.09449207348734 -165.58090894280758 0 -165.58090894280758 122.40186205175996 0 0 0 0 463.50312728407334 -118.60922033642055 0 -118.60922033642055 80.171708512192708 0 0 0 0 334.55571107322248 -13.358914585594903 0 -13.358914585594903 47.963135947982664 0 0 0 0 24.974460939389246 -33.84405802431138 0 -33.84405802431138 225.62979645873565 0 0 0 0 -39.986154920192348 -24.555195594541146 0 -24.555195594541146 122.43879753573128 0 0 0 0 710.05540927955371 -205.5057990996429 0 -205.5057990996429 -11.620437419267546 0 0 0 0 475.65048910874992 -214.95815415079551 0 -214.95815415079551 226.74981212118291 0 0 0 0 655.71034613022493 370.91833789387238 0 370.91833789387238 -102.91139715345344 0 0 0 0 957.86838429420823 -332.49615367095976 0 -332.49615367095976 -91.751172721167677 0 0 0 0 2.4655275945558941 0.65167825694260273 0 0.65167825694260273 -4.1045731525502447 0 0 0 0 481.80105192564758 39.922591180921927 0 39.922591180921927 -180.40534945111722 0 0 0 0 559.72662000876153 -282.66941775451414 0 -282.66941775451414 -50.351087540206208 0 0 0 0 1252.3246759746835 -410.12019373667135 0 -410.12019373667135 26.463606900015293 0 0 0 0 1345.8654768874712 -497.91937446361044 0 -497.91937446361044 -135.93495409569005 0 0 0 0 3.1122318210137863 -0.83648914363314475 0 -0.83648914363314475 -8.3427056857084381 0 0 0 0 1301.9020468358722 -382.73364161334757 0 -382.73364161334757 -113.47440502128666 0 0 0 0 1484.1233667064434 -362.99440834948825 0 -362.99440834948825 -398.37639438206679 0 0 0 0 1479.3670238422819 -601.73720050874545 0 -601.73720050874545 -198.1987853556202 0 0 0 0 1924.5921809348151 701.14099243574674 0 701.14099243574674 -183.79900616651867 0 0 0 0 1746.8823041612995 -410.84327965970442 0 -410.84327965970442 -429.72610796974914 0 0 0 0 2893.6883496285445 -69.219550331559731 0 -69.219550331559731 -351.76621271559998 0 0 0 0 2687.3811433346627 701.27986164445792 0 701.27986164445792 -208.58002981598838 0 0 0 0 1949.2284853551027 -1022.0352513131838 0 -1022.0352513131838 1.1174885378568433 0 0 0 0 1276.455640172032 -521.32985907300554 0 -521.32985907300554 -101.10438921845343 0 0 0 0 -53.38841388858782 -281.91511378625728 0 -281.91511378625728 -94.293614689318929 0 0 0 0 21.100274380306345 -16.904940756276119 0 -16.904940756276119 12.162547369370088 0 0 0 0 414.36903846830319 735.58667553798296 0 735.58667553798296 529.49968086241279 0 0 0 0 8.0544989338703061 -5.3049860035486205 0 -5.3049860035486205 5.9072296407163662 0 0 0 0 1379.7355020268878 1173.3542419519508 0 1173.3542419519508 491.56293813954107 0 0 0 0 -165.8316548974035 -161.44394128002023 0 -161.44394128002023 -0.29578747815685347 0 0 0 0 -106.63028293968091 -48.110828622999179 0 -48.110828622999179 -75.523673257426708 0 0 0 0 103.45407525533483 -202.35372371164704 0 -202.35372371164704 0.4048324826969934 0 0 0 0 417.73352673037698 180.17652899209497 0 180.17652899209497 10.990279394143727 0 0 0 0 -298.2818895376713 -162.93204970302759 0 -162.93204970302759 -0.2740631093038246 0 0 0 0 -2.3914751426119238 -0.19152285206979514 0 -0.19152285206979514 4.094197247946795 0 0 0 0 200.30465614747436 109.34292129060486 0 109.34292129060486 -9.9296968105627457 0 0 0 0 91.899549894153097 -60.533194807227119 0 -60.533194807227119 -13.437951923213404 0 0 0 0 -3.1689066185970205 16.316879123559374 0 16.316879123559374 -71.733033697979408 0 0 0 0 35.907730538883698 -145.75362289496115 0 -145.75362289496115 -139.10957765274725 0 0 0 0 26.487722763902127 -32.229187764162361 0 -32.229187764162361 -14.216688682514359 0 0 0 0 27.07364164476563 -23.505102227497275 0 -23.505102227497275 19.026531563017897 0 0 0 0 -52.418522478487034 -202.80523288727954 0 -202.80523288727954 -33.166483767112368 0 0 0 0 72.304936635682679 -17.740002662540064 0 -17.740002662540064 -47.195221481145381 0 0 0 0 66.687395981674854 16.411583854416676 0 16.411583854416676 1.2614895548394998 0 0 0 0 4.1048785318730694 -4.6459672740389522 0 -4.6459672740389522 5.0232926194218521 0 0 0 0 -250.1590859264993 -325.84656375684062 0 -325.84656375684062 -194.15536982049525 0 0 0 0 -298.62869483299698 -229.20060574420131 0 -229.20060574420131 -145.94231822172878 0 0 0 0 -284.05812023530098 -263.70249963067181 0 -263.70249963067181 -102.69925889090518 0 0 0 0 -337.75891482258203 -269.27173184444109 0 -269.27173184444109 -123.03150039202592 0 0 0 0 0.80081574762532171 -2.5416587430947004 0 -2.5416587430947004 4.2217720339735934 0 0 0 0 -316.10775869639474 -216.19984285368264 0 -216.19984285368264 -118.72894348044065 0 0 0 0 -333.12986697425458 -240.98801893348354 0 -240.98801893348354 0.014207116444595158 0 0 0 0 -284.46572588660467 -260.63778648199514 0 -260.63778648199514 -8.8617748190299608 0 0 0 0 -220.12916752974525 -296.01424720046634 0 -296.01424720046634 0.030337372626457953 0 0 0 0 -147.53215593181085 -240.5100556621619 0 -240.5100556621619 -6.6475159348337911 0 0 0 0 -176.66265445969202 -271.90008591979131 0 -271.90008591979131 -112.46483569977863 0 0 0 0 -153.93949611711741 -314.27535617283138 0 -314.27535617283138 -33.441411668980436 0 0 0 0 -325.73577316191637 -460.24291820757549 0 -460.24291820757549 -82.40961799598881 0 0 0 0 -327.47813912538521 -518.29469613414631 0 -518.29469613414631 -249.38664001997677 0 0 0 0 -47.652413548681579 -301.29159093945054 0 -301.29159093945054 -0.34437451732171886 0 0 0 0 -9.9105133841480892 -124.23196522482976 0 -124.23196522482976 53.014594381005736 0 0 0 0 -1434.2605376548981 -920.61522539611906 0 -920.61522539611906 -142.79915422142949 0 0 0 0 307.08314890270594 -432.06687889593013 0 -432.06687889593013 -83.734947160538923 0 0 0 0 -0.82818077045209293 0.16812594945565706 0 0.16812594945565706 -0.64834288214672142 0 0 0 0 824.96442025083252 48.555965626859688 0 48.555965626859688 -110.32591914691147 0 0 0 0 53.242889592012943 -64.526920960066491 0 -64.526920960066491 95.947264540627657 0 0 0 0 328.25794506806233 -63.70960413870489 0 -63.70960413870489 -242.77289742547146 0 0 0 0 114.80692452767721 -323.98125358382185 0 -323.98125358382185 -136.60778545241919 0 0 0 0 45.840716638718732 -276.91218187128834 0 -276.91218187128834 -629.86448548703629 0 0 0 0 -331.53294410586477 -220.11293646811828 0 -220.11293646811828 -98.311004848823359 0 0 0 0 -69.166881539356837 -188.52679335637731 0 -188.52679335637731 -57.063538447051542 0 0 0 0 -230.04669776034848 -323.58543729286976 0 -323.58543729286976 -285.28369247699447 0 0 0 0 -256.86097175411896 -345.49370768188965 0 -345.49370768188965 -72.967687299904355 0 0 0 0 -242.39865939737683 -496.16193360077887 0 -496.16193360077887 -364.66108607462957 0 0 0 0 -63.087514528061547 -182.01503412448801 0 -182.01503412448801 -252.34819369090292 0 0 0 0 2.1621683020557612 -31.428475311433431 0 -31.428475311433431 14.634214688179782 0 0 0 0 3.5271995410381063 -15.356469022189856 0 -15.356469022189856 15.696459459340986 0 0 0 0 -1.3082724832111126 -35.613856910844333 0 -35.613856910844333 11.073663704679348 0 0 0 0 -24.9116398857268 -30.377837552514393 0 -30.377837552514393 24.763143802119885 0 0 0 0 3.7584928426468878 -35.172448920391616 0 -35.172448920391616 10.726839768816717 0 0 0 0 -187.52341740316842 -94.353938977474172 0 -94.353938977474172 19.926827719189532 0 0 0 0 318.03783889541592 -17.139700772386277 0 -17.139700772386277 16.697357571948487 0 0 0 0 102.16252492980129 -333.91390581270389 0 -333.91390581270389 429.50000222085509 0 0 0 0 -0.61258659877516841 -3.4589567900076759 0 -3.4589567900076759 9.3200103502988441 0 0 0 0 -18.291624935806112 49.177117311488473 0 49.177117311488473 326.58850303664804 0 0 0 0 -3.347947626794177 -7.8090691486829655 0 -7.8090691486829655 -0.30749646705808686 0 0 0 0 -79.304361736774581 -276.95801599599508 0 -276.95801599599508 -715.7343898484105 0 0 0 0 -39.411180230177706 -7.4259316907846369 0 -7.4259316907846369 9.779472528010956 0 0 0 0 -80.073295140158734 -586.50728267247905 0 -586.50728267247905 -442.77461248474719 0 0 0 0 -158.07199005242228 -508.5266992591005 0 -508.5266992591005 -220.17834349302575 0 0 0 0 165.02691888142544 -184.61121220735367 0 -184.61121220735367 -314.6456850659597 0 0 0 0 -270.16064432226813 -471.15501462677094 0 -471.15501462677094 -99.103024710086174 0 0 0 0 86.535484769316099 -212.09580343717244 0 -212.09580343717244 -75.490676689363681 0 0 0 0 -78.077849273329775 -141.37592893966939 0 -141.37592893966939 297.54810096131405 0 0 0 0 -13.336846363191398 -98.98767516209773 0 -98.98767516209773 46.132735674385913 0 0 0 0 142.48792775705078 29.569106245180592 0 29.569106245180592 -30.900856492808089 0 0 0 0 27.495590301183256 86.010308485092537 0 86.010308485092537 876.77356719860109 0 0 0 0 -0.28469359315658949 -665.39263339703393 0 -665.39263339703393 -642.54560745452181 0 0 0 0 -79.726215856364206 -161.69652945954294 0 -161.69652945954294 49.707063283392927 0 0 0 0 134.86770916904425 -91.873506646734313 0 -91.873506646734313 -247.4323923651973 0 0 0 0 187.61157037709836 34.069100428241654 0 34.069100428241654 -156.16659306178917 0 0 0 0 22.559200489567957 -138.99410273661488 0 -138.99410273661488 51.97391496722139 0 0 0 0 82.552547569328908 -157.83674043589781 0 -157.83674043589781 -265.91575207575806 0 0 0 0 49.504296602898833 -42.208179131601923 0 -42.208179131601923 23.772618399246397 0 0 0 0 32.810842153030535 -93.039094204126741 0 -93.039094204126741 -42.488744519898319 0 0 0 0 39.008876026278813 -94.585126638659858 0 -94.585126638659858 -103.36279182611906 0 0 0 0 3.2057107374776024 -84.036712186367367 0 -84.036712186367367 1.9814136443019379 0 0 0 0 95.803223361086566 -140.27146140096738 0 -140.27146140096738 -298.81675626531069 0 0 0 0 39.978204919411787 -50.544542257629359 0 -50.544542257629359 25.658278954267445 0 0 0 0 70.324729223721192 -44.309015319383249 0 -44.309015319383249 8.2079432662840759 0 0 0 0 -0.24099269759177488 -22.402209152452372 0 -22.402209152452372 14.518070402338623 0 0 0 0 79.072857325837504 -91.936855579493567 0 -91.936855579493567 -167.27654675510712 0 0 0 0 17.54750255836143 -49.862020794440468 0 -49.862020794440468 -30.206306525564287 0 0 0 0 -0.53770934373369528 -62.738195458674454 0 -62.738195458674454 39.752763961674646 0 0 0 0 -15.269116426199616 -276.46173401066335 0 -276.46173401066335 130.75753385465941 0 0 0 0 72.147404478659155 -246.18059181448189 0 -246.18059181448189 -150.00113859865814 0 0 0 0 -233.11817597667687 -969.63473739667097 0 -969.63473739667097 623.95116739142395 0 0 0 0 847.28807359736675 651.23435376497218 0 651.23435376497218 -306.3843181283446 0 0 0 0 4.1546312957852933 -127.23757059130003 0 -127.23757059130003 -149.98030612833099 0 0 0 0 -304.62409953799215 -249.58855150088493 0 -249.58855150088493 -365.63596234138822 0 0 0 0 -527.55258196975774 -419.45629106351407 0 -419.45629106351407 -490.13070212623279 0 0 0 0 -283.74379529446742 -255.96074960028636 0 -255.96074960028636 -731.99350277302437 0 0 0 0 -276.297372919395 -427.43453538807444 0 -427.43453538807444 -589.67839432880282 0 0 0 0 -304.89882750304241 -303.20291161788919 0 -303.20291161788919 -455.58691681576965 0 0 0 0 -538.85555597364805 -566.55588594462597 0 -566.55588594462597 -717.69490932283225 0 0 0 0 -3.6905751378401277 -1.0614893898088269 0 -1.0614893898088269 3.4693975242555553 0 0 0 0 -295.02513207691663 -472.53677071169659 0 -472.53677071169659 -766.83176146361075 0 0 0 0 -351.51369061516743 -499.23837464480312 0 -499.23837464480312 -776.37993919306609 0 0 0 0 -284.25929849834938 -530.141357647939 0 -530.141357647939 -921.44664136462961 0 0 0 0 -407.42852539114392 -435.2213752976968 0 -435.2213752976968 -645.58313678776904 0 0 0 0 -11.006222337421988 -7.8953959112056395 0 -7.8953959112056395 3.7400342094867653 0 0 0 0 -370.65445458797058 -412.02014220694764 0 -412.02014220694764 -887.58100760891102 0 0 0 0 96.434936476211988 -174.48395119523047 0 -174.48395119523047 -1016.1792083028704 0 0 0 0 2.2636373751019523 1.3314628696754909 0 1.3314628696754909 -1.3080747637086461 0 0 0 0 -400.79097357633873 -621.59905610390706 0 -621.59905610390706 -699.36491704444052 0 0 0 0 9.8203659059017312 -9.2645986725667058 0 -9.2645986725667058 3.6975004924925088 0 0 0 0 -88.67656534814887 -278.1123758845788 0 -278.1123758845788 -448.3945607242058 0 0 0 0 9.8671297891050926 -11.807708711494342 0 -11.807708711494342 -7.512213057372719 0 0 0 0 28.775336500125377 -14.694680861044617 0 -14.694680861044617 -51.762783830898115 0 0 0 0 12.657477799406479 -45.536674615068478 0 -45.536674615068478 -54.97974795508344 0 0 0 0 83.208132753783502 92.195223074028036 0 92.195223074028036 45.985619147570105 0 0 0 0 -352.1107740628504 -270.84646395103482 0 -270.84646395103482 -152.91772759483138 0 0 0 0 2.2125185232673488 -3.1299733242891818 0 -3.1299733242891818 2.1468793737772671 0 0 0 0 -10.847617678635288 -258.47012356772029 0 -258.47012356772029 -1029.0341072812444 0 0 0 0 65.329792876917054 -415.02917209855514 0 -415.02917209855514 -642.00162518452271 0 0 0 0 -156.74587959225755 -485.16912695745123 0 -485.16912695745123 -552.78046394613921 0 0 0 0 854.74592312097957 -411.53735617626808 0 -411.53735617626808 -615.55739893193822 0 0 0 0 -8.1415771412903268 -548.65496269495634 0 -548.65496269495634 -564.92110123005114 0 0 0 0 310.72468993449002 493.16530840266205 0 493.16530840266205 2.8112638067977969 0 0 0 0 1335.0682716616557 361.7829261273946 0 361.7829261273946 -608.75107900268631 0 0 0 0 -395.81402453070405 -141.43040671413473 0 -141.43040671413473 18.271177579532377 0 0 0 0 -211.37325792651291 -361.43984846594503 0 -361.43984846594503 -326.24359357386129 0 0 0 0 -0.16899185063901356 0.32445111735775356 0 0.32445111735775356 -2.5493920606660936 0 0 0 0 -1156.4477453694199 -1078.3528218680731 0 -1078.3528218680731 -440.37564130934334 0 0 0 0 -742.694498543382 -396.63153627277643 0 -396.63153627277643 -186.88709285289224 0 0 0 0 2.2742363483046812 -3.5123339169773686 0 -3.5123339169773686 -6.5632290014554542 0 0 0 0 432.566697045404 -137.93930455889495 0 -137.93930455889495 -95.602830337942578 0 0 0 0 -174.55815328924837 -361.89518793232855 0 -361.89518793232855 -332.10802398550004 0 0 0 0 -0.81281681298415265 -1.9304894001515152 0 -1.9304894001515152 3.2574410670841871 0 0 0 0 463.86395101855305 -377.11163876167848 0 -377.11163876167848 -219.19389066322765 0 0 0 0 -425.22349322454829 -441.92227772824117 0 -441.92227772824117 -243.13456240631058 0 0 0 0 -422.1684555414613 -460.30956628886634 0 -460.30956628886634 -419.87296736607095 0 0 0 0 -520.06115151306949 -523.96306595519127 0 -523.96306595519127 -450.36919473033049 0 0 0 0 -468.5321442089662 -326.40703419102647 0 -326.40703419102647 -492.08373537741136 0 0 0 0 -327.79773314082195 -512.3890368370121 0 -512.3890368370121 -354.67865049500142 0 0 0 0 -1.502526479686118 -2.8849413206307304 0 -2.8849413206307304 4.3668407012550574 0 0 0 0 -630.7618801555509 -637.20386456073902 0 -637.20386456073902 -328.9250135892762 0 0 0 0 -401.5913500830975 -689.06120068462042 0 -689.06120068462042 -774.91351552779088 0 0 0 0 -1322.4268518369609 -903.42814896232085 0 -903.42814896232085 -453.9665011427569 0 0 0 0 -694.0508566599492 -464.12782636746124 0 -464.12782636746124 -403.48241434407828 0 0 0 0 -793.72416766178139 -633.94053592451382 0 -633.94053592451382 -314.07858309372386 0 0 0 0 0.51417049740596354 -5.1052032907311968 0 -5.1052032907311968 4.7021843677300694 0 0 0 0 -577.2634161448841 -523.96435343503254 0 -523.96435343503254 -430.94080062647845 0 0 0 0 -577.03408555991678 -529.74087014752149 0 -529.74087014752149 -288.06916958099464 0 0 0 0 -159.02320529889403 -403.28346028359374 0 -403.28346028359374 -275.87664243822292 0 0 0 0 -566.28824789426471 -463.43937422828458 0 -463.43937422828458 -283.88498621387407 0 0 0 0 -999.09088852030254 -889.85233467324724 0 -889.85233467324724 -127.26832542607735 0 0 0 0 -258.3327576613774 -674.92925246512459 0 -674.92925246512459 -275.59486072155414 0 0 0 0 -237.68297044232168 55.069011805753689 0 55.069011805753689 -144.35513259406434 0 0 0 0 -397.58176291096606 -617.74928571128112 0 -617.74928571128112 -170.29408815562783 0 0 0 0 -466.2601528977757 -508.86941451636085 0 -508.86941451636085 -329.6285811390153 0 0 0 0 -367.17609590042412 -620.65414153544407 0 -620.65414153544407 -305.2525999551508 0 0 0 0 -555.60081921990786 -591.28130476812657 0 -591.28130476812657 -277.91065523333964 0 0 0 0 -359.91551790749872 -613.9908544052887 0 -613.9908544052887 -311.76492359605618 0 0 0 0 1.4951350941901254 -3.3206438275540648 0 -3.3206438275540648 -4.4614855431034925 0 0 0 0 -485.66091694587703 -498.55267893981363 0 -498.55267893981363 -356.56293903374171 0 0 0 0 -649.67800136018013 -514.43962667545566 0 -514.43962667545566 -224.6449531186372 0 0 0 0 -1210.0791640536481 -588.63644271832527 0 -588.63644271832527 -121.78022061579395 0 0 0 0 -758.18255331659748 -415.88433723308844 0 -415.88433723308844 -204.9427495198106 0 0 0 0 -18.373482696631982 -708.65174256738828 0 -708.65174256738828 -277.8298195739626 0 0 0 0 -414.9569147269176 -714.3824336480684 0 -714.3824336480684 -240.16426534112543 0 0 0 0 -524.3493379026404 -560.55491656020604 0 -560.55491656020604 166.42665183945792 0 0 0 0 -755.80322535738014 -522.73917799479386 0 -522.73917799479386 0.16913758754347441 0 0 0 0 -518.86741263509202 -566.71984777984107 0 -566.71984777984107 -162.58456934487913 0 0 0 0 -909.1834970525415 -872.9152537817863 0 -872.9152537817863 -386.45261826146452 0 0 0 0 -1383.0934334482881 -652.72663062084757 0 -652.72663062084757 74.462933190603508 0 0 0 0 -778.19875392754147 -341.1319746795125 0 -341.1319746795125 -304.3247220977064 0 0 0 0 -1.452792362021242 -1.6505985303570299 0 -1.6505985303570299 4.1439888395976823 0 0 0 0 99.409910560440039 -415.33853436470963 0 -415.33853436470963 -351.27025110390969 0 0 0 0 -330.88745220295823 -487.31297246125177 0 -487.31297246125177 -0.26109094971616287 0 0 0 0 -676.5432655085533 -627.44023699832906 0 -627.44023699832906 -12.794528129306855 0 0 0 0 -878.7032038244979 -500.45941192035025 0 -500.45941192035025 0.31603380433807615 0 0 0 0 -443.83363379088405 -234.30859051219159 0 -234.30859051219159 -21.340620550734457 0 0 0 0 -607.99138897317971 -586.11052471122093 0 -586.11052471122093 41.365398503279721 0 0 0 0 -311.39352449174476 -248.49941805695562 0 -248.49941805695562 213.27730868250364 0 0 0 0 -157.40424617743338 -514.15529749328562 0 -514.15529749328562 0.0059895087324548513 0 0 0 0 333.77587844361915 -255.77861235343153 0 -255.77861235343153 -56.625096911622677 0 0 0 0 769.34401437784254 -475.59725638162126 0 -475.59725638162126 -0.0061222106742206961 0 0 0 0 0.65614520969068479 0.33190992714866496 0 0.33190992714866496 -2.420431372798987 0 0 0 0 -92.153292628499912 -448.0130317244475 0 -448.0130317244475 109.4208757386441 0 0 0 0 335.29913160048454 -276.5798960648317 0 -276.5798960648317 195.73779296895373 0 0 0 0 503.71255829805887 -230.6269714821974 0 -230.6269714821974 135.11580587300705 0 0 0 0 435.65931955274027 -467.12306700527188 0 -467.12306700527188 456.29555148328654 0 0 0 0 -3.4439487977953576 -5.4192182749237077 0 -5.4192182749237077 3.5823640050604126 0 0 0 0 -242.05871438480244 -340.97973137504596 0 -340.97973137504596 688.84447074464697 0 0 0 0 -254.87428102202648 -138.21316638284043 0 -138.21316638284043 -58.908249955391511 0 0 0 0 -1.2020532104442978 -3.6146184178842518 0 -3.6146184178842518 -1.1940863006174141 0 0 0 0 442.144492654239 -424.46379070380499 0 -424.46379070380499 161.07819155945799 0 0 0 0 -4.0416371496248757 -17.379161986944382 0 -17.379161986944382 -5.6068173645762727 0 0 0 0 -7.7869137595225766 -12.996206350486318 0 -12.996206350486318 4.0691318731987849 0 0 0 0 -5.176687497800657 -7.5260891020319605 0 -7.5260891020319605 8.0462970953915089 0 0 0 0 31.392051800183253 -138.86400451822556 0 -138.86400451822556 -88.9480361478345 0 0 0 0 -4.5208194493624632 -7.6557008173751129 0 -7.6557008173751129 0.62469177505221296 0 0 0 0 300.84994275723784 -721.82651437852292 0 -721.82651437852292 143.29527167385095 0 0 0 0 -511.40789873307949 -526.74426297235186 0 -526.74426297235186 165.81689986516722 0 0 0 0 445.89052023139811 149.67394084125408 0 149.67394084125408 101.37515872356016 0 0 0 0 -440.59635119335144 -568.5093639952247 0 -568.5093639952247 89.22123804941657 0 0 0 0 -447.46070853597485 -536.59858597186394 0 -536.59858597186394 -58.664668544952292 0 0 0 0 -512.5576619674539 -503.25924120163836 0 -503.25924120163836 91.984788402885897 0 0 0 0 -587.07773066317168 -1004.7267261404922 0 -1004.7267261404922 -258.52166163845686 0 0 0 0 -639.45244116216418 -764.087557166029 0 -764.087557166029 207.163073141317 0 0 0 0 -665.21632154670078 -652.7048643613598 0 -652.7048643613598 -270.61292954760938 0 0 0 0 -292.41462759693241 -619.55398205104575 0 -619.55398205104575 -31.038605209861998 0 0 0 0 -325.80483490388724 -521.98832028724064 0 -521.98832028724064 139.67102251129108 0 0 0 0 41.945619552505377 -328.53324127532687 0 -328.53324127532687 50.289507587964181 0 0 0 0 -253.31345505171703 -504.97709116189071 0 -504.97709116189071 0.34111523018509615 0 0 0 0 -370.1169646982562 -379.64783092272046 0 -379.64783092272046 -6.6834307479148265 0 0 0 0 -315.94314330620546 -510.16070133824542 0 -510.16070133824542 -11.790345241072373 0 0 0 0 -540.54543580404061 -500.06639077778891 0 -500.06639077778891 -0.28221555193886161 0 0 0 0 -1053.5045845651694 -164.72286536117463 0 -164.72286536117463 65.468363534644595 0 0 0 0 -273.96752765162091 -169.65541552426293 0 -169.65541552426293 53.478164434325663 0 0 0 0 -97.546266112978628 -51.104776904481696 0 -51.104776904481696 -21.122180480655516 0 0 0 0 -166.61020417618965 -219.03091214647429 0 -219.03091214647429 -156.54301982198376 0 0 0 0 -59.712799001565145 -103.01061534471228 0 -103.01061534471228 -91.102640866323782 0 0 0 0 -152.5598722799914 -328.05260779403034 0 -328.05260779403034 -212.43699075232144 0 0 0 0 -27.388262437918456 -151.81187089023297 0 -151.81187089023297 -352.69875511805731 0 0 0 0 -437.16069028879065 -374.99416047342311 0 -374.99416047342311 -96.300353232189082 0 0 0 0 -131.15587416357448 -268.56975694274297 0 -268.56975694274297 -88.427242602556362 0 0 0 0 -221.99579518149403 -635.03739901383233 0 -635.03739901383233 -142.50793684468954 0 0 0 0 -292.62836624874035 -526.37945565172413 0 -526.37945565172413 -104.98369188222568 0 0 0 0 -112.09362160505407 -424.30239578742476 0 -424.30239578742476 -499.33350744278869 0 0 0 0 -84.289943948271684 -416.88253164784692 0 -416.88253164784692 -505.31295691996638 0 0 0 0 -113.97803594582729 -310.88734781902167 0 -310.88734781902167 -881.55602144933073 0 0 0 0 -274.650130390306 -263.07077278749784 0 -263.07077278749784 -718.73182930442272 0 0 0 0 -467.41073066927675 -805.7928823158054 0 -805.7928823158054 -1115.8383292864019 0 0 0 0 63.777779350741184 -429.82699939170561 0 -429.82699939170561 60.901596560841426 0 0 0 0 -428.39457402425614 -860.18349972346914 0 -860.18349972346914 175.50171562764444 0 0 0 0 -197.02726531306689 -763.99874189113325 0 -763.99874189113325 -777.13705806494545 0 0 0 0 245.2617739747584 -524.50259708688827 0 -524.50259708688827 936.85667929528427 0 0 0 0 -158.63508891086349 -260.34724208220359 0 -260.34724208220359 -298.07663779384166 0 0 0 0 27.109153062890982 -81.408482139595435 0 -81.408482139595435 1401.1924505048082 0 0 0 0 -6.2831163093679834 -6.1050420936843466 0 -6.1050420936843466 1.2859753200972932 0 0 0 0 0.62304103410852463 -4.5418056441258443 0 -4.5418056441258443 -0.791534097000266 0 0 0 0 -21.812708341662074 20.461716943682404 0 20.461716943682404 -23.142728235397954 0 0 0 0 -92.84373681890429 -271.67933090885344 0 -271.67933090885344 -835.8306142554211 0 0 0 0 -54.388520356529625 33.946912166786205 0 33.946912166786205 28.316316368116532 0 0 0 0 -56.17423780921672 -128.39105027967889 0 -128.39105027967889 -253.76130065068719 0 0 0 0 12.757738199125015 11.667829359657844 0 11.667829359657844 20.591620266350219 0 0 0 0 1.1672871168266283 -16.742390322338906 0 -16.742390322338906 27.601474121649517 0 0 0 0 42.960439177084481 -97.119270810115268 0 -97.119270810115268 -613.7799638924771 0 0 0 0 33.391031251943787 -39.188205651349563 0 -39.188205651349563 29.816722680523526 0 0 0 0 -47.451143635727931 -346.2829874039453 0 -346.2829874039453 490.58349496225128 0 0 0 0 -12.680293423887491 -9.0305964934823066 0 -9.0305964934823066 -0.93181975876404977 0 0 0 0 -13.845372579050206 -14.475714442577669 0 -14.475714442577669 12.802326399721437 0 0 0 0 -51.202767313596269 24.574466285892413 0 24.574466285892413 54.661909856571583 0 0 0 0 82.758808771031909 -6.6432704021135578 0 -6.6432704021135578 -26.742935112764826 0 0 0 0 94.402754641399952 -10.158846022328362 0 -10.158846022328362 -129.46146525734366 0 0 0 0 75.717305684405801 82.548421688994495 0 82.548421688994495 -86.165223380347015 0 0 0 0 68.887741332087899 91.297464039365877 0 91.297464039365877 31.967362066570786 0 0 0 0 1.4373773282989646 -5.0464185014225791 0 -5.0464185014225791 3.9875330050296149 0 0 0 0 -12.485885049539405 -10.71544367117508 0 -10.71544367117508 13.669066873905138 0 0 0 0 -302.32981843267044 -152.02810764620153 0 -152.02810764620153 25.175557716516778 0 0 0 0 -11.354978550873057 -14.915258996988996 0 -14.915258996988996 8.127616472702357 0 0 0 0 -2.5577563497077165 -7.2879782131191746 0 -7.2879782131191746 6.3428061724596319 0 0 0 0 -8.1793551604567085 -12.044769255223002 0 -12.044769255223002 2.3882342404572938 0 0 0 0 -827.95026935813803 -786.38683719124674 0 -786.38683719124674 -552.26803641984588 0 0 0 0 -149.58519565656024 -110.56647515630175 0 -110.56647515630175 -158.40338624246942 0 0 0 0 -850.85341218539907 -736.54199618465282 0 -736.54199618465282 -500.95770501243533 0 0 0 0 -531.66894734876405 -775.04213420880842 0 -775.04213420880842 -621.07493696712481 0 0 0 0 -509.4419072334058 -731.95407057677221 0 -731.95407057677221 -592.53733872540761 0 0 0 0 -216.23736125908181 -856.83928765382734 0 -856.83928765382734 -743.03856577925035 0 0 0 0 -3.4264508134037897 -6.433980378069009 0 -6.433980378069009 -4.1070714590709372 0 0 0 0 -394.00084679582869 -69.851881094164128 0 -69.851881094164128 95.03223678409995 0 0 0 0 119.06270378065528 -378.82393175506149 0 -378.82393175506149 -553.33995927182332 0 0 0 0 -222.7080596536689 -806.31821745620255 0 -806.31821745620255 -1015.8890320324426 0 0 0 0 84.498212078924553 -182.54941413789675 0 -182.54941413789675 -191.36339025187772 0 0 0 0 -7.2928611952229403 -501.15804127266165 0 -501.15804127266165 517.47258582001086 0 0 0 0 -55.413570045755478 -228.67555946839275 0 -228.67555946839275 259.30757075635483 0 0 0 0 141.87126558713499 -543.23615161071939 0 -543.23615161071939 -263.70066959224641 0 0 0 0 39.105298702124855 -625.8588845897757 0 -625.8588845897757 -474.72828545731318 0 0 0 0 -72.465570820248104 -527.26286385448475 0 -527.26286385448475 -550.22215611016145 0 0 0 0 34.599974169599591 -591.31273749272805 0 -591.31273749272805 -686.74168684583856 0 0 0 0 -55.344245370564749 -576.39341102584149 0 -576.39341102584149 -524.32119030150352 0 0 0 0 99.76871923265935 -425.0696930419108 0 -425.0696930419108 -440.07065211643931 0 0 0 0 237.45318302574742 -320.15988900046796 0 -320.15988900046796 -578.75045788745047 0 0 0 0 127.13616097041813 -515.52497332339408 0 -515.52497332339408 -389.84985244131531 0 0 0 0 97.074273415288189 -329.65344212003401 0 -329.65344212003401 -548.2028576072189 0 0 0 0 247.16438118697261 -321.25787423222209 0 -321.25787423222209 -107.84263997562812 0 0 0 0 138.23960511670896 -303.78538881137285 0 -303.78538881137285 -110.50064923614264 0 0 0 0 403.75920890818452 -674.63530744981108 0 -674.63530744981108 368.49999233550625 0 0 0 0 -315.92620896563312 -980.57080167805543 0 -980.57080167805543 -701.8795390790292 0 0 0 0 -695.81872018399736 -441.90702737175161 0 -441.90702737175161 -597.94399665045057 0 0 0 0 -404.21516507096385 -779.20267848782532 0 -779.20267848782532 -343.21478819978802 0 0 0 0 296.42555482394891 -376.19595757264324 0 -376.19595757264324 -916.78537376580061 0 0 0 0 -1.0253188683242342 -1.9145628943888084 0 -1.9145628943888084 2.7807030553033769 0 0 0 0 -356.45979124615587 -897.88770795740493 0 -897.88770795740493 -491.56122707680333 0 0 0 0 -994.46295818434737 -268.09693618208985 0 -268.09693618208985 -1363.9963140603504 0 0 0 0 -786.79466622027394 -1474.7384971046704 0 -1474.7384971046704 -1228.0006756537186 0 0 0 0 16.044487679351732 -68.673323096481909 0 -68.673323096481909 -311.47594563872553 0 0 0 0 -1773.7546413686796 -1070.3647764862981 0 -1070.3647764862981 -154.44911487502759 0 0 0 0 -1013.4521682060949 355.99978960606677 0 355.99978960606677 462.90530037347344 0 0 0 0 63.195427113620099 -978.12140418501804 0 -978.12140418501804 -2598.2801219673347 0 0 0 0 -6.603941688795345 -5.8769262046774315 0 -5.8769262046774315 1.9122896249709065 0 0 0 0 -1.2298098066400485 -13.733952013453717 0 -13.733952013453717 -3.2871016693503705 0 0 0 0 -6.5343565972725628 -8.1346421761845704 0 -8.1346421761845704 10.778092208609451 0 0 0 0 -292.79195050669659 -608.91679547991953 0 -608.91679547991953 -671.74392598933628 0 0 0 0 -0.65474404567794409 -10.829817764650215 0 -10.829817764650215 -2.2828709138120757 0 0 0 0 -233.41957233228095 -716.49894345600114 0 -716.49894345600114 -908.68684002620284 0 0 0 0 -584.82373542125424 -791.42554130053031 0 -791.42554130053031 -698.40155462472467 0 0 0 0 -1410.8645621813521 -1264.4795137763722 0 -1264.4795137763722 -914.25669775041752 0 0 0 0 -601.46799852497497 -839.41470861884591 0 -839.41470861884591 -788.50185190638877 0 0 0 0 -906.76324918714818 -793.61432817754394 0 -793.61432817754394 -645.07724220263481 0 0 0 0 -621.33556670146936 -758.81701870969846 0 -758.81701870969846 -753.25321448646719 0 0 0 0 -579.68606862110028 -679.87387592006417 0 -679.87387592006417 -612.20801569733885 0 0 0 0 -500.25298154367192 -827.90412025240948 0 -827.90412025240948 -736.68950797121943 0 0 0 0 -400.00179498832586 -712.80645546448795 0 -712.80645546448795 -992.4289103046176 0 0 0 0 -605.76821486978588 -678.23547205050272 0 -678.23547205050272 -647.00668531823612 0 0 0 0 -721.70374395431645 -536.68026094705783 0 -536.68026094705783 -819.84175891240011 0 0 0 0 -565.16944287440856 -652.33567269657215 0 -652.33567269657215 -706.96494096204697 0 0 0 0 -555.04977310959657 -672.26448956171953 0 -672.26448956171953 -672.00704837075318 0 0 0 0 -479.20734146375617 -580.88658291571483 0 -580.88658291571483 -650.03177949938254 0 0 0 0 -455.82350846302143 -581.60358518309658 0 -581.60358518309658 -672.18906337380758 0 0 0 0 -616.35247378341592 -633.65008514118381 0 -633.65008514118381 -668.54897045414691 0 0 0 0 -411.54093818464025 -531.59007834503427 0 -531.59007834503427 -664.34292929980438 0 0 0 0 -531.98412709100921 -483.18180805047814 0 -483.18180805047814 -606.63597726222361 0 0 0 0 -264.30349454591214 -510.74051218366185 0 -510.74051218366185 -663.96449226458208 0 0 0 0 -412.49431895051384 -534.84103120093641 0 -534.84103120093641 -550.14135743089719 0 0 0 0 -424.36550082128088 -481.51341981984297 0 -481.51341981984297 -688.44572908496775 0 0 0 0 -452.81236355405417 -527.28691332288145 0 -527.28691332288145 -593.42018448063754 0 0 0 0 -389.67756475509668 -490.17811073421035 0 -490.17811073421035 -706.72042077186052 0 0 0 0 -485.24698686383942 -784.70726027974001 0 -784.70726027974001 -1024.9608053528063 0 0 0 0 -477.09727248611239 -552.29059340796084 0 -552.29059340796084 -627.0359413868573 0 0 0 0 -286.49817615860957 -476.0876660686481 0 -476.0876660686481 -490.50039893158828 0 0 0 0 -341.2311828344682 -424.63816117536044 0 -424.63816117536044 -523.83857795987569 0 0 0 0 -217.34536526501142 -142.39361850366186 0 -142.39361850366186 139.82590676873224 0 0 0 0 -2.2642455150062801 -2.901701316368019 0 -2.901701316368019 3.0389266692295109 0 0 0 0 119.09569502064551 -321.53316012414871 0 -321.53316012414871 -255.76089075076015 0 0 0 0 -16.794643866324733 -18.461155192445915 0 -18.461155192445915 13.950815587743733 0 0 0 0 -111.58389512270514 -100.36882338137366 0 -100.36882338137366 -139.47461118892534 0 0 0 0 -296.73310860968195 -311.96149454254191 0 -311.96149454254191 -306.95164331566775 0 0 0 0 -360.89836880454095 -452.0954641062126 0 -452.0954641062126 -374.25730507285334 0 0 0 0 -276.77162716162275 -227.37315429377486 0 -227.37315429377486 -322.60844426491531 0 0 0 0 31.899121696857037 -95.660781871061772 0 -95.660781871061772 -205.8719733437174 0 0 0 0 -211.93688437380479 -493.98634611492162 0 -493.98634611492162 -751.18385665823007 0 0 0 0 -94.151005389750935 -275.36831271542178 0 -275.36831271542178 -541.49144107836764 0 0 0 0 -276.01403628971457 -447.80460696365662 0 -447.80460696365662 -604.60054831113666 0 0 0 0 -362.76795239749481 -504.8578527723439 0 -504.8578527723439 -557.49044730555033 0 0 0 0 -314.71493960217413 -545.31348568425892 0 -545.31348568425892 -651.30589279028936 0 0 0 0 -407.65990558588237 -548.78092965084943 0 -548.78092965084943 -583.32442295978399 0 0 0 0 -265.036929656133 -433.74443193759362 0 -433.74443193759362 -548.33462900621817 0 0 0 0 -353.49257055035559 -544.49556667865545 0 -544.49556667865545 -660.18812306114705 0 0 0 0 -455.51047192277474 -631.31335853076598 0 -631.31335853076598 -657.58632943953853 0 0 0 0 -463.28813765970699 -624.14528244303074 0 -624.14528244303074 -662.19613530645438 0 0 0 0 -444.10269890759082 -637.83254319443949 0 -637.83254319443949 -698.17191681087206 0 0 0 0 -555.12164688193297 -710.34298544888588 0 -710.34298544888588 -692.05289993871702 0 0 0 0 -614.7964242399903 -689.93442841824435 0 -689.93442841824435 -648.69721326659055 0 0 0 0 -567.44439991250783 -727.39817377125109 0 -727.39817377125109 -812.10113342286786 0 0 0 0 -570.58179415934865 -743.76531238964344 0 -743.76531238964344 -785.76477048115339 0 0 0 0 -588.03868260715535 -726.78151115775108 0 -726.78151115775108 -811.1327254937496 0 0 0 0 -339.0217368251615 -472.82211596809793 0 -472.82211596809793 -724.72612844684045 0 0 0 0 -322.74766800571524 -521.00830003381998 0 -521.00830003381998 -909.54486598657968 0 0 0 0 -447.53232561411278 -634.99154882364383 0 -634.99154882364383 -689.33502300115651 0 0 0 0 -281.76150268713536 -461.09090106270742 0 -461.09090106270742 -740.10180806974677 0 0 0 0 -19.06162793746455 -20.109273502684687 0 -20.109273502684687 19.389624303687555 0 0 0 0 -4.4308935150584148 -65.550130554263887 0 -65.550130554263887 179.12092213638243 0 0 0 0 -296.32541662394942 -488.6167126774817 0 -488.6167126774817 -745.50484151756245 0 0 0 0 -1.6162405003517222 -6.8393528337280713 0 -6.8393528337280713 -2.6621112585526419 0 0 0 0 -423.64554678484274 -804.4671690305986 0 -804.4671690305986 -1316.2960457753506 0 0 0 0 -6.8963518161343984 -4.4083495192272721 0 -4.4083495192272721 5.7276461995741101 0 0 0 0 -10.095313749852266 -16.053906480711191 0 -16.053906480711191 11.321734543083693 0 0 0 0 -501.10965849521745 -885.76800534746144 0 -885.76800534746144 -1319.9112578066615 0 0 0 0 -403.64997478582518 -674.46547655267932 0 -674.46547655267932 -1191.0916270956513 0 0 0 0 -489.31784958147909 -285.33769029844552 0 -285.33769029844552 0.14189713087398559 0 0 0 0 -31.565409858289058 62.361431735305814 0 62.361431735305814 666.92504885571543 0 0 0 0 -19.333162920418545 90.264869289283524 0 90.264869289283524 597.49055948198657 0 0 0 0 -41.784596979487105 -18.814602495316649 0 -18.814602495316649 562.56764251698769 0 0 0 0 42.260044241942524 20.572187977093563 0 20.572187977093563 602.3813633218524 0 0 0 0 -30.747810644155834 18.320884273111005 0 18.320884273111005 645.55571538198274 0 0 0 0 51.563211786058673 33.201148500142153 0 33.201148500142153 497.70692388307361 0 0 0 0 -19.769453276392596 118.70142868468247 0 118.70142868468247 424.98061754539958 0 0 0 0 24.925008618745778 184.48565315843007 0 184.48565315843007 505.14512873085914 0 0 0 0 -2.4720034066358494 65.773006402036117 0 65.773006402036117 891.89293502912915 0 0 0 0 296.40637129276001 315.5789989472396 0 315.5789989472396 462.59191365083097 0 0 0 0 57.25343710751622 574.84951639017527 0 574.84951639017527 1177.5427050017752 0 0 0 0 238.68775119387283 -55.372151966992533 0 -55.372151966992533 -295.51439887841116 0 0 0 0 -116.49246516937274 135.77237142730155 0 135.77237142730155 688.04944095450628 0 0 0 0 119.28892008537878 -265.20122494192401 0 -265.20122494192401 137.76380412507569 0 0 0 0 -35.470896381055354 235.43922622610989 0 235.43922622610989 163.13558033006848 0 0 0 0 -221.8716974584604 -72.097494631583686 0 -72.097494631583686 601.03588280675467 0 0 0 0 -90.096888262807624 -100.71747556613991 0 -100.71747556613991 -205.905661820143 0 0 0 0 -149.4757321337338 -455.00230669890516 0 -455.00230669890516 -756.29458302553394 0 0 0 0 -127.16957593034022 -387.48373336606892 0 -387.48373336606892 -686.66463155625388 0 0 0 0 54.227890021693383 -452.78589335033757 0 -452.78589335033757 -663.19071301142685 0 0 0 0 -17.267419929294192 -207.53263145260826 0 -207.53263145260826 -613.48652096762089 0 0 0 0 -100.58386689089821 -610.17348796209262 0 -610.17348796209262 -753.18735767167527 0 0 0 0 -315.14437449446996 -648.05672365946521 0 -648.05672365946521 -662.44312015592732 0 0 0 0 -366.94707166787703 -565.50246516428888 0 -565.50246516428888 -732.24308155868493 0 0 0 0 -262.07682947551075 -431.17210060718935 0 -431.17210060718935 -738.86448273873248 0 0 0 0 -361.28731126890125 -627.96432522420946 0 -627.96432522420946 -806.2868823108729 0 0 0 0 -436.23329920461401 -587.41560954887245 0 -587.41560954887245 -826.76741414552089 0 0 0 0 -596.06029671049328 -753.07117218271014 0 -753.07117218271014 -826.09839924499101 0 0 0 0 -572.3229717134891 -694.03841985268446 0 -694.03841985268446 -923.41399753728183 0 0 0 0 -629.81702972528001 -739.21219113000552 0 -739.21219113000552 -719.788251515507 0 0 0 0 -441.94629228769918 -677.21855398459593 0 -677.21855398459593 -811.02394426078536 0 0 0 0 -401.60277981386389 -719.71115687786732 0 -719.71115687786732 -766.36317188135581 0 0 0 0 -507.71800987780443 -705.61477393361565 0 -705.61477393361565 -678.20268250119989 0 0 0 0 -262.07701875807106 -705.3371022590436 0 -705.3371022590436 -689.26843533205101 0 0 0 0 -469.66615135509346 -789.59269073874748 0 -789.59269073874748 -610.91045274070348 0 0 0 0 -448.00379955596145 -752.51935351808788 0 -752.51935351808788 -722.05231594399083 0 0 0 0 -636.26452338420495 -783.19223968296137 0 -783.19223968296137 -601.69419335070415 0 0 0 0 -560.89330441893253 -714.51657024319866 0 -714.51657024319866 -654.73311536642723 0 0 0 0 -664.59706677241775 -736.30503572642192 0 -736.30503572642192 -668.92657550645526 0 0 0 0 -630.92725275970588 -748.6974503876263 0 -748.6974503876263 -665.96976932982943 0 0 0 0 -567.84414115736581 -748.42364941524283 0 -748.42364941524283 -834.9512257494498 0 0 0 0 -582.09538657296798 -797.4147390005819 0 -797.4147390005819 -996.02506451308727 0 0 0 0 -637.62200028191728 -744.46252053361968 0 -744.46252053361968 -834.94556722004927 0 0 0 0 -561.01315574036562 -773.64503124775365 0 -773.64503124775365 -1018.4323261020763 0 0 0 0 -569.35797639464727 -748.45261814733385 0 -748.45261814733385 -1023.9295969951345 0 0 0 0 -588.5391339869002 -839.88390649112625 0 -839.88390649112625 -1159.3167884428985 0 0 0 0 -641.79075327371538 -814.484123937611 0 -814.484123937611 -997.73503904388053 0 0 0 0 -597.49471557369725 -753.62677003985846 0 -753.62677003985846 -1172.8039568010136 0 0 0 0 -531.88210069169872 -857.96838724138797 0 -857.96838724138797 -1497.7159250977566 0 0 0 0 -647.31025118984689 -659.00262890468002 0 -659.00262890468002 -1390.1859433594509 0 0 0 0 -544.83100165869109 -800.19961421619519 0 -800.19961421619519 -1195.9781961005356 0 0 0 0 -699.28003382196766 -789.44492674979847 0 -789.44492674979847 -1179.4946704451868 0 0 0 0 197.5870688488867 107.98683945921221 0 107.98683945921221 611.19593542336952 0 0 0 0 35.726756526026293 -11.430899826285895 0 -11.430899826285895 657.72688080862281 0 0 0 0 71.335533066361677 -21.342624045500997 0 -21.342624045500997 628.92308672747458 0 0 0 0 -411.01478174990189 -681.0789588669868 0 -681.0789588669868 -1543.7806217741454 0 0 0 0 -205.2027733620198 -413.9773837577668 0 -413.9773837577668 -1254.4266299706651 0 0 0 0 -6.8609252806051018 -7.0471677819361958 0 -7.0471677819361958 8.0681445453288632 0 0 0 0 -767.77261520563479 -1258.0479953872928 0 -1258.0479953872928 -1360.3293837758611 0 0 0 0 -433.28019977469376 -1222.5403521029075 0 -1222.5403521029075 -1940.2008983452833 0 0 0 0 -128.59881798396236 477.49653633309936 0 477.49653633309936 1469.3762431462674 0 0 0 0 -636.67241302117509 -785.12786568830415 0 -785.12786568830415 -1022.8482983240683 0 0 0 0 -680.81507374445209 -931.05738310070592 0 -931.05738310070592 -1159.5873932979302 0 0 0 0 -600.66649138100911 -743.54617882051389 0 -743.54617882051389 -1104.2364895796709 0 0 0 0 -633.32993143220665 -807.59699306070979 0 -807.59699306070979 -947.26872085683863 0 0 0 0 -524.60369838352199 -744.78549847302202 0 -744.78549847302202 -1059.4463736652979 0 0 0 0 -412.62248726477992 -515.22581562648702 0 -515.22581562648702 -835.10003938898444 0 0 0 0 -615.4182602675719 -740.36475598668039 0 -740.36475598668039 -875.11988987014047 0 0 0 0 -536.54197189784463 -593.30538553959923 0 -593.30538553959923 -243.90617789888347 0 0 0 0 -801.09108319668303 -976.61753789208888 0 -976.61753789208888 -798.93127173002904 0 0 0 0 -440.90656369135831 -667.26041297589472 0 -667.26041297589472 -730.87296947998402 0 0 0 0 -341.42776180413784 -572.4002283266309 0 -572.4002283266309 -811.87611238653335 0 0 0 0 -252.56512957877203 -420.03064724499927 0 -420.03064724499927 -619.49910713334975 0 0 0 0 -570.27459506420564 -552.89963537523727 0 -552.89963537523727 -66.518398748798063 0 0 0 0 -383.41862955197576 -560.10593045956921 0 -560.10593045956921 -239.09353143424232 0 0 0 0 -263.42692454634198 -307.88847206347054 0 -307.88847206347054 -199.9889063542214 0 0 0 0 -172.85183540853905 -238.64601019097609 0 -238.64601019097609 -91.175245896622073 0 0 0 0 3.1389441819337662 -73.170010022586212 0 -73.170010022586212 5.0468352343159495 0 0 0 0 26.320402014047829 -21.379117147087385 0 -21.379117147087385 -33.272743860237881 0 0 0 0 -185.03457986454305 -197.88900059235311 0 -197.88900059235311 318.61483920770115 0 0 0 0 -416.5793278740166 -210.83052963708178 0 -210.83052963708178 1237.9404053510807 0 0 0 0 -384.64589762593641 -546.89897868040771 0 -546.89897868040771 535.09980821653153 0 0 0 0 71.180793106934289 -65.521773177693831 0 -65.521773177693831 330.73483196157031 0 0 0 0 -62.83205845397606 -169.20134291562135 0 -169.20134291562135 577.50226089959324 0 0 0 0 -19.41832765059371 87.598909718450159 0 87.598909718450159 710.01811169940629 0 0 0 0 67.993749239751196 -19.63535184484499 0 -19.63535184484499 94.284177003748482 0 0 0 0 31.171322338163009 -178.3255892918678 0 -178.3255892918678 -153.04305984082748 0 0 0 0 -29.169046459188394 -192.36224829706771 0 -192.36224829706771 -149.12424844317866 0 0 0 0 87.591975017050572 -289.07443509173754 0 -289.07443509173754 -89.750336819619406 0 0 0 0 68.389330378520242 -60.188406981903682 0 -60.188406981903682 24.930044096019088 0 0 0 0 -17.595728209351364 -205.75765119380958 0 -205.75765119380958 -156.24063761453726 0 0 0 0 -30.450456903607119 -205.14495193690527 0 -205.14495193690527 -152.41403452794475 0 0 0 0 -27.30565145784567 -196.49512859431707 0 -196.49512859431707 -148.18867176325875 0 0 0 0 -32.543001369813283 -198.16831749129051 0 -198.16831749129051 -144.93841347952548 0 0 0 0 -43.365660377343374 -166.83113736752784 0 -166.83113736752784 -165.51414557549288 0 0 0 0 -127.53085921311504 -210.2840060426679 0 -210.2840060426679 -182.36963909307087 0 0 0 0 67.200530685688165 -47.654776480694778 0 -47.654776480694778 -49.957965515349372 0 0 0 0 -49.666250402151491 -174.63360054646182 0 -174.63360054646182 -170.49752067466034 0 0 0 0 -12.410061645600251 -60.578300987106729 0 -60.578300987106729 62.832030374843697 0 0 0 0 1.8485270473538549 -179.43683971789142 0 -179.43683971789142 -162.07268691568606 0 0 0 0 -238.65284800525114 -342.18687283088366 0 -342.18687283088366 -216.56600092278677 0 0 0 0 19.238001030957093 -90.910179285558115 0 -90.910179285558115 -117.70681167584553 0 0 0 0 51.624142820811485 -64.67507086118033 0 -64.67507086118033 -87.256869899934941 0 0 0 0 -22.051425429501677 -110.82953674939657 0 -110.82953674939657 -66.981532696173247 0 0 0 0 32.671609441501403 -89.511943475302644 0 -89.511943475302644 0.77611867725607908 0 0 0 0 -8.1183502734202193 -161.27687648902793 0 -161.27687648902793 -131.56481442872609 0 0 0 0 -594.80193349807087 -557.71883534346853 0 -557.71883534346853 -386.2043910213979 0 0 0 0 -105.4605562259494 -210.56780400062416 0 -210.56780400062416 -251.5012518505755 0 0 0 0 -155.59221770950899 -265.86086385176895 0 -265.86086385176895 -239.62620168308786 0 0 0 0 -146.01900302440481 -169.53745829983382 0 -169.53745829983382 -63.661712000059197 0 0 0 0 -191.65940828812836 -225.22615702015355 0 -225.22615702015355 -266.71962059973157 0 0 0 0 26.405864847007166 -24.936264983335207 0 -24.936264983335207 18.27888292055647 0 0 0 0 -157.46328860041513 -341.74358585250957 0 -341.74358585250957 -392.63848131951818 0 0 0 0 51.091085465462754 -38.527405089029912 0 -38.527405089029912 27.583828557822045 0 0 0 0 9.7914810389411286 2.03939028961031 0 2.03939028961031 495.93388069348293 0 0 0 0 -24.255578391428571 -73.606214307335904 0 -73.606214307335904 449.98919685724104 0 0 0 0 -45.977674816844228 6.1811949619586812 0 6.1811949619586812 449.11136516244733 0 0 0 0 -44.817240067475723 -83.573318581666172 0 -83.573318581666172 577.44768038828624 0 0 0 0 -30.999188331481491 -181.68760112271048 0 -181.68760112271048 -194.27398893033387 0 0 0 0 -68.406261521282431 -262.38947823247872 0 -262.38947823247872 -289.14668323048681 0 0 0 0 -119.41638164268079 -236.03061915786748 0 -236.03061915786748 -183.56124613928841 0 0 0 0 -82.386825448096715 -183.67439111232306 0 -183.67439111232306 -147.38391868464532 0 0 0 0 -106.74103195408679 -211.34444903516123 0 -211.34444903516123 -109.60743651978555 0 0 0 0 -62.809147926796868 -222.91150509688305 0 -222.91150509688305 -161.41668786457012 0 0 0 0 -36.74790044196925 -194.81414819528436 0 -194.81414819528436 -133.99407687800704 0 0 0 0 -17.716258893471604 -181.08581513920581 0 -181.08581513920581 -137.30680203557131 0 0 0 0 -68.052022515235876 -180.57589978657779 0 -180.57589978657779 -85.126923456176883 0 0 0 0 -58.934815747285029 -157.83358495330322 0 -157.83358495330322 -76.701564031332964 0 0 0 0 -128.59654431142189 -175.49971659780567 0 -175.49971659780567 -35.615273109491682 0 0 0 0 -98.537790475354996 -150.36299176342436 0 -150.36299176342436 -44.609665745239909 0 0 0 0 -117.10799615559517 -195.53952669892169 0 -195.53952669892169 -96.404564351207227 0 0 0 0 -162.62276565877255 -248.34630374868721 0 -248.34630374868721 -108.60376328905113 0 0 0 0 -58.022018757532351 -183.06018377727014 0 -183.06018377727014 -109.37440325052012 0 0 0 0 3.7399474345230317 -42.3001809467209 0 -42.3001809467209 73.270134762898351 0 0 0 0 -144.3464063205829 -126.10982329478429 0 -126.10982329478429 35.622653411745887 0 0 0 0 -51.022634365421254 -106.14283590111881 0 -106.14283590111881 17.802820202301518 0 0 0 0 -48.601563767100743 -114.41520740934175 0 -114.41520740934175 -0.012912354897707701 0 0 0 0 -102.70234300679294 -228.87637305782846 0 -228.87637305782846 -37.941928839951288 0 0 0 0 -0.61823913636007433 -6.2184641055591783 0 -6.2184641055591783 21.224812912145843 0 0 0 0 -33.855233023354486 -58.02438968557621 0 -58.02438968557621 34.074189452403587 0 0 0 0 -409.6031696668615 -303.29795632766036 0 -303.29795632766036 50.553956509338605 0 0 0 0 -1236.2658832796296 -147.82545961172218 0 -147.82545961172218 241.03736875280447 0 0 0 0 -107.01964821611647 -87.154569406937952 0 -87.154569406937952 11.63685767431285 0 0 0 0 -249.22779651179007 -210.60620421197382 0 -210.60620421197382 -14.326973666611593 0 0 0 0 -337.1271467038714 -256.38952207021066 0 -256.38952207021066 120.86669888663164 0 0 0 0 -6.9269193532782083 -78.241660321094969 0 -78.241660321094969 2.9478556131616642 0 0 0 0 44.625012052943099 -72.196867460102652 0 -72.196867460102652 -23.472374615841943 0 0 0 0 25.214385022045107 -42.275653268355882 0 -42.275653268355882 28.52770254861224 0 0 0 0 -105.95765348519308 -67.053161674626608 0 -67.053161674626608 -6.0030612855334766 0 0 0 0 -223.0351029053927 -215.97884124687698 0 -215.97884124687698 11.624528357733652 0 0 0 0 -72.701715948252968 -191.13851737377627 0 -191.13851737377627 -228.62709374833503 0 0 0 0 271.18894131413617 -31.512992408141145 0 -31.512992408141145 -36.178232290229062 0 0 0 0 27.078696863693025 -17.038914188021437 0 -17.038914188021437 18.44752249526141 0 0 0 0 93.196114278243911 -74.023730741119209 0 -74.023730741119209 23.51125123351153 0 0 0 0 -369.11724611574755 -362.067883905911 0 -362.067883905911 -83.767033409290889 0 0 0 0 448.31980808931257 41.664554766888614 0 41.664554766888614 -39.394637363886432 0 0 0 0 107.85936749670145 -166.97635756872478 0 -166.97635756872478 -13.806508327455958 0 0 0 0 -171.42218163103462 -316.52552120994369 0 -316.52552120994369 -561.10690268714097 0 0 0 0 -326.72556998014625 -124.82769780198578 0 -124.82769780198578 -232.29927341821895 0 0 0 0 -341.66030345844047 -411.89300273040863 0 -411.89300273040863 -335.59145907907714 0 0 0 0 122.17163976742685 -85.741169576809597 0 -85.741169576809597 22.336816386798205 0 0 0 0 -338.32011598247618 -269.20463280299555 0 -269.20463280299555 9.9283299130183877 0 0 0 0 -494.34061323142123 -585.00362186306302 0 -585.00362186306302 -184.7084606334829 0 0 0 0 -482.36338796647215 -425.16921022916358 0 -425.16921022916358 126.37379153695656 0 0 0 0 -204.07845614285907 -269.91134570605209 0 -269.91134570605209 40.644808837692835 0 0 0 0 -333.52760525901249 -258.49437028978718 0 -258.49437028978718 478.09627904118679 0 0 0 0 -437.80708462867369 -173.45842688297853 0 -173.45842688297853 410.88337292226788 0 0 0 0 -314.20281792086462 -260.06551605111599 0 -260.06551605111599 -9.6685795402154326 0 0 0 0 74.59949720746863 -1216.6498243982423 0 -1216.6498243982423 -3012.6428912361735 0 0 0 0 -195.72247759614038 -1289.2220381211228 0 -1289.2220381211228 -2216.2363558095094 0 0 0 0 -945.33631535122731 -66.131641649466474 0 -66.131641649466474 -785.05132934926951 0 0 0 0 -106.32020920723717 -78.375724720679813 0 -78.375724720679813 5.3788761729463364 0 0 0 0 -947.80158296983609 -688.09096792367927 0 -688.09096792367927 -2436.2053258607411 0 0 0 0 -83.504607389628305 -76.659120974888737 0 -76.659120974888737 4.5364679914701931 0 0 0 0 -2071.1211382681631 -1185.3035931482882 0 -1185.3035931482882 -3345.0799683337955 0 0 0 0 500.58149769907914 -861.08143189426846 0 -861.08143189426846 -3380.6277425010921 0 0 0 0 49.679842193540026 -662.884093144894 0 -662.884093144894 -3534.1663671580609 0 0 0 0 -54.401534851382166 -277.99218163674959 0 -277.99218163674959 492.6482381294627 0 0 0 0 -282.50018726928101 -151.81575730066106 0 -151.81575730066106 892.12837321834013 0 0 0 0 -135.51702720739013 -35.683417690303031 0 -35.683417690303031 413.54059481092554 0 0 0 0 -272.42900552037463 -1050.9663933381235 0 -1050.9663933381235 -3285.9173398397979 0 0 0 0 220.81846502094777 -649.23344385737437 0 -649.23344385737437 -3941.1247673106118 0 0 0 0 135.28013274771365 -1213.3285847033185 0 -1213.3285847033185 -4498.606069942849 0 0 0 0 -44.359796582441618 -65.918002203710643 0 -65.918002203710643 1.7639843828682622 0 0 0 0 -78.592138443593285 -196.37829207602772 0 -196.37829207602772 1008.4680376454789 0 0 0 0 -23.068633197002782 -46.762932725039718 0 -46.762932725039718 628.99127066846995 0 0 0 0 27.721595303737558 -47.381589247430384 0 -47.381589247430384 1078.6957398503728 0 0 0 0 95.734054524902604 -336.72463247549604 0 -336.72463247549604 615.61077734945866 0 0 0 0 188.41092728737522 -506.97376547661133 0 -506.97376547661133 718.53395566655672 0 0 0 0 -25.952974878659006 -439.31656579088303 0 -439.31656579088303 409.88721178479318 0 0 0 0 110.27736723363341 -267.34668631564273 0 -267.34668631564273 276.06525105703622 0 0 0 0 291.68785172115895 -482.36080001615483 0 -482.36080001615483 8.1002391391593846 0 0 0 0 271.36465700483677 -555.44967509547132 0 -555.44967509547132 316.10614571897895 0 0 0 0 -330.53435422660914 -297.15639116751845 0 -297.15639116751845 440.32317848376806 0 0 0 0 -116.99649158448483 -129.24647760723019 0 -129.24647760723019 255.8247316088964 0 0 0 0 -57.51786823465045 -241.36326724308674 0 -241.36326724308674 1.6586190129601164 0 0 0 0 -197.72548915364314 -423.19113173647929 0 -423.19113173647929 -247.94589020933199 0 0 0 0 -288.11093349821385 -406.9717078991016 0 -406.9717078991016 208.49498196423338 0 0 0 0 -411.20278960274527 -736.07823650108003 0 -736.07823650108003 -547.77148015981948 0 0 0 0 -101.17014103529436 -560.23857057890564 0 -560.23857057890564 -176.6138690951193 0 0 0 0 -326.49273846007054 -378.62681815348333 0 -378.62681815348333 -309.75120287285245 0 0 0 0 62.310713716237224 -49.836237469461508 0 -49.836237469461508 36.287823862646121 0 0 0 0 86.908716164223733 -381.54063738614786 0 -381.54063738614786 -33.318522403329553 0 0 0 0 351.61256580508416 -458.49286391806527 0 -458.49286391806527 -343.25693643995328 0 0 0 0 85.839584909550467 -318.7620613778563 0 -318.7620613778563 -286.25023215333931 0 0 0 0 -198.55338045573808 -404.14340259243181 0 -404.14340259243181 -402.06671752638795 0 0 0 0 160.69024239894497 -481.93741680216044 0 -481.93741680216044 -422.39241221297561 0 0 0 0 183.62107696569137 -317.44115479889388 0 -317.44115479889388 -461.667214585701 0 0 0 0 268.59132894166214 -254.45279763699364 0 -254.45279763699364 -527.44781316294393 0 0 0 0 110.94570605937042 -386.2335863640692 0 -386.2335863640692 -481.1482535821342 0 0 0 0 68.531883844283584 -320.31716712329398 0 -320.31716712329398 -487.79543393509812 0 0 0 0 -99.629967728800693 -441.22439003863474 0 -441.22439003863474 -501.3045728028228 0 0 0 0 35.123738736489031 -57.470070617317106 0 -57.470070617317106 -10.616593253071187 0 0 0 0 58.596662792359012 -45.409667399536474 0 -45.409667399536474 31.050250970848651 0 0 0 0 137.65620297881833 -261.29673386836657 0 -261.29673386836657 -522.28425988113304 0 0 0 0 51.98960545810769 -228.28518889171028 0 -228.28518889171028 -332.80150395812234 0 0 0 0 26.476737873130226 -68.385272575600538 0 -68.385272575600538 25.315845768462168 0 0 0 0 25.789553290650474 -73.521455913840327 0 -73.521455913840327 10.278248785092728 0 0 0 0 61.826141029458029 -48.87010432373809 0 -48.87010432373809 32.868221703181348 0 0 0 0 -249.06470010980411 -649.40689018468402 0 -649.40689018468402 -606.97509197268664 0 0 0 0 30.458633552131687 -68.030656483329949 0 -68.030656483329949 10.888448400830384 0 0 0 0 42.230268691521815 -73.897659613365249 0 -73.897659613365249 -32.710288202011725 0 0 0 0 32.024516755680963 -69.437957555659523 0 -69.437957555659523 5.8469530676084105 0 0 0 0 49.608404333806284 -41.494368063502719 0 -41.494368063502719 23.198117347341849 0 0 0 0 40.324474228642316 -62.03968249434547 0 -62.03968249434547 11.451264659590379 0 0 0 0 494.93091903702555 -726.63962772094237 0 -726.63962772094237 1445.8744740259135 0 0 0 0 83.540839042518655 -76.06584644303075 0 -76.06584644303075 20.491090056078974 0 0 0 0 -13.102980976612839 -53.386356771517114 0 -53.386356771517114 29.746393464756864 0 0 0 0 6.3361431842131424 -46.632113346015103 0 -46.632113346015103 -36.613309083681088 0 0 0 0 27.945375986364525 -47.368431953073014 0 -47.368431953073014 -78.381508396196296 0 0 0 0 41.155171365096862 -49.313694621563798 0 -49.313694621563798 25.618499201612508 0 0 0 0 40.259094906442215 -62.848268924731201 0 -62.848268924731201 51.773956110482686 0 0 0 0 -10.120763533996069 -26.404930448959931 0 -26.404930448959931 34.107514339237241 0 0 0 0 -20.043801033512864 -24.508505780162523 0 -24.508505780162523 46.993393612530781 0 0 0 0 1.2981070505255659 -20.932188595236891 0 -20.932188595236891 0.89085854834593192 0 0 0 0 -15.946813349190052 -29.694083402020624 0 -29.694083402020624 52.54104637936689 0 0 0 0 3.8241092059179209 -39.001572890760144 0 -39.001572890760144 45.28852347008069 0 0 0 0 -108.26773695430893 30.017484529671492 0 30.017484529671492 257.32714405536535 0 0 0 0 -4.895981268976783 -3.5654025440303485 0 -3.5654025440303485 3.0964800623209783 0 0 0 0 20.679670761193847 -14.817865205688577 0 -14.817865205688577 59.601971209835028 0 0 0 0 -36.080095321129193 -83.823332224492333 0 -83.823332224492333 -137.32271715550451 0 0 0 0 -33.558239327518095 -58.749205436761258 0 -58.749205436761258 80.39234557045711 0 0 0 0 -390.89025424644774 169.9601479872822 0 169.9601479872822 4.5671235024055932 0 0 0 0 -161.3940725056309 270.08946688627475 0 270.08946688627475 -312.48791250943032 0 0 0 0 -340.85150432770024 -275.75374250179448 0 -275.75374250179448 95.027332679368556 0 0 0 0 -0.1673480230383575 -57.162064681397169 0 -57.162064681397169 24.521790642786073 0 0 0 0 7.9250184496777365 -468.39046527381288 0 -468.39046527381288 -551.59796574525535 0 0 0 0 -28.964187581348085 -21.953897975101711 0 -21.953897975101711 20.271409220641431 0 0 0 0 500.85901667365493 -1335.557136793979 0 -1335.557136793979 611.01008945019566 0 0 0 0 -779.97608501410286 41.975796691724099 0 41.975796691724099 174.14086020563263 0 0 0 0 -384.18930826750875 -27.485225883545354 0 -27.485225883545354 38.646801258961204 0 0 0 0 -1099.0603693154189 206.18914999555273 0 206.18914999555273 454.35783092660131 0 0 0 0 1.6181965744301863 -3.5330477236227722 0 -3.5330477236227722 6.4812518366825316 0 0 0 0 1058.7823023801684 529.48499213725881 0 529.48499213725881 -627.02587048185524 0 0 0 0 -402.77173598556692 491.09110863398382 0 491.09110863398382 68.214276557497215 0 0 0 0 -369.50127711988171 763.03625456963346 0 763.03625456963346 -116.00278465388692 0 0 0 0 405.80425654117425 80.367053025314817 0 80.367053025314817 207.10391659494053 0 0 0 0 31.635645560352714 -23.607077410706552 0 -23.607077410706552 232.27576448040782 0 0 0 0 -129.195590270705 122.16817663656548 0 122.16817663656548 508.08115274820011 0 0 0 0 246.89197812504426 -1.1876847652602009 0 -1.1876847652602009 48.924299903213978 0 0 0 0 313.19175999656727 -577.32484001741977 0 -577.32484001741977 1146.1091608612624 0 0 0 0 106.5942690433294 -278.11687014237395 0 -278.11687014237395 515.72538170940243 0 0 0 0 7.4268520361841723 -8.5381671644449852 0 -8.5381671644449852 7.4093042617874119 0 0 0 0 -253.70172159861249 -550.28893601689197 0 -550.28893601689197 -627.39785406122974 0 0 0 0 -287.68869055276446 423.4695494313055 0 423.4695494313055 1895.2105427380302 0 0 0 0 -250.31969617409777 -660.23057226347737 0 -660.23057226347737 -133.09048660309054 0 0 0 0 -675.31357109568489 -342.59232932320447 0 -342.59232932320447 -368.31359139175038 0 0 0 0 -897.39892497164692 -806.73309069813695 0 -806.73309069813695 186.65845173393609 0 0 0 0 2.3586383677110128 -11.903337181455029 0 -11.903337181455029 14.444976342603866 0 0 0 0 551.465936738452 -7.8650317169449409 0 -7.8650317169449409 -68.495098033861723 0 0 0 0 327.76167681121478 -421.43422770443067 0 -421.43422770443067 482.43518938936177 0 0 0 0 -582.75476205185987 -1139.554833925853 0 -1139.554833925853 527.98861860967008 0 0 0 0 42.583946853912984 -54.370257356026627 0 -54.370257356026627 44.01054519270906 0 0 0 0 8.3285424761853513 -56.721858309557192 0 -56.721858309557192 8.9605308719848153 0 0 0 0 44.251864488144065 -83.641892972620553 0 -83.641892972620553 6.2268822792248102 0 0 0 0 74.319896064069326 -9.1238313041540096 0 -9.1238313041540096 199.13555496562913 0 0 0 0 -561.79407539164094 -779.68486683558149 0 -779.68486683558149 -365.80444854538928 0 0 0 0 -539.85852650458764 -420.6809840049973 0 -420.6809840049973 -197.98857747609145 0 0 0 0 24.990548015047153 -92.389375021135493 0 -92.389375021135493 9.48475300228165 0 0 0 0 31.750477002815558 -61.6321939517793 0 -61.6321939517793 29.79791850860056 0 0 0 0 -1677.6459152505849 399.81428760936251 0 399.81428760936251 1602.4670040531782 0 0 0 0 -279.94907700053591 -214.39473987178644 0 -214.39473987178644 -751.00999071766273 0 0 0 0 147.9378094576532 56.90287631854153 0 56.90287631854153 -2875.9097078238174 0 0 0 0 -0.31144867460011483 -3.8775921421403439 0 -3.8775921421403439 -1.7572490393551803 0 0 0 0 2.461352193126694 -315.08517824840646 0 -315.08517824840646 -761.50290203720215 0 0 0 0 819.41021609277232 159.97495204400911 0 159.97495204400911 -1496.201911919974 0 0 0 0 857.91589298927283 -781.82964275461563 0 -781.82964275461563 -1357.4979397596908 0 0 0 0 337.6218181223303 -976.24792815260116 0 -976.24792815260116 586.05512482240738 0 0 0 0 230.46273072477197 -66.254173939363682 0 -66.254173939363682 -22.601331356730952 0 0 0 0 8.5794496194210694 9.4638912860624487 0 9.4638912860624487 -63.304878285375366 0 0 0 0 -687.65942053332401 -4.3240085143115721 0 -4.3240085143115721 -57.247716323196073 0 0 0 0 489.38938391673582 -146.56733295362756 0 -146.56733295362756 -172.81201968705864 0 0 0 0 -2.0223896410833504 1.6806474117215373 0 1.6806474117215373 -7.3201049887521918 0 0 0 0 -1113.7715617868525 400.95234163825808 0 400.95234163825808 -508.42828504533099 0 0 0 0 -28.852005869266577 -282.58865298368619 0 -282.58865298368619 -1989.2773283676725 0 0 0 0 -1759.7291154925479 1743.0253692172337 0 1743.0253692172337 -1529.7342976452783 0 0 0 0 1.9574824072649903 -4.4215780616127063 0 -4.4215780616127063 -5.1285449023187084 0 0 0 0 -1133.6142070752103 1265.4838326247118 0 1265.4838326247118 -1294.296468355642 0 0 0 0 -213.7606978523545 -866.35371617300552 0 -866.35371617300552 -2421.7844633304558 0 0 0 0 11.154838368479147 -13.475984294125794 0 -13.475984294125794 -11.613083950805809 0 0 0 0 513.85080711683258 -19.517963314399822 0 -19.517963314399822 -2072.2153378762705 0 0 0 0 342.40039895322843 380.91134709568178 0 380.91134709568178 -471.88415487813472 0 0 0 0 890.82066765094351 -778.22471398655034 0 -778.22471398655034 -436.65552877568825 0 0 0 0 -431.47429194689903 -1116.8852701943579 0 -1116.8852701943579 1448.6923998884158 0 0 0 0 817.60673877339286 13.292044910420373 0 13.292044910420373 -3426.2125090339978 0 0 0 0 -46.025838747605633 -48.934168375295997 0 -48.934168375295997 -26.537431299170805 0 0 0 0 -16.167579754927431 -17.085462292963655 0 -17.085462292963655 -10.944253934401047 0 0 0 0 556.9839889719151 527.93463179157698 0 527.93463179157698 -6612.007286770684 0 0 0 0 -640.00120224665443 -1541.3301116897128 0 -1541.3301116897128 1961.3460773545012 0 0 0 0 -2.2617742228321731 -772.43771640948398 0 -772.43771640948398 -1628.7858887333714 0 0 0 0 0.54130599641939625 -1077.2994305267639 0 -1077.2994305267639 -2909.8328163869883 0 0 0 0 -595.22858819385874 -1504.7589205810064 0 -1504.7589205810064 -2041.6664663035335 0 0 0 0 -511.85922821535496 -103.43801021861873 0 -103.43801021861873 -1932.3148517936061 0 0 0 0 -1489.7770846832427 -1089.3589367846616 0 -1089.3589367846616 35.796904448798159 0 0 0 0 -316.20657845887763 -1662.1961891812389 0 -1662.1961891812389 -4400.8114778749296 0 0 0 0 -620.01545555749908 -837.70009114408458 0 -837.70009114408458 -129.05456530224183 0 0 0 0 -891.00799136261048 -271.23140968233929 0 -271.23140968233929 2800.5717463776818 0 0 0 0 2.411789267025005 -1414.8864490681556 0 -1414.8864490681556 13.731758914596867 0 0 0 0 -0.94267880816852312 -6.0172159704387127 0 -6.0172159704387127 15.219832409119078 0 0 0 0 562.93598139792448 1142.033203048406 0 1142.033203048406 1824.9134321568017 0 0 0 0 -0.013258990240304469 -11.648094301213586 0 -11.648094301213586 7.4239486520527862 0 0 0 0 -567.40582517429721 230.29849782693054 0 230.29849782693054 1590.5623572121694 0 0 0 0 -106.50811046571471 226.25007512304728 0 226.25007512304728 1207.8996537908097 0 0 0 0 2.4669804472650867 -44.990457671454351 0 -44.990457671454351 -4.9540641398343723 0 0 0 0 -13.050679201809373 -30.354889387535891 0 -30.354889387535891 -21.542800049580165 0 0 0 0 -8.9878909733233741 -50.243321346431912 0 -50.243321346431912 1.7050964393274626 0 0 0 0 0.78682561578170862 -50.909005051216809 0 -50.909005051216809 -0.0098826955072581768 0 0 0 0 28.84842075582128 -45.831290103044012 0 -45.831290103044012 -5.0074927643581759 0 0 0 0 -1271.5836641165661 -1918.5795621717698 0 -1918.5795621717698 -2852.2820222704613 0 0 0 0 -6.3955281564849429 -4477.940465571708 0 -4477.940465571708 -6.4116397306823245 0 0 0 0 -4.5504749765352983 -7.7460631522007475 0 -7.7460631522007475 -7.8321569781147673 0 0 0 0 -2.3555274502793395 -6.8382764159934624 0 -6.8382764159934624 9.1574505493764491 0 0 0 0 -5.1567247505736304 -57.892250594450161 0 -57.892250594450161 2.8752670611138456 0 0 0 0 -6.4176107342427713 -54.58104256660954 0 -54.58104256660954 6.4437287364562508 0 0 0 0 -4.5728168252971955 -56.548551317449892 0 -56.548551317449892 0.011947829662863263 0 0 0 0 -6.6968474091554526 -60.147641066781944 0 -60.147641066781944 9.6625772770421463 0 0 0 0 -20.72059044489049 -39.23937067521193 0 -39.23937067521193 -28.483106599242745 0 0 0 0 -827.24854783964838 -1177.5832776701454 0 -1177.5832776701454 2118.9552110625518 0 0 0 0 -6.2614151998132002 -59.77677103523456 0 -59.77677103523456 2.1565563261974603 0 0 0 0 -1.5983277035848005 -69.194774318319105 0 -69.194774318319105 12.28170187240903 0 0 0 0 -16.124704620337127 -44.395714474534088 0 -44.395714474534088 -34.023065405568985 0 0 0 0 -54.749705982201704 -1588.076751413495 0 -1588.076751413495 1276.4424380981509 0 0 0 0 357.00123455606808 -152.35977501796151 0 -152.35977501796151 58.245928722535609 0 0 0 0 -1003.0059270969505 -1665.4932759588482 0 -1665.4932759588482 -999.22600447224977 0 0 0 0 -329.49442107835785 827.52387973176519 0 827.52387973176519 -3348.3904075304599 0 0 0 0 389.59799121929245 -656.47858627442474 0 -656.47858627442474 -2702.8748857111786 0 0 0 0 335.97831816700636 -21.538044725442887 0 -21.538044725442887 -1267.3802041335657 0 0 0 0 1136.9725884211948 -249.33807807364065 0 -249.33807807364065 -2877.5967819151119 0 0 0 0 1005.0843174434849 473.48892204284493 0 473.48892204284493 -713.42020190323092 0 0 0 0 -2317.5975344194394 -2643.5956801805924 0 -2643.5956801805924 -2471.2935468131618 0 0 0 0 -2.3341699519083079 2.0600390256371952 0 2.0600390256371952 -17.417531002755879 0 0 0 0 -1410.6477399977225 -2475.2840919042319 0 -2475.2840919042319 -3242.3568699773459 0 0 0 0 -1444.4692724030974 -1390.9539519205637 0 -1390.9539519205637 -2092.6520705523435 0 0 0 0 -2189.4501124729031 -1771.6473350560445 0 -1771.6473350560445 -2352.8888705384452 0 0 0 0 4.1876612220938796 -5.726608528779991 0 -5.726608528779991 -5.129492782070912 0 0 0 0 0.93693138969149459 -40.939087902202161 0 -40.939087902202161 -35.784010497245191 0 0 0 0 -20.387721153063467 -62.2519048039685 0 -62.2519048039685 16.134964346507331 0 0 0 0 813.37589459777519 -213.18874132339261 0 -213.18874132339261 -1316.2352265717454 0 0 0 0 739.4601809096057 -943.98673319591035 0 -943.98673319591035 183.27312332391739 0 0 0 0 3.1694902418639685 -59.874305596977138 0 -59.874305596977138 -5.6951382129336707 0 0 0 0 -20.821867664111778 -46.984037516035642 0 -46.984037516035642 -11.196821589604951 0 0 0 0 -21.381229523278307 -52.042789729552169 0 -52.042789729552169 0.099269869846466463 0 0 0 0 -5.3096653160901042 -58.608130299075128 0 -58.608130299075128 -0.015859135455684736 0 0 0 0 1355.9493308364326 -748.98607160464599 0 -748.98607160464599 -576.46289090288337 0 0 0 0 -63.799089611522504 -55.080764706974151 0 -55.080764706974151 -0.22040859814404984 0 0 0 0 0.19229165472165732 -2.457648185532662 0 -2.457648185532662 9.7581643871302504 0 0 0 0 -47.727024586085463 -52.720788806778728 0 -52.720788806778728 0.0019836518413054427 0 0 0 0 -67.475015858013649 -47.828978190678754 0 -47.828978190678754 4.626801389225875 0 0 0 0 -45.454037965697353 -35.227858800215472 0 -35.227858800215472 -8.9946316481509712 0 0 0 0 -18.45037127078831 -59.106057762968703 0 -59.106057762968703 -12.128877897528582 0 0 0 0 -95.551709992447286 -654.77248938397679 0 -654.77248938397679 -483.63495893156505 0 0 0 0 436.09387290131417 -522.80962028300564 0 -522.80962028300564 -513.59497355559506 0 0 0 0 -545.17441812930338 -939.87959716450132 0 -939.87959716450132 -663.73328855779255 0 0 0 0 -3.2117012497037649 -744.91755131787795 0 -744.91755131787795 -1087.8202937333408 0 0 0 0 1.941270643927453 -15.515086653136564 0 -15.515086653136564 17.56355361595422 0 0 0 0 -661.36559052673692 -1147.6540135265677 0 -1147.6540135265677 -936.34233971621143 0 0 0 0 -806.38145955925575 -740.04968834851752 0 -740.04968834851752 -650.40068684204016 0 0 0 0 -295.65075543022249 -877.56720434277668 0 -877.56720434277668 -1286.267675620591 0 0 0 0 -2610.1744316462427 -1920.5305728517706 0 -1920.5305728517706 -516.95619968808023 0 0 0 0 -622.3020493244112 -1190.4875419048331 0 -1190.4875419048331 -2033.3358217173372 0 0 0 0 -2326.4499322387273 -1790.7389879584516 0 -1790.7389879584516 -1796.1374186396133 0 0 0 0 -1307.0689404170262 -754.142367123859 0 -754.142367123859 -1547.0347833085689 0 0 0 0 -568.07426958034921 -959.9149872638809 0 -959.9149872638809 -1292.5317750123213 0 0 0 0 -131.35777743681683 -863.37269640820159 0 -863.37269640820159 -1796.7006874687504 0 0 0 0 -300.4747760311584 -592.25572292285506 0 -592.25572292285506 -1567.7955445625848 0 0 0 0 -240.71309007384116 -874.65330731088761 0 -874.65330731088761 -2059.7885866703582 0 0 0 0 -981.40066256880527 -860.77628702405491 0 -860.77628702405491 -1666.3135728891648 0 0 0 0 -444.93207631143741 -930.52817129425239 0 -930.52817129425239 -2422.4599119612685 0 0 0 0 -1295.690916550986 -1480.4404126186855 0 -1480.4404126186855 -2110.8379414919473 0 0 0 0 -1215.3619408719242 -1386.8136350064306 0 -1386.8136350064306 -2168.2074508497026 0 0 0 0 -1089.3501466895759 -1459.4879935904246 0 -1459.4879935904246 -2201.084578823531 0 0 0 0 -27.225819960876834 -601.90331658480864 0 -601.90331658480864 -1264.567409577232 0 0 0 0 -259.47619753459003 -959.12335016868019 0 -959.12335016868019 -1224.3837040580402 0 0 0 0 32.347607750751195 -596.23803537865024 0 -596.23803537865024 -1386.5685251034156 0 0 0 0 49.252056645527773 -506.59380901729673 0 -506.59380901729673 -911.97592273002374 0 0 0 0 -74.359177185600856 5.8945570939249592 0 5.8945570939249592 -532.95061314582563 0 0 0 0 -58.564282180013834 -425.89045712789084 0 -425.89045712789084 -1260.5114288514596 0 0 0 0 -7.3125806699390523 -280.39851141005056 0 -280.39851141005056 -1024.8928265267168 0 0 0 0 56.413851727789734 -129.0928199577902 0 -129.0928199577902 -1095.4225096835871 0 0 0 0 195.17932462657336 -79.950996268889867 0 -79.950996268889867 -1406.845720037003 0 0 0 0 66.034098424326658 -201.11602512801255 0 -201.11602512801255 -992.93645655078581 0 0 0 0 181.72707732650451 186.24237958376762 0 186.24237958376762 -761.17038491630228 0 0 0 0 -41.405642173747765 -291.72703975965851 0 -291.72703975965851 -640.10299755603774 0 0 0 0 -149.82642157834925 13.929253931193671 0 13.929253931193671 161.71126646283665 0 0 0 0 -0.34676733274000071 -14.523718253923107 0 -14.523718253923107 -16.890012667374521 0 0 0 0 86.328128196953912 -81.008845361109707 0 -81.008845361109707 -345.61138091073371 0 0 0 0 -213.43368891667342 -379.15258516624453 0 -379.15258516624453 -227.01605784329877 0 0 0 0 6.580281529968488 -284.95848547461173 0 -284.95848547461173 -466.3557611805154 0 0 0 0 10.072581271495437 -57.567065453971736 0 -57.567065453971736 -557.87701543323783 0 0 0 0 -53.443901433784049 43.878579076757887 0 43.878579076757887 153.87777958047809 0 0 0 0 -3.8586858120618217 3.5324511604544568 0 3.5324511604544568 19.021689084251733 0 0 0 0 -50.680655423435383 -123.9901950583444 0 -123.9901950583444 -206.75533336121589 0 0 0 0 -73.729292088130023 384.3533434284036 0 384.3533434284036 423.38508485033526 0 0 0 0 -65.729831132132176 -67.723973299944419 0 -67.723973299944419 4.8220654727928718 0 0 0 0 -11.01806384452815 -20.68468838790659 0 -20.68468838790659 3.9489665776436595 0 0 0 0 560.82128791813739 153.23438701574923 0 153.23438701574923 -120.53644477907801 0 0 0 0 -7.1627041372121312 452.50031110277632 0 452.50031110277632 -235.03040263563162 0 0 0 0 153.3264617373934 -142.85010739185964 0 -142.85010739185964 -1084.0107599760813 0 0 0 0 -354.63821802707389 -241.20371106016682 0 -241.20371106016682 -1006.0053527052951 0 0 0 0 268.09993871671031 -323.57052133958496 0 -323.57052133958496 -1560.5230648127617 0 0 0 0 460.88923384953523 -205.85209137914353 0 -205.85209137914353 -1054.9590013914276 0 0 0 0 80.308905759942718 90.896032075659605 0 90.896032075659605 -35.799602217128268 0 0 0 0 -56.701667618646752 -226.82875227293698 0 -226.82875227293698 -968.70122080267174 0 0 0 0 -340.01672802121902 -569.87298063648632 0 -569.87298063648632 -1378.9341957751894 0 0 0 0 117.61393074769876 -366.04173483722843 0 -366.04173483722843 -1795.3990574959898 0 0 0 0 -797.19702745071845 -816.65121385958628 0 -816.65121385958628 -1768.7952080380346 0 0 0 0 -86.907752154569607 -499.65316526894458 0 -499.65316526894458 -2042.8964251813013 0 0 0 0 -1068.6835292082396 -985.05143661791226 0 -985.05143661791226 -1919.2523579283152 0 0 0 0 -625.10619576268073 -1112.6483420463337 0 -1112.6483420463337 -1931.4779321748065 0 0 0 0 -454.17322669371788 -1256.6995817114366 0 -1256.6995817114366 -3898.0969391831895 0 0 0 0 -1319.449552070364 -396.63838236536685 0 -396.63838236536685 -772.40900845247961 0 0 0 0 -769.02586217527278 285.12367014325719 0 285.12367014325719 -1867.7926283742418 0 0 0 0 -81.892820666733314 -565.87335764420277 0 -565.87335764420277 -1868.895343758224 0 0 0 0 125.79365253265132 -480.21026463415183 0 -480.21026463415183 -2891.7897147933882 0 0 0 0 765.41585259388376 -605.11622924755648 0 -605.11622924755648 -147.19736723578535 0 0 0 0 710.37429988435179 -329.27835523123213 0 -329.27835523123213 -562.68499368632911 0 0 0 0 -70.548213472830867 -64.97384209612936 0 -64.97384209612936 -17.962665289782777 0 0 0 0 -156.16306321806042 -459.65714042187028 0 -459.65714042187028 213.00474306051183 0 0 0 0 -544.33892195707813 -525.78424419615658 0 -525.78424419615658 -751.13827037243755 0 0 0 0 67.854328473069472 -233.91558510324103 0 -233.91558510324103 -492.02403454502928 0 0 0 0 8.2199135820608831 -24.409768074055648 0 -24.409768074055648 -8.7595384054895078 0 0 0 0 64.743631805466066 -602.01176620487968 0 -602.01176620487968 81.538653805328067 0 0 0 0 37.567269948573085 -163.10898311862547 0 -163.10898311862547 -392.85321070109785 0 0 0 0 56.596017639240017 -216.78335939273529 0 -216.78335939273529 -287.31647736852756 0 0 0 0 -454.63646435960254 -843.25931897490955 0 -843.25931897490955 140.0473583083367 0 0 0 0 4.6204866997366594 -6.4404562944361032 0 -6.4404562944361032 3.0568727301226772 0 0 0 0 885.11104347801302 -700.61826339064282 0 -700.61826339064282 -454.35010410443647 0 0 0 0 1186.759969748673 -11.69010411848285 0 -11.69010411848285 -1399.2190016987151 0 0 0 0 520.95342589123175 770.39189192475169 0 770.39189192475169 -1526.6820559696935 0 0 0 0 -924.31465130590368 385.06839263249276 0 385.06839263249276 -764.72816202259855 0 0 0 0 -707.21613089289167 416.56239433846349 0 416.56239433846349 -246.37073699432949 0 0 0 0 -35.187946478396043 331.38228181930754 0 331.38228181930754 -725.21259099163581 0 0 0 0 -28.08843802291085 399.87584459476057 0 399.87584459476057 -1037.8508527109079 0 0 0 0 258.1420916330826 -111.53980367624899 0 -111.53980367624899 -597.68499474990313 0 0 0 0 321.66870695940452 112.25935853179544 0 112.25935853179544 -675.40097070980119 0 0 0 0 -499.5466301968554 131.73820536910353 0 131.73820536910353 -86.933759207109688 0 0 0 0 378.2468562296126 -303.78708341270976 0 -303.78708341270976 -300.10209412085533 0 0 0 0 481.05533268651925 -75.252858633699361 0 -75.252858633699361 -217.25895631552703 0 0 0 0 227.79135601076996 -217.25183854688657 0 -217.25183854688657 -296.72453392413445 0 0 0 0 315.2926867075148 115.69897580020188 0 115.69897580020188 -63.536929821131707 0 0 0 0 47.581559267142438 -140.85628363897558 0 -140.85628363897558 109.61547143044299 0 0 0 0 -9.7284081994073972 -12.854119107479448 0 -12.854119107479448 0.065570648889888616 0 0 0 0 117.82332561246585 53.893900222610682 0 53.893900222610682 -55.461832437267731 0 0 0 0 -5.1440763884887701 -6.8188318950971336 0 -6.8188318950971336 -60.629821828142497 0 0 0 0 33.289026571146678 9.9777483215875691 0 9.9777483215875691 -71.479735090601025 0 0 0 0 -91.500814439234091 10.523634514502191 0 10.523634514502191 -96.757493623605114 0 0 0 0 -5.5158471840986749 6.3560760541877244 0 6.3560760541877244 -66.222816471010447 0 0 0 0 -34.915315915073734 -9.3472861427289899 0 -9.3472861427289899 -63.926430226882076 0 0 0 0 16.968176624446642 20.862475468631601 0 20.862475468631601 -20.913238564244239 0 0 0 0 5.9354254741338082 -6.1919398583850125 0 -6.1919398583850125 -34.67191479500616 0 0 0 0 -2.8864588952710619 -3.439943588564347 0 -3.439943588564347 -36.638080566306598 0 0 0 0 -54.667662408144679 -0.76892278084415011 0 -0.76892278084415011 -34.735687934196903 0 0 0 0 -50.189010467583444 -43.98905914304072 0 -43.98905914304072 -25.172182945201371 0 0 0 0 -64.603391701777582 9.9545245564222569 0 9.9545245564222569 24.239491089436342 0 0 0 0 -17.330643992784815 -7.6964124007708676 0 -7.6964124007708676 -0.37167242604630246 0 0 0 0 -206.40175996189646 79.44022468739422 0 79.44022468739422 -93.984649044519756 0 0 0 0 -36.669147384350254 -8.0441308970634964 0 -8.0441308970634964 -21.687733646167658 0 0 0 0 -95.4814343584585 -20.923836997651961 0 -20.923836997651961 -18.636509408941492 0 0 0 0 -0.13758930005735692 5.6752571227267481 0 5.6752571227267481 -0.61455218438924142 0 0 0 0 -89.34716316635604 70.782129356783116 0 70.782129356783116 -3.2045565353346319 0 0 0 0 -135.86315008492602 -138.34297772457285 0 -138.34297772457285 -610.99474619876128 0 0 0 0 -40.906491494948568 16.818415444759012 0 16.818415444759012 -723.67187208181713 0 0 0 0 17.198938908737546 -185.22617327620355 0 -185.22617327620355 -837.99651293182978 0 0 0 0 -0.55420663434051676 -116.41053909581024 0 -116.41053909581024 -311.27457402570872 0 0 0 0 -35.97147417220549 -129.37892687616477 0 -129.37892687616477 -626.17682705295738 0 0 0 0 15.642859259227407 -59.216129547323362 0 -59.216129547323362 -383.39857314073015 0 0 0 0 -5.2307601335723248 -38.49820394545867 0 -38.49820394545867 -95.105495476904025 0 0 0 0 -22.817813005269272 -173.53306085226359 0 -173.53306085226359 -416.0954408403195 0 0 0 0 148.65126359870192 -137.66926096970565 0 -137.66926096970565 -413.47457217989722 0 0 0 0 0.83372926819720306 -74.130761694381363 0 -74.130761694381363 -165.60721066160477 0 0 0 0 -22.638829799398081 -17.785038235255342 0 -17.785038235255342 -25.161565307527781 0 0 0 0 -8.900740278944852 3.4029533349524854 0 3.4029533349524854 -7.9191282269584349 0 0 0 0 -20.462717522389994 -13.573758084304757 0 -13.573758084304757 -2.4145373292750936 0 0 0 0 -13.846925895370077 -11.71688129506947 0 -11.71688129506947 -39.377720980603499 0 0 0 0 -81.83571867266437 -10.200563445570879 0 -10.200563445570879 -2.9914249245794053 0 0 0 0 -18.867279459431302 -279.87004520211485 0 -279.87004520211485 -529.86971237766556 0 0 0 0 -35.151250552036799 -24.346418930013897 0 -24.346418930013897 -23.502191157836933 0 0 0 0 -67.827558343153214 -26.949812645994825 0 -26.949812645994825 -23.171592193832112 0 0 0 0 -68.567165126223699 5.6512090367468772 0 5.6512090367468772 -83.647839459998067 0 0 0 0 -16.786637312197854 -89.771733332625445 0 -89.771733332625445 -233.55011665908387 0 0 0 0 -81.233911434959737 10.496725862103631 0 10.496725862103631 -26.468183852746733 0 0 0 0 -102.99042385385837 -121.03672279242892 0 -121.03672279242892 -177.28260561709794 0 0 0 0 -20.073069729194685 -132.17018979966815 0 -132.17018979966815 -424.44936526312085 0 0 0 0 103.35627763612138 -229.49654710112372 0 -229.49654710112372 -36.125105280196294 0 0 0 0 -18.967113997035767 -14.941546154982518 0 -14.941546154982518 -0.59779402352202027 0 0 0 0 102.583477772263 -149.2072305805923 0 -149.2072305805923 110.28029321024223 0 0 0 0 264.35978999575309 -135.67185400317976 0 -135.67185400317976 -201.86444689695782 0 0 0 0 104.77672398801406 -217.01809100844321 0 -217.01809100844321 -7.2728736423014197 0 0 0 0 117.97225706616882 -401.86704342156008 0 -401.86704342156008 -67.963276585680433 0 0 0 0 245.83688731842267 -317.8358264057606 0 -317.8358264057606 -355.50910543554346 0 0 0 0 196.35953302060079 -242.45283849615953 0 -242.45283849615953 -237.7106745121564 0 0 0 0 176.44768613486667 -470.57920895106508 0 -470.57920895106508 -242.87377354911587 0 0 0 0 245.18848201633773 -325.94654301212449 0 -325.94654301212449 -456.89078349905321 0 0 0 0 175.68393667050987 -111.66958525964583 0 -111.66958525964583 -441.40548623327777 0 0 0 0 -42.14059647040267 -619.00826642589527 0 -619.00826642589527 -700.50951770891334 0 0 0 0 253.98763082789901 1.1810191383492565 0 1.1810191383492565 -25.079376915949979 0 0 0 0 -2.8134574557627161 1.0308140519658764 0 1.0308140519658764 -0.15917192336917196 0 0 0 0 70.968819327143137 -174.19269429579435 0 -174.19269429579435 -563.8764466897992 0 0 0 0 37.588227714732056 -502.31907890913135 0 -502.31907890913135 -910.378315308124 0 0 0 0 -170.2113254856522 -13.267862447202788 0 -13.267862447202788 -88.110690308276389 0 0 0 0 1.1949917711393141 -1.0532744574489925 0 -1.0532744574489925 0.89639389775842915 0 0 0 0 -36.905738233843294 -299.81404430494877 0 -299.81404430494877 -835.52918092042091 0 0 0 0 22.456608448148472 -464.94252749498264 0 -464.94252749498264 -779.93569064131589 0 0 0 0 49.589117344992701 -804.66052514314651 0 -804.66052514314651 -574.2433608092615 0 0 0 0 46.753849622298731 -751.95005211788521 0 -751.95005211788521 -1119.1723139457026 0 0 0 0 -106.80090746866699 -863.61171877888773 0 -863.61171877888773 -332.72643110199715 0 0 0 0 -36.309249277954223 -352.9455886824253 0 -352.9455886824253 -44.340901048359228 0 0 0 0 -5.2431345406585024 -987.2217362808442 0 -987.2217362808442 -868.58047490619356 0 0 0 0 121.79907632197137 -968.81631349376403 0 -968.81631349376403 -895.34044738033117 0 0 0 0 89.543962459800241 -934.05855663292459 0 -934.05855663292459 -948.28218554725754 0 0 0 0 90.501600528645213 -918.14665331131255 0 -918.14665331131255 -924.95530376017268 0 0 0 0 364.83904792389512 -1092.8099473706752 0 -1092.8099473706752 -832.85328331467463 0 0 0 0 -40.301140194424079 -1049.8006049365649 0 -1049.8006049365649 -568.26292677596211 0 0 0 0 350.6393615239358 -1200.5834139447397 0 -1200.5834139447397 -520.62990146664379 0 0 0 0 -79.87936064862015 -800.62461882037951 0 -800.62461882037951 -1003.6279880608781 0 0 0 0 -92.19391321670264 -977.05758496245107 0 -977.05758496245107 -670.12653399263218 0 0 0 0 -439.59848182692076 -1065.7826671687508 0 -1065.7826671687508 -0.11926792244776152 0 0 0 0 165.27669580851216 -1217.0058781947446 0 -1217.0058781947446 0.47698588611092418 0 0 0 0 -187.77956638572505 -923.43614545413584 0 -923.43614545413584 -209.2362574874569 0 0 0 0 -888.60991176867537 -842.50446366000688 0 -842.50446366000688 0.13340133696328849 0 0 0 0 -1298.159781289789 -594.31463357816392 0 -594.31463357816392 11.011374896566849 0 0 0 0 -794.79181420996611 -755.34796868839476 0 -755.34796868839476 -249.72902343788883 0 0 0 0 -794.0539285390696 -904.02569704827329 0 -904.02569704827329 -226.9834018490219 0 0 0 0 -946.10800668947923 -879.69686845164688 0 -879.69686845164688 -230.6652765621875 0 0 0 0 -942.64380682022602 -735.87777690937219 0 -735.87777690937219 -251.58773079662387 0 0 0 0 -151.82125230609381 -296.77167614840437 0 -296.77167614840437 -829.16055582646368 0 0 0 0 -240.2852131674299 -241.21591367176006 0 -241.21591367176006 29.404572862651548 0 0 0 0 -813.40915303473594 -817.17020019458869 0 -817.17020019458869 -549.33718966615561 0 0 0 0 -8.9779188690121146 -6.9152159709626631 0 -6.9152159709626631 -0.97838199818495752 0 0 0 0 -101.43162121747446 28.695319816397387 0 28.695319816397387 -24.516196588461753 0 0 0 0 6.0661114579783089 -10.059707749480651 0 -10.059707749480651 3.7234481411691718 0 0 0 0 -246.2076043219713 -1085.7169573269566 0 -1085.7169573269566 -685.99651388551865 0 0 0 0 -441.32903591061768 -162.86815541686519 0 -162.86815541686519 18.721551253140206 0 0 0 0 1.3348202282271018 -3.0900315021020219 0 -3.0900315021020219 3.0750550561193108 0 0 0 0 54.409774730098434 -219.12895941328316 0 -219.12895941328316 147.53559025135473 0 0 0 0 35.496658476167795 -122.97266884187775 0 -122.97266884187775 -324.27004501744523 0 0 0 0 29.867422232979152 8.481858717459545 0 8.481858717459545 -11.962120719850645 0 0 0 0 40.332769165339414 47.281210733235639 0 47.281210733235639 -322.7417364592111 0 0 0 0 42.631226548372069 -5.4523500535287894 0 -5.4523500535287894 -299.75549741619761 0 0 0 0 53.992127945151879 -102.50246618417441 0 -102.50246618417441 -689.56139213568531 0 0 0 0 -93.921939952488174 213.21302773077332 0 213.21302773077332 -292.53298595643719 0 0 0 0 0.18874306990754519 0.41197792316111759 0 0.41197792316111759 -2.4394481735026261 0 0 0 0 45.345458157962639 -174.92423475126816 0 -174.92423475126816 -722.55212549044518 0 0 0 0 -59.736144569476892 -3.6587034539988963 0 -3.6587034539988963 16.657343680228223 0 0 0 0 -5.8122017740535767 -8.7366128628995767 0 -8.7366128628995767 -5.5272951996759048 0 0 0 0 -76.837361132362275 -22.212285029294435 0 -22.212285029294435 146.3204539087892 0 0 0 0 -2.1190581990852024 -12.425055681319918 0 -12.425055681319918 -3.5962619073340107 0 0 0 0 -4.6198549849068513 -12.835383954676217 0 -12.835383954676217 1.1715585013807868 0 0 0 0 -7.6100165935254154 -10.033335712317637 0 -10.033335712317637 1.6870204964658342 0 0 0 0 55.436808369522623 124.60746801210189 0 124.60746801210189 -32.514824663841864 0 0 0 0 -29.35525590639736 -222.91030468376994 0 -222.91030468376994 -232.50751813587704 0 0 0 0 2.0908811087558519 -2.4818450414490272 0 -2.4818450414490272 -7.5505174001987143 0 0 0 0 77.699082271145016 -129.70570838409913 0 -129.70570838409913 302.32947498065187 0 0 0 0 -0.71678514614495725 -5.568676939655461 0 -5.568676939655461 3.3067668780483928 0 0 0 0 -82.746418920316501 73.875580787593208 0 73.875580787593208 131.06652818695875 0 0 0 0 235.62405926479551 -212.50721223645814 0 -212.50721223645814 57.96729820856126 0 0 0 0 124.7847684675653 -132.53010207843909 0 -132.53010207843909 0.40670039009317904 0 0 0 0 1.5532037196056194 0.40091019583766752 0 0.40091019583766752 -4.9094661327109179 0 0 0 0 31.60952613747213 -284.56069896002737 0 -284.56069896002737 331.15419543655298 0 0 0 0 384.40966028704861 -432.13401565737149 0 -432.13401565737149 274.62005619687261 0 0 0 0 568.57736895864946 -280.2279331060563 0 -280.2279331060563 -0.15496006500737036 0 0 0 0 463.80956335684459 -466.9173624763207 0 -466.9173624763207 126.47916720370267 0 0 0 0 426.84811788628576 -56.210897507160553 0 -56.210897507160553 -14.532564303619438 0 0 0 0 -204.63951373269811 -504.12657568130817 0 -504.12657568130817 725.14072177611524 0 0 0 0 54.04361665090255 -393.57401213448065 0 -393.57401213448065 132.91909766703611 0 0 0 0 175.92618886637501 -221.56908558421128 0 -221.56908558421128 233.86351690949232 0 0 0 0 330.72575404256349 -128.82472701376537 0 -128.82472701376537 25.662146562768612 0 0 0 0 -10.469975427044801 -13.510152261607573 0 -13.510152261607573 -6.4590199321291379 0 0 0 0 -442.66253664069518 -319.59117813491321 0 -319.59117813491321 -219.00348965383455 0 0 0 0 189.48629902665562 -287.83317847063154 0 -287.83317847063154 -1353.7547577957594 0 0 0 0 205.78742537814833 -435.34144243515038 0 -435.34144243515038 -1983.4485013090016 0 0 0 0 -3.2363897156493522 -7.3849183325363867 0 -7.3849183325363867 -3.8034808903391593 0 0 0 0 -102.68196231874754 -41.963083786897187 0 -41.963083786897187 -559.2355760609862 0 0 0 0 -19.574030894532285 -19.085776043990762 0 -19.085776043990762 -5.6596856444459434 0 0 0 0 -153.65177831084293 -629.97417418893019 0 -629.97417418893019 938.86030760678113 0 0 0 0 -237.6268515666743 -207.67242196729785 0 -207.67242196729785 1068.244560771549 0 0 0 0 134.47723834443605 -132.75580335970153 0 -132.75580335970153 764.84436597005697 0 0 0 0 -31.567749155801721 -563.70004061735381 0 -563.70004061735381 -1955.4786918507598 0 0 0 0 -6.7931927253556239 -9.1286772724003526 0 -9.1286772724003526 -5.5858187390693104 0 0 0 0 45.452123331429902 -284.52018365827098 0 -284.52018365827098 -1353.3157012869851 0 0 0 0 -737.88859942341514 -675.6100029812369 0 -675.6100029812369 -821.79590149078285 0 0 0 0 -415.68275059275402 28.746689291474468 0 28.746689291474468 -625.91730846569408 0 0 0 0 136.3910911672283 -355.45700442021916 0 -355.45700442021916 -990.92412955235341 0 0 0 0 157.31459318553971 -485.84538488878752 0 -485.84538488878752 -367.49255663111398 0 0 0 0 198.68052400418605 -147.98979221999139 0 -147.98979221999139 -646.5598339207645 0 0 0 0 -583.94271083306376 -758.70655359677767 0 -758.70655359677767 273.29045693925582 0 0 0 0 75.798439520251122 -27.24602719086397 0 -27.24602719086397 553.44787591991917 0 0 0 0 -216.79071952997765 -350.93569016472611 0 -350.93569016472611 633.55357857636409 0 0 0 0 -15.244846174445229 -12.387077568035465 0 -12.387077568035465 -0.58734973917980859 0 0 0 0 -75.365068162413081 -209.01944856649789 0 -209.01944856649789 -520.78700051410442 0 0 0 0 -52.792345016387117 -192.55034192603853 0 -192.55034192603853 -726.80259550556366 0 0 0 0 -465.51517983354279 -413.79004501492454 0 -413.79004501492454 -547.99461137570324 0 0 0 0 -150.06882623158162 -445.62564596996526 0 -445.62564596996526 -1193.93283857911 0 0 0 0 -138.54222568739351 -88.225406230878434 0 -88.225406230878434 -336.58131104338099 0 0 0 0 123.39120894866574 -105.10032453671738 0 -105.10032453671738 647.64053911878727 0 0 0 0 78.247850208717864 -610.95701322683453 0 -610.95701322683453 -199.70568269556679 0 0 0 0 -454.3307057570637 -318.92493381236272 0 -318.92493381236272 717.35268056989662 0 0 0 0 -6.1643428246527492 -6.6721274187094934 0 -6.6721274187094934 -0.39560744827469918 0 0 0 0 -308.75462219160545 -85.337049042980652 0 -85.337049042980652 1078.501128893331 0 0 0 0 -211.45915160800359 -323.07484841885162 0 -323.07484841885162 -585.74770797353267 0 0 0 0 -219.87836647838412 -368.73449624299974 0 -368.73449624299974 -713.35482282311568 0 0 0 0 -121.825801170462 -297.89141202609244 0 -297.89141202609244 -667.5268508491863 0 0 0 0 -155.64177052462037 -295.9324105781925 0 -295.9324105781925 -662.30671546079975 0 0 0 0 -187.84694344761738 -248.58037932610023 0 -248.58037932610023 -636.13743931461067 0 0 0 0 -263.8612203484663 -272.29676083158847 0 -272.29676083158847 -618.71218665484048 0 0 0 0 -238.2200574860326 -362.41875425403123 0 -362.41875425403123 -593.35952980197908 0 0 0 0 -93.470849916920997 -326.70095320435212 0 -326.70095320435212 -591.15514840847754 0 0 0 0 -224.37749787289249 -349.41227356991203 0 -349.41227356991203 -529.3516548176558 0 0 0 0 -141.32184029147538 -280.43674179680966 0 -280.43674179680966 -503.76257581506798 0 0 0 0 -197.49910867250583 -350.45641581580276 0 -350.45641581580276 -531.79669060183369 0 0 0 0 -233.05042051596683 -312.90246058842604 0 -312.90246058842604 -414.88354399164382 0 0 0 0 -318.06978947336756 -429.84795210196171 0 -429.84795210196171 -569.72546231419255 0 0 0 0 -225.35399397810306 -340.89536237350512 0 -340.89536237350512 -603.54730478396232 0 0 0 0 -339.83952679420327 -471.85860219350434 0 -471.85860219350434 -382.02934513422224 0 0 0 0 -573.83416838261473 -512.69850379713171 0 -512.69850379713171 -294.55141017497226 0 0 0 0 -467.86728677636711 -458.82959564757766 0 -458.82959564757766 -365.90226068602351 0 0 0 0 -366.06860597223567 -358.19624247894171 0 -358.19624247894171 -316.33702668044134 0 0 0 0 -503.88564010739356 -365.21263185566204 0 -365.21263185566204 -315.01651456921536 0 0 0 0 -511.52712137791241 -429.50088689623954 0 -429.50088689623954 -193.4406143771339 0 0 0 0 -583.09693713395973 -399.40910458438884 0 -399.40910458438884 -361.84429375386389 0 0 0 0 -687.79562696856738 -481.30000328537426 0 -481.30000328537426 -206.07294110221483 0 0 0 0 -680.57404197251162 29.539112532893341 0 29.539112532893341 -688.45864692642499 0 0 0 0 -1562.593239726717 -1018.2241748382366 0 -1018.2241748382366 -583.93726151068768 0 0 0 0 29.793253767182307 -171.84527762692494 0 -171.84527762692494 -113.23597791109418 0 0 0 0 -5.2406111779373532 -11.392601864385853 0 -11.392601864385853 -70.05240817378656 0 0 0 0 -441.92223387868216 49.941899168503369 0 49.941899168503369 -208.76036371471855 0 0 0 0 -553.10473873752198 -141.76181270633242 0 -141.76181270633242 -458.30270499160906 0 0 0 0 29.944618977011004 -168.45853936584655 0 -168.45853936584655 -132.52061317924716 0 0 0 0 -642.44788275500196 -208.89858383673982 0 -208.89858383673982 -116.57452161044057 0 0 0 0 -170.81622835824965 -292.86995232197296 0 -292.86995232197296 -339.2259957207134 0 0 0 0 -262.3646929827446 -172.26556111965328 0 -172.26556111965328 -239.68471213619341 0 0 0 0 -30.668414446234237 -172.5306120297173 0 -172.5306120297173 -424.4742248397306 0 0 0 0 -70.10632809920935 -254.1659365434316 0 -254.1659365434316 -468.97513451621489 0 0 0 0 91.017542970817885 -129.39803248821408 0 -129.39803248821408 -412.42413695287541 0 0 0 0 -124.81110191423795 -281.98096435150364 0 -281.98096435150364 -451.27037383768038 0 0 0 0 37.043480887403462 -171.48405245040004 0 -171.48405245040004 -134.30655524195825 0 0 0 0 16.149000887502552 -334.84754210831306 0 -334.84754210831306 -431.79804024075565 0 0 0 0 64.044277085587964 366.82848101853961 0 366.82848101853961 -1134.7896969821086 0 0 0 0 33.062763190955593 -169.29639490518389 0 -169.29639490518389 -131.3597731383974 0 0 0 0 -131.98441486438969 -185.65476976862556 0 -185.65476976862556 -64.691048709821189 0 0 0 0 -67.402289870675304 320.66567689214935 0 320.66567689214935 -816.71711117481391 0 0 0 0 272.65460941920173 219.53903370634362 0 219.53903370634362 -499.14456044936014 0 0 0 0 -176.69978763916879 -42.527092641316813 0 -42.527092641316813 -642.81677407243114 0 0 0 0 -123.87753724027425 -66.765942130085023 0 -66.765942130085023 -35.315141678162036 0 0 0 0 165.15255815742421 -22.834086622977338 0 -22.834086622977338 442.99927431592369 0 0 0 0 253.29949274785758 74.768768583664496 0 74.768768583664496 16.076542797338334 0 0 0 0 -234.19250566698975 203.62710583607168 0 203.62710583607168 51.527011106372811 0 0 0 0 -321.04177487358538 -37.38783821998004 0 -37.38783821998004 -458.07141226916428 0 0 0 0 182.49985303115682 -469.2103384099355 0 -469.2103384099355 12.927454422911978 0 0 0 0 914.39247021674237 -892.46383919011714 0 -892.46383919011714 235.93913389281079 0 0 0 0 549.36783490069502 -79.973606547333475 0 -79.973606547333475 365.42497042604373 0 0 0 0 762.77050344547024 -147.07803000451167 0 -147.07803000451167 -107.90935940451163 0 0 0 0 -3.5513720192830078 -80.576371304163331 0 -80.576371304163331 -63.82700428172393 0 0 0 0 558.94390712208406 -372.96987071130934 0 -372.96987071130934 -581.68155325647967 0 0 0 0 87.441196322135511 -370.4644777914873 0 -370.4644777914873 -984.9817568899598 0 0 0 0 -439.8173363977985 -259.81082986561159 0 -259.81082986561159 -541.63132949958526 0 0 0 0 35.684494550795023 -175.45429086092906 0 -175.45429086092906 -136.35046577469376 0 0 0 0 -440.92025745530555 -175.21818199556219 0 -175.21818199556219 -39.82795066361723 0 0 0 0 -345.93465171346907 -766.95351310380647 0 -766.95351310380647 -1899.821455690515 0 0 0 0 -536.29250754021632 729.71266092121368 0 729.71266092121368 -1146.0138332599599 0 0 0 0 -157.93345451415371 -341.06677828628744 0 -341.06677828628744 -943.59493963426212 0 0 0 0 -290.22936457648757 -388.64746119568008 0 -388.64746119568008 -287.04475035727955 0 0 0 0 -581.64309859956848 -747.25210418115603 0 -747.25210418115603 -698.05564906409563 0 0 0 0 -736.80509025487845 -207.25058473464014 0 -207.25058473464014 9.2832149593450595 0 0 0 0 -74.939028941444121 -403.15544599686837 0 -403.15544599686837 -709.36746182691422 0 0 0 0 -156.92323588979707 -382.09934023224196 0 -382.09934023224196 -638.3287347080477 0 0 0 0 -199.9493605529824 -111.8587523773931 0 -111.8587523773931 -834.02339027838025 0 0 0 0 3.1185347198916133 -231.59453709443915 0 -231.59453709443915 -636.71304559387499 0 0 0 0 -20.537964549454045 -326.05564294136275 0 -326.05564294136275 -579.98586987635645 0 0 0 0 -31.785137953440426 -358.72030456189532 0 -358.72030456189532 -669.26909616923695 0 0 0 0 -71.961008954815043 -381.3002196252346 0 -381.3002196252346 -563.87378004568745 0 0 0 0 -47.858048748363217 -290.83033361408525 0 -290.83033361408525 -494.2865443850169 0 0 0 0 -90.433378790021379 -308.36180610831707 0 -308.36180610831707 -565.60941363190068 0 0 0 0 -68.12194183957763 -328.97441226129376 0 -328.97441226129376 -546.99238746224728 0 0 0 0 -108.21162921897121 -201.26032964349724 0 -201.26032964349724 -256.5133350752003 0 0 0 0 -150.09692342720518 -245.88284849929914 0 -245.88284849929914 -274.85432730768298 0 0 0 0 -219.48391789753805 -102.87862814974505 0 -102.87862814974505 -72.210137635353021 0 0 0 0 -89.311821753159165 -76.878851587709505 0 -76.878851587709505 -127.8265599302249 0 0 0 0 -101.8776744894094 11.316028623310558 0 11.316028623310558 -27.924831544863991 0 0 0 0 -127.88327441117144 -102.65901087439852 0 -102.65901087439852 -134.45133796113078 0 0 0 0 -402.15615485431044 -167.58337898425816 0 -167.58337898425816 -81.725478363339789 0 0 0 0 -234.71555567845644 -336.79405902511644 0 -336.79405902511644 -317.8983565721428 0 0 0 0 -293.43547928813496 -415.05611027883424 0 -415.05611027883424 -337.38332410680596 0 0 0 0 -254.03221055152244 -369.93612913665129 0 -369.93612913665129 -365.96062880888348 0 0 0 0 71.248484929856204 200.35240481299115 0 200.35240481299115 -450.63760580898088 0 0 0 0 77.99869970636064 49.345799503109447 0 49.345799503109447 -28.669061237451388 0 0 0 0 213.5759411494073 93.18353338738234 0 93.18353338738234 -536.04628112757928 0 0 0 0 43.979776954074623 49.580002734634036 0 49.580002734634036 -678.94531156032463 0 0 0 0 0.5435496553068333 -1.1076880095032493 0 -1.1076880095032493 -44.269085095393677 0 0 0 0 1.8074130047022585 8.7236193088976961 0 8.7236193088976961 -6.0308080939248043 0 0 0 0 -31.559416501913802 -60.731372542963072 0 -60.731372542963072 -148.16293054475682 0 0 0 0 -311.40908718874562 -39.842641859904688 0 -39.842641859904688 754.00678993103793 0 0 0 0 -175.31749071922968 39.555866307440738 0 39.555866307440738 -75.194903943396639 0 0 0 0 -162.18628088464902 -48.938239441347832 0 -48.938239441347832 297.08923938142834 0 0 0 0 -5.0759554813120822 1.9349897918655472 0 1.9349897918655472 -16.146967851878287 0 0 0 0 -147.21428771337014 -48.863639227052772 0 -48.863639227052772 -14.913522769056726 0 0 0 0 8.9391916376771405 41.075674427833292 0 41.075674427833292 -63.259604900144041 0 0 0 0 -40.466544283321127 46.863953729596687 0 46.863953729596687 -30.359493661813758 0 0 0 0 33.073706509288968 -120.30079075494723 0 -120.30079075494723 92.225743644026807 0 0 0 0 91.692388760740869 -135.79962492041523 0 -135.79962492041523 6.5354891590541229 0 0 0 0 127.85234365690849 -193.11101843768847 0 -193.11101843768847 87.769830901001114 0 0 0 0 528.95214649294212 81.471693702471384 0 81.471693702471384 -254.95517712112633 0 0 0 0 -151.40849104349036 129.42615379834024 0 129.42615379834024 260.06858157848183 0 0 0 0 -161.70457540771895 53.81042951165 0 53.81042951165 -145.63485514800414 0 0 0 0 8.2818321658983081 19.042161734636153 0 19.042161734636153 -89.300320211891631 0 0 0 0 -470.55803184138495 103.0283065530748 0 103.0283065530748 -49.013313521892997 0 0 0 0 68.005694412291632 48.349968890019227 0 48.349968890019227 -501.8277507002349 0 0 0 0 55.047551104304148 117.4609207160247 0 117.4609207160247 -219.11544063188194 0 0 0 0 165.72082260362367 30.443950337765273 0 30.443950337765273 -815.12367934241774 0 0 0 0 55.447076631884556 127.7144417194213 0 127.7144417194213 -487.55107775715078 0 0 0 0 18.488323969042966 -28.880073044780971 0 -28.880073044780971 -93.305585503681641 0 0 0 0 -220.58951374654134 -71.293860886071343 0 -71.293860886071343 -627.97894588497002 0 0 0 0 0.15337286603707412 -43.688023038729199 0 -43.688023038729199 60.369606083671528 0 0 0 0 -457.40984503522122 -86.666504307119794 0 -86.666504307119794 759.52551189847873 0 0 0 0 316.10278738119814 36.058552589078317 0 36.058552589078317 -814.94583369532484 0 0 0 0 49.521964038384453 -168.64473232835383 0 -168.64473232835383 -140.85918002233788 0 0 0 0 -136.2966603005334 -308.70621662823396 0 -308.70621662823396 294.82195574030266 0 0 0 0 223.6502798342699 -13.584791733628663 0 -13.584791733628663 -774.15701880447159 0 0 0 0 -486.19200714002363 -729.70339529779449 0 -729.70339529779449 -134.96495369616605 0 0 0 0 276.56340174395154 138.87377636126985 0 138.87377636126985 -873.13225853734184 0 0 0 0 -28.689779395819642 20.571783175939345 0 20.571783175939345 -840.87931439845761 0 0 0 0 221.90738172846977 127.15732568265594 0 127.15732568265594 -847.42106406655512 0 0 0 0 194.72450870435569 150.94705829765007 0 150.94705829765007 -538.75858794624492 0 0 0 0 -0.077191628677681479 2.0366630044342173 0 2.0366630044342173 -17.640255818302933 0 0 0 0 -87.101087800081586 200.33332334047009 0 200.33332334047009 -1687.0238773433375 0 0 0 0 -1260.9998389839457 -725.18212271819357 0 -725.18212271819357 -501.71542437671451 0 0 0 0 -140.70466535407468 278.53187926442479 0 278.53187926442479 -1353.518588231469 0 0 0 0 -653.40867080747557 -1353.7496331367147 0 -1353.7496331367147 -1480.6741444516538 0 0 0 0 -45.837036899640225 -693.90099706287219 0 -693.90099706287219 -236.62619560146959 0 0 0 0 37.993850470604912 -178.49176941248152 0 -178.49176941248152 -136.69242024268675 0 0 0 0 -149.4228670206794 -698.69050548666928 0 -698.69050548666928 -216.89241079847488 0 0 0 0 -473.1288374363503 -904.53152662112916 0 -904.53152662112916 -264.66081788566225 0 0 0 0 -200.06026884754465 -599.4449140274919 0 -599.4449140274919 -411.29485288563592 0 0 0 0 417.18069429419847 -826.77364458162629 0 -826.77364458162629 -414.44050826974393 0 0 0 0 -238.46953459858196 -749.57395848726628 0 -749.57395848726628 -315.29204157168715 0 0 0 0 -121.89094584515624 -1018.1761866787065 0 -1018.1761866787065 279.19439683970995 0 0 0 0 108.23928071715636 -339.38381620850487 0 -339.38381620850487 -1083.7599518314346 0 0 0 0 690.26497276464943 -2171.1285994682621 0 -2171.1285994682621 856.93318697302311 0 0 0 0 135.54742981151503 -1115.2776070031978 0 -1115.2776070031978 159.76260046449534 0 0 0 0 -0.26349075779307896 -3.1533278205420743 0 -3.1533278205420743 8.5591255991410264 0 0 0 0 -867.4684805367433 -1315.063330945206 0 -1315.063330945206 147.67400694579555 0 0 0 0 -2365.0433567239961 -465.78293157228472 0 -465.78293157228472 233.35450258782657 0 0 0 0 102.33006244428907 -451.70809103585998 0 -451.70809103585998 -92.39849109989882 0 0 0 0 3358.5270801848674 -2001.2505033719935 0 -2001.2505033719935 -193.97361382251984 0 0 0 0 618.38007343246863 -978.83547157240901 0 -978.83547157240901 523.67219059212221 0 0 0 0 1194.8604101848323 -660.66561650572839 0 -660.66561650572839 644.38839342258143 0 0 0 0 -0.59684352931137141 1.7849787114316769 0 1.7849787114316769 24.569939725286588 0 0 0 0 -684.35788694355506 -249.42931168502128 0 -249.42931168502128 -61.497105019654555 0 0 0 0 -625.51389704587928 -314.54129599416046 0 -314.54129599416046 -3.9522799926780863 0 0 0 0 -120.50703189063006 -96.709509786690433 0 -96.709509786690433 89.254457964663743 0 0 0 0 -2.8109361013048328 -511.27638464843767 0 -511.27638464843767 273.58474778501841 0 0 0 0 -68.117065209356952 -769.48019532179751 0 -769.48019532179751 1915.66842588086 0 0 0 0 -537.76394996693125 40.768156565944082 0 40.768156565944082 2431.2021509756923 0 0 0 0 1474.8759559540485 -524.26086614816086 0 -524.26086614816086 393.83044438216893 0 0 0 0 0.067727985266486712 -7.2506164434733478 0 -7.2506164434733478 18.514949868995842 0 0 0 0 -283.36100174164835 -1097.2872552658 0 -1097.2872552658 -157.04553440897143 0 0 0 0 -1192.4470164671657 888.10744729077487 0 888.10744729077487 1949.6416001292964 0 0 0 0 -281.47736754076323 -1418.7001634326953 0 -1418.7001634326953 886.25908550150052 0 0 0 0 115.27681681633112 -1532.3783360653033 0 -1532.3783360653033 793.19531268228457 0 0 0 0 -230.45773027131509 -680.78890220678295 0 -680.78890220678295 -80.512183210244984 0 0 0 0 -978.37594420342066 -278.4310499266594 0 -278.4310499266594 -185.41123623712338 0 0 0 0 -493.47993809315085 -851.25518101743 0 -851.25518101743 -16.721605705264665 0 0 0 0 -868.70427684617607 -481.02219112175771 0 -481.02219112175771 -1470.4286519396046 0 0 0 0 -1171.3694916261447 -234.22984580562843 0 -234.22984580562843 -303.20522183419416 0 0 0 0 -912.65852183428069 -1323.7314324453582 0 -1323.7314324453582 -836.59626509275404 0 0 0 0 0.33166316054121125 -469.50904479662859 0 -469.50904479662859 -1066.2043033570862 0 0 0 0 -129.07180177033297 419.42510481982026 0 419.42510481982026 -275.29093069950613 0 0 0 0 -1008.4266846467799 -490.9579931499502 0 -490.9579931499502 -134.23854196308093 0 0 0 0 4.9511656660337451 -15.552512240392673 0 -15.552512240392673 25.225774668593687 0 0 0 0 -1004.6260122413223 -316.55783660641828 0 -316.55783660641828 -211.63284932710849 0 0 0 0 -1446.4420652331028 -1864.9700885782368 0 -1864.9700885782368 394.03755492549681 0 0 0 0 1265.5307195625792 -2537.2883096724036 0 -2537.2883096724036 354.33045079519798 0 0 0 0 970.32031299200025 280.47960870964016 0 280.47960870964016 -435.3490854169504 0 0 0 0 -0.62596537602075841 -26.833744496128929 0 -26.833744496128929 2902.7667721319158 0 0 0 0 197.40234718607098 -888.48558881951249 0 -888.48558881951249 1423.8971038599848 0 0 0 0 0.46311806718287585 -1.6351569378395538 0 -1.6351569378395538 27.935666291996029 0 0 0 0 -850.68718824154348 1715.6161508109071 0 1715.6161508109071 2021.7853669399683 0 0 0 0 677.95329657298862 1495.2504448132422 0 1495.2504448132422 1186.0735100190286 0 0 0 0 -477.60888035627431 320.45907052627808 0 320.45907052627808 220.44292253537787 0 0 0 0 0.74712539582105819 122.77275967554306 0 122.77275967554306 -1.653499969826953 0 0 0 0 -154.72972307218879 48.072977302705112 0 48.072977302705112 67.668649102110066 0 0 0 0 -0.51664587960337371 -2.5085673861889575 0 -2.5085673861889575 74.812728195251964 0 0 0 0 -35.013694969311473 4.6607722038170323 0 4.6607722038170323 77.084476503172482 0 0 0 0 -0.3587510766467728 -6.5439470801971664 0 -6.5439470801971664 48.546625970542664 0 0 0 0 -2.1898478159398067 -23.9830584056796 0 -23.9830584056796 106.1463717455878 0 0 0 0 -115.32391346344957 -273.94037529169873 0 -273.94037529169873 -81.484248710123211 0 0 0 0 18.087971882873887 -87.115562673890963 0 -87.115562673890963 -61.114155484902938 0 0 0 0 -947.37090130702927 -157.16715011384485 0 -157.16715011384485 789.1156259370764 0 0 0 0 266.8003994369501 -347.77692753808333 0 -347.77692753808333 -81.745816893930169 0 0 0 0 -47.921531028929166 -151.45638711512584 0 -151.45638711512584 396.21487006465577 0 0 0 0 454.54331840636587 -1.0626635609460209 0 -1.0626635609460209 -437.92481582583059 0 0 0 0 160.61350558910999 65.236046937686297 0 65.236046937686297 -522.13550481743005 0 0 0 0 19.445748814453339 -89.661380454138254 0 -89.661380454138254 -77.014830511637314 0 0 0 0 -66.422196875573718 183.88257834873366 0 183.88257834873366 -248.69011373622925 0 0 0 0 -48.707919255954039 180.24271634832621 0 180.24271634832621 -334.5829272193514 0 0 0 0 510.78366957577236 41.660595721317804 0 41.660595721317804 -352.53695896818681 0 0 0 0 103.61919291471713 -70.059241865856166 0 -70.059241865856166 -356.10607180826628 0 0 0 0 151.14805177497328 154.86982502270257 0 154.86982502270257 -118.08141701176646 0 0 0 0 75.263084402075037 61.808257536038582 0 61.808257536038582 -226.69609038705858 0 0 0 0 -32.837272350152489 225.112084416578 0 225.112084416578 -211.5097915733204 0 0 0 0 -1.4441755220945325 4.2591324954080392 0 4.2591324954080392 -16.075008561712764 0 0 0 0 -887.95892117811309 633.57286509549886 0 633.57286509549886 -395.92990411353094 0 0 0 0 -1.1765500877081649 -130.66692625267024 0 -130.66692625267024 -211.27332565535471 0 0 0 0 -397.83650384032808 -545.97467897975002 0 -545.97467897975002 -574.54767955855277 0 0 0 0 -1.1422806616081971 -0.99857782957012375 0 -0.99857782957012375 9.8161396261494929 0 0 0 0 -50.161071129987249 -128.72829134809581 0 -128.72829134809581 -194.64916679160524 0 0 0 0 7.2856387733528578 -10.306123476590869 0 -10.306123476590869 -50.14869901420218 0 0 0 0 -283.00926856095612 140.45471550550428 0 140.45471550550428 -220.80125434838556 0 0 0 0 -275.23239769844804 -106.10730940649592 0 -106.10730940649592 -70.492692836953211 0 0 0 0 7.743557929131498 -3.6897042920131469 0 -3.6897042920131469 1.6551521437970678 0 0 0 0 -0.11170689170830883 -86.024818222524118 0 -86.024818222524118 -117.15691514735227 0 0 0 0 -225.38083769092918 -388.89352518140731 0 -388.89352518140731 1504.8340337652735 0 0 0 0 -22.87400343180343 -1130.9204747099393 0 -1130.9204747099393 208.45777628751603 0 0 0 0 -1.3782886233821046 -1523.6002548899578 0 -1523.6002548899578 1234.1921548070818 0 0 0 0 3.1981703076016856 -912.24710133379995 0 -912.24710133379995 740.36791303155769 0 0 0 0 -170.59090852850932 -542.74298274659122 0 -542.74298274659122 -38.27289093066247 0 0 0 0 316.33880456862971 -660.61314251724616 0 -660.61314251724616 -25.192432931275107 0 0 0 0 323.58401748014148 -120.68112616536928 0 -120.68112616536928 -68.984329328093736 0 0 0 0 -24.187692867621081 -226.2364623984231 0 -226.2364623984231 -99.431857557665353 0 0 0 0 -53.364173174792086 -340.64098119552727 0 -340.64098119552727 -144.63954222712891 0 0 0 0 180.73299816405051 -307.01574651232113 0 -307.01574651232113 -144.24821544577571 0 0 0 0 -143.84517254041202 -537.11514452393931 0 -537.11514452393931 -281.55507523605047 0 0 0 0 -203.71810325540082 -155.6075226006833 0 -155.6075226006833 -284.23106810830359 0 0 0 0 -32.196862154043629 -153.66876215003867 0 -153.66876215003867 -53.346219440845744 0 0 0 0 -187.54930985049577 -411.57921691444608 0 -411.57921691444608 -428.85147271667665 0 0 0 0 24.77489685190983 -14.620756883516208 0 -14.620756883516208 7.0472048535957015 0 0 0 0 -1.9976092465658439 -16.735627773625311 0 -16.735627773625311 -58.285544466492865 0 0 0 0 17.34697478899443 -11.094014741586705 0 -11.094014741586705 5.6921816791197841 0 0 0 0 -35.123066818283405 -112.31868285997916 0 -112.31868285997916 -113.19917637031176 0 0 0 0 -29.57267350550319 -62.409317215578994 0 -62.409317215578994 -93.099301535978157 0 0 0 0 0.085984818157157861 -101.44213090782796 0 -101.44213090782796 -53.555950181300432 0 0 0 0 -361.69781312672421 -202.06858860866851 0 -202.06858860866851 193.18663264588758 0 0 0 0 -64.801615393287648 -89.645083365266146 0 -89.645083365266146 -23.514000331502757 0 0 0 0 -63.6726442831241 -79.390374849625914 0 -79.390374849625914 48.158094721628004 0 0 0 0 102.39859459310537 7.0789284313577809 0 7.0789284313577809 81.350710502061702 0 0 0 0 -1009.2447609075753 -1831.7004211537824 0 -1831.7004211537824 -1126.0483807507117 0 0 0 0 -243.30426611391886 -62.647314301088045 0 -62.647314301088045 356.433468571915 0 0 0 0 -639.05852493710699 -1826.3479694367888 0 -1826.3479694367888 -1319.8597322219139 0 0 0 0 -10.766743878171496 -0.37811509119947573 0 -0.37811509119947573 -0.16406241609118055 0 0 0 0 -1.3396102501719724 -1153.3087678947668 0 -1153.3087678947668 -1829.0908043400268 0 0 0 0 -259.40057799962233 -1922.1098697687921 0 -1922.1098697687921 -1324.5963138301595 0 0 0 0 -766.11095134587958 -1164.3256718659031 0 -1164.3256718659031 -1629.9702609076194 0 0 0 0 -0.70094912542845123 -1883.6568751781015 0 -1883.6568751781015 -1115.175658819222 0 0 0 0 -652.18792600030429 -1759.2848570996284 0 -1759.2848570996284 507.41562669478299 0 0 0 0 -748.91234406764852 -1990.3943271758035 0 -1990.3943271758035 -1124.3337553262172 0 0 0 0 -754.97198223060695 -1121.4522448827774 0 -1121.4522448827774 -1490.4325005998617 0 0 0 0 -631.12173582239848 -647.67150527547119 0 -647.67150527547119 -760.3111431778816 0 0 0 0 -1610.219732973419 -1072.6928683307233 0 -1072.6928683307233 -293.97182900536427 0 0 0 0 4.8143687037986069 -7.6930179819811713 0 -7.6930179819811713 7.578329481472224 0 0 0 0 -591.25298362463491 -63.045503194917274 0 -63.045503194917274 66.085622232552851 0 0 0 0 -1045.4711999066349 -1303.3611698158784 0 -1303.3611698158784 -896.8278042184902 0 0 0 0 -718.71379638454528 -1354.5724622349517 0 -1354.5724622349517 -1406.0017977825241 0 0 0 0 -1081.4532791391684 -1571.1331849621365 0 -1571.1331849621365 -1520.2397338141527 0 0 0 0 -459.56097743072314 -918.61571051424835 0 -918.61571051424835 -1962.9256677174817 0 0 0 0 -15.298768646079168 -7.8167125911372821 0 -7.8167125911372821 -3.4427537825027699 0 0 0 0 -183.50864491492393 140.35522193139695 0 140.35522193139695 159.83103771074093 0 0 0 0 193.99830614528037 -13.488533174662734 0 -13.488533174662734 -729.75828717056993 0 0 0 0 82.230363279319135 -307.89069673123595 0 -307.89069673123595 1120.7949061749241 0 0 0 0 -24.452737525084956 -0.95478624726030148 0 -0.95478624726030148 1.0502667276115822 0 0 0 0 -343.52268008223473 -198.67283839055381 0 -198.67283839055381 1111.1551870521944 0 0 0 0 -60.850337229552679 -96.513607596745715 0 -96.513607596745715 218.6431077788302 0 0 0 0 16.67918842855579 7.1503356180237461 0 7.1503356180237461 5.5775387691828655 0 0 0 0 27.400565731496101 -17.439637691178035 0 -17.439637691178035 6.6563724363293062 0 0 0 0 -52.965069626457989 -92.37992755556661 0 -92.37992755556661 61.627435406851873 0 0 0 0 -135.27718758318224 -372.66889358259505 0 -372.66889358259505 -513.18848275570781 0 0 0 0 -193.76874165170739 -293.410941740618 0 -293.410941740618 -208.16503411307349 0 0 0 0 -135.0451859466848 -441.43405729934602 0 -441.43405729934602 -627.94534462587035 0 0 0 0 -243.28050471260212 -419.68920154364605 0 -419.68920154364605 -389.44632625060149 0 0 0 0 -214.57327173772501 -288.31821659139678 0 -288.31821659139678 -538.03437318600481 0 0 0 0 -180.71191785280826 -225.03252460591648 0 -225.03252460591648 -749.57668648575782 0 0 0 0 0.79747536480817871 -4.7412261310987986 0 -4.7412261310987986 3.2002048907356766 0 0 0 0 128.94012863587704 -380.54229297842539 0 -380.54229297842539 -1320.7103520771125 0 0 0 0 17.217075064680103 -244.26374319836032 0 -244.26374319836032 3049.6574986407359 0 0 0 0 25.7451777903334 -62.90126610344123 0 -62.90126610344123 22.826692196220392 0 0 0 0 -39.110752227306023 -22.239016639405015 0 -22.239016639405015 -7.7684401889133881 0 0 0 0 -64.73174868960632 -586.7833483241775 0 -586.7833483241775 1875.9481931768896 0 0 0 0 -80.159045507229166 22.958005515487457 0 22.958005515487457 227.22887676798564 0 0 0 0 29.679838653086335 -350.54708452579234 0 -350.54708452579234 1786.4731426212311 0 0 0 0 -30.091497576888685 -0.085417926956850465 0 -0.085417926956850465 4.7635557172149561 0 0 0 0 38.360712575435173 95.563981398237956 0 95.563981398237956 -19.641238491254626 0 0 0 0 -25.465944201583625 -1.6366117992984073 0 -1.6366117992984073 55.536228208453394 0 0 0 0 112.36692916147877 13.3212419630363 0 13.3212419630363 56.104573077262785 0 0 0 0 10.413544203827769 -96.235385019299429 0 -96.235385019299429 134.30915952863143 0 0 0 0 628.17059795407113 -812.35349154169307 0 -812.35349154169307 -2951.5262501198522 0 0 0 0 -15.208268506291176 -9.923439064618421 0 -9.923439064618421 -4.1914167138168779 0 0 0 0 -291.84795704166754 -323.71191648530657 0 -323.71191648530657 349.58350666568003 0 0 0 0 117.15847752880654 -493.66006018868575 0 -493.66006018868575 462.99638795282226 0 0 0 0 56.609458071514382 -878.87745959509994 0 -878.87745959509994 1460.7317706121394 0 0 0 0 -77.651533421943896 -859.69375983425198 0 -859.69375983425198 -133.81370612268074 0 0 0 0 -51.06865280265481 -20.626863148096419 0 -20.626863148096419 -5.6354250326725648 0 0 0 0 -52.949634170799982 -43.781648834432417 0 -43.781648834432417 60.504015621016151 0 0 0 0 -64.955540158203803 -39.964066946216917 0 -39.964066946216917 96.416143826216285 0 0 0 0 -40.84715958382003 -69.047224796158844 0 -69.047224796158844 80.478132618693053 0 0 0 0 -89.009512109098353 -27.190829411426705 0 -27.190829411426705 0.30255664327805931 0 0 0 0 -88.825093410210684 -70.363460499964276 0 -70.363460499964276 49.484473608121334 0 0 0 0 -69.214477326720953 -71.209023929408431 0 -71.209023929408431 34.661901193743688 0 0 0 0 -85.354055578012776 -95.790879861277972 0 -95.790879861277972 22.590718699182617 0 0 0 0 -77.611281449906528 -78.08854582614731 0 -78.08854582614731 41.128322694545204 0 0 0 0 -81.211669793618057 -76.715883036264131 0 -76.715883036264131 47.586641961184796 0 0 0 0 -92.233949965855572 -105.65359705514857 0 -105.65359705514857 28.556903161283117 0 0 0 0 -122.5895663992851 -92.969770721167151 0 -92.969770721167151 41.232561640397762 0 0 0 0 -72.997006270074053 -101.90829105324519 0 -101.90829105324519 24.788739945390262 0 0 0 0 -61.994416511239933 -30.20315344565357 0 -30.20315344565357 -13.174510007338455 0 0 0 0 -38.794006962125422 -36.467074987711385 0 -36.467074987711385 13.81450327967832 0 0 0 0 422.14456018985948 -1370.6958166711847 0 -1370.6958166711847 1719.8118529508065 0 0 0 0 -89.297589964757208 -75.808252338611055 0 -75.808252338611055 49.329895351991581 0 0 0 0 -53.937735975458054 -47.824644279629865 0 -47.824644279629865 46.224304941046285 0 0 0 0 -105.06538239744259 -56.165481043703039 0 -56.165481043703039 45.071698231477058 0 0 0 0 -49.40361249592388 -893.18780160310416 0 -893.18780160310416 -638.41820360893325 0 0 0 0 -78.961369990254752 -878.21914630236279 0 -878.21914630236279 1722.4647667947784 0 0 0 0 165.49695260665612 -103.13846843806095 0 -103.13846843806095 361.7672636378702 0 0 0 0 10.777762131750933 -371.65076770779524 0 -371.65076770779524 125.99159668224456 0 0 0 0 -70.124160247031568 -60.801046098037119 0 -60.801046098037119 -12.235082996710126 0 0 0 0 -70.865350148233119 -110.46680352889234 0 -110.46680352889234 29.15760872415558 0 0 0 0 -80.057570553850383 -108.98823250923306 0 -108.98823250923306 29.454162742862536 0 0 0 0 208.21710401473683 -265.08933701171554 0 -265.08933701171554 75.520813741881284 0 0 0 0 -53.237287197625847 -191.1842263622766 0 -191.1842263622766 -70.801331381277123 0 0 0 0 53.988540668418864 -314.1784804395902 0 -314.1784804395902 68.616322382193175 0 0 0 0 107.2726085433894 -91.183543839965921 0 -91.183543839965921 4.8164688249440246 0 0 0 0 88.875878161372384 -205.19597829162376 0 -205.19597829162376 -154.70619357543546 0 0 0 0 -113.86393264344952 -334.77827440131296 0 -334.77827440131296 200.87974000694521 0 0 0 0 46.696904259602888 -192.92783836069066 0 -192.92783836069066 -157.9385742215718 0 0 0 0 55.159454983659089 -175.4883343057063 0 -175.4883343057063 -132.514141805892 0 0 0 0 72.032681342403521 -199.04851750984562 0 -199.04851750984562 -135.33291030648979 0 0 0 0 103.15914175062062 -161.45976541755954 0 -161.45976541755954 -233.18829394574277 0 0 0 0 130.03223388272454 -355.53499855707923 0 -355.53499855707923 99.546397929290833 0 0 0 0 192.18913694887306 -216.94323535391413 0 -216.94323535391413 -164.12235651536321 0 0 0 0 163.27440806588857 -239.59596670956671 0 -239.59596670956671 -295.82040948796566 0 0 0 0 -117.68417002109345 -205.51091427883875 0 -205.51091427883875 -150.92870564483746 0 0 0 0 -141.80583659445983 -301.02585048362016 0 -301.02585048362016 -306.35985576985695 0 0 0 0 -88.037182985484833 -282.08540257977074 0 -282.08540257977074 -363.15394098366869 0 0 0 0 -107.79879366277601 -217.03807503523785 0 -217.03807503523785 -378.34664007228275 0 0 0 0 -157.14321996868239 -190.59376327869904 0 -190.59376327869904 -238.05666337665934 0 0 0 0 -103.74942912947154 -321.46358033479919 0 -321.46358033479919 -532.56513503557835 0 0 0 0 -35.843048602808267 -118.46794610274083 0 -118.46794610274083 -178.67189306434557 0 0 0 0 -11.244594199379208 -127.34819817678363 0 -127.34819817678363 -163.97446103762559 0 0 0 0 -50.181472520387615 -218.42885892768754 0 -218.42885892768754 -237.64015583377113 0 0 0 0 -25.759248976362869 -169.37367305089901 0 -169.37367305089901 -84.84893694362836 0 0 0 0 -139.11355335859116 -167.81600434269149 0 -167.81600434269149 -89.465708001705934 0 0 0 0 25.316274749391596 -179.38258823569413 0 -179.38258823569413 -89.669967638054175 0 0 0 0 -21.809124630664883 -111.67342235933666 0 -111.67342235933666 -54.912219951562292 0 0 0 0 26.513856854406185 -142.1244341484271 0 -142.1244341484271 -35.803731670170237 0 0 0 0 45.436948531423695 -78.599870240277596 0 -78.599870240277596 -62.120173872137457 0 0 0 0 -103.44340363643278 69.048014255559792 0 69.048014255559792 -293.11502603716508 0 0 0 0 102.08230312928808 -83.644424783669848 0 -83.644424783669848 -10.681783197670256 0 0 0 0 -482.24817303725285 -376.47781662847046 0 -376.47781662847046 -103.65553704182457 0 0 0 0 35.975062894605799 -125.95181521018094 0 -125.95181521018094 16.73725018740879 0 0 0 0 6.2021424084668979 -107.96121462128576 0 -107.96121462128576 -42.39725846735746 0 0 0 0 -455.89275767392974 -877.71180860683307 0 -877.71180860683307 -521.2345299042463 0 0 0 0 39.744815238329466 -248.23606674421899 0 -248.23606674421899 305.96607072796542 0 0 0 0 565.93010391972348 -813.62791311182445 0 -813.62791311182445 -1561.32177499299 0 0 0 0 1360.6156345244162 -16.101210496279236 0 -16.101210496279236 -762.61689959031355 0 0 0 0 -2702.9956299372516 -1890.0640679039193 0 -1890.0640679039193 -890.78193130902218 0 0 0 0 -1.1128328684445723 -6.4730641980031294 0 -6.4730641980031294 -15.630605738446036 0 0 0 0 24.883830900464091 -1229.3854184757292 0 -1229.3854184757292 -1024.3532769593548 0 0 0 0 627.85241075744852 -270.43105550617474 0 -270.43105550617474 -642.4407512994876 0 0 0 0 -394.74521419090888 -1193.6286427107862 0 -1193.6286427107862 -832.86013028529851 0 0 0 0 -29.7142359466161 -247.47149608891414 0 -247.47149608891414 -325.48999770527007 0 0 0 0 70.205883171089226 -363.58992669630243 0 -363.58992669630243 -1283.1939426430117 0 0 0 0 215.10778317036602 -565.67210052831797 0 -565.67210052831797 -3597.5153705609991 0 0 0 0 -121.38960740645416 -1212.3592594874026 0 -1212.3592594874026 -1164.6031883347459 0 0 0 0 1270.8855468922811 -552.3693723251763 0 -552.3693723251763 -34.349015586849418 0 0 0 0 -5.8754199225551815 -17.732476156308607 0 -17.732476156308607 -7.9512980908501163 0 0 0 0 641.55818015766272 -1929.0658433326753 0 -1929.0658433326753 1930.1610068472655 0 0 0 0 -90.368493918780587 -434.95121615656171 0 -434.95121615656171 -847.57154590370192 0 0 0 0 139.80128031426284 -79.69486633724955 0 -79.69486633724955 -192.41551031488052 0 0 0 0 20.095168388666934 -135.29592174055142 0 -135.29592174055142 -114.56043137653251 0 0 0 0 11.698091198326438 15.448943775008956 0 15.448943775008956 -146.45898667201982 0 0 0 0 -162.9878299174452 -131.4739788279403 0 -131.4739788279403 -95.584144246211508 0 0 0 0 -262.4669523772609 -671.10619913567643 0 -671.10619913567643 -810.17444030477782 0 0 0 0 -698.89865034135437 -440.67979701870354 0 -440.67979701870354 -139.12550112597819 0 0 0 0 -2.603946099317584 -12.462118983577056 0 -12.462118983577056 -41.204205002974831 0 0 0 0 807.58794755446434 -355.14871111231332 0 -355.14871111231332 -8.2002299338037119 0 0 0 0 203.67553631801275 93.362896826388351 0 93.362896826388351 -73.690842132316902 0 0 0 0 306.74069276558293 -22.746624656168024 0 -22.746624656168024 -101.33657085482264 0 0 0 0 21.089187038789127 -24.013289555933738 0 -24.013289555933738 -56.189049523817118 0 0 0 0 233.25831114384346 -304.37536410617759 0 -304.37536410617759 -65.392047546610456 0 0 0 0 -126.45175843381003 -338.38946844895781 0 -338.38946844895781 118.34875957073382 0 0 0 0 105.66048947300456 -106.60447003946436 0 -106.60447003946436 9.5992015609040919 0 0 0 0 -16.372935889856308 -91.269973106023826 0 -91.269973106023826 24.532541232038056 0 0 0 0 139.31099024904836 -134.02947757584417 0 -134.02947757584417 -85.246930026274185 0 0 0 0 80.492559284917121 -57.973172566762514 0 -57.973172566762514 -63.844898142889804 0 0 0 0 39.868775858310983 -69.767019242106471 0 -69.767019242106471 -40.434640000617946 0 0 0 0 -35.735607838397414 -108.55300643966726 0 -108.55300643966726 -5.4076812126122036 0 0 0 0 -65.548828643222805 -103.94829758178093 0 -103.94829758178093 22.219145844472223 0 0 0 0 -61.730002966069151 -105.42351003955991 0 -105.42351003955991 16.951318508377881 0 0 0 0 21.083815217374877 -30.072472343989077 0 -30.072472343989077 -27.199933437280457 0 0 0 0 641.00232764609973 -672.80778571554401 0 -672.80778571554401 529.22635306620941 0 0 0 0 -39.562388921484853 -53.57769091058276 0 -53.57769091058276 102.6834830949083 0 0 0 0 863.75596233189572 -586.89449891723052 0 -586.89449891723052 184.78161308539711 0 0 0 0 838.51966233762505 -680.38053660060177 0 -680.38053660060177 135.53468796779634 0 0 0 0 666.97665966080967 -474.41867909488064 0 -474.41867909488064 170.90197377640288 0 0 0 0 1210.0432751937406 -809.9102488710032 0 -809.9102488710032 114.23212367463566 0 0 0 0 977.33037294894893 -453.88274944955265 0 -453.88274944955265 -55.991091148054693 0 0 0 0 2104.2684508731763 -754.01935450245219 0 -754.01935450245219 -9.3501538276486826 0 0 0 0 -57.775890682620229 -103.64054275715534 0 -103.64054275715534 10.337317790588713 0 0 0 0 -5.8200940077345802 -72.734488618708724 0 -72.734488618708724 -11.39907671971244 0 0 0 0 -59.723040017852327 -97.238778050319524 0 -97.238778050319524 -2.4482037401176058 0 0 0 0 -74.393982522888109 -98.383104481123155 0 -98.383104481123155 16.068718609865755 0 0 0 0 -76.989315731421812 -70.802304750177427 0 -70.802304750177427 -9.3998886270310322 0 0 0 0 -107.63095835455169 -51.551296027726494 0 -51.551296027726494 31.496060892146488 0 0 0 0 -7.208390717359352 -57.684544136152056 0 -57.684544136152056 -17.065049589961404 0 0 0 0 1996.0698360366769 -755.82097146067827 0 -755.82097146067827 340.16936635511229 0 0 0 0 -68.207883884897456 -220.77143064053962 0 -220.77143064053962 1806.1351820122363 0 0 0 0 9.2351049940566554 -19.836670414169717 0 -19.836670414169717 -8.7531837361604019 0 0 0 0 3607.1144865462556 -4790.8562559866696 0 -4790.8562559866696 6062.6480505930813 0 0 0 0 -7.0004071167398827 -6.0577885949899439 0 -6.0577885949899439 1.3517523591397094 0 0 0 0 5995.3419791683846 -4973.3485560465933 0 -4973.3485560465933 4332.3701602320652 0 0 0 0 6130.2328132470102 -2217.0337805930076 0 -2217.0337805930076 2604.4188550370745 0 0 0 0 4080.9566938326461 -3295.8913541240036 0 -3295.8913541240036 4280.5157912168406 0 0 0 0 6119.5119803857524 -544.62647132796701 0 -544.62647132796701 -2059.603797027783 0 0 0 0 2115.8167980565922 -1367.0877616724756 0 -1367.0877616724756 720.41234040173731 0 0 0 0 1132.5760129563278 -935.11623685114319 0 -935.11623685114319 592.31172556949605 0 0 0 0 1145.7116617821239 -1047.5330755884611 0 -1047.5330755884611 355.82069491724542 0 0 0 0 1121.5326812702915 -1044.2708688745624 0 -1044.2708688745624 951.94293869539979 0 0 0 0 469.5018229536945 -519.18298559372488 0 -519.18298559372488 1266.4396008562762 0 0 0 0 844.62612450242159 -573.14365446771262 0 -573.14365446771262 1869.6457643258909 0 0 0 0 1191.8922558759732 -874.70779171166214 0 -874.70779171166214 1176.2878890576831 0 0 0 0 2394.7672694101348 -412.33078771005967 0 -412.33078771005967 471.02509643306257 0 0 0 0 2328.414194892277 -1127.0830843133153 0 -1127.0830843133153 2554.4812223025365 0 0 0 0 2148.0195465176657 -1776.5841022026289 0 -1776.5841022026289 2268.4926953910617 0 0 0 0 1903.0736703809816 -1329.3825658074638 0 -1329.3825658074638 1457.3108821815986 0 0 0 0 1154.9432581607252 -478.76440613032901 0 -478.76440613032901 1703.2853081702124 0 0 0 0 1693.6794099330436 -815.60140061899438 0 -815.60140061899438 1780.2142500637565 0 0 0 0 1765.4141588117054 -536.74284346129571 0 -536.74284346129571 2676.128147177631 0 0 0 0 2442.2764372761594 -704.1222723605897 0 -704.1222723605897 2057.7570186852245 0 0 0 0 2043.9499565736623 -886.96391325097647 0 -886.96391325097647 3546.4941651207337 0 0 0 0 1614.0374262202531 -555.24963698949432 0 -555.24963698949432 2178.8439581416606 0 0 0 0 1208.6795658297196 -587.95426269060408 0 -587.95426269060408 1071.7674921611906 0 0 0 0 2317.0729772367922 -428.71841945132473 0 -428.71841945132473 1087.2267105041246 0 0 0 0 1390.3847949496121 -507.93023540801369 0 -507.93023540801369 1203.6037489599548 0 0 0 0 1589.5405232421472 -118.32565981676453 0 -118.32565981676453 1891.71484063147 0 0 0 0 920.99585598066915 -224.73895086454286 0 -224.73895086454286 1283.4616114154996 0 0 0 0 832.23446547432104 -470.30672939339547 0 -470.30672939339547 1037.3993415871519 0 0 0 0 963.92042646370828 -244.98204686860845 0 -244.98204686860845 769.93627200307674 0 0 0 0 483.80303246463882 -141.85737056121434 0 -141.85737056121434 1142.8722413262585 0 0 0 0 507.95652439487458 -44.011399175491533 0 -44.011399175491533 804.99080076636164 0 0 0 0 1527.1943703932775 -210.05615580095036 0 -210.05615580095036 602.86852371162968 0 0 0 0 1065.6334677063423 -442.19823865079888 0 -442.19823865079888 487.40914363648335 0 0 0 0 1152.0380921536125 -647.51769779906317 0 -647.51769779906317 383.59274813999218 0 0 0 0 1411.1282092958572 -1041.0161008502619 0 -1041.0161008502619 777.91419348033378 0 0 0 0 627.02236799278762 -1185.8537241876838 0 -1185.8537241876838 1600.7968619811109 0 0 0 0 1063.6019347755064 -645.03117402765929 0 -645.03117402765929 1482.7599520791555 0 0 0 0 1263.2598100795876 -1280.427868630577 0 -1280.427868630577 2839.1639364291332 0 0 0 0 -447.87756056179933 -96.419199067389854 0 -96.419199067389854 318.05908942294627 0 0 0 0 -151.22714794303465 -91.402511798994965 0 -91.402511798994965 -41.538290890732242 0 0 0 0 -158.73245307015895 -1.0548023356168414 0 -1.0548023356168414 513.25112426468695 0 0 0 0 620.38057042010041 30.217293270357914 0 30.217293270357914 396.01882426480006 0 0 0 0 397.27146707900101 -346.19508399757615 0 -346.19508399757615 660.38642348156282 0 0 0 0 102.3136720439652 -141.27213464386659 0 -141.27213464386659 845.44011519674677 0 0 0 0 101.02530266811664 -246.14115651407337 0 -246.14115651407337 300.27919830901374 0 0 0 0 354.08333275170298 -746.10530540812033 0 -746.10530540812033 828.18276334560505 0 0 0 0 486.29309310420649 -478.60678311505762 0 -478.60678311505762 549.31519022734574 0 0 0 0 541.21287506251247 -635.71812386082456 0 -635.71812386082456 667.2769954025498 0 0 0 0 203.6120606904442 -423.58150198797557 0 -423.58150198797557 273.83678564452566 0 0 0 0 -261.41258720277983 -280.67624314229761 0 -280.67624314229761 698.56905416725203 0 0 0 0 -265.01105730259951 -327.26668518221322 0 -327.26668518221322 133.04135037880042 0 0 0 0 -686.5137812536268 -338.27620076212042 0 -338.27620076212042 367.09309321580804 0 0 0 0 -146.32781495095696 -586.69842342473521 0 -586.69842342473521 120.78028601245023 0 0 0 0 -145.7936510163272 -572.9851455834505 0 -572.9851455834505 464.68553645972861 0 0 0 0 679.03499410713266 -688.67261872229938 0 -688.67261872229938 -2.775489606508927 0 0 0 0 768.80332533578621 -954.70768930164195 0 -954.70768930164195 346.36017655608885 0 0 0 0 737.65338052716288 -715.93248646610118 0 -715.93248646610118 500.85253004699189 0 0 0 0 747.94144963934377 -745.29707297314962 0 -745.29707297314962 249.82408669681899 0 0 0 0 569.06653416575864 -972.43534792237188 0 -972.43534792237188 252.29278839354083 0 0 0 0 245.87437845423119 -158.81955511775232 0 -158.81955511775232 -326.73994233574194 0 0 0 0 -1352.2982050822757 -501.65523034837679 0 -501.65523034837679 397.38036910885421 0 0 0 0 -796.79582948461757 -1904.0493011684011 0 -1904.0493011684011 -2644.205610006582 0 0 0 0 -21.026393079792456 0.86191325300072208 0 0.86191325300072208 0.084796505289858715 0 0 0 0 -2171.2257804313413 -1812.7139948283875 0 -1812.7139948283875 -411.15061318204971 0 0 0 0 -548.5036812117396 -592.19628472059958 0 -592.19628472059958 -540.42319618922193 0 0 0 0 -514.2569756811281 -628.29098814915778 0 -628.29098814915778 -1198.0512017891961 0 0 0 0 -841.93957087630042 -623.73759872143273 0 -623.73759872143273 -69.001788902416592 0 0 0 0 -875.95998377309297 -707.63137185822416 0 -707.63137185822416 -200.19724824710465 0 0 0 0 -1290.6914571548696 -1139.3479763394353 0 -1139.3479763394353 -331.85368554237357 0 0 0 0 -566.77608924166998 -335.3867696838206 0 -335.3867696838206 66.492963192509933 0 0 0 0 -917.66214771799423 -823.45608279344378 0 -823.45608279344378 77.762380053522065 0 0 0 0 -952.97042441100348 -562.72155717054557 0 -562.72155717054557 -467.27957146787912 0 0 0 0 -641.55990373656095 -444.82459008307342 0 -444.82459008307342 12.008944633736974 0 0 0 0 -1079.8661012369994 -717.31983585232229 0 -717.31983585232229 155.02471430479636 0 0 0 0 -766.707788167128 -524.66615479762504 0 -524.66615479762504 -276.40096949409053 0 0 0 0 -773.2784196687353 -420.09166723679732 0 -420.09166723679732 82.314053424081067 0 0 0 0 -508.13368573570915 -286.61281743387372 0 -286.61281743387372 -281.51279628794418 0 0 0 0 -187.93203009392164 107.44480728446342 0 107.44480728446342 -283.32441040530102 0 0 0 0 -1585.8626981342823 -265.87476008060185 0 -265.87476008060185 -85.486035476666075 0 0 0 0 -866.09815833930043 -770.51007670767649 0 -770.51007670767649 -638.57037718413631 0 0 0 0 -1111.1383607389143 -596.47669134060925 0 -596.47669134060925 -49.459093972131086 0 0 0 0 -495.35934236133471 -188.29001204162341 0 -188.29001204162341 -122.57929897662689 0 0 0 0 -493.89764599694172 -202.42054807268505 0 -202.42054807268505 -86.264535618523951 0 0 0 0 -428.48001028349972 -174.66529005189659 0 -174.66529005189659 -7.1927056662680116 0 0 0 0 -69.438780140742892 -37.698897877960917 0 -37.698897877960917 -157.2050622358729 0 0 0 0 -310.76857559907512 -468.6186667503207 0 -468.6186667503207 -476.54431856795418 0 0 0 0 -29.574518370136502 -492.26876942155286 0 -492.26876942155286 932.7724013533807 0 0 0 0 -57.989462328919501 8.1820225499882326 0 8.1820225499882326 -0.53025573526931424 0 0 0 0 -103.185826694995 -7.9375342241896192 0 -7.9375342241896192 6.6190286129686768 0 0 0 0 -117.03589501584065 -256.02981774050568 0 -256.02981774050568 -239.5678556059429 0 0 0 0 50.066738291845709 -94.964464008143921 0 -94.964464008143921 59.779176436959091 0 0 0 0 -218.29864257176814 -340.91298838646253 0 -340.91298838646253 261.71187106905199 0 0 0 0 -436.2517032849355 -425.10419435819131 0 -425.10419435819131 -119.2933343470213 0 0 0 0 -445.87912271976529 -518.70137506254832 0 -518.70137506254832 -280.47248679675249 0 0 0 0 -563.79633605559502 -543.4271800957722 0 -543.4271800957722 -228.25144382049984 0 0 0 0 60.122633409580089 -60.676960289694932 0 -60.676960289694932 36.198032894814162 0 0 0 0 -23.924161128070409 -183.85712331830109 0 -183.85712331830109 -127.09357788712805 0 0 0 0 219.17286429619708 -329.17583827165618 0 -329.17583827165618 -67.383638180537673 0 0 0 0 41.866210240976216 -597.52139883818927 0 -597.52139883818927 -192.7923858228678 0 0 0 0 -2360.6654352088372 -1675.3679104132098 0 -1675.3679104132098 4377.29352134082 0 0 0 0 -857.29642192507163 -535.06485673102725 0 -535.06485673102725 2558.1842047938208 0 0 0 0 -7.3477280524252251 -7.5179759103307617 0 -7.5179759103307617 -2.5200722942323566 0 0 0 0 -652.78772678664245 -1748.6190041938171 0 -1748.6190041938171 -1511.3297911342597 0 0 0 0 -403.49551130671171 -132.01893547666623 0 -132.01893547666623 -377.48737690221424 0 0 0 0 91.749265762078721 -507.57910853677458 0 -507.57910853677458 -241.01911270642813 0 0 0 0 45.592492338360046 -42.350105373717383 0 -42.350105373717383 5.4627426813009947 0 0 0 0 993.4479815333616 199.85086491889524 0 199.85086491889524 -564.43584072257454 0 0 0 0 -514.72179948938719 -782.89789319282863 0 -782.89789319282863 -568.92098052754591 0 0 0 0 542.10618408375376 -556.62395822883445 0 -556.62395822883445 -882.63174389091 0 0 0 0 -68.300655648126849 -311.02796438099176 0 -311.02796438099176 194.54704904010578 0 0 0 0 1747.2134922813275 298.42093952156938 0 298.42093952156938 -371.55203770429398 0 0 0 0 33.141894348686606 -25.311285653744932 0 -25.311285653744932 -12.889030427718609 0 0 0 0 -1043.1627269652963 -749.18657339016863 0 -749.18657339016863 -371.79412808683787 0 0 0 0 -888.20180776053894 -789.13821590180123 0 -789.13821590180123 -1066.4373983987789 0 0 0 0 -1212.4564292710857 -619.30921566582765 0 -619.30921566582765 -420.78803048191185 0 0 0 0 -937.55865238485057 -773.33480302831413 0 -773.33480302831413 -337.22643216419237 0 0 0 0 -580.28230258850817 -366.01058497481426 0 -366.01058497481426 -412.38654521118588 0 0 0 0 -1479.5664832689217 -646.25381823397402 0 -646.25381823397402 -434.16248296715639 0 0 0 0 -3167.0956003183237 -1371.8463398012991 0 -1371.8463398012991 -590.59699262061713 0 0 0 0 -726.66037578606483 -602.74240305461535 0 -602.74240305461535 -781.12527588886587 0 0 0 0 20.636355439993878 -13.095399776782699 0 -13.095399776782699 -17.261801574055653 0 0 0 0 -1192.9787517195218 -1078.62127173318 0 -1078.62127173318 -849.91314478762433 0 0 0 0 -1230.6232691716941 -1063.7353675667546 0 -1063.7353675667546 -728.26569464106683 0 0 0 0 -992.89754062656721 -834.54217821159364 0 -834.54217821159364 -799.98210059243138 0 0 0 0 -316.47579668795697 -1021.3548568545311 0 -1021.3548568545311 -1492.8281757827754 0 0 0 0 -823.64682718629047 -304.81835356161355 0 -304.81835356161355 -406.78453551198254 0 0 0 0 -972.11905252264842 -738.24733341283718 0 -738.24733341283718 -981.3914703216542 0 0 0 0 -967.03462189965649 -305.60389025550649 0 -305.60389025550649 -359.35081965531208 0 0 0 0 -1026.2356530932811 -405.21725680944655 0 -405.21725680944655 -494.06867662179502 0 0 0 0 -822.27608548437206 65.995081929560115 0 65.995081929560115 -97.228700036204827 0 0 0 0 -845.58902016726415 -287.68304461383275 0 -287.68304461383275 -399.11224824508099 0 0 0 0 -753.80957310168742 -109.12060187593124 0 -109.12060187593124 -150.97133268486596 0 0 0 0 -657.9442125935675 18.92292681348772 0 18.92292681348772 11.784699036485108 0 0 0 0 -396.12961169811751 -228.74611257166362 0 -228.74611257166362 -113.36919329363445 0 0 0 0 -375.80681087006087 -37.083216845170682 0 -37.083216845170682 175.89806601337477 0 0 0 0 -351.2695897010417 -65.238210348561552 0 -65.238210348561552 -23.348317645690258 0 0 0 0 -87.37602548916766 -282.94782103543184 0 -282.94782103543184 7.5628548004460754 0 0 0 0 -364.83895820994076 -175.41669580679081 0 -175.41669580679081 -26.470011226572751 0 0 0 0 -59.273829739220673 -535.18286741681732 0 -535.18286741681732 -135.53965940832131 0 0 0 0 -392.8153749250705 -406.12413880536951 0 -406.12413880536951 -177.07677343615069 0 0 0 0 -515.44297102541532 -528.00701295539147 0 -528.00701295539147 -295.01107043319644 0 0 0 0 299.52736878840369 -160.93122922832117 0 -160.93122922832117 -437.31992991776951 0 0 0 0 324.52037519188889 -259.8247855696809 0 -259.8247855696809 -162.34112494429064 0 0 0 0 320.61167455106624 -368.28465673633764 0 -368.28465673633764 -253.98411979743469 0 0 0 0 2.1656614084596413 -4.4844084150442143 0 -4.4844084150442143 -2.4015159174860869 0 0 0 0 -57.390943781196256 -642.52050346267788 0 -642.52050346267788 1069.6913840616253 0 0 0 0 -33.923918888576736 -993.04193799443601 0 -993.04193799443601 -230.76665846433116 0 0 0 0 -195.4868674206009 -658.33198841211015 0 -658.33198841211015 -180.46263742202427 0 0 0 0 187.72694797669828 -492.48356637573306 0 -492.48356637573306 -1172.1359727192212 0 0 0 0 26.144341293707839 -363.05842009050502 0 -363.05842009050502 -342.13999742206215 0 0 0 0 -83.526507694892643 -788.81373015587815 0 -788.81373015587815 25.84336389076816 0 0 0 0 69.830355645739473 -422.96640818135711 0 -422.96640818135711 -79.07210738003414 0 0 0 0 159.39852700498886 -395.37842166162591 0 -395.37842166162591 12.785149544055457 0 0 0 0 443.95699493455322 -227.86468041675289 0 -227.86468041675289 75.73654055922816 0 0 0 0 -21.988056866073748 -543.38829093744789 0 -543.38829093744789 -25.905918166555239 0 0 0 0 144.05709447043773 -397.65435459430591 0 -397.65435459430591 3.194479788915487 0 0 0 0 31.713944380438988 -418.35038220614615 0 -418.35038220614615 119.87947928055655 0 0 0 0 245.91699873153993 -224.65955510756248 0 -224.65955510756248 219.48298255830468 0 0 0 0 187.21013646380743 -475.5635780448647 0 -475.5635780448647 132.81005225113768 0 0 0 0 190.81801611517585 -353.12739139198493 0 -353.12739139198493 -58.369727305278502 0 0 0 0 197.12362849693454 -450.21106062317995 0 -450.21106062317995 33.063590374618798 0 0 0 0 5.8359486712228659 -7.2656220568755501 0 -7.2656220568755501 -4.328847664702792 0 0 0 0 -92.594158349155634 -127.52311903600345 0 -127.52311903600345 -80.503509515088808 0 0 0 0 -92.52618915909261 -272.7283444561308 0 -272.7283444561308 -68.000441861964646 0 0 0 0 -355.16451090789633 -463.53531090593606 0 -463.53531090593606 -1046.0440807129617 0 0 0 0 -95.879284738486604 459.13889100162851 0 459.13889100162851 -566.33173475266813 0 0 0 0 146.42649116197572 254.60887303590971 0 254.60887303590971 -489.79608459233714 0 0 0 0 253.26008319971152 -84.237994593153417 0 -84.237994593153417 34.724675374422077 0 0 0 0 263.86330654964149 -116.65335677946723 0 -116.65335677946723 -500.6755650990126 0 0 0 0 6.3911466375088253 -3.5108806995613975 0 -3.5108806995613975 -7.1901262920653579 0 0 0 0 2513.6586265971855 1582.2730836776946 0 1582.2730836776946 242.13878394682615 0 0 0 0 -1957.8695942899431 -1690.3318697076757 0 -1690.3318697076757 -1249.8849523615982 0 0 0 0 1115.6989116804034 -153.94799739674636 0 -153.94799739674636 -669.39453031726771 0 0 0 0 792.54222865240445 35.25650254537868 0 35.25650254537868 -1106.7517104942017 0 0 0 0 782.31520402456226 -151.05705951822893 0 -151.05705951822893 -166.4056851942687 0 0 0 0 2096.0492033469563 815.47172661298373 0 815.47172661298373 -182.44782941016092 0 0 0 0 354.17006762231176 -365.38261705075456 0 -365.38261705075456 -259.00197627422313 0 0 0 0 -139.62599887004035 -1111.5399692611791 0 -1111.5399692611791 -865.46514137809572 0 0 0 0 -1292.8352247844523 -812.02518896894981 0 -812.02518896894981 -876.92260715468728 0 0 0 0 -124.52077816004748 -885.62676770245162 0 -885.62676770245162 -2074.7019712512702 0 0 0 0 -1007.0018727704974 -1769.5046942893773 0 -1769.5046942893773 -1329.4389160012397 0 0 0 0 -106.27815694062883 -25.35728268861385 0 -25.35728268861385 -2725.4139959852655 0 0 0 0 -1203.1575602252706 -2279.1840601906497 0 -2279.1840601906497 -2174.7168481416206 0 0 0 0 -57.615578412147443 -943.88730547750038 0 -943.88730547750038 -1261.6857183787615 0 0 0 0 -915.02662079776928 61.983642241775669 0 61.983642241775669 725.38873161263371 0 0 0 0 -23.616124959372314 -7.0108915048558913 0 -7.0108915048558913 -3.1968197002941587 0 0 0 0 -1815.7594120770518 -1181.9454949344945 0 -1181.9454949344945 -1261.3638372199696 0 0 0 0 105.72868984753222 -249.16587885748186 0 -249.16587885748186 32.704330963977554 0 0 0 0 180.74771954392781 -3380.9006852977145 0 -3380.9006852977145 -6602.3576463562622 0 0 0 0 -1595.2903749672041 -552.40220588759576 0 -552.40220588759576 404.4888942684629 0 0 0 0 96.40346362501441 -299.58677931809143 0 -299.58677931809143 -223.76807046050453 0 0 0 0 -565.26128508345573 -666.81315403704684 0 -666.81315403704684 -341.53058310263441 0 0 0 0 97.777320444455881 -76.984918661543304 0 -76.984918661543304 -21.649240222292164 0 0 0 0 57.458208221898531 -122.2872126441107 0 -122.2872126441107 -31.18626479134582 0 0 0 0 34.428312658565119 -180.87521258055494 0 -180.87521258055494 -178.29804856770352 0 0 0 0 79.138640761885995 -16.438320793039139 0 -16.438320793039139 -9.3739632708215517 0 0 0 0 29.765392421220895 40.337140858650855 0 40.337140858650855 -106.5476931366502 0 0 0 0 -64.014694029860721 -37.699183642405927 0 -37.699183642405927 -1.7765811656343042 0 0 0 0 1.8354860885989126 -1.1175043037354726 0 -1.1175043037354726 -4.3799992908105452 0 0 0 0 -553.32242596909782 -529.10785422177014 0 -529.10785422177014 -2046.6533599115537 0 0 0 0 -1333.5739035918159 -2212.1023047894523 0 -2212.1023047894523 -2614.3927346941891 0 0 0 0 392.15073055046378 -182.62430791163752 0 -182.62430791163752 -1038.92022007638 0 0 0 0 -162.81587737083464 -1244.2448266806177 0 -1244.2448266806177 -994.59270600829768 0 0 0 0 -494.02482551502908 -967.74579601546247 0 -967.74579601546247 -877.98930249223486 0 0 0 0 1.4556654095623429 -8.9409574901915789 0 -8.9409574901915789 -31.405337575251025 0 0 0 0 136.63201958900027 -305.90250226197531 0 -305.90250226197531 288.31718614411147 0 0 0 0 -9.1388022090816463 -13.815269394875429 0 -13.815269394875429 23.415242772128636 0 0 0 0 -2937.2153744347524 -1283.1321573170508 0 -1283.1321573170508 -336.31273644710018 0 0 0 0 431.02389105845941 -3590.8808508682559 0 -3590.8808508682559 -3063.0790671723735 0 0 0 0 -984.4425209076544 -2740.1009349159776 0 -2740.1009349159776 -3535.5714955987496 0 0 0 0 1650.6617234374426 475.32845469576205 0 475.32845469576205 -1705.0209577178011 0 0 0 0 -2745.4731600571686 -1960.8506886154264 0 -1960.8506886154264 -2410.2931252432172 0 0 0 0 1291.9211913781037 -994.74519300026441 0 -994.74519300026441 450.36473042140096 0 0 0 0 2045.4427207965273 -49.069618410758267 0 -49.069618410758267 -621.60412143431313 0 0 0 0 -755.07533812373731 -40.37777720638951 0 -40.37777720638951 1022.2245095132821 0 0 0 0 1300.9986675946711 86.024727912510571 0 86.024727912510571 -1086.5359551497822 0 0 0 0 4.4991963539119979 -4.0888911916209665 0 -4.0888911916209665 -2.4947595173308201 0 0 0 0 1176.1916719906149 -459.1341740602802 0 -459.1341740602802 -319.95866720739286 0 0 0 0 -1124.7930709727225 -550.04306351325795 0 -550.04306351325795 -76.50046556275629 0 0 0 0 1393.090841799014 -60.58081634350674 0 -60.58081634350674 408.91054717676889 0 0 0 0 -11.392612678388701 -10.630216060676617 0 -10.630216060676617 3.9548380158421992 0 0 0 0 595.60295993198088 173.24716888393777 0 173.24716888393777 -439.95332263089949 0 0 0 0 -15.249359258565107 -37.701361412752902 0 -37.701361412752902 -13.203107177208523 0 0 0 0 -37.436081490988727 -58.513474812813001 0 -58.513474812813001 -11.202910417450767 0 0 0 0 -84.537425906019052 -66.950948036279442 0 -66.950948036279442 -2.9713445398338081 0 0 0 0 -6.3828138169582473 -24.028792741493476 0 -24.028792741493476 26.394679068019457 0 0 0 0 935.87073841087113 -938.71522072269363 0 -938.71522072269363 794.91017619619379 0 0 0 0 341.32694204421568 -377.66334555577669 0 -377.66334555577669 389.60828825095814 0 0 0 0 -20.385873237804375 -41.897709539741541 0 -41.897709539741541 -37.968587925329842 0 0 0 0 729.58223890466616 -497.62825494159915 0 -497.62825494159915 110.5707486808351 0 0 0 0 -6.3024132170285156 -120.76152181868611 0 -120.76152181868611 -23.17006311944715 0 0 0 0 -40.44016809998999 -57.688647880533367 0 -57.688647880533367 -45.1428542853305 0 0 0 0 -21.738054764051412 -46.23510353229608 0 -46.23510353229608 -23.349738337274175 0 0 0 0 10.43322270133649 359.62113517193939 0 359.62113517193939 343.40447915345203 0 0 0 0 -112.56906249751046 -226.08517209770798 0 -226.08517209770798 634.33731878640174 0 0 0 0 -39.376308331979132 -58.356233272551876 0 -58.356233272551876 -53.372934854110724 0 0 0 0 90.229305280576227 -47.659098601183359 0 -47.659098601183359 -81.593159391890367 0 0 0 0 -136.17776654526824 -58.314126368426514 0 -58.314126368426514 292.87364307341704 0 0 0 0 -30.504071425867096 -60.640030290995767 0 -60.640030290995767 19.89943795006171 0 0 0 0 -381.18650293110113 -223.48283389120843 0 -223.48283389120843 187.25376597890136 0 0 0 0 -114.62578213085362 -36.726197621794199 0 -36.726197621794199 125.26845027469767 0 0 0 0 -15.540004459671337 -31.655573034873129 0 -31.655573034873129 105.35567072686054 0 0 0 0 -2.2663636901668269 -2.9487296602698549 0 -2.9487296602698549 24.117206138636416 0 0 0 0 2.5222659614155418 117.36835985823018 0 117.36835985823018 -30.369497068830242 0 0 0 0 -46.746299170146813 -264.90056635875953 0 -264.90056635875953 -505.12158427972463 0 0 0 0 158.80150897809654 -561.80642574319791 0 -561.80642574319791 -452.20719074539375 0 0 0 0 -779.24960031354203 -1339.04374986119 0 -1339.04374986119 -1095.3101881419789 0 0 0 0 -3.6192967029550971 -13.194679229871667 0 -13.194679229871667 -1.3017134290991379 0 0 0 0 -28.525078728758672 25.571204915308954 0 25.571204915308954 -369.91256962552507 0 0 0 0 -1080.7580613969767 -299.26940261562413 0 -299.26940261562413 53.286703160739307 0 0 0 0 -1813.9480531971931 -1604.7423875215773 0 -1604.7423875215773 -517.86474913123675 0 0 0 0 -643.51383944510599 -916.92364898160122 0 -916.92364898160122 -899.77196656528395 0 0 0 0 -1297.6966627067886 -1724.2311384993991 0 -1724.2311384993991 -1128.8370437548037 0 0 0 0 -337.56547447781486 -633.54185071571101 0 -633.54185071571101 -951.92190071619189 0 0 0 0 2389.7009681192867 -301.78601799497119 0 -301.78601799497119 -808.05015155064575 0 0 0 0 -746.17367985208693 -441.81871811446581 0 -441.81871811446581 10.540285783805302 0 0 0 0 -27.12014085566625 -1506.8534121403318 0 -1506.8534121403318 -1249.2148075699179 0 0 0 0 177.94550541271019 -1508.614855395228 0 -1508.614855395228 -1763.0204191726152 0 0 0 0 190.66793322400781 -1054.0196257712603 0 -1054.0196257712603 -2099.5417295632797 0 0 0 0 448.59304580918979 105.34747075298947 0 105.34747075298947 -1353.5731729989129 0 0 0 0 -170.60673252496053 -206.42737024379858 0 -206.42737024379858 215.26811904627539 0 0 0 0 -858.00304864946884 -1106.5717059852227 0 -1106.5717059852227 -193.44417103903106 0 0 0 0 -1210.8263247313625 22.823785309013147 0 22.823785309013147 64.362588568241335 0 0 0 0 -5.0917654920315556 -9.280109548100512 0 -9.280109548100512 -18.69181698569092 0 0 0 0 -103.25484570633853 -181.91351340550682 0 -181.91351340550682 51.150704003313876 0 0 0 0 -25.368495250673732 -179.81355680839442 0 -179.81355680839442 -240.19412432634272 0 0 0 0 -164.09906620715628 -94.836642786245648 0 -94.836642786245648 18.437709298337722 0 0 0 0 -30.901372074835194 -43.399436852175427 0 -43.399436852175427 -21.488359332545585 0 0 0 0 106.43954055130598 -464.39515130977088 0 -464.39515130977088 133.42204398943613 0 0 0 0 0.072931667498778552 -68.889899961276001 0 -68.889899961276001 -809.83416478782954 0 0 0 0 -3.1290596027285638 -36.290024297150524 0 -36.290024297150524 -98.573286430726014 0 0 0 0 531.55626626426238 -571.04348072477842 0 -571.04348072477842 -294.53701011130033 0 0 0 0 -96.728802167897811 -248.89609428559058 0 -248.89609428559058 -758.4205434015015 0 0 0 0 2833.9882246918132 -709.7557458992942 0 -709.7557458992942 -3329.6552475714125 0 0 0 0 -25.686096382210962 -47.610835526721075 0 -47.610835526721075 -1190.6321386975715 0 0 0 0 1.6485590593998083 -23.851784093181521 0 -23.851784093181521 -99.077779235305172 0 0 0 0 -254.82607874271343 3.2515441798041138 0 3.2515441798041138 -897.36051793578554 0 0 0 0 0.21065299095062073 -92.362504209226699 0 -92.362504209226699 -1010.132597475168 0 0 0 0 -28.682423451449722 -137.43355234504543 0 -137.43355234504543 -881.03418212304405 0 0 0 0 -140.02366431819974 -42.585945878893654 0 -42.585945878893654 -854.60870434908884 0 0 0 0 -140.28857260709628 -47.293628648972117 0 -47.293628648972117 -912.01002850248551 0 0 0 0 -195.46133938174171 22.81088828652446 0 22.81088828652446 -745.06787932328371 0 0 0 0 1.4681906145301333 -15.047328086726139 0 -15.047328086726139 -78.914215006230393 0 0 0 0 -0.88800040334172081 -217.67876149697531 0 -217.67876149697531 -641.32031162063322 0 0 0 0 -684.52975169877755 -765.1223466649335 0 -765.1223466649335 -1071.3577394686818 0 0 0 0 -475.25799356205971 -1452.524451703217 0 -1452.524451703217 -2230.9224779202123 0 0 0 0 0.016815447626868263 -876.20965052776501 0 -876.20965052776501 -1549.8988428166886 0 0 0 0 -1818.422683034325 -1365.5491700527537 0 -1365.5491700527537 -1125.7593182342225 0 0 0 0 2140.0702227677339 879.07120700276528 0 879.07120700276528 -1723.8159411616871 0 0 0 0 0.30056650297682985 -5.0386085467153521 0 -5.0386085467153521 -31.271377609209296 0 0 0 0 -657.389881369455 -165.12243531419648 0 -165.12243531419648 94.057349695252924 0 0 0 0 655.78578323294641 -243.82853271920976 0 -243.82853271920976 -95.721572430746164 0 0 0 0 2002.265225811454 531.86522168003285 0 531.86522168003285 -563.25112918889499 0 0 0 0 907.68733102898113 -345.12217966999378 0 -345.12217966999378 -875.88058355951216 0 0 0 0 670.31069511613168 -978.08311596079329 0 -978.08311596079329 -1134.1962542929323 0 0 0 0 1057.7963840887824 -401.13141954143248 0 -401.13141954143248 -1257.709610287493 0 0 0 0 3063.1003572813643 -331.73905643759645 0 -331.73905643759645 -2776.6617152847339 0 0 0 0 3067.651363310928 -1157.729727302949 0 -1157.729727302949 -1198.4919234454355 0 0 0 0 623.88458180226735 92.096042211363965 0 92.096042211363965 -591.75640970854147 0 0 0 0 27.405557014746421 -0.85038014717004984 0 -0.85038014717004984 1.0090033333849036 0 0 0 0 806.72969876947172 -1140.9523059842595 0 -1140.9523059842595 1176.1286691255737 0 0 0 0 -18.585071291934582 -163.92748372355436 0 -163.92748372355436 34.645627687703382 0 0 0 0 1829.3728384803107 -829.56719627761504 0 -829.56719627761504 -323.22584324258059 0 0 0 0 431.97936600717367 -2058.0578766650779 0 -2058.0578766650779 409.3539578737691 0 0 0 0 -630.14948426315095 -858.15549067565007 0 -858.15549067565007 97.154987441314006 0 0 0 0 -287.8006451324909 -41.581662649310601 0 -41.581662649310601 -2195.6634142111279 0 0 0 0 0.081624400307191536 -1224.4691708282407 0 -1224.4691708282407 -585.3820388372078 0 0 0 0 -1754.4364216034883 -951.28689415469671 0 -951.28689415469671 814.83704751284677 0 0 0 0 63.190766456853453 -162.52410789621354 0 -162.52410789621354 83.65491068179108 0 0 0 0 7.3187852271057636 -369.95689595209114 0 -369.95689595209114 -90.967302142958943 0 0 0 0 230.40992478628004 -191.0305330951378 0 -191.0305330951378 -47.200128741096705 0 0 0 0 -352.56209780133941 -229.75622702100372 0 -229.75622702100372 75.06026853864023 0 0 0 0 2.7715439765688537 0.94150281769242383 0 0.94150281769242383 -10.314212781281753 0 0 0 0 262.26221750845616 -308.76913435423194 0 -308.76913435423194 -303.20063532446511 0 0 0 0 267.42780236966428 -262.84000233984989 0 -262.84000233984989 -100.86323586565413 0 0 0 0 38.394711883083801 -67.073386522668443 0 -67.073386522668443 -51.577481792744948 0 0 0 0 -54.451980966783594 -217.0960532228637 0 -217.0960532228637 -136.62799405346777 0 0 0 0 479.10714389192799 -20.270135863553151 0 -20.270135863553151 -121.89395328064529 0 0 0 0 2.5942808947049629 -8.0693766605939601 0 -8.0693766605939601 -1.9410780546978685 0 0 0 0 11.449156224553263 -28.348239859242355 0 -28.348239859242355 -64.978933532235089 0 0 0 0 541.70218789124397 -221.40985414774786 0 -221.40985414774786 -189.09935842640698 0 0 0 0 69.415575982691735 -163.96959920408699 0 -163.96959920408699 49.41493459691992 0 0 0 0 97.649144093547875 -171.21173450259084 0 -171.21173450259084 47.031495279268711 0 0 0 0 31.529427592422053 -65.421263378026651 0 -65.421263378026651 -24.476250292122131 0 0 0 0 19.095702955508344 -39.615446173361448 0 -39.615446173361448 -61.247131370867464 0 0 0 0 9.8044171384483541 -43.32066883206042 0 -43.32066883206042 -34.535479066718494 0 0 0 0 12.701647501912703 -87.237840266415333 0 -87.237840266415333 -37.663136027360451 0 0 0 0 56.145514751526207 -57.714307859248947 0 -57.714307859248947 -47.977125432254979 0 0 0 0 7.4097002953605227 -40.497408251655798 0 -40.497408251655798 -12.264160689230451 0 0 0 0 6.3668402704497566 -51.499972699522914 0 -51.499972699522914 -26.503974111445132 0 0 0 0 7.2919027867519617 -74.458493743528379 0 -74.458493743528379 -15.308992512756959 0 0 0 0 20.469219558558954 -42.395522430094474 0 -42.395522430094474 -7.9149896771367594 0 0 0 0 68.716422059274919 -144.8529445476961 0 -144.8529445476961 20.025333650522953 0 0 0 0 -27.148317844998736 -51.359437571731391 0 -51.359437571731391 -7.0903905192313914 0 0 0 0 12.801282565200381 -86.003958028708439 0 -86.003958028708439 8.3900028760108398 0 0 0 0 69.431235866507393 -89.334184108125314 0 -89.334184108125314 23.849560927802543 0 0 0 0 89.180802744661378 -144.91704685599325 0 -144.91704685599325 1.4610078592668287 0 0 0 0 36.963658798810684 -134.80868192965863 0 -134.80868192965863 61.758069570270891 0 0 0 0 41.36383380456391 -138.93746161690069 0 -138.93746161690069 -57.601733400115336 0 0 0 0 21.255630824875965 -25.306202197366773 0 -25.306202197366773 7.4752994745035721 0 0 0 0 56.779186786990152 -90.698205192088537 0 -90.698205192088537 38.740877863412123 0 0 0 0 31.320135645612595 -122.14275646571696 0 -122.14275646571696 93.629183169425232 0 0 0 0 74.061550464568427 -100.75404988658556 0 -100.75404988658556 -33.269109740824206 0 0 0 0 52.677888910309775 -102.28668157037282 0 -102.28668157037282 4.0412151659256779 0 0 0 0 46.162540180343512 -124.85354801159883 0 -124.85354801159883 54.336397538980236 0 0 0 0 62.675666284165345 -143.48556933546206 0 -143.48556933546206 52.024335628564586 0 0 0 0 87.992200393462554 -104.08838829898741 0 -104.08838829898741 8.0201909466268262 0 0 0 0 34.587678679112287 -116.62251337054477 0 -116.62251337054477 8.9776584617939079 0 0 0 0 23.87316914713665 -93.372528653111658 0 -93.372528653111658 -0.060212796910491306 0 0 0 0 -46.915477364640566 -77.086938857669026 0 -77.086938857669026 -6.8291333366808828 0 0 0 0 46.386307944807868 -83.11835736996909 0 -83.11835736996909 4.1813627591764089 0 0 0 0 2.5142958032593015 -223.43677954543091 0 -223.43677954543091 125.46339730505133 0 0 0 0 140.55534750792444 -84.792648539381588 0 -84.792648539381588 26.738908717354661 0 0 0 0 26.074513928273518 -230.39032754223444 0 -230.39032754223444 127.51413919795596 0 0 0 0 118.83305093233139 -276.59505534068376 0 -276.59505534068376 -53.234469594375696 0 0 0 0 115.45911918324828 -113.98721166448377 0 -113.98721166448377 138.9027356617371 0 0 0 0 80.873449492235522 -191.608341531115 0 -191.608341531115 79.301347728891415 0 0 0 0 344.0453933204335 -318.47079190295335 0 -318.47079190295335 -119.97294430134934 0 0 0 0 -0.23446758591308026 -292.17112271686347 0 -292.17112271686347 524.66953114156786 0 0 0 0 183.35066870034825 -223.69385121025334 0 -223.69385121025334 -392.56786702793033 0 0 0 0 58.938950024545193 -206.26407292082877 0 -206.26407292082877 -139.42694566086629 0 0 0 0 109.50919480688745 -61.901338272620421 0 -61.901338272620421 28.190056002883153 0 0 0 0 75.943932289059376 -97.887096671416657 0 -97.887096671416657 302.4037827446482 0 0 0 0 113.75300290178029 -91.479601581559109 0 -91.479601581559109 153.05561116046738 0 0 0 0 75.122275743959108 -156.84702108795318 0 -156.84702108795318 151.10427700592436 0 0 0 0 100.85355289505242 -118.78890991079243 0 -118.78890991079243 165.14737544090895 0 0 0 0 99.820533071475438 -58.63344567657623 0 -58.63344567657623 287.39510068381787 0 0 0 0 137.43090424393881 -156.56608881899592 0 -156.56608881899592 137.87044802900346 0 0 0 0 84.732791886241557 -134.02137264155317 0 -134.02137264155317 136.71876997534309 0 0 0 0 94.601006788801897 -126.25239301211695 0 -126.25239301211695 131.77477131889464 0 0 0 0 116.3114257676616 -124.68195199367619 0 -124.68195199367619 95.559154598566238 0 0 0 0 58.639860816510236 -177.12018406586139 0 -177.12018406586139 101.59886744932919 0 0 0 0 121.04940330831641 -217.5224550715393 0 -217.5224550715393 79.400118710327661 0 0 0 0 -37.826662069172471 -272.32001658249283 0 -272.32001658249283 68.557750973923248 0 0 0 0 32.957732647216289 -171.71557519827911 0 -171.71557519827911 105.46450113800529 0 0 0 0 39.027457575274639 -185.16457617901324 0 -185.16457617901324 133.89957733213669 0 0 0 0 87.300353625600337 -144.67429107388125 0 -144.67429107388125 98.374473754200153 0 0 0 0 82.985266568053703 -168.60099725778127 0 -168.60099725778127 96.96952506506932 0 0 0 0 69.876700737390365 -146.83415048213465 0 -146.83415048213465 98.81522134935949 0 0 0 0 29.929927439954554 -135.4530015328055 0 -135.4530015328055 122.24618202155398 0 0 0 0 67.381601225747545 -143.59486242409912 0 -143.59486242409912 122.11725166943506 0 0 0 0 79.612973365159633 -86.190946245340456 0 -86.190946245340456 87.681664017763978 0 0 0 0 72.564399974149637 -70.363790188072016 0 -70.363790188072016 192.3749750815623 0 0 0 0 -87.941754625392605 -161.26547257057973 0 -161.26547257057973 200.55367993834079 0 0 0 0 11.422769652631359 -122.76286152731336 0 -122.76286152731336 194.81866036319116 0 0 0 0 -108.06607892589 -194.57468675530254 0 -194.57468675530254 201.31554728982155 0 0 0 0 -86.045646521006603 -189.55300648013235 0 -189.55300648013235 202.45809704734711 0 0 0 0 -38.710778156880224 -197.73363303305814 0 -197.73363303305814 134.37056371188373 0 0 0 0 65.514268593447923 -133.06182486016769 0 -133.06182486016769 200.13531013613101 0 0 0 0 38.41323963762261 -80.173058818138088 0 -80.173058818138088 9.5557399166500545 0 0 0 0 103.12118846128942 -137.94547113782028 0 -137.94547113782028 -1.1184514798223972 0 0 0 0 91.165381302225796 -205.79508141980114 0 -205.79508141980114 130.29126469875337 0 0 0 0 51.4238606371473 -133.42085281325853 0 -133.42085281325853 86.168826223023643 0 0 0 0 101.87099579342339 -145.78224195852454 0 -145.78224195852454 82.834350624048966 0 0 0 0 62.704170434844855 -101.13388486852637 0 -101.13388486852637 75.059986851185386 0 0 0 0 80.377750165518592 -139.457530365813 0 -139.457530365813 103.06666747418058 0 0 0 0 12.184765877933387 -95.648577847634442 0 -95.648577847634442 80.75371388001804 0 0 0 0 77.627713757916808 -120.92338047921385 0 -120.92338047921385 48.575390283629531 0 0 0 0 26.249543639896729 13.973645346355624 0 13.973645346355624 -88.364382226569433 0 0 0 0 -7.1269704948493171 -10.601925132334344 0 -10.601925132334344 -11.528284006167524 0 0 0 0 3.4426543201947339 -5.0122246979091187 0 -5.0122246979091187 -4.4402202185024748 0 0 0 0 85.804962122952929 -107.14977458532667 0 -107.14977458532667 -15.072739913070109 0 0 0 0 -29.28850655277347 -34.678386440282338 0 -34.678386440282338 38.075892809683864 0 0 0 0 -50.704735560324366 -36.064168171140494 0 -36.064168171140494 -20.057575075572316 0 0 0 0 332.2720231668136 687.42215228031273 0 687.42215228031273 -729.5060507460521 0 0 0 0 -589.17101319192807 -576.33121267194292 0 -576.33121267194292 1149.0686975533608 0 0 0 0 26.793724450879381 43.852930471592117 0 43.852930471592117 22.938209969273885 0 0 0 0 -9.6751647570416353 -12.879166341441504 0 -12.879166341441504 -5.8154134758533189 0 0 0 0 6.6165450532686236 -2.3054957291318203 0 -2.3054957291318203 -7.3988702272150135 0 0 0 0 -585.54287972051679 -297.06319776401142 0 -297.06319776401142 -825.52577880129684 0 0 0 0 -67.604313605199494 -58.729618876340737 0 -58.729618876340737 -24.713604712335794 0 0 0 0 214.41131598956417 235.12637957802508 0 235.12637957802508 -577.54502212884836 0 0 0 0 -198.55249776848723 -640.13167434887146 0 -640.13167434887146 92.852605194435455 0 0 0 0 739.6408719860774 -16.778741546957463 0 -16.778741546957463 -870.05232253926806 0 0 0 0 268.99621011265845 -819.12080172805872 0 -819.12080172805872 -1395.2578220068317 0 0 0 0 -388.83561209456821 -676.47537223664403 0 -676.47537223664403 -2872.2184733745817 0 0 0 0 45.020063050692272 -10.079781099740813 0 -10.079781099740813 -1.960154256178555 0 0 0 0 -236.74129674000142 229.82630826023524 0 229.82630826023524 435.07800149523246 0 0 0 0 -644.96597352222307 -536.81436108828348 0 -536.81436108828348 28.886710038641468 0 0 0 0 -2.4851924215901757 -8.7814562906664833 0 -8.7814562906664833 -3.1756252267524374 0 0 0 0 -137.80457623585789 -171.96968686881883 0 -171.96968686881883 349.28843983004481 0 0 0 0 -221.98659605337207 -281.5661564796028 0 -281.5661564796028 -692.98929155351652 0 0 0 0 -210.26581669358711 -431.86833786114585 0 -431.86833786114585 -660.92099751658679 0 0 0 0 -112.29864962981719 -601.7089426057355 0 -601.7089426057355 -532.17304167116527 0 0 0 0 -264.45111733655631 -275.17533607174846 0 -275.17533607174846 265.39389706309885 0 0 0 0 -14.984793579566031 -74.117235092511692 0 -74.117235092511692 297.01502075145254 0 0 0 0 124.47079711571314 -107.12534865834459 0 -107.12534865834459 -656.5253452124889 0 0 0 0 67.870233581981751 -23.410621109250854 0 -23.410621109250854 -13.492975183054767 0 0 0 0 -29.928085239031134 -348.11477601302613 0 -348.11477601302613 -3276.382446690106 0 0 0 0 -455.66615938065934 3.9242334613609273 0 3.9242334613609273 -645.34275650451309 0 0 0 0 -348.46621503618735 -303.56965851120185 0 -303.56965851120185 -566.32056641097734 0 0 0 0 -1.4338225870241068 -23.278441468756881 0 -23.278441468756881 -8.0638273582943611 0 0 0 0 8.5045988719585743 -38.546831648734127 0 -38.546831648734127 -2.8237182929942719 0 0 0 0 198.16220076962566 -372.47465577462572 0 -372.47465577462572 -5422.20135009363 0 0 0 0 -309.25219442476282 -389.71505671758496 0 -389.71505671758496 -472.64426408754662 0 0 0 0 -1306.9893447627351 -685.5680189281411 0 -685.5680189281411 -262.56042399320722 0 0 0 0 167.18583264876179 -1458.6067781055972 0 -1458.6067781055972 -3309.9694347328186 0 0 0 0 626.31418549184491 -892.655352583286 0 -892.655352583286 -4485.4859283008991 0 0 0 0 437.05536120532452 -691.76170949489824 0 -691.76170949489824 -2916.7487304813112 0 0 0 0 88.42114707206747 -1813.6413406929496 0 -1813.6413406929496 -3922.2159615526398 0 0 0 0 -164.2996912983017 -1300.8082852142179 0 -1300.8082852142179 -3325.5839477594636 0 0 0 0 -389.72242757572803 -707.06465288525942 0 -707.06465288525942 -3229.4042873314902 0 0 0 0 -33.006731769272733 -66.397537501757029 0 -66.397537501757029 520.40775162752834 0 0 0 0 -29.567113189887095 -144.57583339259145 0 -144.57583339259145 8.9245223115285626 0 0 0 0 0.31823770863709555 -21.682903565988624 0 -21.682903565988624 6.8900126444533925 0 0 0 0 -44.824621353924158 -104.72955175726383 0 -104.72955175726383 62.310446725139627 0 0 0 0 88.569988923649362 116.87298371872021 0 116.87298371872021 -551.29199802383664 0 0 0 0 -227.86307684785152 -436.5838099460816 0 -436.5838099460816 -7.0311546072553028 0 0 0 0 -78.232363361255921 -299.22534757338872 0 -299.22534757338872 176.22670387561811 0 0 0 0 -165.56234553207787 -290.92275666971182 0 -290.92275666971182 185.67177961824927 0 0 0 0 -119.23709349358614 -283.49435026109131 0 -283.49435026109131 156.97918939414376 0 0 0 0 -23.66913527514771 -239.0106250871977 0 -239.0106250871977 225.14338939529262 0 0 0 0 -143.27497613996456 -316.75988600151322 0 -316.75988600151322 233.6110642326239 0 0 0 0 -116.81632549762799 -295.80852812760168 0 -295.80852812760168 205.09406283684075 0 0 0 0 49.436618663636182 -232.4141079148103 0 -232.4141079148103 154.80392663738894 0 0 0 0 -228.75743364081916 -213.37323395121166 0 -213.37323395121166 166.28079516153957 0 0 0 0 -214.6266898002836 -414.0345202733688 0 -414.0345202733688 126.09228825324681 0 0 0 0 -91.655055108473789 -320.20205206713581 0 -320.20205206713581 158.85344645958685 0 0 0 0 1033.8528568273578 201.2531414241239 0 201.2531414241239 36.141730699375103 0 0 0 0 -248.72958459398797 -82.33240916536306 0 -82.33240916536306 -123.39861314205336 0 0 0 0 -4.6538446514183249 -4.0135515746864314 0 -4.0135515746864314 15.727977743614986 0 0 0 0 216.08666207102669 51.374786170199513 0 51.374786170199513 38.742998189176433 0 0 0 0 497.98761234423989 -395.89264481272085 0 -395.89264481272085 -73.404279790935107 0 0 0 0 196.79479645042193 -453.8688092941884 0 -453.8688092941884 305.66335979262658 0 0 0 0 936.44900627752577 -334.47854419174837 0 -334.47854419174837 -83.077767628354195 0 0 0 0 -43.282028112258558 -290.16231468158003 0 -290.16231468158003 354.75671461330785 0 0 0 0 -117.72418734929306 -369.62137843910023 0 -369.62137843910023 286.5458396334634 0 0 0 0 -94.651026797371742 -2147.5009670710169 0 -2147.5009670710169 -1662.2283184995176 0 0 0 0 657.31010883242652 -975.74985572660808 0 -975.74985572660808 -2326.4492342828889 0 0 0 0 -303.36339646035776 -1001.8031960054068 0 -1001.8031960054068 69.610357146631941 0 0 0 0 -1260.358623554006 -1493.3750521244656 0 -1493.3750521244656 -2241.9956996701367 0 0 0 0 -592.47567420425185 -1549.7463554859423 0 -1549.7463554859423 -2298.3158035923625 0 0 0 0 -968.33514262188692 -1425.0597880392525 0 -1425.0597880392525 -1976.0442429128743 0 0 0 0 -2612.9114317942876 -2042.1304715600563 0 -2042.1304715600563 -4608.1376955671367 0 0 0 0 -388.38014023697178 -1449.8415957460675 0 -1449.8415957460675 -4566.5282852232922 0 0 0 0 -543.77680006837363 -2994.7756502305783 0 -2994.7756502305783 -4612.7356197112022 0 0 0 0 -1555.9660843901947 -1911.7413864455812 0 -1911.7413864455812 -4464.69584325303 0 0 0 0 -1.9517333860286783 -12.332346743333346 0 -12.332346743333346 1.9967307070713218 0 0 0 0 -22.513573540201421 -12.398738867588861 0 -12.398738867588861 8.9482061694656494 0 0 0 0 -47.227969099831171 -103.91032210624689 0 -103.91032210624689 10.774344604287762 0 0 0 0 45.515366173945949 -2473.7735235745349 0 -2473.7735235745349 -5606.1912101214402 0 0 0 0 -10.001383262063051 -48.19169437846611 0 -48.19169437846611 57.983816857009572 0 0 0 0 -249.0296120540952 44.955968191366992 0 44.955968191366992 224.29624306514597 0 0 0 0 -64.728267618772406 85.423444564392412 0 85.423444564392412 -48.044020819506841 0 0 0 0 3.5107309466196988 -14.314658424163852 0 -14.314658424163852 -9.6014512068798012 0 0 0 0 -51.603286220561131 -92.419607179748709 0 -92.419607179748709 34.241683536267374 0 0 0 0 -22.677561103719199 -231.91314482825692 0 -231.91314482825692 -2437.0781578571332 0 0 0 0 -891.66574434607901 -2192.58300616208 0 -2192.58300616208 -2172.035813493625 0 0 0 0 -1081.8373869966363 -2041.8377850484812 0 -2041.8377850484812 -2290.1006009911944 0 0 0 0 -14.125382970234341 -54.693780973236215 0 -54.693780973236215 33.592488887543567 0 0 0 0 -614.05765709731349 -2079.3937574897063 0 -2079.3937574897063 -2145.7603588476049 0 0 0 0 -1061.9489752671907 -2177.7340576984861 0 -2177.7340576984861 -1916.2950750459568 0 0 0 0 -771.5027665387388 -2535.6955798020354 0 -2535.6955798020354 -2427.0769847211195 0 0 0 0 -330.20241240903124 -2172.1866141357168 0 -2172.1866141357168 -2292.4672249666787 0 0 0 0 -1.1128964531071688 -4.2508659376634768 0 -4.2508659376634768 6.0811366751000264 0 0 0 0 -45.439094423103171 -49.338736634634472 0 -49.338736634634472 13.792596958014613 0 0 0 0 217.91643901422503 -36.569416609178006 0 -36.569416609178006 -1976.0453479164862 0 0 0 0 -60.421591172487751 -114.87531510949339 0 -114.87531510949339 -58.758771358756348 0 0 0 0 -846.96949215791392 28.36793896593008 0 28.36793896593008 88.713962826244824 0 0 0 0 -44.466359953203209 -86.065201395700569 0 -86.065201395700569 -8.4389600436552428 0 0 0 0 -10.882463047134252 -50.637644899446627 0 -50.637644899446627 40.631798370586523 0 0 0 0 -109.55786694005656 -156.26133130056405 0 -156.26133130056405 -33.065946898073889 0 0 0 0 -75.997137139092956 -151.25959678628715 0 -151.25959678628715 -32.413258976388533 0 0 0 0 -11.093940371763892 -123.6524757121515 0 -123.6524757121515 -63.030713779291546 0 0 0 0 -81.902525620083907 -158.30788981068326 0 -158.30788981068326 33.814671925618313 0 0 0 0 -8.0636507388973939 -81.308103863865426 0 -81.308103863865426 21.405003089755581 0 0 0 0 -33.985249746598953 -96.607048794785982 0 -96.607048794785982 -52.845786145656746 0 0 0 0 -43.071553573245183 -113.47245908869081 0 -113.47245908869081 -144.76009445573436 0 0 0 0 -52.079580814250221 -114.42168138440684 0 -114.42168138440684 -54.184248493453197 0 0 0 0 -29.041812557115918 -78.110188768572698 0 -78.110188768572698 -102.23284389499895 0 0 0 0 -115.24723792202713 -93.610954037880219 0 -93.610954037880219 -235.91010115877725 0 0 0 0 -16.575176824393566 18.247637468448374 0 18.247637468448374 -97.395225471816957 0 0 0 0 -7.3790161578312308 -8.0770137603228136 0 -8.0770137603228136 20.384685883744083 0 0 0 0 -0.67706933384422996 -79.50587356728245 0 -79.50587356728245 -37.435250358404232 0 0 0 0 -62.979349201370496 -98.845570502686314 0 -98.845570502686314 -95.770495445118286 0 0 0 0 6.2717497850535437 8.7137329402030446 0 8.7137329402030446 -109.93606353980431 0 0 0 0 0.57789034559391439 -16.837094200192951 0 -16.837094200192951 -54.402373953314964 0 0 0 0 -23.638513028329612 -5.8902861219013403 0 -5.8902861219013403 -53.583833602712858 0 0 0 0 -165.62717594029527 -21.479830064396083 0 -21.479830064396083 -530.50958989992796 0 0 0 0 -43.897178836623823 -45.380521048881064 0 -45.380521048881064 57.714013075182436 0 0 0 0 -23.849723144011861 -58.32209511226722 0 -58.32209511226722 -140.75060851922831 0 0 0 0 6.1445431531756185 -35.240552958333865 0 -35.240552958333865 -90.714878273691284 0 0 0 0 3.4677172320057821 -12.227620259441011 0 -12.227620259441011 -81.741651542265799 0 0 0 0 -21.725429129173648 -25.05988287909716 0 -25.05988287909716 -136.2710310959917 0 0 0 0 -378.83373846505128 20.461391352189821 0 20.461391352189821 -370.79169235885638 0 0 0 0 31.702282478372524 -40.634851076186159 0 -40.634851076186159 -134.26478107239961 0 0 0 0 525.59640580446285 -1391.5002492122439 0 -1391.5002492122439 -1477.7269458130686 0 0 0 0 -565.60322449626983 -727.45411173985121 0 -727.45411173985121 -1497.2566381238867 0 0 0 0 -564.92311173446069 -711.57621105340513 0 -711.57621105340513 -1266.500640463375 0 0 0 0 67.401606329822243 -94.919518934562802 0 -94.919518934562802 -596.91016322434734 0 0 0 0 10.26483295180023 -20.499016404848561 0 -20.499016404848561 -49.826768965429395 0 0 0 0 -215.30985220618453 -662.73572711111308 0 -662.73572711111308 -1424.1479634153366 0 0 0 0 -215.97997426050944 -419.05705536982452 0 -419.05705536982452 -978.00135688988667 0 0 0 0 -682.62189334286086 -891.0588237972479 0 -891.0588237972479 -1144.7776898094853 0 0 0 0 -414.47662844164734 -680.72796299321999 0 -680.72796299321999 -1114.7286779390706 0 0 0 0 -1133.538422939564 -1061.1398666816785 0 -1061.1398666816785 -1299.3641979349195 0 0 0 0 -723.69251076817454 -792.65262264848934 0 -792.65262264848934 -1293.3042887475895 0 0 0 0 -716.96301081808633 -2303.4038634373574 0 -2303.4038634373574 -901.36765187064884 0 0 0 0 -1196.0350799261832 -894.55391553748996 0 -894.55391553748996 -1461.3985407581422 0 0 0 0 -4191.9685748867705 -3815.019168155748 0 -3815.019168155748 -1099.5340882591554 0 0 0 0 36.446494566500476 -42.489679214075068 0 -42.489679214075068 -134.79145900688675 0 0 0 0 3.1080483361603797 -13.769066730295854 0 -13.769066730295854 -28.253146418655149 0 0 0 0 41.406174748237163 -106.94716103128013 0 -106.94716103128013 -94.549440265256692 0 0 0 0 33.183929472920674 -30.665366790650495 0 -30.665366790650495 -92.948882988765547 0 0 0 0 337.05291408512858 -10.86906563868979 0 -10.86906563868979 -125.62293610804772 0 0 0 0 112.07561291640741 -42.081560005215579 0 -42.081560005215579 -70.134034729300765 0 0 0 0 58.445696327864425 -79.118091665004613 0 -79.118091665004613 -142.24848674726672 0 0 0 0 244.55116540376912 -282.9992139627866 0 -282.9992139627866 -148.98670733081963 0 0 0 0 5.6890574854041915 -286.9611894567206 0 -286.9611894567206 -129.56101336677239 0 0 0 0 -298.18096931240325 -268.22258615171813 0 -268.22258615171813 11.812320999801159 0 0 0 0 -220.55155820281652 216.53988223183842 0 216.53988223183842 -397.2713901753159 0 0 0 0 2.9403846406676308 -17.025419911779238 0 -17.025419911779238 -18.735296305884845 0 0 0 0 785.16924428727907 -1123.4790333624514 0 -1123.4790333624514 -4184.5626281819132 0 0 0 0 -470.26138215523679 -1698.2989578677807 0 -1698.2989578677807 -2349.0898260602262 0 0 0 0 163.25163881470507 138.67202408092271 0 138.67202408092271 -551.55487388231268 0 0 0 0 -197.19968976521341 -1866.0917209198669 0 -1866.0917209198669 -2307.3096827453701 0 0 0 0 -3345.6830333022372 -2738.673706963149 0 -2738.673706963149 -2052.6937207725423 0 0 0 0 -969.97400849730184 -3293.125170655032 0 -3293.125170655032 -3711.4767900707666 0 0 0 0 -3219.5281720421772 -436.24299020438048 0 -436.24299020438048 -1874.936014389712 0 0 0 0 872.40207975008889 355.45938196877341 0 355.45938196877341 -2648.4123399765231 0 0 0 0 81.219425338371366 -111.73665494395027 0 -111.73665494395027 -286.77774267449058 0 0 0 0 -89.568747894265471 -227.48732242733558 0 -227.48732242733558 -181.09475734511216 0 0 0 0 42.27735229577317 -40.137287179846709 0 -40.137287179846709 -74.333646174432943 0 0 0 0 -59.133882824145985 -155.80671305709984 0 -155.80671305709984 -109.66590088455996 0 0 0 0 -48.751853796558862 -105.06728352445498 0 -105.06728352445498 -122.25951915926817 0 0 0 0 -23.231086610219791 -114.04004635588353 0 -114.04004635588353 -90.90161341881867 0 0 0 0 -62.93862697280565 -128.86279847868718 0 -128.86279847868718 -88.16343224477896 0 0 0 0 -56.172408091311809 -141.90092478095175 0 -141.90092478095175 -65.673040497887996 0 0 0 0 -51.494504577254702 -151.3989404294407 0 -151.3989404294407 -233.21169099571853 0 0 0 0 -21.03846547743774 -107.76868491509532 0 -107.76868491509532 -90.732051423395433 0 0 0 0 -37.730833531124517 -101.2769566783827 0 -101.2769566783827 -75.634255811099138 0 0 0 0 -52.138058433607512 -142.30395899956056 0 -142.30395899956056 -108.94551592331118 0 0 0 0 -32.629232310595143 -96.54737081386736 0 -96.54737081386736 -67.392210248121714 0 0 0 0 -27.051278982891745 -180.63981703795071 0 -180.63981703795071 -76.896973111463012 0 0 0 0 -21.25529755835305 -90.322159903378633 0 -90.322159903378633 -83.526813212283741 0 0 0 0 -136.13954854591429 -520.0235924895569 0 -520.0235924895569 -861.98881070664902 0 0 0 0 -24.661330530992927 -319.58989140395806 0 -319.58989140395806 -868.86722897001164 0 0 0 0 -225.4541607097708 -589.11535143490983 0 -589.11535143490983 -777.01532235829291 0 0 0 0 -177.50133952560282 -592.75219033838948 0 -592.75219033838948 -1050.8558653150394 0 0 0 0 -322.21973510108364 -746.57667761106859 0 -746.57667761106859 -1120.5726427831687 0 0 0 0 -150.2997722482869 -322.46247910875718 0 -322.46247910875718 -525.721347982937 0 0 0 0 -28.333265329459437 -71.689910281079648 0 -71.689910281079648 40.519777548222223 0 0 0 0 -46.343265261337365 -117.54234050982996 0 -117.54234050982996 -83.073591266089352 0 0 0 0 -32.927633920218796 -335.07029408444942 0 -335.07029408444942 -646.0026345104925 0 0 0 0 -202.51535958122258 -562.54715511442191 0 -562.54715511442191 -548.53863970293241 0 0 0 0 -186.09340089619218 -428.19216234949272 0 -428.19216234949272 -335.57546974265642 0 0 0 0 -185.73265727351827 -264.98525223898469 0 -264.98525223898469 -154.34175376272469 0 0 0 0 32.171714060057127 -34.610896423394593 0 -34.610896423394593 -52.921198387149275 0 0 0 0 -135.05209633736013 -151.69678885768371 0 -151.69678885768371 -106.13304263730242 0 0 0 0 -54.25267897301805 -80.679422099944105 0 -80.679422099944105 44.812801287305987 0 0 0 0 -664.46033778727724 -868.89593436193536 0 -868.89593436193536 -463.12142336180295 0 0 0 0 -282.24818287002563 -642.29582845811819 0 -642.29582845811819 -352.56643738417552 0 0 0 0 -302.80859374549254 -587.40489542722207 0 -587.40489542722207 -415.19409824145259 0 0 0 0 -240.96261266009242 -456.20269262723741 0 -456.20269262723741 -294.14966000219283 0 0 0 0 -140.31561646482805 -541.89975710949147 0 -541.89975710949147 -581.189969879415 0 0 0 0 -298.21592858004442 -773.03447366444448 0 -773.03447366444448 -620.43978748140944 0 0 0 0 -189.03136410163279 -783.35204428744692 0 -783.35204428744692 -680.69179864336184 0 0 0 0 -243.95239043654874 -932.15118174511736 0 -932.15118174511736 -769.00536638065023 0 0 0 0 -189.37547748725922 -803.05421609137284 0 -803.05421609137284 -889.7435762045352 0 0 0 0 -206.44175034348882 -886.24574225104152 0 -886.24574225104152 -800.41968924096727 0 0 0 0 -114.58930837752632 -574.18125986247833 0 -574.18125986247833 -890.07077416881657 0 0 0 0 -265.63340830170637 -753.86990290689937 0 -753.86990290689937 -756.78106551887686 0 0 0 0 -438.19612871669733 -801.36479837939123 0 -801.36479837939123 -931.87430521832721 0 0 0 0 -257.58965048768732 -732.64099174347939 0 -732.64099174347939 -1005.2179245265015 0 0 0 0 -548.42806744202244 -766.07766738430473 0 -766.07766738430473 -830.97145376679691 0 0 0 0 -411.75226508669584 -899.15195220766691 0 -899.15195220766691 -895.24771085207612 0 0 0 0 -235.4790119422978 -800.93174966337392 0 -800.93174966337392 -905.56499271600478 0 0 0 0 -319.99470252373203 -787.03075875056084 0 -787.03075875056084 -888.83198974061816 0 0 0 0 -325.86093881422903 -859.87499516208095 0 -859.87499516208095 -838.38884946273174 0 0 0 0 -694.53486014733789 -671.23644531793616 0 -671.23644531793616 -606.50690933904843 0 0 0 0 -216.71339218073149 -447.96004188151642 0 -447.96004188151642 -538.90315349560115 0 0 0 0 -211.32550266533531 -689.38566849299809 0 -689.38566849299809 -596.81017327267909 0 0 0 0 -24.854013631273119 -766.33163701189915 0 -766.33163701189915 -819.44648807728663 0 0 0 0 -41.501883284116047 -767.62934495227091 0 -767.62934495227091 -752.84268988666008 0 0 0 0 84.033741142520739 -808.71424920433856 0 -808.71424920433856 -843.70132572685543 0 0 0 0 -132.87303698344112 -913.79421265462042 0 -913.79421265462042 -901.40112866628624 0 0 0 0 -136.3910951717553 -915.16522572557005 0 -915.16522572557005 -894.45994993542263 0 0 0 0 -112.1380901787561 -750.80694538928947 0 -750.80694538928947 -822.20065227594569 0 0 0 0 -145.92348533464428 -963.86246018734937 0 -963.86246018734937 -769.16104423011711 0 0 0 0 -194.88385557783477 -1066.8485725762876 0 -1066.8485725762876 -905.49004886964394 0 0 0 0 31.050412077787769 -977.10538941487175 0 -977.10538941487175 -946.78589324359928 0 0 0 0 4.8147060833362048 -922.57850996948764 0 -922.57850996948764 -840.99866256213136 0 0 0 0 116.24712140118208 -1631.9080279074587 0 -1631.9080279074587 -1014.0018298838404 0 0 0 0 -1036.8456075653085 -1405.8694601508269 0 -1405.8694601508269 -670.13415789603459 0 0 0 0 -320.0512591084007 -1003.9356102044731 0 -1003.9356102044731 -639.81946548796259 0 0 0 0 -202.8769116367539 -1109.6258066471303 0 -1109.6258066471303 -611.3258909966753 0 0 0 0 -203.55634920245939 -13.614553024763154 0 -13.614553024763154 -18.496281084168004 0 0 0 0 54.860842912799853 -53.964854952027963 0 -53.964854952027963 -181.74081907541404 0 0 0 0 -15.581450391599901 -47.540762173686744 0 -47.540762173686744 -36.792682852290454 0 0 0 0 16.397927618547442 -17.670402086821724 0 -17.670402086821724 -42.26951371231749 0 0 0 0 -57.483911164221354 79.774211218697019 0 79.774211218697019 -16.186679541016929 0 0 0 0 19.245732119254427 -6.9154763647153032 0 -6.9154763647153032 -26.759833581032808 0 0 0 0 32.864559866997297 55.450056696950924 0 55.450056696950924 -26.140129813607928 0 0 0 0 5.4980138037474831 1.4640159965023685 0 1.4640159965023685 0.59690338140632093 0 0 0 0 -19.731704768200871 -62.503800820282777 0 -62.503800820282777 -60.992320099117933 0 0 0 0 92.743453137169126 -25.703968772359076 0 -25.703968772359076 -88.564249347655277 0 0 0 0 25.492122257019219 -48.564362195815193 0 -48.564362195815193 -64.410338653571671 0 0 0 0 -3.9788635573293796 -28.387963228805081 0 -28.387963228805081 -51.157066730174279 0 0 0 0 46.13403244195797 -23.58744988188846 0 -23.58744988188846 -51.612430442764889 0 0 0 0 29.062065930075335 -67.862838229694034 0 -67.862838229694034 -88.603312415563011 0 0 0 0 12.059227741362179 -26.064093596096569 0 -26.064093596096569 3.0687952248405281 0 0 0 0 208.84030923042155 15.96080885822812 0 15.96080885822812 -70.329815973469522 0 0 0 0 -27.751001666772936 -41.790601058610264 0 -41.790601058610264 -128.93340566905681 0 0 0 0 19.260102728715296 -33.827800384072333 0 -33.827800384072333 -74.050734036999529 0 0 0 0 71.584050743527769 -27.69994527149538 0 -27.69994527149538 -49.781121865409659 0 0 0 0 34.38443079468253 -10.979847102913673 0 -10.979847102913673 -106.39416369358457 0 0 0 0 15.521851666215071 11.16404992757171 0 11.16404992757171 -102.53552443676335 0 0 0 0 1.7237478154888493 11.499829291654009 0 11.499829291654009 -74.127440724454374 0 0 0 0 -15.567443328807713 -93.421742697522859 0 -93.421742697522859 -139.17942272814253 0 0 0 0 -1445.0676721458585 -1392.6722598282613 0 -1392.6722598282613 -1407.7980674505811 0 0 0 0 -66.623012813593959 -89.648978513985639 0 -89.648978513985639 -106.45907317055389 0 0 0 0 -1259.1029232140736 -917.73181045753972 0 -917.73181045753972 -939.1084358128137 0 0 0 0 -866.08492632064008 -1133.2686625518363 0 -1133.2686625518363 -1222.2240940442962 0 0 0 0 -430.15901183752931 -897.1435082109158 0 -897.1435082109158 -1166.115201715751 0 0 0 0 -786.14101632392703 -814.06287595923277 0 -814.06287595923277 -944.95946757580532 0 0 0 0 -614.65003778284881 -951.3643541519159 0 -951.3643541519159 -1001.398040629525 0 0 0 0 -1022.6121214397526 -754.3114812929748 0 -754.3114812929748 -702.74761409216444 0 0 0 0 -1090.1414598294432 -1078.0208474085121 0 -1078.0208474085121 -931.10240867064749 0 0 0 0 12.541122509325902 5.5275051339393286 0 5.5275051339393286 -41.809841945016103 0 0 0 0 -175.32672600664682 -170.654566257243 0 -170.654566257243 -71.769366719177924 0 0 0 0 -53.373263178342313 19.393636231616256 0 19.393636231616256 -155.17103278366631 0 0 0 0 -2.7516775745570783 -4.8611163617014057 0 -4.8611163617014057 -6.3584528938000346 0 0 0 0 -694.61131498851319 -802.16260089557909 0 -802.16260089557909 -716.32684001984126 0 0 0 0 23.525269515428704 -10.971000695610741 0 -10.971000695610741 -31.340238023691484 0 0 0 0 -80.077376873625326 -65.715521052406984 0 -65.715521052406984 -73.408300113966106 0 0 0 0 -134.9160976339117 -99.559353659553381 0 -99.559353659553381 -10.221341714779555 0 0 0 0 -10.121716646356305 -8.9268213333844812 0 -8.9268213333844812 -7.8653962320488802 0 0 0 0 -44.457700181999826 -55.59291632878012 0 -55.59291632878012 -28.278598626056919 0 0 0 0 -45.207795258583843 -28.165394352977515 0 -28.165394352977515 -5.5953156626695701 0 0 0 0 12.059014171767103 -16.806189874292556 0 -16.806189874292556 -30.495246584540439 0 0 0 0 -20.367997728630144 -24.701614750694716 0 -24.701614750694716 -29.573522739112377 0 0 0 0 -23.089251823075756 -36.796882918253687 0 -36.796882918253687 -25.399815061537083 0 0 0 0 -27.433923017865652 -27.495541569004253 0 -27.495541569004253 -18.697402817087635 0 0 0 0 -33.964978412777782 -41.776906922548733 0 -41.776906922548733 -37.184857063475647 0 0 0 0 -1.6147904005774762 -41.907972027016513 0 -41.907972027016513 -47.900638813793194 0 0 0 0 -4.4549795937055023 -37.411829948781815 0 -37.411829948781815 -59.497300449511386 0 0 0 0 -3.4673725383513556 -24.137252795772383 0 -24.137252795772383 -36.588809439184843 0 0 0 0 -6.0841888693330759 -30.351695130355093 0 -30.351695130355093 -43.360379153060478 0 0 0 0 -0.69434704764717026 -37.297445184951357 0 -37.297445184951357 -32.33848800186388 0 0 0 0 40.033599645474169 -38.083194932551123 0 -38.083194932551123 -49.796375533594983 0 0 0 0 -1.1994414371930446 -37.332063631374325 0 -37.332063631374325 -17.006510216926358 0 0 0 0 16.811190218795531 -22.375544430420334 0 -22.375544430420334 -21.93290717009603 0 0 0 0 -1.6470053921402723 -44.269967917582107 0 -44.269967917582107 -45.837629630848824 0 0 0 0 4.1990176248000353 -30.952831638038333 0 -30.952831638038333 -37.757861553043767 0 0 0 0 2.6672849085443886 -53.194251961016562 0 -53.194251961016562 -82.848722044573151 0 0 0 0 4.262527277078334 -15.987858911208605 0 -15.987858911208605 -87.273395900432661 0 0 0 0 34.11736457565712 -44.165225233737146 0 -44.165225233737146 -173.2663700699195 0 0 0 0 37.736486239053193 -64.483750582067842 0 -64.483750582067842 -79.292527478915872 0 0 0 0 51.977191151827355 -125.21886985284254 0 -125.21886985284254 -80.094084387354087 0 0 0 0 42.669317187437628 -89.228117526237838 0 -89.228117526237838 -95.939557247678749 0 0 0 0 -19.621691915264819 -75.892157863312605 0 -75.892157863312605 -64.747318016219651 0 0 0 0 23.943718694383278 -125.85188743891922 0 -125.85188743891922 -150.99689567953465 0 0 0 0 39.465188043337548 -45.128233034396544 0 -45.128233034396544 -56.526145162308239 0 0 0 0 -29.801966708531836 -141.78653710519211 0 -141.78653710519211 10.648757686591125 0 0 0 0 -17.712071785281296 -141.57827157167776 0 -141.57827157167776 -52.329923981280444 0 0 0 0 23.370484116094303 -112.57583947925741 0 -112.57583947925741 -40.201165805185155 0 0 0 0 26.538631877076114 -90.900351059855893 0 -90.900351059855893 -109.05443610356451 0 0 0 0 -18.567294220658368 -83.447322363710555 0 -83.447322363710555 -59.183406985015608 0 0 0 0 -4.0393813257873319 -25.870189000418321 0 -25.870189000418321 4.0413755851187574 0 0 0 0 -15.230986464258166 -27.816293961163353 0 -27.816293961163353 -2.8989319284483344 0 0 0 0 -10.94995273917084 -64.52289335666137 0 -64.52289335666137 -45.701936682096857 0 0 0 0 7.6195732763808337 -68.868611964477168 0 -68.868611964477168 -57.17401415598124 0 0 0 0 -9.3173146629414987 -27.689387541817268 0 -27.689387541817268 -17.03662035205889 0 0 0 0 -0.49176862217932182 -27.739653966926966 0 -27.739653966926966 -15.658064895152535 0 0 0 0 -37.356686564009578 -55.424714184729964 0 -55.424714184729964 -31.691966148006031 0 0 0 0 -57.90858720637334 -176.63386764215102 0 -176.63386764215102 -131.66856365551212 0 0 0 0 16.875375559106061 -25.985256127379273 0 -25.985256127379273 12.869956931481411 0 0 0 0 -67.252657402692421 -53.054480978520587 0 -53.054480978520587 -40.911420022668608 0 0 0 0 -69.70568028728303 -7.4907481098771314 0 -7.4907481098771314 51.935873934460687 0 0 0 0 -11.353093586688459 -7.4368342126383169 0 -7.4368342126383169 -2.3707276243610522 0 0 0 0 -41.091167729297013 -60.306203208288935 0 -60.306203208288935 -31.37270834732044 0 0 0 0 -49.746052321905154 -60.0189003208543 0 -60.0189003208543 -28.051859525468899 0 0 0 0 -199.10195124556776 -225.90332706904883 0 -225.90332706904883 188.00622140469204 0 0 0 0 -1.2393337713208794 -1.7213262562931817 0 -1.7213262562931817 0.41966233626399685 0 0 0 0 52.296990469825687 -23.518748329755908 0 -23.518748329755908 -27.261895298503077 0 0 0 0 102.45632055537862 -55.637542980992293 0 -55.637542980992293 -11.999730695373728 0 0 0 0 -64.189402267067635 -55.849190066928713 0 -55.849190066928713 37.372797750991595 0 0 0 0 -51.850148492922017 -55.060173580764967 0 -55.060173580764967 -34.037259185937728 0 0 0 0 -21.589630148175274 -91.31488218235063 0 -91.31488218235063 8.6096533124655252 0 0 0 0 -55.619331480484107 -115.72168073789362 0 -115.72168073789362 12.502976009274789 0 0 0 0 -79.655169403151376 -164.9745108825482 0 -164.9745108825482 85.289962193390238 0 0 0 0 -108.07410193122632 -130.8244130533094 0 -130.8244130533094 44.412583810029901 0 0 0 0 -107.85663476545031 -90.983393048748439 0 -90.983393048748439 85.307384768260818 0 0 0 0 -243.09351994860481 -170.72973430363345 0 -170.72973430363345 86.536547261392116 0 0 0 0 -3.7938264177616219 -1.8053442876311685 0 -1.8053442876311685 4.6794426728161511 0 0 0 0 -69.632074760471369 66.504938067665989 0 66.504938067665989 4.4281096409104066 0 0 0 0 -108.59338143867353 -114.34236580830111 0 -114.34236580830111 58.503523990584654 0 0 0 0 -14.155362402489118 -72.510027223277575 0 -72.510027223277575 108.08220730569155 0 0 0 0 814.0314221937515 -967.33042354468125 0 -967.33042354468125 1084.1403411690771 0 0 0 0 431.88460277637205 -504.56756146395855 0 -504.56756146395855 881.19680025315211 0 0 0 0 1.2869770293513341 -1.1054912607080425 0 -1.1054912607080425 -1.0801825557342681 0 0 0 0 -762.41383602200949 178.08098716081804 0 178.08098716081804 50.504168811869249 0 0 0 0 -146.65293371025109 -88.540233289484604 0 -88.540233289484604 54.985997326140932 0 0 0 0 240.76912491604162 -304.97880090137187 0 -304.97880090137187 1.2198783175990684 0 0 0 0 -118.84681304424885 -349.98117454088788 0 -349.98117454088788 47.057944319749367 0 0 0 0 211.4879927300135 -170.45624408617005 0 -170.45624408617005 158.53174986127124 0 0 0 0 57.689102586053195 -100.1997541433775 0 -100.1997541433775 115.7597420664606 0 0 0 0 228.81867962820252 83.302098477834079 0 83.302098477834079 19.828676480858121 0 0 0 0 -4.5154921349466264 -5.8048450331780828 0 -5.8048450331780828 1.0689535347203929 0 0 0 0 338.18988228595845 -259.11900954349403 0 -259.11900954349403 -14.055267868592637 0 0 0 0 396.28912082723946 -65.238186398180915 0 -65.238186398180915 -69.943046321335714 0 0 0 0 202.8409076903481 -144.45273760246346 0 -144.45273760246346 -80.369870483351406 0 0 0 0 138.25310123321469 -46.817565426881629 0 -46.817565426881629 -89.376083511509933 0 0 0 0 125.29934890715231 -64.968401089921826 0 -64.968401089921826 -69.779146685338674 0 0 0 0 51.682614993813331 -34.472154778952245 0 -34.472154778952245 -75.780814578974969 0 0 0 0 45.560391288796382 -42.995189835201018 0 -42.995189835201018 -64.989359547558706 0 0 0 0 91.107102580033825 -107.04890070213878 0 -107.04890070213878 -91.399737511110288 0 0 0 0 69.249576531779894 -117.31452746704599 0 -117.31452746704599 -85.76314548109076 0 0 0 0 85.781913126324071 -127.8771545367199 0 -127.8771545367199 -87.937386580168095 0 0 0 0 62.235503247826273 -185.06070485213058 0 -185.06070485213058 -34.753719577507582 0 0 0 0 -32.591186986559478 -211.09961984497932 0 -211.09961984497932 -30.055335957935313 0 0 0 0 -57.381886281931656 -167.52472480930737 0 -167.52472480930737 11.396893551459698 0 0 0 0 117.44707247977931 -180.00956819015846 0 -180.00956819015846 -30.981257670166087 0 0 0 0 140.64835792485974 -245.00735484152847 0 -245.00735484152847 -26.021389463829109 0 0 0 0 1679.4604634799689 -587.65387190231195 0 -587.65387190231195 -385.47121795324347 0 0 0 0 -3.197402446351461 -7.6717622726185368 0 -7.6717622726185368 -12.435865759153614 0 0 0 0 532.95715994643251 -1435.6240655485744 0 -1435.6240655485744 -1007.332625224144 0 0 0 0 1020.9759193793179 -544.32229181251023 0 -544.32229181251023 -640.53026926096936 0 0 0 0 269.19166458664404 -947.70153234918689 0 -947.70153234918689 -849.95328456547941 0 0 0 0 408.5135234005138 -718.17807876787538 0 -718.17807876787538 334.01797941164114 0 0 0 0 469.21054620901123 -582.33912542143662 0 -582.33912542143662 546.27882183669135 0 0 0 0 634.5857300330681 -746.93190886586672 0 -746.93190886586672 704.97333712721593 0 0 0 0 749.78594756183156 -568.24670682546275 0 -568.24670682546275 596.27482471398616 0 0 0 0 755.03346409776714 -685.26544172152353 0 -685.26544172152353 658.18330481162047 0 0 0 0 1093.1031473185285 -719.85865124315023 0 -719.85865124315023 632.79219484909845 0 0 0 0 1093.1031473184848 -719.85865124312841 0 -719.85865124312841 632.792194849113 0 0 0 0 1093.1031473184703 -719.85865124312113 0 -719.85865124312113 632.792194849113 0 0 0 0 760.12534078127646 -618.70262996418023 0 -618.70262996418023 821.42262040142668 0 0 0 0 6.4274084811729324 -5.4561202708556351 0 -5.4561202708556351 0.91440367997688554 0 0 0 0 647.41356048331363 -1014.3834072830577 0 -1014.3834072830577 682.69783011852269 0 0 0 0 -207.60166538445628 276.53470824623946 0 276.53470824623946 -625.66993330308469 0 0 0 0 630.43912449348136 -704.3058825315602 0 -704.3058825315602 284.80591448499763 0 0 0 0 644.71658172764 -1077.3851984884677 0 -1077.3851984884677 261.23876797801904 0 0 0 0 352.20455451471389 -530.18870606140081 0 -530.18870606140081 -772.37355357002525 0 0 0 0 95.156104047957342 -634.90949687849934 0 -634.90949687849934 -739.68204724821862 0 0 0 0 -42.436789385697921 -324.82569484393025 0 -324.82569484393025 -440.02734820751357 0 0 0 0 -37.473378408525605 82.734831274705357 0 82.734831274705357 -860.55178251650432 0 0 0 0 104.54768894989684 -346.09648513571301 0 -346.09648513571301 -908.98697982322483 0 0 0 0 -70.421342746412847 -29.179296414633427 0 -29.179296414633427 -279.82071820151759 0 0 0 0 46.597166428487981 42.330069919335074 0 42.330069919335074 -244.10559777190792 0 0 0 0 126.66778854405857 -29.774218037680839 0 -29.774218037680839 -399.83083199310931 0 0 0 0 231.32259516810882 16.806263628706802 0 16.806263628706802 -383.63865782829816 0 0 0 0 196.48070996641763 -60.403902372996527 0 -60.403902372996527 -287.55053448438412 0 0 0 0 10.810607373932726 -134.06027936849569 0 -134.06027936849569 258.33580383670051 0 0 0 0 -63.54546137410216 -342.50227612667368 0 -342.50227612667368 -325.18403048507753 0 0 0 0 -30.228519234195119 -631.77281193177623 0 -631.77281193177623 -277.27619511015655 0 0 0 0 26.211037892499007 -558.14564191002864 0 -558.14564191002864 -572.52362550498037 0 0 0 0 -24.562341068376554 -618.33221691476501 0 -618.33221691476501 -477.48789527533518 0 0 0 0 -9.9082401077833282 -7.9702484486486895 0 -7.9702484486486895 -0.18919721522252075 0 0 0 0 -39.66212530539633 -133.19230253342539 0 -133.19230253342539 191.79224339174107 0 0 0 0 -16.404673386030481 -488.89064042746759 0 -488.89064042746759 -540.82125432950124 0 0 0 0 403.7507686537574 -39.670512164477259 0 -39.670512164477259 -437.65807536000102 0 0 0 0 584.05907661601668 -51.527270495877019 0 -51.527270495877019 -299.41607265220955 0 0 0 0 345.76964912208496 -273.98293218095205 0 -273.98293218095205 91.879990568064386 0 0 0 0 90.241241996569443 42.92179692008358 0 42.92179692008358 -225.56615919191972 0 0 0 0 18.867688936882075 -21.884843369385962 0 -21.884843369385962 10.287416008187279 0 0 0 0 195.1573195666424 -43.114740692180931 0 -43.114740692180931 -437.35286032510339 0 0 0 0 -32.373525434624753 -15.083658857394767 0 -15.083658857394767 28.355882670948631 0 0 0 0 1010.4860167560691 -912.5751598969764 0 -912.5751598969764 700.98373035309487 0 0 0 0 -10.573517434153473 -44.126298230810789 0 -44.126298230810789 15.06461538678559 0 0 0 0 12.898281622867216 -67.976245083980757 0 -67.976245083980757 38.701499505288666 0 0 0 0 -5.8613116941562993 -1.3325984817905407 0 -1.3325984817905407 12.448194157691788 0 0 0 0 -27.03417057916522 -24.422690242921817 0 -24.422690242921817 18.12152695007353 0 0 0 0 -135.17426211295242 76.439506284292293 0 76.439506284292293 -403.59553320761188 0 0 0 0 -17.403114398854086 -47.30947723663121 0 -47.30947723663121 54.810584177896089 0 0 0 0 -41.996536396334704 -26.184493785985978 0 -26.184493785985978 47.636866517172166 0 0 0 0 698.82142397943971 -586.02453380617249 0 -586.02453380617249 718.02198655263055 0 0 0 0 824.98645409608434 -885.37983049929608 0 -885.37983049929608 857.74725848529488 0 0 0 0 703.01060836209217 -719.23147730070195 0 -719.23147730070195 906.27871461104041 0 0 0 0 546.49632469337666 -660.48483759015653 0 -660.48483759015653 761.54413502209354 0 0 0 0 770.04690247827966 -577.13497123004709 0 -577.13497123004709 633.08137580516632 0 0 0 0 418.64788545815099 -224.03686255547291 0 -224.03686255547291 376.53229748052581 0 0 0 0 337.10257833520882 -380.33829103377138 0 -380.33829103377138 644.57476614807183 0 0 0 0 643.8315005620243 -651.13076143287617 0 -651.13076143287617 643.31516998665052 0 0 0 0 911.43707183564402 -775.1823307657869 0 -775.1823307657869 639.91568109323271 0 0 0 0 509.21188681509011 -454.66678826188036 0 -454.66678826188036 587.7047080808552 0 0 0 0 608.02704949764302 -659.99845655462559 0 -659.99845655462559 578.23682775437192 0 0 0 0 506.76204866163243 -504.6790845382493 0 -504.6790845382493 381.27301860383159 0 0 0 0 492.49099175744777 -492.77287540122779 0 -492.77287540122779 516.27411366959132 0 0 0 0 575.10097107078764 -298.03179547898253 0 -298.03179547898253 90.964564842895925 0 0 0 0 668.54109430944663 -468.63063720945138 0 -468.63063720945138 308.5793735046027 0 0 0 0 -1430.3613414662614 -232.18157086780047 0 -232.18157086780047 -203.25442130954889 0 0 0 0 -7.9519138050672922 -21.472687431069474 0 -21.472687431069474 -32.38767268061514 0 0 0 0 -10.302989361367125 -29.589956030810455 0 -29.589956030810455 -50.074194605728195 0 0 0 0 -785.43235463705787 56.271539911807849 0 56.271539911807849 -117.16922273786986 0 0 0 0 468.1065633309945 18.924602829798914 0 18.924602829798914 207.36167532913532 0 0 0 0 100.01998989404819 310.36744318014462 0 310.36744318014462 -13.554093149185064 0 0 0 0 274.02557032884943 -266.2629645603156 0 -266.2629645603156 104.24453862893279 0 0 0 0 642.07249262659752 -441.03707433660747 0 -441.03707433660747 529.13484237743614 0 0 0 0 -2.1401736250518297 -329.26014350362311 0 -329.26014350362311 637.09786032664852 0 0 0 0 -89.035442506742584 -11.259251462183784 0 -11.259251462183784 -5.7401084209996043 0 0 0 0 -135.80181953576448 -469.23271580470305 0 -469.23271580470305 36.464590117000625 0 0 0 0 -17.083713313780066 -6.0606617336768949 0 -6.0606617336768949 -3.936324509305436 0 0 0 0 303.51404968875431 -121.85954144402058 0 -121.85954144402058 -1424.1847727617387 0 0 0 0 -352.45239727011358 335.209552902008 0 335.209552902008 -157.83779167293687 0 0 0 0 -616.7485648705624 -993.25678475562017 0 -993.25678475562017 537.73045931757224 0 0 0 0 -692.13790307982708 244.43986678505098 0 244.43986678505098 219.59884870608221 0 0 0 0 -506.19689871262381 -755.81593299909218 0 -755.81593299909218 -701.96824132118491 0 0 0 0 124.02691293991302 934.26991424737025 0 934.26991424737025 -1109.3010478806609 0 0 0 0 -603.70232403068803 69.856713323491931 0 69.856713323491931 -119.43496219590179 0 0 0 0 1258.2617931607238 -267.75712241502333 0 -267.75712241502333 -312.92832943448047 0 0 0 0 -12.462865229880606 -38.415678111863329 0 -38.415678111863329 -65.849855861043238 0 0 0 0 -585.63352027029032 -25.874156810306886 0 -25.874156810306886 -92.462230242153964 0 0 0 0 -733.46815594749205 150.36398664165245 0 150.36398664165245 -46.117453450569883 0 0 0 0 25.724133428673667 -950.5612449881919 0 -950.5612449881919 917.95617856048193 0 0 0 0 626.96496217809363 98.644146794827975 0 98.644146794827975 -322.88547374105838 0 0 0 0 802.0220974066724 -1432.2111774292352 0 -1432.2111774292352 442.81053119540593 0 0 0 0 5.8707651622504642 -7.2900901452714777 0 -7.2900901452714777 2.5944211874763994 0 0 0 0 998.19974202255253 -254.22057084658081 0 -254.22057084658081 -235.79192097284977 0 0 0 0 -39.950206814752164 -8.7466949267909513 0 -8.7466949267909513 12.075101487185748 0 0 0 0 445.86056829767313 -64.458086152581927 0 -64.458086152581927 -24.871745692944387 0 0 0 0 432.70922717236954 -136.23790375504996 0 -136.23790375504996 26.041474920930341 0 0 0 0 687.49623986671304 -982.22039047970884 0 -982.22039047970884 451.59469965969765 0 0 0 0 -477.27004008415315 -507.21371209535573 0 -507.21371209535573 257.95258860335889 0 0 0 0 956.67468672469477 -1411.5441513558217 0 -1411.5441513558217 1041.82337575157 0 0 0 0 -9.8268650215468369 -883.26511634075359 0 -883.26511634075359 893.61185150086749 0 0 0 0 291.59949257368135 -257.9611949552891 0 -257.9611949552891 57.323123752634274 0 0 0 0 28.034186762299214 -701.76412160784821 0 -701.76412160784821 409.23774213867 0 0 0 0 127.15176277938008 -687.62623383194659 0 -687.62623383194659 -200.19189977495989 0 0 0 0 -418.33257602679078 -614.69854094563925 0 -614.69854094563925 423.83434282077906 0 0 0 0 -31.360718139425444 -86.405462481834547 0 -86.405462481834547 -754.57903910920868 0 0 0 0 -320.4971691924402 -211.73701626697584 0 -211.73701626697584 -106.61072297798819 0 0 0 0 68.026589651388349 -143.34054808911606 0 -143.34054808911606 -763.46602341669859 0 0 0 0 -45.258777148615707 -24.787558091510434 0 -24.787558091510434 -6.3553274129831294 0 0 0 0 -4.2388459720327205 -4.5055775928527204 0 -4.5055775928527204 -4.2230366169270042 0 0 0 0 -17.368020338522911 161.08452795942503 0 161.08452795942503 -298.35475342575774 0 0 0 0 293.45069502403931 -232.37364118025653 0 -232.37364118025653 -58.119539721323235 0 0 0 0 225.58104529133198 -353.07606227267388 0 -353.07606227267388 490.80199212488151 0 0 0 0 841.91021640982763 -1201.6644628818067 0 -1201.6644628818067 834.41318032673007 0 0 0 0 -207.4946520812955 -274.11073658817259 0 -274.11073658817259 569.63100436975947 0 0 0 0 -466.91498218216657 49.942728886817349 0 49.942728886817349 164.90725797027699 0 0 0 0 63.186246314719028 -220.45810907980922 0 -220.45810907980922 65.135777884672279 0 0 0 0 3.1240008698758768 3.2285337044023841 0 3.2285337044023841 13.431745186811497 0 0 0 0 3329.1478653554459 -1069.0118064781491 0 -1069.0118064781491 274.78512971478631 0 0 0 0 1283.6734126841038 -778.1074918795639 0 -778.1074918795639 585.71715307127306 0 0 0 0 1028.816570173125 -294.95838787723187 0 -294.95838787723187 -117.32765110209584 0 0 0 0 245.38474337215666 -823.96082009626844 0 -823.96082009626844 562.32616999014226 0 0 0 0 639.27189791873934 -304.78951299648543 0 -304.78951299648543 115.50814645974606 0 0 0 0 76.571334028206365 81.917502836253334 0 81.917502836253334 549.30546699546539 0 0 0 0 286.26787197913654 -806.34843460253978 0 -806.34843460253978 2005.902972249547 0 0 0 0 -410.37470353608296 -274.14381126786611 0 -274.14381126786611 167.52004747749743 0 0 0 0 -316.82311678962833 -643.65072543211136 0 -643.65072543211136 -310.26760144556101 0 0 0 0 -350.89652423836628 -290.36284329214232 0 -290.36284329214232 97.885613156890031 0 0 0 0 -274.39347291802005 -237.07223404305842 0 -237.07223404305842 297.01764008359169 0 0 0 0 -270.22749793253359 -166.43223849932224 0 -166.43223849932224 33.774245353008155 0 0 0 0 -349.94237310032895 -135.89208039513687 0 -135.89208039513687 101.85924465753487 0 0 0 0 -341.91633441271733 -188.62451293249251 0 -188.62451293249251 -25.242946384576499 0 0 0 0 -67.266225437351324 -54.765682184285978 0 -54.765682184285978 -28.014898478354922 0 0 0 0 -236.75473911090376 -265.92145279212855 0 -265.92145279212855 -164.02339200949064 0 0 0 0 -322.26224888123215 12.627112971422321 0 12.627112971422321 -180.90407461007635 0 0 0 0 -209.20067665323768 -96.355055544525385 0 -96.355055544525385 -305.41418198512838 0 0 0 0 -117.98697508095393 200.13354418525705 0 200.13354418525705 159.54896560287307 0 0 0 0 -184.93042989852438 166.32439379109564 0 166.32439379109564 -272.68129099925136 0 0 0 0 -25.050660084054783 -8.2499018934022743 0 -8.2499018934022743 -2.7307418895375974 0 0 0 0 -178.10754464607089 12.459952776447608 0 12.459952776447608 -422.9078987044486 0 0 0 0 -376.9334761154405 0.47554850252345204 0 0.47554850252345204 177.28032947486645 0 0 0 0 -25.622621020536826 -42.442185713916842 0 -42.442185713916842 5.0375957214109803 0 0 0 0 -3.1324137958981737 -87.139526113583997 0 -87.139526113583997 -73.881741708944901 0 0 0 0 5.8912330384303999 -13.81976665102215 0 -13.81976665102215 -7.0036824959287287 0 0 0 0 -23.580836952707614 73.888318546793016 0 73.888318546793016 -411.38488153278013 0 0 0 0 -23.327973806904875 -29.4785015882984 0 -29.4785015882984 -31.014125788730752 0 0 0 0 -75.387917443487822 -19.843071314229746 0 -19.843071314229746 -110.26838794068317 0 0 0 0 -57.519893566891312 -38.661011566484063 0 -38.661011566484063 -11.838281794541388 0 0 0 0 -13.981651143601994 -37.315960640495177 0 -37.315960640495177 -4.3728161383114639 0 0 0 0 -4.364477219948494 -35.890595792462513 0 -35.890595792462513 -27.809953262764168 0 0 0 0 -18.466453630663597 -65.742110000446047 0 -65.742110000446047 -24.710344215483701 0 0 0 0 -203.55107097674045 -273.96820442651369 0 -273.96820442651369 -269.3900890015575 0 0 0 0 -8.3819715506184451 -13.871605820075644 0 -13.871605820075644 -3.8162853613867824 0 0 0 0 -19.097073201221065 -47.720174607414265 0 -47.720174607414265 -94.608863516652491 0 0 0 0 -63.312532127930808 -40.928155587341735 0 -40.928155587341735 23.829845416024909 0 0 0 0 14.38975224435503 -6.4944500542520274 0 -6.4944500542520274 1.7555119247741189 0 0 0 0 594.15700001362893 -110.19938643384739 0 -110.19938643384739 -1043.5695887735565 0 0 0 0 397.34158894136999 337.61518391285063 0 337.61518391285063 317.29152790675289 0 0 0 0 -55.078637685577633 6.391549140902498 0 6.391549140902498 379.37237021287365 0 0 0 0 33.804579238551014 175.3887881296796 0 175.3887881296796 -339.79007851670031 0 0 0 0 -49.022956219574553 -34.497371732497413 0 -34.497371732497413 -4.887125686975196 0 0 0 0 -43.910232004956924 -194.34953034696082 0 -194.34953034696082 -182.21027959532512 0 0 0 0 -49.279376990565652 -38.130787840535049 0 -38.130787840535049 -20.618872673258011 0 0 0 0 -85.592977059113764 -41.91791754506994 0 -41.91791754506994 -1.7433033242850797 0 0 0 0 -3.8617962096202518 1.5323600128426449 0 1.5323600128426449 0.28532313507110985 0 0 0 0 -40.035312063781021 -29.774755656868365 0 -29.774755656868365 -11.840129916810838 0 0 0 0 28.834193126516766 27.148491509833548 0 27.148491509833548 9.8445304535343894 0 0 0 0 -18.311833341296733 -24.953161494653614 0 -24.953161494653614 -15.238353070890298 0 0 0 0 -3.4515189122685115 -22.772225676591916 0 -22.772225676591916 -31.536425302590942 0 0 0 0 -3.4219961915477173 -12.244557878294358 0 -12.244557878294358 -19.893202184027871 0 0 0 0 -24.37616475102849 -16.551387754054502 0 -16.551387754054502 1.725943981002203 0 0 0 0 -17.081605679170025 -25.468628867878579 0 -25.468628867878579 -16.216823131253477 0 0 0 0 -14.66524704666551 -18.722935126959598 0 -18.722935126959598 -4.8229966184188982 0 0 0 0 -2.9476190084910741 -24.330711883658324 0 -24.330711883658324 -30.69145308455748 0 0 0 0 -19.886393251625123 -28.050190787384054 0 -28.050190787384054 -5.6435622076387517 0 0 0 0 -4.1216526726348093 -44.251837890857132 0 -44.251837890857132 -19.797172968697851 0 0 0 0 -18.779397128898381 -47.879019411204354 0 -47.879019411204354 -74.895135249767918 0 0 0 0 -2.8978164406684037 -3.4600391728951188 0 -3.4600391728951188 1.6286218758958739 0 0 0 0 -11.005120295784725 -31.458345783754041 0 -31.458345783754041 -41.472332802907715 0 0 0 0 32.242972394073149 -3.9513135297092958 0 -3.9513135297092958 -44.184505116063519 0 0 0 0 -1.9543310487477692 -9.9708189667121516 0 -9.9708189667121516 -32.847497339312866 0 0 0 0 39.063596402833355 -11.761878024597536 0 -11.761878024597536 -23.161014745710418 0 0 0 0 44.170619369995848 12.916090819119127 0 12.916090819119127 -52.865586769753122 0 0 0 0 36.025583282011212 -8.6903125825920142 0 -8.6903125825920142 -38.510116309829755 0 0 0 0 21.486842304264428 -27.240670457365923 0 -27.240670457365923 -57.514851330779493 0 0 0 0 43.956210007985646 3.9310633801433141 0 3.9310633801433141 -43.097433257993544 0 0 0 0 -0.58236814810011595 -10.316819826148361 0 -10.316819826148361 -7.764755535671708 0 0 0 0 65.871922314705444 -12.436171515480964 0 -12.436171515480964 -54.133220253992477 0 0 0 0 42.699744948840817 -13.027008745604689 0 -13.027008745604689 -40.709754768700805 0 0 0 0 -11.449909022478096 -62.700492519885302 0 -62.700492519885302 -62.254488873106311 0 0 0 0 -11.381882417126501 -29.092507023124284 0 -29.092507023124284 -11.25807224516832 0 0 0 0 -17.036617050509449 -54.302193406558217 0 -54.302193406558217 -52.162733812481747 0 0 0 0 0.08086744716851868 -29.362980522922769 0 -29.362980522922769 -17.400539321164018 0 0 0 0 -13.899369889244554 -22.667730768138426 0 -22.667730768138426 -19.765609533000315 0 0 0 0 -0.12721682642131782 -45.932367044471903 0 -45.932367044471903 -8.5094273156792042 0 0 0 0 14.338200225829951 -65.526335682901845 0 -65.526335682901845 -17.715680422348669 0 0 0 0 -26.795060335610408 -31.242872029266863 0 -31.242872029266863 -26.031345674840054 0 0 0 0 -34.969289885949138 -60.235302517717628 0 -60.235302517717628 -0.80703078555234242 0 0 0 0 -9.7112112817389971 -65.116326594987186 0 -65.116326594987186 -3.9679510423738975 0 0 0 0 -31.197514547101491 -38.052843041077722 0 -38.052843041077722 -12.633328334581165 0 0 0 0 8.1373587124736559 -46.363052693044665 0 -46.363052693044665 -25.216101381840417 0 0 0 0 -229.63513964292724 -98.428568650771922 0 -98.428568650771922 6.8726340240937134 0 0 0 0 3.7489955574016669 -35.121601490665725 0 -35.121601490665725 -12.332036567134395 0 0 0 0 2.8691748268933415 -34.175642004130232 0 -34.175642004130232 -21.812660718866937 0 0 0 0 -35.913799043447398 -30.178164441337685 0 -30.178164441337685 120.4293256614983 0 0 0 0 50.383117996969759 -24.81785959563058 0 -24.81785959563058 -63.374332792067435 0 0 0 0 -6.2428229409142659 -47.798375583881352 0 -47.798375583881352 -28.572715080634225 0 0 0 0 17.624046089491891 -43.734767328020951 0 -43.734767328020951 -3.1158498292069225 0 0 0 0 -57.286279947647699 -54.417978811572539 0 -54.417978811572539 -16.97846728208242 0 0 0 0 12.728502696736939 -47.05705093449069 0 -47.05705093449069 -34.358005764472182 0 0 0 0 -30.056297750300018 -47.594299601623788 0 -47.594299601623788 -25.095959707759903 0 0 0 0 -14.260973920332162 -50.970097455283394 0 -50.970097455283394 -32.663083279818238 0 0 0 0 -36.365312922410794 -55.476255864006816 0 -55.476255864006816 -43.861158249055734 0 0 0 0 -36.601122957762982 -49.573275202943478 0 -49.573275202943478 -23.654494728223654 0 0 0 0 -24.75062308569477 -39.931382926020888 0 -39.931382926020888 -38.840467108733719 0 0 0 0 9.5341379861397417 -31.634375510784906 0 -31.634375510784906 -7.3914774324790926 0 0 0 0 -28.427403855041121 -47.061394427088089 0 -47.061394427088089 -52.099896674699266 0 0 0 0 7.0650975132571148 -27.834875574015314 0 -27.834875574015314 -53.37818663638609 0 0 0 0 -30.250456757859386 -41.254898990981005 0 -41.254898990981005 9.8303960987115282 0 0 0 0 18.13921076582027 -14.182873627476724 0 -14.182873627476724 -9.7613406637718185 0 0 0 0 -14.28668353327339 -65.441730083737639 0 -65.441730083737639 -71.673718882177127 0 0 0 0 -5.3259816014277774 -34.377217291330382 0 -34.377217291330382 -1.4799102171451555 0 0 0 0 13.494109068362377 -50.609747677544874 0 -50.609747677544874 -77.416049555540667 0 0 0 0 19.633903006202715 -25.294334241804592 0 -25.294334241804592 -7.4488662754675659 0 0 0 0 12.237288663383424 -50.026598036931318 0 -50.026598036931318 -60.988724927650765 0 0 0 0 -35.442888010580646 -50.555789378617192 0 -50.555789378617192 -62.249261472548824 0 0 0 0 112.96409169936669 -151.2788529417594 0 -151.2788529417594 -291.62991699934355 0 0 0 0 31.486359972163868 -50.161488867271828 0 -50.161488867271828 31.428540636381896 0 0 0 0 -69.901338352634866 -135.352233662461 0 -135.352233662461 -179.77130792092066 0 0 0 0 36.942212072855796 -21.645354118996551 0 -21.645354118996551 -65.75595575328822 0 0 0 0 9.4678034099797515 -71.917987827800971 0 -71.917987827800971 -67.980584510871267 0 0 0 0 24.434554214485615 -48.288786952769442 0 -48.288786952769442 -63.445637959943269 0 0 0 0 0.66043502829951795 -25.38275551437367 0 -25.38275551437367 -29.040002357448145 0 0 0 0 2.8349862439608842 -14.861997703657835 0 -14.861997703657835 -17.647987642048975 0 0 0 0 20.541752429591725 10.637224278383655 0 10.637224278383655 -183.99913223370095 0 0 0 0 4.808506874889737 -15.131245542200574 0 -15.131245542200574 -32.080411500542709 0 0 0 0 2.9915999455962918 -16.576317810202966 0 -16.576317810202966 -26.25650391927266 0 0 0 0 -1.9532954578240691 -4.2524465920503189 0 -4.2524465920503189 -4.2505020921102528 0 0 0 0 147.92326278865949 50.813644261550508 0 50.813644261550508 -3.4596715022344142 0 0 0 0 8.1967387375524225 1.2708549654473842 0 1.2708549654473842 -9.2943505883017679 0 0 0 0 54.740898202308017 -170.5931778937811 0 -170.5931778937811 210.26620427181479 0 0 0 0 31.739535757603335 -62.981007152739039 0 -62.981007152739039 16.671513574430719 0 0 0 0 148.28534624762688 -177.3748133352783 0 -177.3748133352783 73.671494673253619 0 0 0 0 -8.0494026045662999 -11.501577611845573 0 -11.501577611845573 -2.5150438260788519 0 0 0 0 -33.128481130611988 -41.089171414806231 0 -41.089171414806231 -37.477705150998958 0 0 0 0 18.486849013467463 -146.56717790561925 0 -146.56717790561925 104.6691649678105 0 0 0 0 63.155340617941874 -165.66386587041779 0 -165.66386587041779 69.209691933152499 0 0 0 0 79.146590480959276 -139.89170187143827 0 -139.89170187143827 51.565486590319779 0 0 0 0 103.42128081218834 -178.8140451500949 0 -178.8140451500949 90.562881129211746 0 0 0 0 97.656914783639422 -142.0663147644027 0 -142.0663147644027 37.367438962450251 0 0 0 0 27.968941306477376 -71.519539811849427 0 -71.519539811849427 -86.169878266955493 0 0 0 0 -22.209157741141098 -90.585033494295203 0 -90.585033494295203 8.5113201247738743 0 0 0 0 28.437181806985791 -91.429362765142287 0 -91.429362765142287 -35.844919989034679 0 0 0 0 1.8382251911652574 -5.3741169909689859 0 -5.3741169909689859 -8.1655332383918449 0 0 0 0 -9.2293677006578037 -70.471863908420346 0 -70.471863908420346 39.266422267377493 0 0 0 0 23.922476222200203 -47.928054710428114 0 -47.928054710428114 -173.24891348833262 0 0 0 0 14.630076996587377 -40.670940841540869 0 -40.670940841540869 9.5805905470551807 0 0 0 0 12.336144858149996 -32.829418794969051 0 -32.829418794969051 -17.565788881392251 0 0 0 0 27.343066487814212 -26.323684190465428 0 -26.323684190465428 -30.065921003364565 0 0 0 0 2.7903056982900196 -39.342018033956307 0 -39.342018033956307 -18.550631275474757 0 0 0 0 7.3501666800721068 -50.359940946510505 0 -50.359940946510505 -32.617126136930892 0 0 0 0 20.155282651393392 -30.405950781799916 0 -30.405950781799916 -65.304499755098476 0 0 0 0 16.201213143945097 -30.915514431090742 0 -30.915514431090742 -118.5080901235342 0 0 0 0 5.1850420808857827 -18.451956361839599 0 -18.451956361839599 -57.321295609328615 0 0 0 0 -5.736025084226263 -25.640082016171501 0 -25.640082016171501 -42.57480685576266 0 0 0 0 39.716175603422016 -79.064808839329999 0 -79.064808839329999 -179.08337663736893 0 0 0 0 30.708499548403779 56.674445147698862 0 56.674445147698862 -12.535763554042205 0 0 0 0 -3.3843743076067767 -39.483138415642316 0 -39.483138415642316 -43.760138323414139 0 0 0 0 16.358180201649645 2.6772965147474537 0 2.6772965147474537 -19.052345992504002 0 0 0 0 82.180436864000512 -19.01531964368769 0 -19.01531964368769 -18.079625937156379 0 0 0 0 4.6581429427885839 -18.357340945431901 0 -18.357340945431901 -56.296403488313587 0 0 0 0 -15.411435465454002 -27.820427693985096 0 -27.820427693985096 -36.764129224586128 0 0 0 0 -10.765450310213055 -57.748161141396849 0 -57.748161141396849 -71.705796971509699 0 0 0 0 -10.656743936238854 -53.670352730536251 0 -53.670352730536251 -71.336252838629662 0 0 0 0 -4.7627234241590486 -56.852262582659023 0 -56.852262582659023 -73.000235986375628 0 0 0 0 -7.9157995292498526 -48.282518821186386 0 -48.282518821186386 -87.714625435553899 0 0 0 0 -15.216485574908802 -41.891293642220262 0 -41.891293642220262 -55.056429317541188 0 0 0 0 -3.6108176432953769 -62.132266040498507 0 -62.132266040498507 -78.460016197102959 0 0 0 0 -17.509648472693925 -91.955311961410189 0 -91.955311961410189 -121.2365221385553 0 0 0 0 190.31286908130642 -298.41978044623102 0 -298.41978044623102 -327.13407641356025 0 0 0 0 194.8012532959292 -387.44478634596453 0 -387.44478634596453 -40.259084851793887 0 0 0 0 -138.12414988383989 -287.53755526353871 0 -287.53755526353871 -61.387525098834885 0 0 0 0 -34.479437820943048 -54.412867173954368 0 -54.412867173954368 -54.886755101790271 0 0 0 0 -9.3567295220009612 -15.520814834227082 0 -15.520814834227082 -8.5865369284420012 0 0 0 0 -59.865998927249166 -200.41468343375891 0 -200.41468343375891 -21.748391500354046 0 0 0 0 -10.578104421219905 -95.513386626247666 0 -95.513386626247666 2.5143838541116565 0 0 0 0 -63.716770600826628 -51.523559034683927 0 -51.523559034683927 -11.561623326276674 0 0 0 0 65.504408980372318 -49.134882891477901 0 -49.134882891477901 33.521609269024339 0 0 0 0 116.20795153050858 -136.96727349748835 0 -136.96727349748835 32.912288790525054 0 0 0 0 -12.537174008324655 -99.342760906809417 0 -99.342760906809417 28.65057229129161 0 0 0 0 -113.22931097832043 -41.434174907757551 0 -41.434174907757551 179.69862709629524 0 0 0 0 194.14816941152458 -59.426779304689262 0 -59.426779304689262 31.215825080129434 0 0 0 0 209.84059646166133 -194.44135886813456 0 -194.44135886813456 59.855374102000496 0 0 0 0 -90.807376133860089 -160.71952880028402 0 -160.71952880028402 81.88085368987231 0 0 0 0 374.19376294621725 -153.41727749056736 0 -153.41727749056736 -294.36653028993169 0 0 0 0 -102.94138875231147 -314.19791565697233 0 -314.19791565697233 -214.07298362124129 0 0 0 0 -91.141664991177095 -199.3832730479844 0 -199.3832730479844 -144.12257611317182 0 0 0 0 24.6770402975623 -57.795071831401515 0 -57.795071831401515 27.103764818232477 0 0 0 0 -149.16090353179698 -245.23120690101314 0 -245.23120690101314 -19.476959122344851 0 0 0 0 -186.27960595432523 -247.70920586841385 0 -247.70920586841385 -17.630360536350054 0 0 0 0 -130.61099520027346 -153.98285901228519 0 -153.98285901228519 -154.7265916960464 0 0 0 0 -0.3147807630952002 -10.001980527859772 0 -10.001980527859772 -2.2801408710319713 0 0 0 0 -164.82145036306611 -206.8009281709019 0 -206.8009281709019 -12.505252672679489 0 0 0 0 -303.54779396806771 -200.32493846474244 0 -200.32493846474244 -11.81144334892133 0 0 0 0 -197.15490542985208 -275.55679973407678 0 -275.55679973407678 -45.265592013729474 0 0 0 0 -117.15629059206185 -259.52168305335726 0 -259.52168305335726 -47.652978595666355 0 0 0 0 90.722122494164068 -86.558176041857223 0 -86.558176041857223 17.958997472535884 0 0 0 0 25.688026031533809 -318.09544225047284 0 -318.09544225047284 35.898557182754075 0 0 0 0 -80.28800012245847 -208.42738261877275 0 -208.42738261877275 -38.600888001215935 0 0 0 0 -139.85672947404692 -220.66146391268194 0 -220.66146391268194 -22.662700164444686 0 0 0 0 -29.812211707032446 -37.189736088534247 0 -37.189736088534247 -48.104944195914101 0 0 0 0 -67.871565876201203 -178.34627476122841 0 -178.34627476122841 -31.709955243815784 0 0 0 0 -78.456188286743782 -213.62134369805517 0 -213.62134369805517 -147.93945272853307 0 0 0 0 -112.22140107122686 -133.03660632696847 0 -133.03660632696847 -133.36657674838443 0 0 0 0 137.88454697802536 -137.09796714425102 0 -137.09796714425102 -187.46935947524616 0 0 0 0 -315.15086066627737 -247.04618356208812 0 -247.04618356208812 -141.76357904727774 0 0 0 0 -187.85780420493393 -120.29017593147728 0 -120.29017593147728 -138.77522424200288 0 0 0 0 -227.72678048284706 -199.49128274800296 0 -199.49128274800296 -118.97871423028118 0 0 0 0 -72.99820925315781 -52.392967827336378 0 -52.392967827336378 -27.651455399123449 0 0 0 0 -276.23800325743241 -287.4397437841435 0 -287.4397437841435 -40.382413513485517 0 0 0 0 -241.017717218896 -151.47447568624193 0 -151.47447568624193 -161.17251247186505 0 0 0 0 -231.80679207252979 -213.6876596921461 0 -213.6876596921461 -154.55110778399103 0 0 0 0 -114.55376634104323 -115.40589802553586 0 -115.40589802553586 -211.26936526675854 0 0 0 0 -70.867342116089276 -201.11472080126987 0 -201.11472080126987 -247.44193570875359 0 0 0 0 -69.356663847372687 -53.395247350673969 0 -53.395247350673969 -28.789926179151621 0 0 0 0 -118.94006994687061 -238.24837592284166 0 -238.24837592284166 -346.84759218547697 0 0 0 0 -421.4498651960846 -397.65241447331368 0 -397.65241447331368 -77.699277668216382 0 0 0 0 113.07612179052558 -187.54863927661154 0 -187.54863927661154 -228.14636182329559 0 0 0 0 11.912645089680154 -177.28605514867377 0 -177.28605514867377 -198.64143663560026 0 0 0 0 8.1684930408937362 -187.52903237650025 0 -187.52903237650025 -220.03189676662441 0 0 0 0 -52.559536667657085 -162.15026113305066 0 -162.15026113305066 -194.94614521803305 0 0 0 0 9.8752512900900911 -182.33035684948118 0 -182.33035684948118 -209.4506153400871 0 0 0 0 -4.8196190887465491 -173.56282623826701 0 -173.56282623826701 -203.35074943554355 0 0 0 0 -0.3741089240211295 -213.39301116931892 0 -213.39301116931892 -196.41819068718178 0 0 0 0 -149.6126445506161 -302.19585431298037 0 -302.19585431298037 -181.693859541032 0 0 0 0 -362.79840515676187 -148.7447469583858 0 -148.7447469583858 59.169154905277537 0 0 0 0 -149.00065415079007 -159.98366831206658 0 -159.98366831206658 147.38748356348515 0 0 0 0 -6.3913218096640776 -156.72250855181483 0 -156.72250855181483 -6.4811031559802359 0 0 0 0 -78.120413862674468 -188.71016433285695 0 -188.71016433285695 -20.323577787377872 0 0 0 0 -16.241616622266065 -64.247942629070167 0 -64.247942629070167 -4.8294298120381427 0 0 0 0 -12.932209291540985 -27.273568418297685 0 -27.273568418297685 -4.6163912252309416 0 0 0 0 -83.606488254266878 -199.88273165451392 0 -199.88273165451392 -46.729254165387829 0 0 0 0 -5.367590122295951 -153.56189688046288 0 -153.56189688046288 -59.156844861234276 0 0 0 0 -53.55950257187051 -56.99102101097111 0 -56.99102101097111 -22.03018135284006 0 0 0 0 -52.416132185199423 -24.577049306700928 0 -24.577049306700928 5.8978968433660288 0 0 0 0 -16.286654938015189 -80.903770206601493 0 -80.903770206601493 3.9281251222422107 0 0 0 0 -107.27341726368255 -35.801243728573311 0 -35.801243728573311 44.476220779621769 0 0 0 0 3.3767544722322782 -147.0439154901469 0 -147.0439154901469 116.16361320920987 0 0 0 0 8.5154872465662734 -10.630185866827645 0 -10.630185866827645 5.5248257440980169 0 0 0 0 -109.87030237126828 -44.098169475793839 0 -44.098169475793839 46.711039822759631 0 0 0 0 -93.109751864469672 -307.13477143776981 0 -307.13477143776981 -252.46288200610434 0 0 0 0 13.601484103454405 -30.397475896571677 0 -30.397475896571677 -6.0456861104027126 0 0 0 0 -374.35719593206977 -553.35644874833088 0 -553.35644874833088 1304.2669395258126 0 0 0 0 643.77206278492122 -131.31041969888975 0 -131.31041969888975 -1034.0017184471021 0 0 0 0 88.682724556811081 5.2673751939582871 0 5.2673751939582871 -89.373717780836159 0 0 0 0 -5.7929878826566892 -645.77854775560991 0 -645.77854775560991 324.74229279517021 0 0 0 0 -20.030146390645193 -13.814493935042009 0 -13.814493935042009 0.8551981337606307 0 0 0 0 -5.4375046717836995 -394.61848905400211 0 -394.61848905400211 999.32711556290451 0 0 0 0 84.491122295013156 -10.083318598866754 0 -10.083318598866754 1273.3228858961402 0 0 0 0 -471.11289801023258 -202.56228753551295 0 -202.56228753551295 3203.0789561250349 0 0 0 0 24.716271521943071 -9.674874079103688 0 -9.674874079103688 5.5849985295286544 0 0 0 0 853.52102747001913 -287.86967378279587 0 -287.86967378279587 -1202.1750953592091 0 0 0 0 182.98903672131814 1051.2043161632773 0 1051.2043161632773 66.782881902785448 0 0 0 0 716.89173663888232 -1043.1299625245556 0 -1043.1299625245556 610.46022141959111 0 0 0 0 1021.8073386203598 -663.54845435632433 0 -663.54845435632433 -412.14650848627207 0 0 0 0 373.89800362600545 -1342.5854993155444 0 -1342.5854993155444 603.91891999217114 0 0 0 0 -727.96546222515644 -523.31511421561663 0 -523.31511421561663 1539.5937244395609 0 0 0 0 40.229912869764803 -1022.0717528046316 0 -1022.0717528046316 -515.8740515911195 0 0 0 0 -311.29252091754825 -543.59709177258264 0 -543.59709177258264 -158.44126365298507 0 0 0 0 143.91171935480486 -124.51916957767708 0 -124.51916957767708 20.109066896165409 0 0 0 0 542.12726394960305 -527.93112509897946 0 -527.93112509897946 -909.04066975864043 0 0 0 0 129.34778713197295 -210.19379918697598 0 -210.19379918697598 91.843075060194678 0 0 0 0 -54.803912405419396 -474.43148892309546 0 -474.43148892309546 -345.94632704091782 0 0 0 0 494.38805865810718 -31.807343524706084 0 -31.807343524706084 -1100.8496793483282 0 0 0 0 46.583999583114519 -30.277903619834291 0 -30.277903619834291 -66.060615908843118 0 0 0 0 196.1387056448981 -377.57344535255606 0 -377.57344535255606 -478.95649228939874 0 0 0 0 -58.983457305219417 -194.00843558810084 0 -194.00843558810084 -607.10528908989272 0 0 0 0 -251.26807051888773 -209.65385035475265 0 -209.65385035475265 -603.61555001236411 0 0 0 0 1.1958862005614037 -1.7654107724627295 0 -1.7654107724627295 3.0768292485864492 0 0 0 0 -243.32338996564977 -501.82563575553286 0 -501.82563575553286 -807.18460733065876 0 0 0 0 -211.08889667271251 -355.95250233889601 0 -355.95250233889601 -290.96854965298553 0 0 0 0 -113.7560123234216 -227.91233360166734 0 -227.91233360166734 -661.7042855057407 0 0 0 0 86.269132967918239 -197.07386485913173 0 -197.07386485913173 71.012872013080539 0 0 0 0 74.823150274008867 -350.68581906761892 0 -350.68581906761892 -447.25980444173183 0 0 0 0 29.184623440823373 -18.516025060527454 0 -18.516025060527454 -180.98422017701523 0 0 0 0 32.952898719250776 -38.515767451743656 0 -38.515767451743656 -90.224357360834048 0 0 0 0 338.47521914313802 -145.84349531625048 0 -145.84349531625048 -899.53255490835181 0 0 0 0 226.00245087321264 415.19266733139193 0 415.19266733139193 20.860200226758025 0 0 0 0 -235.35774363720338 484.39289485758127 0 484.39289485758127 411.04676554918115 0 0 0 0 -2.7495010980184418 -8.5928113438535263 0 -8.5928113438535263 16.643902763841652 0 0 0 0 1152.2711255667382 -701.113894974922 0 -701.113894974922 -1061.0591899766841 0 0 0 0 -224.03105125563161 -400.10753245290834 0 -400.10753245290834 699.61623234786748 0 0 0 0 -576.60902957543294 -451.45071076227032 0 -451.45071076227032 775.86885661140695 0 0 0 0 -64.222811343810463 190.86186500627082 0 190.86186500627082 566.26033304604971 0 0 0 0 630.38391825954386 -99.404836802859791 0 -99.404836802859791 336.45899219663988 0 0 0 0 458.67383919519489 -580.74444151524585 0 -580.74444151524585 464.41351174269585 0 0 0 0 -31.900984187283029 -337.84392274997299 0 -337.84392274997299 502.80656335919048 0 0 0 0 -63.045137524713937 -353.75781851860665 0 -353.75781851860665 525.09681298907526 0 0 0 0 -134.88360513133739 -290.44897986314754 0 -290.44897986314754 725.4754056679958 0 0 0 0 -58.147376072369298 -225.97712875780053 0 -225.97712875780053 99.483731544649345 0 0 0 0 -135.71239763916128 -435.03201611035183 0 -435.03201611035183 -9.3404855560802389 0 0 0 0 -239.00851725021494 -156.6823236696946 0 -156.6823236696946 406.00448545506515 0 0 0 0 -141.75549145019977 -139.5465976368323 0 -139.5465976368323 -1.0881219064904144 0 0 0 0 -49.715248814416555 -302.18584529581858 0 -302.18584529581858 -250.74757694461186 0 0 0 0 -20.084085458725895 -183.71140097893826 0 -183.71140097893826 62.252611635115571 0 0 0 0 377.79661313934776 -690.02540760900592 0 -690.02540760900592 -257.99887974501689 0 0 0 0 -51.386493422298372 -168.98010870997132 0 -168.98010870997132 -12.992477142514872 0 0 0 0 -88.710157243516591 -115.2490564247374 0 -115.2490564247374 41.416084480694977 0 0 0 0 -250.59571295359638 -199.2868330431229 0 -199.2868330431229 106.04429596091359 0 0 0 0 -177.79601894089137 -205.50144590209857 0 -205.50144590209857 -7.9472197749419138 0 0 0 0 -46.93224241082568 -153.96745078223341 0 -153.96745078223341 89.587356628394929 0 0 0 0 924.1996772522325 -1476.0070265237218 0 -1476.0070265237218 747.7749923592346 0 0 0 0 -698.42253278148746 -420.05470450638313 0 -420.05470450638313 175.77408417137121 0 0 0 0 3.3241230171692848 -8.2242549542382051 0 -8.2242549542382051 23.057718171403792 0 0 0 0 424.64712832266741 179.73510671496479 0 179.73510671496479 -51.341244916518917 0 0 0 0 -342.71265529617619 -95.298346537844907 0 -95.298346537844907 1197.8768948989746 0 0 0 0 -438.82449207203899 -11.96814427190111 0 -11.96814427190111 695.61196286563427 0 0 0 0 -346.66348168794502 131.94917287353746 0 131.94917287353746 300.8823139424494 0 0 0 0 -197.81098921738885 -216.42597188703621 0 -216.42597188703621 296.49675498262513 0 0 0 0 -135.33544755458934 -32.632780763633491 0 -32.632780763633491 -178.95055383746512 0 0 0 0 8.3221502902766815 -165.67585711714182 0 -165.67585711714182 71.525457185066543 0 0 0 0 126.08352390370419 -108.99413440766148 0 -108.99413440766148 -595.29310327840358 0 0 0 0 40.410841119901079 -54.13506101969358 0 -54.13506101969358 -35.494559703420606 0 0 0 0 -437.80240523159591 -835.76537472445216 0 -835.76537472445216 -163.31046244998288 0 0 0 0 -264.52063499586075 -91.270053049469425 0 -91.270053049469425 58.198422399695119 0 0 0 0 14.58892630846151 -350.69061612867927 0 -350.69061612867927 -344.75908891483414 0 0 0 0 20.984075971804486 -244.04688984163352 0 -244.04688984163352 -444.0961567699851 0 0 0 0 -184.71288721906421 -305.8715644162512 0 -305.8715644162512 -43.697218781706397 0 0 0 0 -68.101555663099134 -289.76429580564945 0 -289.76429580564945 -443.41177166641364 0 0 0 0 -0.5995178461353774 -9.9871392068026239 0 -9.9871392068026239 9.6642210663572357 0 0 0 0 -211.5411997177107 -590.38391705102549 0 -590.38391705102549 -690.49529578210786 0 0 0 0 9.2936229795122927 -403.35801558052844 0 -403.35801558052844 -1178.8505814681339 0 0 0 0 -250.62033630474616 -435.33152304506984 0 -435.33152304506984 -410.44411611028045 0 0 0 0 51.456874663096137 -38.716111439216476 0 -38.716111439216476 6.1921898000157274 0 0 0 0 22.884144622374151 -319.05084949166485 0 -319.05084949166485 -631.04330414209107 0 0 0 0 55.283392810884635 -8.4694948096677507 0 -8.4694948096677507 -5.0363499501176818 0 0 0 0 53.785540217715152 -16.898119155041059 0 -16.898119155041059 -109.96338755916713 0 0 0 0 24.091321729918569 -40.811471005795383 0 -40.811471005795383 -5.3365424792296379 0 0 0 0 85.576198938203106 -52.208814690677244 0 -52.208814690677244 -1.8669116144906681 0 0 0 0 42.195941513232128 -70.751045261982654 0 -70.751045261982654 -42.143728164221102 0 0 0 0 40.974572750219522 -71.290124167608155 0 -71.290124167608155 -41.458821630178136 0 0 0 0 41.36973673628745 -71.565610948069661 0 -71.565610948069661 -42.443602424435085 0 0 0 0 -18.095794723136351 -238.01585259131025 0 -238.01585259131025 -448.33152804769634 0 0 0 0 -47.816771665555279 -276.38140417952491 0 -276.38140417952491 -321.10032590802075 0 0 0 0 -9.7710888001347485 -269.10638084039147 0 -269.10638084039147 -332.453883150818 0 0 0 0 0.60465800422025495 -179.03265552690254 0 -179.03265552690254 -175.63741202703932 0 0 0 0 20.872959323222815 -49.950559694289488 0 -49.950559694289488 -5.1304289421622116 0 0 0 0 6.3579696945416799 -191.86039960752169 0 -191.86039960752169 -107.47318156135498 0 0 0 0 -13.48473770582768 -137.40066610607826 0 -137.40066610607826 -73.086334991672516 0 0 0 0 -41.478181687067263 -124.87549748435413 0 -124.87549748435413 -193.92263213916158 0 0 0 0 14.975593389088353 -44.588697811701699 0 -44.588697811701699 -27.855143788822517 0 0 0 0 52.313598133798223 -65.661877144997561 0 -65.661877144997561 -56.541633958804596 0 0 0 0 21.403411587750398 -51.172462548786172 0 -51.172462548786172 -17.107031269293458 0 0 0 0 55.240511768308352 -68.687651129883307 0 -68.687651129883307 5.2024559556812164 0 0 0 0 -63.901574999515901 -145.60357441497518 0 -145.60357441497518 -18.054165875597377 0 0 0 0 40.758164925986421 -71.636114481800178 0 -71.636114481800178 -41.765212307065667 0 0 0 0 59.800526206016912 -93.259997696623032 0 -93.259997696623032 -14.329727492760867 0 0 0 0 47.309066456595218 -61.64611803488102 0 -61.64611803488102 -43.950428409794299 0 0 0 0 52.922381041935296 -83.700368483296188 0 -83.700368483296188 -14.612347787411181 0 0 0 0 -205.57695327764304 36.209055225797783 0 36.209055225797783 172.55943521697191 0 0 0 0 17.878034077995835 -102.47966992004513 0 -102.47966992004513 1.5292688205081504 0 0 0 0 0.079777020490842787 -52.754398876946738 0 -52.754398876946738 -19.739960002450005 0 0 0 0 89.238244208782817 -6.8162313053580874 0 -6.8162313053580874 61.613542303457507 0 0 0 0 167.38665197458613 -56.158146578847663 0 -56.158146578847663 -274.598695809731 0 0 0 0 508.85173683175253 -574.88492521593707 0 -574.88492521593707 548.39587502578797 0 0 0 0 343.38719343426897 135.80078455102648 0 135.80078455102648 -84.646910975148785 0 0 0 0 323.240059459029 -420.68204288188281 0 -420.68204288188281 994.90104591927957 0 0 0 0 505.56372783724146 -844.03347433603631 0 -844.03347433603631 606.85336224737694 0 0 0 0 67.41816513942922 -278.85983123844926 0 -278.85983123844926 676.59036672902585 0 0 0 0 54.666960432625274 -341.91642922354004 0 -341.91642922354004 1042.920840102277 0 0 0 0 70.684287609624434 -31.208248292813508 0 -31.208248292813508 7.5107197809968156 0 0 0 0 218.89965807113731 -487.12475883699881 0 -487.12475883699881 503.22580960170308 0 0 0 0 200.3184794536246 -146.59144022513647 0 -146.59144022513647 -98.089932976659838 0 0 0 0 96.963052947761753 -361.65867315668947 0 -361.65867315668947 694.63051450326748 0 0 0 0 257.5176230799625 -780.81417746617808 0 -780.81417746617808 1454.0108931594586 0 0 0 0 -40.870550524887221 -312.66812304169798 0 -312.66812304169798 925.61285935843262 0 0 0 0 -47.103194884678601 -377.13385748610358 0 -377.13385748610358 1461.2482315112284 0 0 0 0 85.520394778022819 -557.68318756343433 0 -557.68318756343433 961.12113913506619 0 0 0 0 -157.71961494483185 -47.239324993584887 0 -47.239324993584887 38.858823642076459 0 0 0 0 -4.4361182817729983 -5.6772152058845933 0 -5.6772152058845933 -1.7228165916538813 0 0 0 0 -165.77763014655284 -558.90427484000611 0 -558.90427484000611 1811.4912874605725 0 0 0 0 100.74128207658941 29.973323496957164 0 29.973323496957164 -109.45281035490916 0 0 0 0 1.6147673280312702 -14.344991587855858 0 -14.344991587855858 3.6861552678523726 0 0 0 0 184.57941456736808 -1037.4275487735868 0 -1037.4275487735868 -1746.107768904003 0 0 0 0 234.54258993702388 -711.34624547660496 0 -711.34624547660496 1455.2371297132479 0 0 0 0 -180.83063060305994 -502.38311971119401 0 -502.38311971119401 -739.86760108124872 0 0 0 0 -382.58877850936005 -226.96642317169062 0 -226.96642317169062 -751.56741705347667 0 0 0 0 110.85235494190238 -537.49482019038624 0 -537.49482019038624 501.26366203629004 0 0 0 0 -85.52389323094485 -78.54408934680032 0 -78.54408934680032 30.098393859254429 0 0 0 0 -13.105196931629699 -50.933643570505467 0 -50.933643570505467 -15.311252422964571 0 0 0 0 2339.082182474518 -173.26707942065696 0 -173.26707942065696 -1244.0184463527112 0 0 0 0 732.99173038760136 -158.66290646317202 0 -158.66290646317202 -96.496690323605435 0 0 0 0 995.30651388438491 -1165.9047975191206 0 -1165.9047975191206 496.08271587282798 0 0 0 0 939.9408168461523 -1208.0033754032775 0 -1208.0033754032775 474.47570261708461 0 0 0 0 14.583272698779663 -17.905244248736352 0 -17.905244248736352 -4.0949886979511092 0 0 0 0 657.22707947940876 -972.77968087259842 0 -972.77968087259842 407.43434968066867 0 0 0 0 606.12615045459825 -967.627655542914 0 -967.627655542914 475.8118472926144 0 0 0 0 485.92870993230827 -1434.2452059263742 0 -1434.2452059263742 4191.6954086205806 0 0 0 0 670.72307463508696 -911.62608770941733 0 -911.62608770941733 1354.4396287469426 0 0 0 0 175.97331775716702 -857.20903615406132 0 -857.20903615406132 4563.030926221516 0 0 0 0 0.98757622885403862 -1.3109258218445632 0 -1.3109258218445632 -1.1969903799452908 0 0 0 0 9.7411058142461115 -116.46317119558807 0 -116.46317119558807 4257.5453788663435 0 0 0 0 1.2918385552244942 1.4602044135192642 0 1.4602044135192642 -2.7746705731542889 0 0 0 0 1042.5694130990196 -1192.3615971819745 0 -1192.3615971819745 433.99392738641473 0 0 0 0 1000.3332037004402 -1617.5149057022572 0 -1617.5149057022572 -3739.0919346427027 0 0 0 0 1014.6899984814299 -1223.7323737029219 0 -1223.7323737029219 401.43512925709092 0 0 0 0 610.41053627997826 -674.80532697273884 0 -674.80532697273884 -817.95995052464423 0 0 0 0 -669.17899080665848 -762.88366807548664 0 -762.88366807548664 -754.40675624170399 0 0 0 0 436.228607402325 -774.3089135964874 0 -774.3089135964874 151.58725119366136 0 0 0 0 -11.150737302918841 -9.4622573053913186 0 -9.4622573053913186 46.368132762712236 0 0 0 0 2223.2837265874232 -751.4220477428471 0 -751.4220477428471 -393.82901029344066 0 0 0 0 1991.5881616070837 -939.62404067954049 0 -939.62404067954049 769.70092827484768 0 0 0 0 1926.8971231899159 -387.43889847351966 0 -387.43889847351966 -590.99136995932349 0 0 0 0 -6.0263440339331282 22.921669559240399 0 22.921669559240399 -19.549825998226879 0 0 0 0 -39.14041411365065 -49.928031598674863 0 -49.928031598674863 -16.004504770441784 0 0 0 0 -149.59476457379787 -130.35434858779445 0 -130.35434858779445 49.996863064268837 0 0 0 0 6.6503342979158333 -123.96643771219169 0 -123.96643771219169 25.175832374268794 0 0 0 0 109.24176119350886 -81.4504082295025 0 -81.4504082295025 2.8563744801722351 0 0 0 0 -26.995274846655121 -10.982397369069787 0 -10.982397369069787 8.638835656341314 0 0 0 0 -0.89478476075467483 -38.209116097404149 0 -38.209116097404149 -23.539052505486708 0 0 0 0 28.068588568168707 -49.374499091306006 0 -49.374499091306006 -167.76622977526858 0 0 0 0 -51.925722001665001 -38.816803695070405 0 -38.816803695070405 18.113299731761572 0 0 0 0 -22.47285419144464 -91.967401917332609 0 -91.967401917332609 94.690195588656934 0 0 0 0 46.4397110472637 -122.19022307543037 0 -122.19022307543037 -15.389590816259442 0 0 0 0 -36.34710445714154 -78.74370058128261 0 -78.74370058128261 19.644264235801529 0 0 0 0 -38.108629160240525 -73.506213095279236 0 -73.506213095279236 36.670670247614908 0 0 0 0 -100.61955014027262 -48.469998109581866 0 -48.469998109581866 143.6987477173825 0 0 0 0 -104.73178924975218 -68.597574654821074 0 -68.597574654821074 61.89170374535388 0 0 0 0 -159.67444735122263 -132.0990216497521 0 -132.0990216497521 107.89309754606256 0 0 0 0 -59.306318540697248 -144.30749322174961 0 -144.30749322174961 -15.705970286857337 0 0 0 0 -34.216614670833223 -101.37047272874406 0 -101.37047272874406 1.2349981359056983 0 0 0 0 -37.59597160879639 -98.694875831857644 0 -98.694875831857644 25.289151164406576 0 0 0 0 -246.03653545489942 450.40993152465671 0 450.40993152465671 -463.74578341803863 0 0 0 0 139.30498223297036 94.126623386755455 0 94.126623386755455 -139.06335797073916 0 0 0 0 24.179843071080086 -34.084837881783727 0 -34.084837881783727 29.113789539232243 0 0 0 0 2.6247471045935526 -143.5033805301282 0 -143.5033805301282 -54.05023465983686 0 0 0 0 4.0277419813646702 -56.624302595831978 0 -56.624302595831978 -18.612460009404458 0 0 0 0 1.3034422684140736 -123.24660634082466 0 -123.24660634082466 10.225964205013952 0 0 0 0 45.09525180556453 -58.166256221235145 0 -58.166256221235145 40.597001933994591 0 0 0 0 -560.70624796893389 -358.15777605219773 0 -358.15777605219773 461.28054419126238 0 0 0 0 -40.495521018223371 22.841424933783856 0 22.841424933783856 107.77051112607114 0 0 0 0 3.4264292513431878 -10.696999989504647 0 -10.696999989504647 -8.294403040712325 0 0 0 0 -621.41479547073413 -173.66490178349829 0 -173.66490178349829 -40.943988922401331 0 0 0 0 50.381331374754609 -118.07566323301853 0 -118.07566323301853 -9.3304713115794584 0 0 0 0 229.31582000415438 -38.842590497189121 0 -38.842590497189121 -91.490328052950645 0 0 0 0 -32.013704400840552 -54.951981233925409 0 -54.951981233925409 -36.256111146971932 0 0 0 0 42.797220882283 -65.005668036377756 0 -65.005668036377756 -24.295879116434662 0 0 0 0 64.11568176237779 -116.39856845204486 0 -116.39856845204486 -13.857387149888382 0 0 0 0 36.420313880804315 -115.82626732583594 0 -115.82626732583594 -1.2245436263765441 0 0 0 0 -33.93905860640708 -45.498424039706649 0 -45.498424039706649 -24.214101528442598 0 0 0 0 675.18380542637169 -530.87816047195884 0 -530.87816047195884 -586.30533469813236 0 0 0 0 -397.93826631839329 -89.854253126479307 0 -89.854253126479307 -0.055113441419962328 0 0 0 0 -534.98415926481084 -100.32025831605824 0 -100.32025831605824 72.327394888881827 0 0 0 0 -538.15758097550133 38.551576055428086 0 38.551576055428086 -5.6251920228314702 0 0 0 0 -15.946604874703077 -47.187101388225912 0 -47.187101388225912 -66.632335533829405 0 0 0 0 -735.22643668432283 57.453477242355802 0 57.453477242355802 33.94437339889555 0 0 0 0 1219.9797713072549 -699.00165515638582 0 -699.00165515638582 5.3393068632722134 0 0 0 0 -441.72114245661942 -78.915237386561785 0 -78.915237386561785 -48.096229977628354 0 0 0 0 -560.61969482703535 66.72515981245374 0 66.72515981245374 -74.410085610572423 0 0 0 0 -287.92897064202407 -202.74003453689511 0 -202.74003453689511 429.22543850241345 0 0 0 0 62.629168292747636 40.293314040427504 0 40.293314040427504 394.03229033273328 0 0 0 0 -127.52217584317987 -285.92399032132926 0 -285.92399032132926 359.25807074639306 0 0 0 0 -228.16932622660534 102.87137022460956 0 102.87137022460956 -20.117083837627433 0 0 0 0 -460.78862512923661 -69.80535989683267 0 -69.80535989683267 529.90543471721321 0 0 0 0 -271.92358711084671 -496.19513279564126 0 -496.19513279564126 -13.642954999475478 0 0 0 0 -212.89287497884652 -188.83055082576539 0 -188.83055082576539 248.95068126138358 0 0 0 0 39.717686375108315 -253.75813056770312 0 -253.75813056770312 -306.90042878397799 0 0 0 0 172.08542807777121 -88.630086378991109 0 -88.630086378991109 -234.67862720475387 0 0 0 0 -2.1886219749703599 -3.5973443949160284 0 -3.5973443949160284 -4.4153040354341613 0 0 0 0 -274.39528795755177 -229.07144373638948 0 -229.07144373638948 47.384373596988553 0 0 0 0 -5.9173296358456753 -31.464345751007762 0 -31.464345751007762 5.4643935869571862 0 0 0 0 608.44894204597222 -359.99346863137907 0 -359.99346863137907 62.339241914029117 0 0 0 0 -16.042080338626633 -10.948209374547332 0 -10.948209374547332 -4.6057966369546079 0 0 0 0 687.59955713049567 -497.84183921357908 0 -497.84183921357908 -871.98340996059414 0 0 0 0 -17.373200080656716 -50.732500200041201 0 -50.732500200041201 -52.123454102896716 0 0 0 0 684.38388705289253 -329.75325073014756 0 -329.75325073014756 46.210983521770686 0 0 0 0 -1020.2111162500514 557.58489796835056 0 557.58489796835056 631.65327688043908 0 0 0 0 -460.53120250525899 -89.27100096194863 0 -89.27100096194863 1.4983673474926036 0 0 0 0 -407.96259924262995 -149.22760190409463 0 -149.22760190409463 -70.115373468521284 0 0 0 0 10.39948134917185 -32.385075143609356 0 -32.385075143609356 9.6966765934391219 0 0 0 0 -456.67350550253468 -191.18621743272888 0 -191.18621743272888 -45.664007269237118 0 0 0 0 -383.87543630879009 -103.18120806958996 0 -103.18120806958996 -24.329444990049524 0 0 0 0 -221.90312299744983 -236.6108618916478 0 -236.6108618916478 26.502992805618788 0 0 0 0 -452.79199056398647 -162.55928519360168 0 -162.55928519360168 78.820575856654614 0 0 0 0 -373.75989825743454 -157.0793481382243 0 -157.0793481382243 25.647847116535559 0 0 0 0 39.74678963524957 -41.965023536401063 0 -41.965023536401063 39.891995511848137 0 0 0 0 -944.72665984445121 -515.6670032190932 0 -515.6670032190932 91.680891931973747 0 0 0 0 -442.53370662214184 -148.26094996420534 0 -148.26094996420534 -2.5294171079367516 0 0 0 0 -160.55996521306224 -158.27644704613704 0 -158.27644704613704 -110.27675892718435 0 0 0 0 -22.724342375200649 -167.29767658087712 0 -167.29767658087712 -154.775099111901 0 0 0 0 -13.320113080648298 -52.614404603796174 0 -52.614404603796174 -20.516622397251012 0 0 0 0 21.054588143381181 -25.707425717747228 0 -25.707425717747228 6.6146789965348987 0 0 0 0 -12.61310358196917 -54.287486189917487 0 -54.287486189917487 -49.487050993308074 0 0 0 0 -24.706095726898639 -89.730510417753976 0 -89.730510417753976 -50.556595670841489 0 0 0 0 35.828398700214166 -192.13302351130551 0 -192.13302351130551 -5.9386720947368303 0 0 0 0 -27.028425919887837 -36.82447846432413 0 -36.82447846432413 54.332471771107379 0 0 0 0 -68.713868156482931 -59.118848647226514 0 -59.118848647226514 36.285187623030652 0 0 0 0 -53.753306985461677 -129.55420792136738 0 -129.55420792136738 -3.6241125199221642 0 0 0 0 -300.11116262792348 -175.22934407366665 0 -175.22934407366665 52.569635320749512 0 0 0 0 70.620226833299967 -60.652634503065656 0 -60.652634503065656 -55.338198296589326 0 0 0 0 -267.15222445625477 -138.7638568159 0 -138.7638568159 181.40974862495023 0 0 0 0 -77.256457048584707 -145.51330955035883 0 -145.51330955035883 10.503467118596973 0 0 0 0 -22.415037480877288 -68.355801347213315 0 -68.355801347213315 27.314519594142535 0 0 0 0 31.957982586893195 -98.017506937607322 0 -98.017506937607322 -0.74031522032237262 0 0 0 0 -2.6089604430060831 -13.390819906672064 0 -13.390819906672064 3.0318715538295677 0 0 0 0 5.2459383987079491 -55.955543425728592 0 -55.955543425728592 -2.4338916521701321 0 0 0 0 7.2394392548521864 -26.275940450262169 0 -26.275940450262169 55.79834419769395 0 0 0 0 -90.906369596395962 -96.097188914107619 0 -96.097188914107619 126.24085752835526 0 0 0 0 112.2436194706097 -286.66583149234293 0 -286.66583149234293 -262.36946667382881 0 0 0 0 -42.478398664172346 52.871686259238459 0 52.871686259238459 281.55205971816576 0 0 0 0 107.31259556910663 -642.51274168854343 0 -642.51274168854343 453.52820792582384 0 0 0 0 -13.321514851188113 41.274377265182466 0 41.274377265182466 12.116991926650826 0 0 0 0 13.393083491655403 -5.2532234583039212 0 -5.2532234583039212 1.4327692196898028 0 0 0 0 236.52867589181551 -750.75200933749329 0 -750.75200933749329 -121.23146850578632 0 0 0 0 28.986813550987449 -44.757814292650906 0 -44.757814292650906 21.43095359967182 0 0 0 0 169.62810681402334 790.69917269043799 0 790.69917269043799 1014.2187031158101 0 0 0 0 -1.6541205915418686 -63.688895956300257 0 -63.688895956300257 20.64442623087416 0 0 0 0 459.08469688208424 -990.70906423353881 0 -990.70906423353881 -1325.99539759447 0 0 0 0 -1288.0727407694212 -2718.4004110941314 0 -2718.4004110941314 -2683.7551626918794 0 0 0 0 -8.3938325673315148 -12.333864266394322 0 -12.333864266394322 2.6801457168263632 0 0 0 0 57.586545150639722 -67.510360565967858 0 -67.510360565967858 -58.316579879407072 0 0 0 0 -44.193247864761361 -114.45291231544388 0 -114.45291231544388 -53.385906570990755 0 0 0 0 38.84338950581332 -39.830573711777561 0 -39.830573711777561 -17.008469269796478 0 0 0 0 18.493861385391938 -55.132154889084632 0 -55.132154889084632 -26.582316246676783 0 0 0 0 61.165664546103642 -20.546357232871273 0 -20.546357232871273 -11.780729650301241 0 0 0 0 -335.5221422313241 70.367444175652338 0 70.367444175652338 275.65421858416812 0 0 0 0 11.709684228877499 -30.867045601595109 0 -30.867045601595109 -14.349835766776337 0 0 0 0 43.515959862223099 -50.144622313458967 0 -50.144622313458967 -42.533537331245498 0 0 0 0 -1.1412515365794889 -1.8228724661315638 0 -1.8228724661315638 1.2015850004169062 0 0 0 0 -345.76834186429915 107.26020974719722 0 107.26020974719722 -312.40757552289642 0 0 0 0 -321.34500774735352 -159.10557674622032 0 -159.10557674622032 44.35597223136574 0 0 0 0 -48.586158333993808 -311.6666835694341 0 -311.6666835694341 -73.13466851183739 0 0 0 0 -156.08259554553661 -221.25001418732427 0 -221.25001418732427 103.65555646311168 0 0 0 0 -216.89755785109446 -75.911576329188392 0 -75.911576329188392 -62.084494691589498 0 0 0 0 -241.68826977562276 -235.01727158351423 0 -235.01727158351423 102.19070509169887 0 0 0 0 -296.28557142880163 -139.28548026801582 0 -139.28548026801582 147.18421819646028 0 0 0 0 178.42977581948799 -233.93672435489498 0 -233.93672435489498 -50.06145931876199 0 0 0 0 -48.904808942971961 -68.765631588208038 0 -68.765631588208038 -7.2966207669421976 0 0 0 0 -34.920175605569966 -162.5644987035048 0 -162.5644987035048 128.9901848880836 0 0 0 0 -147.69665525732853 -162.66599733020485 0 -162.66599733020485 166.47213975198247 0 0 0 0 -99.869234537356533 -174.56960976351547 0 -174.56960976351547 152.65096473054291 0 0 0 0 -70.082620177665376 -128.61560344588361 0 -128.61560344588361 144.19778802937071 0 0 0 0 -193.72960069039254 -104.53453766836174 0 -104.53453766836174 158.10179123801208 0 0 0 0 -94.370172347786138 -144.57499666294461 0 -144.57499666294461 159.14484806523978 0 0 0 0 -127.48882396456611 -188.25057178606585 0 -188.25057178606585 136.76476951568111 0 0 0 0 -149.43380714417435 -156.79077155864434 0 -156.79077155864434 164.42522415608892 0 0 0 0 -122.16122511090362 -186.57449771452593 0 -186.57449771452593 155.51015411540175 0 0 0 0 3.7019630006689113 -143.79516475510763 0 -143.79516475510763 -41.941431051600375 0 0 0 0 -153.92409708313789 -160.18658194838372 0 -160.18658194838372 162.53771018461839 0 0 0 0 -158.57288515311666 -177.69565501792931 0 -177.69565501792931 162.15333129625287 0 0 0 0 -195.39953176674317 -101.42442996360114 0 -101.42442996360114 7.0736093975865515 0 0 0 0 455.48926723177175 -79.475296343536002 0 -79.475296343536002 -250.97420064013863 0 0 0 0 3.3290376386130376 -22.433640297458567 0 -22.433640297458567 -1.6807748252362877 0 0 0 0 -8.9928014768125593 -11.744994581308099 0 -11.744994581308099 9.7928726806133533 0 0 0 0 81.984065765165724 15.18146364687982 0 15.18146364687982 119.6370986954812 0 0 0 0 54.868104910925467 -155.71750324708046 0 -155.71750324708046 42.821471198350082 0 0 0 0 -52.660871399067972 -62.195420857676851 0 -62.195420857676851 26.408949636781038 0 0 0 0 -109.9471142381808 -160.778774399947 0 -160.778774399947 12.928736183578621 0 0 0 0 19.535900355316699 -21.70137418682657 0 -21.70137418682657 186.39600521892316 0 0 0 0 -34.901683093835203 -83.208404214558158 0 -83.208404214558158 32.329578131904597 0 0 0 0 -194.15479363783379 -10.430452996777603 0 -10.430452996777603 316.01568964470061 0 0 0 0 222.44882684866025 -304.16495997981838 0 -304.16495997981838 -16.431685172196012 0 0 0 0 36.257926049034637 -98.7236755496386 0 -98.7236755496386 16.913550348800356 0 0 0 0 -1.291425798950101 -29.871014545038818 0 -29.871014545038818 7.8403967098579415 0 0 0 0 29.548704704542615 -286.85518906485959 0 -286.85518906485959 18.600447753771732 0 0 0 0 24.655587872451605 -82.792736689763899 0 -82.792736689763899 -0.72292753239217777 0 0 0 0 64.451446097737062 -67.605242583118525 0 -67.605242583118525 -187.93674249419564 0 0 0 0 74.018889618295361 -76.639853221721751 0 -76.639853221721751 23.576657391513436 0 0 0 0 -57.034161708783358 -73.697874618343121 0 -73.697874618343121 185.18655108612347 0 0 0 0 6.5893829373851247 -100.05006573736195 0 -100.05006573736195 6.3218102186977845 0 0 0 0 -58.622299794402721 -56.46380816748816 0 -56.46380816748816 33.801731275158197 0 0 0 0 -50.02068439553841 -84.748608944255466 0 -84.748608944255466 29.915510659768188 0 0 0 0 -90.666106655255135 -30.721156415121186 0 -30.721156415121186 69.088688138028374 0 0 0 0 7.1319806619685266 -84.219456322068766 0 -84.219456322068766 93.493803177663239 0 0 0 0 259.13309050253883 -26.866810982188326 0 -26.866810982188326 22.44627533120547 0 0 0 0 -7.5213248399003803 -38.448593731521811 0 -38.448593731521811 4.5393824094368824 0 0 0 0 -106.40238286952808 -92.892312771946308 0 -92.892312771946308 108.17063422620049 0 0 0 0 -10.940535938796529 -3.3170970548671903 0 -3.3170970548671903 190.46714324723143 0 0 0 0 83.161250796183595 -127.81150591615005 0 -127.81150591615005 5.5308930167811923 0 0 0 0 1.2854703138868933 -73.330408890605597 0 -73.330408890605597 -11.46261182460433 0 0 0 0 -23.647665661462383 -123.40819095904024 0 -123.40819095904024 -85.912326057625251 0 0 0 0 99.714880661675124 -25.910709145616806 0 -25.910709145616806 78.745175600332914 0 0 0 0 41.03369694986759 -122.05540338630749 0 -122.05540338630749 38.655859246631735 0 0 0 0 -54.062101078488098 -82.267669307702192 0 -82.267669307702192 31.199996126986591 0 0 0 0 -48.201550398654945 -149.73203236575682 0 -149.73203236575682 -81.54933981492286 0 0 0 0 -101.06617738990826 -102.46737540912727 0 -102.46737540912727 125.32176680743578 0 0 0 0 -189.09234497196303 -216.32110002411355 0 -216.32110002411355 56.747260047675809 0 0 0 0 -209.50192483552382 -204.60058281719103 0 -204.60058281719103 145.3266416955903 0 0 0 0 -243.70510767915766 -151.25362236999717 0 -151.25362236999717 -40.617549839422281 0 0 0 0 -347.25653022727784 -165.8849312746097 0 -165.8849312746097 90.396799586913403 0 0 0 0 497.57873344150357 -210.72554989659147 0 -210.72554989659147 -7.0089484921190888 0 0 0 0 -425.20858297384257 108.99425057757253 0 108.99425057757253 -141.96573781049074 0 0 0 0 -6.9470931484056919 -7.0672418505492232 0 -7.0672418505492232 -2.0171043143458007 0 0 0 0 155.01195228262804 -407.86797142529394 0 -407.86797142529394 -175.05952451019675 0 0 0 0 -231.35985419672579 -181.05127846597134 0 -181.05127846597134 471.92007722012931 0 0 0 0 -211.22269684571438 -144.50374535858919 0 -144.50374535858919 973.75789739470929 0 0 0 0 139.94828795347712 -296.70774137842091 0 -296.70774137842091 153.55328223154356 0 0 0 0 127.60129660578968 -238.11448596763239 0 -238.11448596763239 -92.636004802916432 0 0 0 0 41.609044752229238 -21.837530830453034 0 -21.837530830453034 12.536285711303208 0 0 0 0 47.972873638020246 -62.173504859478271 0 -62.173504859478271 181.38802915898395 0 0 0 0 15.793606722043478 -144.3147770444848 0 -144.3147770444848 -25.09584485184314 0 0 0 0 47.80484012701308 -69.668331303192588 0 -69.668331303192588 31.695459799449225 0 0 0 0 -90.39364406830282 -172.00244859723534 0 -172.00244859723534 4.2708689243809204 0 0 0 0 -236.71735143906335 -214.94732470758208 0 -214.94732470758208 118.03613220652915 0 0 0 0 98.266400642489316 -215.96924055068666 0 -215.96924055068666 153.79458957554743 0 0 0 0 43.384550592360029 -75.620664206522633 0 -75.620664206522633 -32.716764454820805 0 0 0 0 18.382577780745123 -52.052915210264473 0 -52.052915210264473 112.34352087712614 0 0 0 0 -188.69973448235396 -91.233255574636132 0 -91.233255574636132 73.187725975330977 0 0 0 0 0.84005101456568809 -93.888930926652392 0 -93.888930926652392 17.64558154846236 0 0 0 0 32.781352730301414 -73.751575409559365 0 -73.751575409559365 25.851801028182479 0 0 0 0 -32.393252360270708 -137.58276103040407 0 -137.58276103040407 -15.310130601807032 0 0 0 0 -106.69993609198718 -101.51148189801461 0 -101.51148189801461 33.659779117188009 0 0 0 0 -4.3117620611607954 -73.533113254318238 0 -73.533113254318238 0.71843796271716087 0 0 0 0 -54.687841172595654 -57.478754933072196 0 -57.478754933072196 37.006520900884425 0 0 0 0 -104.38161604178458 -292.57904277327543 0 -292.57904277327543 -10.920206453653009 0 0 0 0 491.95818153417349 -268.57337158124938 0 -268.57337158124938 -17.473022833535651 0 0 0 0 -180.54703696387878 -382.13722523770775 0 -382.13722523770775 -142.79566163756317 0 0 0 0 -1107.768992888341 -36.401149529254326 0 -36.401149529254326 135.24931225033652 0 0 0 0 -4.5101268451802454 -5.792958182288146 0 -5.792958182288146 1.8297177856607902 0 0 0 0 0.046967117405074532 -43.21369388373023 0 -43.21369388373023 8.3870575580003788 0 0 0 0 32.643353142229898 -69.22743935492872 0 -69.22743935492872 28.534832863155316 0 0 0 0 -54.571484053711174 -19.042542654875433 0 -19.042542654875433 123.3403280153052 0 0 0 0 -13.123628245109558 -69.890313856338295 0 -69.890313856338295 28.211351432811281 0 0 0 0 -82.765006986010121 -188.78839138310195 0 -188.78839138310195 -60.164316916536336 0 0 0 0 -402.67616821591218 -98.643644721447345 0 -98.643644721447345 18.585419815426576 0 0 0 0 -491.67392830463177 17.77154222784975 0 17.77154222784975 53.741479679069016 0 0 0 0 97.523724517828668 -47.233128593876245 0 -47.233128593876245 -75.501916642937431 0 0 0 0 -237.30797194849583 -34.6791905642458 0 -34.6791905642458 180.5046682002212 0 0 0 0 -0.14313427667366341 -180.74124455916899 0 -180.74124455916899 -20.02996328016161 0 0 0 0 -1.6574638461912627 -5.8623247077577787 0 -5.8623247077577787 -0.81387102255195032 0 0 0 0 340.82558034394606 -116.11798763522893 0 -116.11798763522893 -117.61828777170012 0 0 0 0 29.648544072122604 -84.234102233465819 0 -84.234102233465819 -12.784167632802564 0 0 0 0 178.98956451832782 -219.03393061096358 0 -219.03393061096358 -28.83899828144331 0 0 0 0 111.38822797930334 -102.2449123319966 0 -102.2449123319966 -19.595564581752114 0 0 0 0 247.71429435656319 52.957185125240358 0 52.957185125240358 -55.551665166974999 0 0 0 0 132.11294122012623 67.380718320764572 0 67.380718320764572 36.674352271627868 0 0 0 0 17.273265471689783 -10.331045417278148 0 -10.331045417278148 2.1267571284191149 0 0 0 0 -206.35336143262793 -70.305549125479956 0 -70.305549125479956 103.99339601206884 0 0 0 0 -277.37556978953216 -24.359829411809187 0 -24.359829411809187 77.098894511727849 0 0 0 0 -3.9100576685239545 -12.803733562190359 0 -12.803733562190359 -2.8648114282445079 0 0 0 0 48.471808045418584 -119.9673651273406 0 -119.9673651273406 12.157930900790234 0 0 0 0 -7.8678676649461892 -17.462428927415687 0 -17.462428927415687 17.05230676115832 0 0 0 0 -39.431090134996339 -32.63644595349615 0 -32.63644595349615 9.5337781222042395 0 0 0 0 -178.78971953300788 -111.38724129184448 0 -111.38724129184448 21.277377933918615 0 0 0 0 -255.44987617929291 31.894945410567743 0 31.894945410567743 -63.969976787910127 0 0 0 0 -118.45630437235377 -164.52394261539303 0 -164.52394261539303 -15.088274306399398 0 0 0 0 -29.204335707232531 -65.021426502349641 0 -65.021426502349641 30.601525832353218 0 0 0 0 14.267118353738624 -211.31980146840579 0 -211.31980146840579 71.882866390054915 0 0 0 0 -46.243450607800952 -39.285293278766318 0 -39.285293278766318 -26.407797868804039 0 0 0 0 109.3068288868526 -188.76485824686097 0 -188.76485824686097 95.276899859107289 0 0 0 0 111.65115124129079 -170.29820859090978 0 -170.29820859090978 2.5595743718149606 0 0 0 0 148.58311613683327 -245.92428861526787 0 -245.92428861526787 78.845599398060585 0 0 0 0 -46.619585215438804 -38.537415137035225 0 -38.537415137035225 -32.348754114789784 0 0 0 0 227.55218867992608 -271.6864465620688 0 -271.6864465620688 83.375360834834282 0 0 0 0 167.74307933094497 -184.39214965626343 0 -184.39214965626343 39.923482764643268 0 0 0 0 96.316566875000717 -204.96917174628834 0 -204.96917174628834 51.197714615133009 0 0 0 0 166.24473299955389 -166.7594230050272 0 -166.7594230050272 22.917400054793688 0 0 0 0 207.98506807950616 -146.94727234375023 0 -146.94727234375023 40.68805097216682 0 0 0 0 143.87809767558065 -181.74213548740227 0 -181.74213548740227 36.898834424664528 0 0 0 0 105.90601603730283 -41.492835316513265 0 -41.492835316513265 21.183418764718226 0 0 0 0 -10.753447699738899 -112.5896617838298 0 -112.5896617838298 36.870200457691681 0 0 0 0 -45.522336851343653 -38.306924424630949 0 -38.306924424630949 -20.157998368393521 0 0 0 0 -96.812282958824653 -115.22114273715124 0 -115.22114273715124 78.531455791933695 0 0 0 0 -144.21090889090556 -78.862198257971613 0 -78.862198257971613 106.08735989271008 0 0 0 0 -156.4541016453295 -6.6586797730487888 0 -6.6586797730487888 79.94994584939559 0 0 0 0 -141.54064321867918 17.388187243486755 0 17.388187243486755 -0.35119344471604563 0 0 0 0 -165.24928415910108 -101.68011046663742 0 -101.68011046663742 35.659417683840729 0 0 0 0 -103.05912163281755 -83.322304562301724 0 -83.322304562301724 -72.591797408356797 0 0 0 0 -14.423956467934545 -11.198610783022446 0 -11.198610783022446 22.286587960721192 0 0 0 0 -119.54320311338233 -30.618622832062101 0 -30.618622832062101 18.982392308098497 0 0 0 0 -31.491182593745179 -39.195333116531401 0 -39.195333116531401 -38.676591530122096 0 0 0 0 -152.80754699592399 -54.520607566968465 0 -54.520607566968465 13.440729750145692 0 0 0 0 -6.4600324363752009 -30.562012334906456 0 -30.562012334906456 10.636191797625543 0 0 0 0 -12.231600871314873 -18.515073045831059 0 -18.515073045831059 1.3229109048681096 0 0 0 0 -106.88610298873391 4.6444675408711191 0 4.6444675408711191 30.861345934332348 0 0 0 0 -29.322444156162817 3.5691498727064044 0 3.5691498727064044 36.397154197801086 0 0 0 0 -10.019131671539157 -1.1471713024659493 0 -1.1471713024659493 8.9222941765912083 0 0 0 0 -6.9366191987235766 -29.77075804593548 0 -29.77075804593548 -6.5564375929269545 0 0 0 0 -75.249757559922728 92.291562138294466 0 92.291562138294466 65.081816317455377 0 0 0 0 -5.2676643421031315 -23.20179405730309 0 -23.20179405730309 24.898643512154933 0 0 0 0 -87.619842484692526 -22.863436265426117 0 -22.863436265426117 114.88238116897992 0 0 0 0 17.660985630442156 -47.180351674945996 0 -47.180351674945996 -102.56075567090011 0 0 0 0 -93.693133212938847 -43.670152130944189 0 -43.670152130944189 -53.448557146126404 0 0 0 0 -107.78305186129001 -19.35135285864817 0 -19.35135285864817 119.64452347095357 0 0 0 0 -1.3335065320260391 -23.653832292092318 0 -23.653832292092318 7.0910384156415489 0 0 0 0 -0.3138417882105955 -7.909658245291638 0 -7.909658245291638 0.339814106745564 0 0 0 0 4.2388793556035438 -5.0913679692596219 0 -5.0913679692596219 -0.14500354313202024 0 0 0 0 51.103962705245067 -196.92302270079017 0 -196.92302270079017 171.8717202203261 0 0 0 0 -218.40024519186409 10.868718639831059 0 10.868718639831059 37.104163935296128 0 0 0 0 -126.63532801408292 -192.8758806954047 0 -192.8758806954047 15.881163398793433 0 0 0 0 118.79350913969392 -143.78646208074497 0 -143.78646208074497 40.754740406255223 0 0 0 0 -6.4914617146785361 -13.279537400478105 0 -13.279537400478105 1.4559988722610342 0 0 0 0 -214.02963257804367 -92.373198369041347 0 -92.373198369041347 -24.102268657734385 0 0 0 0 392.70689368856983 -297.52393954196668 0 -297.52393954196668 96.39959096252278 0 0 0 0 246.00124244110339 -84.167610489013896 0 -84.167610489013896 11.702911971209687 0 0 0 0 38.175418914754118 -565.7445684464692 0 -565.7445684464692 305.66479813895421 0 0 0 0 722.40657160598494 -335.83159833076206 0 -335.83159833076206 77.56803898623366 0 0 0 0 4.3208165827308278 -1.1118326983486 0 -1.1118326983486 -2.1667521492983894 0 0 0 0 160.63607314333785 107.26831256182049 0 107.26831256182049 524.00437700865632 0 0 0 0 160.97733594277815 -351.54624921292998 0 -351.54624921292998 494.36156270797073 0 0 0 0 -259.02771455207039 -317.30629746354316 0 -317.30629746354316 -198.8741894997911 0 0 0 0 -322.29212988310428 -55.319108690768189 0 -55.319108690768189 290.51531374035403 0 0 0 0 -99.342215325305006 -130.12079942754281 0 -130.12079942754281 -612.8616970226285 0 0 0 0 -10.205891377151204 6.8777363958972444 0 6.8777363958972444 4.3733984265331287 0 0 0 0 -329.98281244772079 -224.17736158428306 0 -224.17736158428306 -0.66518876110785641 0 0 0 0 -461.15256909423988 -367.72335290402407 0 -367.72335290402407 -116.90630643437908 0 0 0 0 -515.25613751428955 -115.49596887564849 0 -115.49596887564849 -38.903501030370535 0 0 0 0 -76.862352793300715 3.2027525664213954 0 3.2027525664213954 -57.772891891829204 0 0 0 0 -183.51019501224437 -657.40221600975019 0 -657.40221600975019 -10.96419008274097 0 0 0 0 -91.575373008425231 -177.02791033915128 0 -177.02791033915128 -95.333728209838227 0 0 0 0 -21.440147129402128 -75.499276400673395 0 -75.499276400673395 -35.829425659549486 0 0 0 0 -135.08507224632194 -80.121326221436902 0 -80.121326221436902 20.040102051600115 0 0 0 0 -188.91518853087473 -143.0200547573404 0 -143.0200547573404 -30.494699397626391 0 0 0 0 -307.23724946376387 -152.5028820135667 0 -152.5028820135667 -26.332821882650023 0 0 0 0 -1073.5567997173057 400.75319296075031 0 400.75319296075031 380.55196213477757 0 0 0 0 -1.0039075993092865 -3.9022834465331613 0 -3.9022834465331613 -7.7884459857053798 0 0 0 0 -19.840496535520572 -78.378559903015372 0 -78.378559903015372 -65.410963718942639 0 0 0 0 -195.36984451233002 -734.76587347162786 0 -734.76587347162786 -19.892141736898338 0 0 0 0 -1990.2272524112195 -65.177818133874098 0 -65.177818133874098 231.94883733006282 0 0 0 0 -342.72260185040795 -115.77447972664231 0 -115.77447972664231 -62.72372022561467 0 0 0 0 -233.11237697162142 -119.5735874808779 0 -119.5735874808779 63.234186777918694 0 0 0 0 -328.09819080147645 -195.79124260635945 0 -195.79124260635945 13.315220303011301 0 0 0 0 -431.65595792569002 -265.41495133337958 0 -265.41495133337958 97.647762495907955 0 0 0 0 -225.0325180695072 -154.45304239389225 0 -154.45304239389225 35.523064479901223 0 0 0 0 -42.108914252572504 -158.10560365758738 0 -158.10560365758738 -56.563481123557722 0 0 0 0 -43.256595456179639 -159.5124138309875 0 -159.5124138309875 5.6954311252156913 0 0 0 0 -28.251305888451089 -119.17511744269532 0 -119.17511744269532 -7.7786083742439018 0 0 0 0 -0.89919180422293721 -154.66720600560802 0 -154.66720600560802 1.5701855178194819 0 0 0 0 24.940390871888667 -88.081532465817872 0 -88.081532465817872 38.773543065788544 0 0 0 0 -6.313626368806581 -207.87342565323706 0 -207.87342565323706 92.581566399072472 0 0 0 0 11.297128979326772 -33.289565050678021 0 -33.289565050678021 -1.7346685520537619 0 0 0 0 -90.425385992915835 16.825758155537187 0 16.825758155537187 -49.747569885250414 0 0 0 0 -16.54024133857456 -165.65965090862301 0 -165.65965090862301 106.58881653058052 0 0 0 0 -62.666433725283696 -119.95042685052249 0 -119.95042685052249 23.815981146952254 0 0 0 0 309.28276318554708 7.7855568335144198 0 7.7855568335144198 -192.34983922092943 0 0 0 0 6.4092015734131564 -273.34069473456475 0 -273.34069473456475 86.809144383470993 0 0 0 0 -36.6238372942612 -123.13814550833128 0 -123.13814550833128 5.9433915458239142 0 0 0 0 -81.417564037719188 -27.709353359430274 0 -27.709353359430274 27.258900149934135 0 0 0 0 667.61157252612611 32.394585449364968 0 32.394585449364968 130.24368251502165 0 0 0 0 -17.909873005449555 -130.59084641008855 0 -130.59084641008855 -33.1920918927797 0 0 0 0 -229.46724011473589 -133.87729998767145 0 -133.87729998767145 -27.833537569305918 0 0 0 0 506.27287187008187 -225.1063865383403 0 -225.1063865383403 -177.38598614713555 0 0 0 0 -56.426142307739099 -32.783176487116066 0 -32.783176487116066 38.544239882035043 0 0 0 0 72.651461384884897 -177.76160402091045 0 -177.76160402091045 -28.226071555618546 0 0 0 0 50.889570054961951 -280.03827592010202 0 -280.03827592010202 -292.07960175786866 0 0 0 0 476.9453563694733 -318.79564163944451 0 -318.79564163944451 -94.29206865253218 0 0 0 0 -31.362535209260386 -66.999562099816103 0 -66.999562099816103 -49.817988914597663 0 0 0 0 -21.995227207018615 -38.63332907333097 0 -38.63332907333097 -53.377794454543618 0 0 0 0 -53.144510635771439 -70.475018727411225 0 -70.475018727411225 -33.402560694896238 0 0 0 0 -51.549585109823965 -141.75736628878803 0 -141.75736628878803 -5.567706912963331 0 0 0 0 59.144604431059633 -131.69216628261347 0 -131.69216628261347 -4.8441981836913328 0 0 0 0 4.1151669406986002 -24.906157732523752 0 -24.906157732523752 84.203659097009222 0 0 0 0 -8.768011578124252 3.4242762169529328 0 3.4242762169529328 1.3293304689621834 0 0 0 0 7.7289772852887992 -33.113961057427588 0 -33.113961057427588 -5.1289984120778342 0 0 0 0 195.64242878060963 -110.29738102099327 0 -110.29738102099327 -144.83901076069014 0 0 0 0 -21.392486647159785 -179.05101926306088 0 -179.05101926306088 99.273001764900982 0 0 0 0 49.050582887361088 -164.86256571639387 0 -164.86256571639387 14.796112036667182 0 0 0 0 61.96193629141726 -117.44922092193337 0 -117.44922092193337 -668.3356871706419 0 0 0 0 23.513143165745078 -93.341623807553333 0 -93.341623807553333 -182.47674027703761 0 0 0 0 -107.33385818728857 -385.94927050577826 0 -385.94927050577826 -238.35209770267829 0 0 0 0 131.2106493570609 -242.57277858539601 0 -242.57277858539601 -646.21898674906697 0 0 0 0 -368.86326147121508 -171.98432411080648 0 -171.98432411080648 199.72281705695787 0 0 0 0 66.120410194358556 -43.063593671016861 0 -43.063593671016861 -92.678629069836461 0 0 0 0 53.195322841791494 -32.844341905954934 0 -32.844341905954934 -16.940189029301109 0 0 0 0 155.98941589678907 -163.82572976048687 0 -163.82572976048687 -404.48038827048731 0 0 0 0 33.371086079367927 -57.097893029463179 0 -57.097893029463179 -31.725909906919213 0 0 0 0 34.610073374193306 -43.432369570695911 0 -43.432369570695911 -7.1193442329720824 0 0 0 0 74.779698158941756 -61.573836534917064 0 -61.573836534917064 -1.0974091940588551 0 0 0 0 46.16784157614758 -29.563148049993579 0 -29.563148049993579 -47.397156970515894 0 0 0 0 -162.49055806702927 -206.74448639165348 0 -206.74448639165348 259.2017689673412 0 0 0 0 -188.07929350199265 -320.56648064757974 0 -320.56648064757974 -173.3977185936601 0 0 0 0 -119.46471746601128 -194.59492917084935 0 -194.59492917084935 46.463740872975904 0 0 0 0 -212.84489582834067 -403.24573043993041 0 -403.24573043993041 -162.98668279992125 0 0 0 0 31.857196336426568 -280.5136142553165 0 -280.5136142553165 -124.94452685552824 0 0 0 0 75.356040854472667 43.731098617052339 0 43.731098617052339 -340.39852135033289 0 0 0 0 -254.77911250997568 -204.30754491105108 0 -204.30754491105108 -0.74420207032017061 0 0 0 0 8.7365122154800332 -12.087749067401703 0 -12.087749067401703 1.9451432110608948 0 0 0 0 -135.63284317248326 -111.03511914516275 0 -111.03511914516275 51.425928679549543 0 0 0 0 96.903867908979009 -186.21250398974007 0 -186.21250398974007 -146.89559065293724 0 0 0 0 248.50766396384279 -34.346503104206931 0 -34.346503104206931 -21.195886266388698 0 0 0 0 44.770570816002476 -49.302983110405691 0 -49.302983110405691 37.485295605413668 0 0 0 0 29.897504246429889 -166.56927069956873 0 -166.56927069956873 79.258108916808851 0 0 0 0 274.10036449835025 -321.18708706439429 0 -321.18708706439429 -147.61013901903061 0 0 0 0 -123.53854365652296 -319.91310653168057 0 -319.91310653168057 -179.01462527662807 0 0 0 0 25.145882309164676 -24.412687248732666 0 -24.412687248732666 24.33129993019233 0 0 0 0 808.5158990938653 314.82228604581906 0 314.82228604581906 -98.015546534114037 0 0 0 0 17.942637315754837 -27.551484347546648 0 -27.551484347546648 -81.138049676774244 0 0 0 0 138.63936188177104 -166.22831879051228 0 -166.22831879051228 20.394927997680497 0 0 0 0 457.44527986349567 114.75671894369225 0 114.75671894369225 -145.65006464560793 0 0 0 0 79.405891639871697 -39.454671287716337 0 -39.454671287716337 -190.02025072567346 0 0 0 0 -61.558196330133796 -135.85544044376002 0 -135.85544044376002 -89.872224964827183 0 0 0 0 -94.848177829793713 -116.86688738084194 0 -116.86688738084194 55.675021323763758 0 0 0 0 -9.6143444791578503 -8.6339715028153989 0 -8.6339715028153989 -15.374429685248799 0 0 0 0 -31.72473891474543 -53.496443437539185 0 -53.496443437539185 -59.197975758497478 0 0 0 0 -309.5567725872279 -348.8707750320682 0 -348.8707750320682 58.602434033666214 0 0 0 0 289.13925587855192 -71.591208061134239 0 -71.591208061134239 -180.96014439981082 0 0 0 0 -879.49763560100109 -348.18768718749561 0 -348.18768718749561 5.2371170855985838 0 0 0 0 -1.0855259742254262 5.0344166019778953 0 5.0344166019778953 -2.3366054419734326 0 0 0 0 -42.143359867332038 5.687174288163078 0 5.687174288163078 -153.64247183257248 0 0 0 0 -38.975307813085266 -44.460106077638571 0 -44.460106077638571 -45.31706964718083 0 0 0 0 -43.815430065693363 -15.692987368005561 0 -15.692987368005561 -68.774838638560141 0 0 0 0 190.41066661381774 -462.74888099807686 0 -462.74888099807686 -141.24058817299374 0 0 0 0 245.84083735521563 -61.275513550601318 0 -61.275513550601318 -76.454573549010092 0 0 0 0 130.87866616921383 8.8285639179302962 0 8.8285639179302962 -23.290572921217972 0 0 0 0 -76.905216941886465 -313.05334212474008 0 -313.05334212474008 -417.40912742070213 0 0 0 0 185.00323910521547 57.608554273181653 0 57.608554273181653 -258.05733806682838 0 0 0 0 297.31515163137374 -275.23881519633869 0 -275.23881519633869 187.98637013192638 0 0 0 0 -122.072133867292 -32.84439458781344 0 -32.84439458781344 78.219452923563949 0 0 0 0 413.60324726387626 109.1659419272255 0 109.1659419272255 41.193931086174416 0 0 0 0 91.477627945540007 17.237758919014595 0 17.237758919014595 16.175734929340251 0 0 0 0 123.67018971477773 50.447668584531129 0 50.447668584531129 -23.250895700846741 0 0 0 0 -270.74450970118414 -374.69867126590907 0 -374.69867126590907 -77.352568494548905 0 0 0 0 -23.775741664903762 -369.11333012250907 0 -369.11333012250907 -148.40733439877295 0 0 0 0 173.49015256981147 -127.6089128105541 0 -127.6089128105541 -207.95164488069713 0 0 0 0 34.47938823079312 -177.72020464841989 0 -177.72020464841989 187.2429587814695 0 0 0 0 43.931000921040322 -294.57579150076299 0 -294.57579150076299 198.57896027788956 0 0 0 0 71.996962349336172 -208.3179915074179 0 -208.3179915074179 439.22340944737516 0 0 0 0 71.03839700678509 -240.23548743443826 0 -240.23548743443826 193.20742777362966 0 0 0 0 19.975269470305648 -325.29415625920228 0 -325.29415625920228 430.50477315865282 0 0 0 0 76.026036216961074 -269.27744227878065 0 -269.27744227878065 501.90135774346709 0 0 0 0 20.714715588037507 -214.82853456588055 0 -214.82853456588055 448.64961319142913 0 0 0 0 16.433291641859796 -233.26489972669515 0 -233.26489972669515 453.58427577823022 0 0 0 0 84.949827100652328 -128.83113994640007 0 -128.83113994640007 549.85907936146396 0 0 0 0 -146.78052520670462 -333.88832632117919 0 -333.88832632117919 384.38886862674553 0 0 0 0 -1.7372129322864538 -1.2734738049821317 0 -1.2734738049821317 4.7786810678625784 0 0 0 0 25.27071872859824 -199.46506711359802 0 -199.46506711359802 468.57738444748975 0 0 0 0 264.49308720642875 -160.92314928350243 0 -160.92314928350243 442.25361064893696 0 0 0 0 334.14302871824657 -227.88553834498089 0 -227.88553834498089 315.65586810559034 0 0 0 0 -58.954115110187558 -163.84535143279936 0 -163.84535143279936 352.03213956944819 0 0 0 0 -226.95300703452813 -292.92391158573446 0 -292.92391158573446 756.1682784372224 0 0 0 0 -52.386616188127846 -250.41833422298532 0 -250.41833422298532 482.63004429444845 0 0 0 0 -142.00392696158815 -358.82114254193584 0 -358.82114254193584 496.80218750109088 0 0 0 0 -153.39626659420412 -148.30981459734699 0 -148.30981459734699 74.937174218939617 0 0 0 0 -41.297902611092468 -189.2649690481112 0 -189.2649690481112 -35.295067941173329 0 0 0 0 -208.78279858261521 -152.36925919045461 0 -152.36925919045461 -30.009793116483706 0 0 0 0 215.01834529450571 -538.58430968916218 0 -538.58430968916218 362.18298281525495 0 0 0 0 120.68417462268781 27.252268483570333 0 27.252268483570333 -164.79630740747962 0 0 0 0 193.99577752577534 -897.50023616943872 0 -897.50023616943872 1215.6280410029722 0 0 0 0 1267.9010441187529 -623.53851143511565 0 -623.53851143511565 79.501028628088534 0 0 0 0 -235.29172086530161 -338.78303248192788 0 -338.78303248192788 504.51763828226831 0 0 0 0 -23.781709337107657 -116.64837112173443 0 -116.64837112173443 50.961013914927037 0 0 0 0 -1306.7019528909659 549.39246970596287 0 549.39246970596287 409.05512243286648 0 0 0 0 522.38451732675821 1064.3455320044523 0 1064.3455320044523 -32.135633135807439 0 0 0 0 -207.13502127567335 -205.25660172416428 0 -205.25660172416428 87.53264976866194 0 0 0 0 -30.179923038449488 -229.61016954793376 0 -229.61016954793376 44.853938987740548 0 0 0 0 -268.07053756427922 -215.77752830187455 0 -215.77752830187455 142.26079961428331 0 0 0 0 -113.23552282022138 85.922817365251831 0 85.922817365251831 -268.33798807521089 0 0 0 0 -68.046774162623478 -105.89416244845779 0 -105.89416244845779 -215.25879994271236 0 0 0 0 -343.24810368693716 48.107040936084559 0 48.107040936084559 -146.75548130061361 0 0 0 0 -26.377113652744573 -124.59350043577521 0 -124.59350043577521 8.5341143230247667 0 0 0 0 -203.94621898363039 -65.213940570662089 0 -65.213940570662089 -74.966038661594212 0 0 0 0 297.6916638987459 -270.21019692201662 0 -270.21019692201662 -140.37503032317909 0 0 0 0 -93.655618818693256 -144.13201658998969 0 -144.13201658998969 111.66264473996125 0 0 0 0 467.98982411775796 -161.42018437844308 0 -161.42018437844308 -193.07116775072791 0 0 0 0 -166.45240048750929 -134.54728398174484 0 -134.54728398174484 -49.617992699313618 0 0 0 0 -182.08323531791848 -29.804717154577247 0 -29.804717154577247 -48.91039311917848 0 0 0 0 -26.721600516099556 -2.8914433928993049 0 -2.8914433928993049 25.251003594658243 0 0 0 0 -63.475208877352998 -38.451995337323751 0 -38.451995337323751 -52.339839074818883 0 0 0 0 -32.699940945907393 -36.716999748790897 0 -36.716999748790897 -30.916112816448901 0 0 0 0 -61.173503320702366 -64.416058910712309 0 -64.416058910712309 -49.640257819784438 0 0 0 0 -32.244096327318402 -285.30104119196767 0 -285.30104119196767 -187.80259481528628 0 0 0 0 -46.206338686144591 -85.346405714430148 0 -85.346405714430148 -282.71054815324896 0 0 0 0 -8.0605519345904639 -0.41036145142122393 0 -0.41036145142122393 2.2895504554192598 0 0 0 0 -8.2227124886469198 -9.0919799898779559 0 -9.0919799898779559 4.4234564381978885 0 0 0 0 23.967460213560116 -63.239414783995016 0 -63.239414783995016 -304.94160269874556 0 0 0 0 -261.37680062949948 -163.56988240300416 0 -163.56988240300416 -20.854499141589258 0 0 0 0 -147.51846046243008 -121.56848973733213 0 -121.56848973733213 -299.22271485047531 0 0 0 0 4.602702773234995 -6.1298875619351065 0 -6.1298875619351065 -0.19120082627665624 0 0 0 0 -93.054606734440313 -164.84377413576294 0 -164.84377413576294 2.9081615514255645 0 0 0 0 48.326588382362388 -43.51605828611082 0 -43.51605828611082 -6.7011414244370826 0 0 0 0 0.16240256075980142 -49.294107465359048 0 -49.294107465359048 30.961327409291698 0 0 0 0 3.2003041343432699 -3.9400114829040263 0 -3.9400114829040263 -1.6552779620905511 0 0 0 0 -357.23763172662439 -297.75860906436719 0 -297.75860906436719 -246.46384905291052 0 0 0 0 405.6742589083442 -92.260912046156591 0 -92.260912046156591 -146.76963136944687 0 0 0 0 327.38132560779923 178.78868843155578 0 178.78868843155578 -338.86319046205608 0 0 0 0 3.2377568173716043 -3.1633975422232083 0 -3.1633975422232083 -16.177575373661313 0 0 0 0 -120.8811589384859 46.821988409449659 0 46.821988409449659 56.372821353408654 0 0 0 0 -1923.0884384953461 -1611.5987230725505 0 -1611.5987230725505 -312.06517449990497 0 0 0 0 -1824.6621086948726 -934.53370741106664 0 -934.53370741106664 429.6036905833098 0 0 0 0 -1471.1619631794747 -931.81773153250106 0 -931.81773153250106 -145.25302320616174 0 0 0 0 -1645.1927163065411 -1008.1983120027726 0 -1008.1983120027726 319.27591870044853 0 0 0 0 -1044.748821934103 -279.75067479830977 0 -279.75067479830977 438.27626048532147 0 0 0 0 -1766.3303043843771 -547.80858863496906 0 -547.80858863496906 354.84309912072604 0 0 0 0 -14.519968384070864 -12.59447185571679 0 -12.59447185571679 -11.724960346927887 0 0 0 0 -109.65058073279215 314.10458013539665 0 314.10458013539665 -1214.3026701068593 0 0 0 0 -153.77865243222914 160.12148537219355 0 160.12148537219355 -1750.8870039863577 0 0 0 0 -238.55782769489451 -1143.8792899128002 0 -1143.8792899128002 -2401.1778822414763 0 0 0 0 -230.44751218662896 -1014.3349129614069 0 -1014.3349129614069 -774.53434502268647 0 0 0 0 6.0409111731595146 -0.70110551683589506 0 -0.70110551683589506 -33.458182433931114 0 0 0 0 63.604556503414642 -22.431160034648201 0 -22.431160034648201 -61.527929259053053 0 0 0 0 -1424.6986841671169 252.5306973589577 0 252.5306973589577 -2862.2951789935069 0 0 0 0 -31.160452931071632 -52.5826767392482 0 -52.5826767392482 -58.343013605670421 0 0 0 0 -662.53622812927642 -1089.185205074943 0 -1089.185205074943 -36.797760856592504 0 0 0 0 -1263.6169025554891 -2373.302290574316 0 -2373.302290574316 46.681042476448056 0 0 0 0 -972.72355186968343 -636.60243608690143 0 -636.60243608690143 1057.133319489215 0 0 0 0 -980.72056945952863 -741.56823947134467 0 -741.56823947134467 -298.227527669751 0 0 0 0 -0.8053146874898971 -6.3949560134410319 0 -6.3949560134410319 -32.148132382273381 0 0 0 0 -2421.2328302643145 -3025.3627375339797 0 -3025.3627375339797 -2492.5232530923095 0 0 0 0 -53.596426161471754 -74.778788792070372 0 -74.778788792070372 -599.58488228392162 0 0 0 0 -972.09428527357522 -162.68065377591665 0 -162.68065377591665 37.361892415468901 0 0 0 0 -131.70728773329756 -1171.7980572589822 0 -1171.7980572589822 -2665.1931329100917 0 0 0 0 -5.0050363957416266 0.18814013696828624 0 0.18814013696828624 16.887898151650916 0 0 0 0 3.9795394927383541 -9.2750393268569802 0 -9.2750393268569802 -8.7347386211847535 0 0 0 0 -22.398202482087072 -40.799728878635506 0 -40.799728878635506 -42.625623855485173 0 0 0 0 -65.014110185467871 -141.87141957885069 0 -141.87141957885069 -208.92594888042731 0 0 0 0 1.0041964702759287 -6.7832253417436732 0 -6.7832253417436732 11.943328375487908 0 0 0 0 1.0308190587605282 3.9682102913590729 0 3.9682102913590729 -0.75857296835384425 0 0 0 0 7.3074099223361202 -7.2177457465750479 0 -7.2177457465750479 1.0071975983805004 0 0 0 0 -61.017808826902183 -56.579625090524132 0 -56.579625090524132 0.77165793228368784 0 0 0 0 -0.068390197295229882 -64.107802027690013 0 -64.107802027690013 -128.14758634758618 0 0 0 0 -68.480900105903856 -102.65808099390779 0 -102.65808099390779 -149.63914634001776 0 0 0 0 0.0056862995552364737 -101.92770842256004 0 -101.92770842256004 -166.59319946286132 0 0 0 0 -42.46599225634418 -129.52214112234788 0 -129.52214112234788 -144.87927952160226 0 0 0 0 -62.642716972157359 -107.40548026361466 0 -107.40548026361466 -169.11806072492618 0 0 0 0 -117.13179113421938 -179.48851438887687 0 -179.48851438887687 -214.68139807030821 0 0 0 0 -63.359831837376987 -125.16103857335156 0 -125.16103857335156 -80.528333187046883 0 0 0 0 -37.778145965487056 -71.960113915442548 0 -71.960113915442548 -87.209564047509048 0 0 0 0 -0.019947378328652121 -141.19189081410752 0 -141.19189081410752 45.998363860752761 0 0 0 0 -4.0398798746464308 -95.494079034301194 0 -95.494079034301194 -78.92777390232061 0 0 0 0 -31.762717764737317 -54.860287797266892 0 -54.860287797266892 61.359872767716524 0 0 0 0 -39.431113590559107 -131.50952574131134 0 -131.50952574131134 20.233595017004518 0 0 0 0 -47.205568929173751 -89.07522078076272 0 -89.07522078076272 -63.05887047698161 0 0 0 0 28.452538249781355 -54.894543135716503 0 -54.894543135716503 40.559066682648336 0 0 0 0 -75.133073675213382 -61.113415614802307 0 -61.113415614802307 133.55839409308737 0 0 0 0 -50.118571811850416 -112.24134866302688 0 -112.24134866302688 1.0793760621054389 0 0 0 0 -7.5589882357482594 -20.413241768946563 0 -20.413241768946563 0.86196226430515921 0 0 0 0 -151.24082450460992 -126.95839467230849 0 -126.95839467230849 -461.13920364028002 0 0 0 0 -69.627100985744619 -73.694691416476758 0 -73.694691416476758 156.70794853666189 0 0 0 0 1.1877704742356627 -1.1540061081576596 0 -1.1540061081576596 -12.522727415878897 0 0 0 0 -61.371415363733831 -94.174136973395548 0 -94.174136973395548 -44.293596127072306 0 0 0 0 -54.370883620664245 -96.614746109229145 0 -96.614746109229145 -65.607120000869941 0 0 0 0 -38.060065855294511 -52.254650694015311 0 -52.254650694015311 -1.2025921690705801 0 0 0 0 -43.641356787809855 -42.948758477023006 0 -42.948758477023006 2.8170066832754945 0 0 0 0 -60.972949358576443 -77.550720486596674 0 -77.550720486596674 10.645873995015677 0 0 0 0 -62.492515554273268 -74.984513096481805 0 -74.984513096481805 15.872219465052694 0 0 0 0 -54.436412297873176 -79.063469905601096 0 -79.063469905601096 -16.55523812836509 0 0 0 0 -67.101539221112034 -117.72811953268979 0 -117.72811953268979 -22.687122333128173 0 0 0 0 -50.675755937045324 -111.10996716242528 0 -111.10996716242528 4.9850522525830456 0 0 0 0 -57.346513302851235 -102.69713804725643 0 -102.69713804725643 -4.2253862629859213 0 0 0 0 -76.44783695100341 -138.75002970639434 0 -138.75002970639434 -27.342755839227721 0 0 0 0 -56.339001919084694 -117.62742164298925 0 -117.62742164298925 -40.746805830069206 0 0 0 0 -48.354918217224622 -102.21983720105584 0 -102.21983720105584 -48.432120461764498 0 0 0 0 -37.542614744335879 -123.52733553663529 0 -123.52733553663529 -68.977914958661131 0 0 0 0 6.3378339346891153 -71.583443559714851 0 -71.583443559714851 -51.788593643916101 0 0 0 0 -54.022698693355778 -124.66204331324752 0 -124.66204331324752 -43.042054320461375 0 0 0 0 -75.115312700872892 -74.747191859849409 0 -74.747191859849409 -173.73562995050816 0 0 0 0 -52.486685029543878 -125.44820837274165 0 -125.44820837274165 -73.281103193314266 0 0 0 0 -128.29617639738717 -134.25889532446672 0 -134.25889532446672 -73.955991684430046 0 0 0 0 1.738758265500536 -3.6957755739479978 0 -3.6957755739479978 -4.7204564976092485 0 0 0 0 39.497458592551993 23.873144462829259 0 23.873144462829259 -52.864094809367089 0 0 0 0 61.259478590276558 -13.373260849876715 0 -13.373260849876715 -215.99196393541934 0 0 0 0 -25.105616020940943 -159.85661199652623 0 -159.85661199652623 -207.74552867576858 0 0 0 0 34.784625055060673 -43.351714367842931 0 -43.351714367842931 -44.457999438821076 0 0 0 0 16.024377279361943 -209.97184473719005 0 -209.97184473719005 60.618492757005924 0 0 0 0 64.420277905184776 -33.609913108398132 0 -33.609913108398132 -127.30344972450803 0 0 0 0 39.449255836370867 -62.609596239044549 0 -62.609596239044549 -60.640235765615216 0 0 0 0 60.577588725922396 -249.92118527547973 0 -249.92118527547973 95.486229218802691 0 0 0 0 240.66514273494249 -277.9065340379434 0 -277.9065340379434 52.507142929730207 0 0 0 0 141.20013692765497 -233.93348382091679 0 -233.93348382091679 36.936622877042254 0 0 0 0 267.76350432896288 149.11262040643916 0 149.11262040643916 43.448821834108003 0 0 0 0 395.60186288057594 -166.8142565012447 0 -166.8142565012447 -45.708982673046194 0 0 0 0 137.91123250024975 -82.239341134460574 0 -82.239341134460574 -195.86680916966316 0 0 0 0 112.09816155882436 -131.56492888333685 0 -131.56492888333685 -165.44438952715996 0 0 0 0 155.36475249240175 -67.178153849088801 0 -67.178153849088801 -86.248591522862554 0 0 0 0 -296.03915511508239 90.809496073586729 0 90.809496073586729 41.061672468954988 0 0 0 0 15.793277369986754 -115.93987041100513 0 -115.93987041100513 -72.370856928625699 0 0 0 0 -5026.2012024153955 -3511.5509877940967 0 -3511.5509877940967 -5213.217804871636 0 0 0 0 -949.07944074837724 199.85940329693085 0 199.85940329693085 726.12046072537146 0 0 0 0 584.26482878113165 -2411.4523821558287 0 -2411.4523821558287 -6968.9790344684006 0 0 0 0 -115.7110055268422 -116.14971962352229 0 -116.14971962352229 233.58087026938847 0 0 0 0 -30.324583002944223 -15.343949121557415 0 -15.343949121557415 9.5979120830105487 0 0 0 0 -20.404362610481712 -3.1033497351794281 0 -3.1033497351794281 -2.1306213701565486 0 0 0 0 -2285.2688825431978 -274.27916452104171 0 -274.27916452104171 574.72802567982228 0 0 0 0 -398.54622430316522 -67.297497335956805 0 -67.297497335956805 -79.411757468543556 0 0 0 0 -768.2153448301251 -685.37650751578008 0 -685.37650751578008 -172.69787481082935 0 0 0 0 -1361.8522012217145 -176.54313121945461 0 -176.54313121945461 -12.851546587834491 0 0 0 0 -4093.4598419175891 -1560.9580686376316 0 -1560.9580686376316 22.595471533710693 0 0 0 0 -181.15429647892597 -228.76976298963928 0 -228.76976298963928 -175.42531502559632 0 0 0 0 -650.41402384662069 -311.2111766305643 0 -311.2111766305643 10.41534922299752 0 0 0 0 -312.09908461501618 -54.929695879162011 0 -54.929695879162011 -101.91555688094127 0 0 0 0 85.72403196504456 -18.030384687339847 0 -18.030384687339847 -176.04306731985071 0 0 0 0 36.809740866943599 -43.240120313459215 0 -43.240120313459215 -40.058770606964522 0 0 0 0 -17.9234914684057 -102.29154153437867 0 -102.29154153437867 -56.841620802641955 0 0 0 0 17.602032000519841 -1.0152376745169249 0 -1.0152376745169249 -4.9373707580814834 0 0 0 0 -43.146811780054122 50.950845593532904 0 50.950845593532904 3.4627851586786846 0 0 0 0 -103.57530719421629 -272.46063829849936 0 -272.46063829849936 -25.092139222194419 0 0 0 0 -92.592833445385622 -264.4593453251041 0 -264.4593453251041 -305.65174348665641 0 0 0 0 -240.59672342787962 -275.50832192689177 0 -275.50832192689177 -143.47361637255972 0 0 0 0 130.00537784874905 58.02169692786174 0 58.02169692786174 -104.33983436323615 0 0 0 0 40.028776636943803 -80.762032692088496 0 -80.762032692088496 -414.48144679971665 0 0 0 0 -132.51226150679577 121.44020832614569 0 121.44020832614569 -53.229077151503589 0 0 0 0 -95.45812851015944 5.3526860666406719 0 5.3526860666406719 299.08505077695622 0 0 0 0 -33.091991057254148 -57.285350379754988 0 -57.285350379754988 -27.247743957256453 0 0 0 0 5.463947982565486 -33.341857239497472 0 -33.341857239497472 8.827196275298256 0 0 0 0 -10.902339154796209 -52.312659405205522 0 -52.312659405205522 14.147550624991027 0 0 0 0 -723.07269950753107 -2356.5182404766538 0 -2356.5182404766538 1289.5524168377196 0 0 0 0 630.44841863472539 -56.936827466473687 0 -56.936827466473687 -507.668400650482 0 0 0 0 -15.005386517124521 -38.806068443454166 0 -38.806068443454166 -70.202865026111397 0 0 0 0 -782.47643909225008 -1334.7125792201705 0 -1334.7125792201705 -2220.5033783233939 0 0 0 0 -435.49313410176546 -242.96165092742376 0 -242.96165092742376 -664.72668401100964 0 0 0 0 -9024.6092035673209 519.80158190372094 0 519.80158190372094 2048.1164726666666 0 0 0 0 406.65114389709925 356.20878821841484 0 356.20878821841484 -70.360799924301318 0 0 0 0 -19.761705865035765 88.313530013626405 0 88.313530013626405 -51.530278071541943 0 0 0 0 -22.132907011371572 -86.161225926697625 0 -86.161225926697625 -436.04314877445086 0 0 0 0 77.713306134188315 -70.870746962732483 0 -70.870746962732483 -569.80223113450666 0 0 0 0 -193.37473925235099 -452.7498896986599 0 -452.7498896986599 -628.778496084778 0 0 0 0 -567.58527946521644 -396.18395435376397 0 -396.18395435376397 -371.9885492520084 0 0 0 0 -407.60681620825198 -699.82898253842541 0 -699.82898253842541 -806.87531218120785 0 0 0 0 -142.73826518222631 -392.26930978738528 0 -392.26930978738528 -489.54414877466115 0 0 0 0 -462.3734772951866 -666.8873052717654 0 -666.8873052717654 -281.62276864678961 0 0 0 0 -1.5318976793449792 7.3117900884506639 0 7.3117900884506639 -33.133960352298786 0 0 0 0 496.00844635185786 3192.4960302919671 0 3192.4960302919671 -1082.2041971494227 0 0 0 0 -913.01688431344519 -387.2820905472895 0 -387.2820905472895 -313.28873586754162 0 0 0 0 -1925.1930581984197 -1372.6250097191005 0 -1372.6250097191005 -590.34398317984324 0 0 0 0 -1777.844852098322 -1108.3827931173787 0 -1108.3827931173787 -687.16934698221064 0 0 0 0 1013.9726550891446 -448.81523263829922 0 -448.81523263829922 -1007.6939734349726 0 0 0 0 -389.4343294481223 -340.1531868240005 0 -340.1531868240005 -367.43248524772457 0 0 0 0 15.717945597642963 -10.367321597683201 0 -10.367321597683201 -101.15867600252422 0 0 0 0 -229.7640088594344 -419.84794152035829 0 -419.84794152035829 -377.4451419892834 0 0 0 0 -552.6179629327271 -710.35247615908872 0 -710.35247615908872 -299.58555363423693 0 0 0 0 -943.50788264698349 -1149.1453446059279 0 -1149.1453446059279 -494.66030015005697 0 0 0 0 -381.18809865205549 -744.09869247106712 0 -744.09869247106712 -361.16500399989764 0 0 0 0 -37.193223848036723 -111.93028816243987 0 -111.93028816243987 -134.31509116379129 0 0 0 0 -29.577066929687362 -37.109381933490269 0 -37.109381933490269 -6.3127267387721639 0 0 0 0 115.90802839411481 -51.688439812796389 0 -51.688439812796389 -237.06322765766163 0 0 0 0 1772.0826286440715 -880.72066334821682 0 -880.72066334821682 -1518.6784855338831 0 0 0 0 -2098.5158204975742 -4649.3702205764039 0 -4649.3702205764039 -4866.8659344072785 0 0 0 0 22.841338955490588 -79.554118061511787 0 -79.554118061511787 -105.56695668961635 0 0 0 0 84.908977172112827 -118.55984079020828 0 -118.55984079020828 -127.57013234355691 0 0 0 0 -21.45876279658296 -138.64181212413791 0 -138.64181212413791 -90.837533440859261 0 0 0 0 93.052252416338888 -52.302211300273939 0 -52.302211300273939 -193.23873096627085 0 0 0 0 -14.566064089242445 -114.56987493233555 0 -114.56987493233555 -83.675126413761973 0 0 0 0 -2.1590481473639933 -76.061030937408333 0 -76.061030937408333 -86.246585970793632 0 0 0 0 -16.233860426450406 -29.247261269947941 0 -29.247261269947941 -22.353378190617764 0 0 0 0 49.930321137086139 -123.81625604571445 0 -123.81625604571445 -304.78496145019972 0 0 0 0 -82.940523967903573 -196.66114560460846 0 -196.66114560460846 -169.89973023933089 0 0 0 0 -40.620855859742733 -134.47874368482485 0 -134.47874368482485 -115.19645623749966 0 0 0 0 -42.064586234220769 -123.88797149306629 0 -123.88797149306629 -79.254938912436046 0 0 0 0 -87.268966215196997 -209.6613125042586 0 -209.6613125042586 -45.992507501629916 0 0 0 0 -51.043276138225337 -82.238383850979517 0 -82.238383850979517 10.140397106406454 0 0 0 0 -76.610221131937578 -137.61203284625481 0 -137.61203284625481 38.397406874457374 0 0 0 0 144.88010612907237 -369.89557419874473 0 -369.89557419874473 21.205185774888378 0 0 0 0 -27.049680527677992 -287.79150472446418 0 -287.79150472446418 192.98875368612062 0 0 0 0 109.86226043256465 -257.28919203769328 0 -257.28919203769328 -198.62727470340906 0 0 0 0 -14.233179777639975 -6.9848996132989711 0 -6.9848996132989711 2.2185503594013376 0 0 0 0 -340.9682042831555 -1016.0813209616717 0 -1016.0813209616717 -5468.1569776620981 0 0 0 0 -63.00106250178419 -18.963878260384291 0 -18.963878260384291 -4.7643644544240793 0 0 0 0 -367.06150803773198 -891.50233729279716 0 -891.50233729279716 -544.45365083184515 0 0 0 0 -896.89080058533 218.2085191713486 0 218.2085191713486 1284.9375695622548 0 0 0 0 433.65848678493057 156.58406234669428 0 156.58406234669428 -167.15640181945491 0 0 0 0 -1616.4837300742074 -782.62048115389052 0 -782.62048115389052 957.36747836669383 0 0 0 0 245.25169022742193 -7.7452288868953474 0 -7.7452288868953474 -1261.736206618305 0 0 0 0 -10.413061285246613 -1.3649774428684367 0 -1.3649774428684367 1.1275823333808361 0 0 0 0 -472.16088011770626 -692.84579434917487 0 -692.84579434917487 708.07864789711311 0 0 0 0 -160.77744691955741 -14.916312052657304 0 -14.916312052657304 -264.74376962039082 0 0 0 0 122.17343139855075 -90.810366865633569 0 -90.810366865633569 -134.18732269257634 0 0 0 0 317.52406919127679 -105.95665869239065 0 -105.95665869239065 -142.17413267606207 0 0 0 0 38.205560142261675 -38.51904886718512 0 -38.51904886718512 375.18508939666754 0 0 0 0 -148.23772944914526 -568.8104133574725 0 -568.8104133574725 -467.57757127061268 0 0 0 0 102.32397398157627 118.00570400002835 0 118.00570400002835 -457.59099848233041 0 0 0 0 -176.53967188231763 -670.4960477389468 0 -670.4960477389468 10.666407000750496 0 0 0 0 -81.547840763734712 143.72510864791093 0 143.72510864791093 -183.17649768903357 0 0 0 0 -12.448440557811409 35.198127297317114 0 35.198127297317114 -66.995855558652693 0 0 0 0 200.84118026631768 -29.492228091892684 0 -29.492228091892684 -238.69845926565176 0 0 0 0 11.546249832957983 47.09675829307389 0 47.09675829307389 -189.5628033420835 0 0 0 0 77.227378816576675 -20.010821275916896 0 -20.010821275916896 -121.53497421100292 0 0 0 0 64.152051943645347 -66.520217424184011 0 -66.520217424184011 -128.63068227225813 0 0 0 0 119.39564393961336 -75.64688393168035 0 -75.64688393168035 -156.51790636090846 0 0 0 0 108.45574424588995 -141.46729993911231 0 -141.46729993911231 -119.68488278171117 0 0 0 0 19.051345821921132 -125.08032254145382 0 -125.08032254145382 -111.36020394256047 0 0 0 0 118.66235764299245 -106.31784534727433 0 -106.31784534727433 -305.17624512949624 0 0 0 0 7.4956501958563226 -93.908071949688917 0 -93.908071949688917 -96.344854923810573 0 0 0 0 -66.544887427808135 -120.74058276975626 0 -120.74058276975626 -35.389963651914513 0 0 0 0 112.07406731235096 -239.22059037985855 0 -239.22059037985855 42.486382771248827 0 0 0 0 -40.839443158329232 -199.28055496254365 0 -199.28055496254365 -170.42204260747076 0 0 0 0 -66.282992125750752 -132.83373736957219 0 -132.83373736957219 -143.2564324199468 0 0 0 0 11.801188593740505 -24.613399487826797 0 -24.613399487826797 -25.01304753150621 0 0 0 0 -94.827486415815656 -193.49674660359778 0 -193.49674660359778 -109.30808530606009 0 0 0 0 -114.01775476137846 -153.85844048739546 0 -153.85844048739546 -92.531549622306557 0 0 0 0 -19.103781758534751 -161.02746454347835 0 -161.02746454347835 -115.9563632104846 0 0 0 0 -25.830416441658599 -184.20180367766079 0 -184.20180367766079 -111.87395946370634 0 0 0 0 -43.070444237055199 -171.25050191746823 0 -171.25050191746823 -84.650915794886714 0 0 0 0 -30.708322662649152 -176.4959850826117 0 -176.4959850826117 -123.92000543931863 0 0 0 0 -11.69418797732942 -184.0093366165911 0 -184.0093366165911 -119.12835225785966 0 0 0 0 -27.466797288206806 -46.085270477107208 0 -46.085270477107208 -73.690515461434956 0 0 0 0 -44.382359477946011 -193.53224799604686 0 -193.53224799604686 -122.01803123769309 0 0 0 0 -58.586898223147728 -180.72086306599158 0 -180.72086306599158 -109.43176578624116 0 0 0 0 -44.74900017787877 -163.61796709357395 0 -163.61796709357395 -89.266902984725675 0 0 0 0 -107.39918812124233 -207.44141689338721 0 -207.44141689338721 -98.5183693297422 0 0 0 0 -70.196905319797224 -132.44944572227723 0 -132.44944572227723 -19.750333163798132 0 0 0 0 -20.402066439957707 -163.95056242916962 0 -163.95056242916962 -108.54739950710609 0 0 0 0 -16.093329303534119 -115.16505315099857 0 -115.16505315099857 -83.867586022391151 0 0 0 0 27.197344879517914 -131.99290869161996 0 -131.99290869161996 -109.35097144145948 0 0 0 0 28.559653426593286 -140.5799385062619 0 -140.5799385062619 -140.65904759328259 0 0 0 0 90.160313749752959 -75.84027422981498 0 -75.84027422981498 -14.746469446946449 0 0 0 0 -36.980012065544543 -162.54199769800425 0 -162.54199769800425 -127.70655786771204 0 0 0 0 -41.834678491455634 -160.27160478249994 0 -160.27160478249994 -126.14425038316949 0 0 0 0 -37.039651012106333 -162.11843967779532 0 -162.11843967779532 -102.45702421296846 0 0 0 0 -25.457750567627954 -193.21347703424408 0 -193.21347703424408 -191.31463178717968 0 0 0 0 64.300121111997498 -54.555814195455056 0 -54.555814195455056 -4.4519970709141745 0 0 0 0 -38.810615056549693 -59.422793675232043 0 -59.422793675232043 -43.380955853979316 0 0 0 0 -296.76656959118554 -1995.302676940235 0 -1995.302676940235 1564.6688910156736 0 0 0 0 -769.58509465312818 2952.3281908432691 0 2952.3281908432691 -843.1135389663541 0 0 0 0 -322.60599119213293 -1721.5634974674686 0 -1721.5634974674686 -602.89147585097226 0 0 0 0 -1144.7860124460276 48.558908634069667 0 48.558908634069667 361.0417906557268 0 0 0 0 2271.2738211625619 143.03571632428611 0 143.03571632428611 -741.32825917916125 0 0 0 0 -11.512853089220798 -16.095961724569378 0 -16.095961724569378 -38.996606368755046 0 0 0 0 -33.311533461893845 -48.516953193950442 0 -48.516953193950442 -65.513925298178862 0 0 0 0 -143.57714909353672 -236.43215990006865 0 -236.43215990006865 -195.16435819868639 0 0 0 0 -78.810402931616409 -503.59731057549652 0 -503.59731057549652 -62.069296511810535 0 0 0 0 -98.520400324687216 -496.24322873127471 0 -496.24322873127471 -35.57589366252796 0 0 0 0 161.94545732984989 -373.0660304926605 0 -373.0660304926605 -83.988721166482719 0 0 0 0 -179.02843824907177 -343.23802805708328 0 -343.23802805708328 -85.844593084249937 0 0 0 0 -106.80952177849213 -556.43202676824671 0 -556.43202676824671 273.57705724368134 0 0 0 0 -89.007819403064786 -358.99068763252944 0 -358.99068763252944 27.08496531248602 0 0 0 0 -77.815202045654587 -363.929376285525 0 -363.929376285525 16.403931657514477 0 0 0 0 8.6337106693187025 -3.3937376324391977 0 -3.3937376324391977 4.1217754926144679 0 0 0 0 -119.11191477343527 -391.05506376189351 0 -391.05506376189351 1147.1258541897623 0 0 0 0 -67.6610067311085 -156.35347368656858 0 -156.35347368656858 -142.10129653272816 0 0 0 0 -26.733846229544724 -238.97227069038127 0 -238.97227069038127 -274.51158474170916 0 0 0 0 18.62054251911394 -20.695083502635185 0 -20.695083502635185 -10.151626227725338 0 0 0 0 -19.635214604401455 -52.736719523240616 0 -52.736719523240616 -68.042422753720288 0 0 0 0 109.22092165621871 -206.15207357696636 0 -206.15207357696636 -134.82452832968193 0 0 0 0 90.927091804565862 -299.46718837970184 0 -299.46718837970184 -88.910825441314955 0 0 0 0 135.81544116848818 -328.55391076547676 0 -328.55391076547676 -169.68659245856725 0 0 0 0 467.71133688411646 -582.36724554022658 0 -582.36724554022658 -45.955899559250611 0 0 0 0 363.62619279589853 -199.31685670726438 0 -199.31685670726438 -510.76181018821444 0 0 0 0 9.666649210594187 -581.60543922322177 0 -581.60543922322177 475.33754971872986 0 0 0 0 -145.93820194761065 -88.60911599065912 0 -88.60911599065912 480.69956950123378 0 0 0 0 321.64489931721528 -97.231959541722745 0 -97.231959541722745 79.271919745944615 0 0 0 0 394.69181163440953 -761.40555610348383 0 -761.40555610348383 222.30892670376488 0 0 0 0 -317.87690632955491 -74.792512317082583 0 -74.792512317082583 72.49747210861824 0 0 0 0 -517.89891795026688 -98.260754859908502 0 -98.260754859908502 134.19681723089889 0 0 0 0 -225.97531706476002 -248.5203298701017 0 -248.5203298701017 177.32625770020962 0 0 0 0 -416.80513473245901 -177.30783296243158 0 -177.30783296243158 180.25583224692673 0 0 0 0 -163.99204306940373 -282.521521462706 0 -282.521521462706 74.645321331263403 0 0 0 0 -188.67380594291899 -304.61951709088498 0 -304.61951709088498 88.586625721785822 0 0 0 0 18.027172957168659 -418.04730794343777 0 -418.04730794343777 84.456655864966478 0 0 0 0 145.26552743065986 -420.53488409210513 0 -420.53488409210513 -60.987290306398791 0 0 0 0 -181.44606532104808 -224.07151733843966 0 -224.07151733843966 -36.384934713678376 0 0 0 0 -160.82557207593993 -183.41589613331871 0 -183.41589613331871 -80.665016291794018 0 0 0 0 121.86131736711832 -294.35569382408721 0 -294.35569382408721 -83.293906210868954 0 0 0 0 -484.85496163713105 120.90745057654931 0 120.90745057654931 464.28966453380417 0 0 0 0 794.70719850729802 -168.36842181006068 0 -168.36842181006068 -102.28902688386734 0 0 0 0 810.58577351785789 -880.26746879839266 0 -880.26746879839266 -627.78079289610469 0 0 0 0 -90.263370785964071 -246.21600081341967 0 -246.21600081341967 48.898750067903165 0 0 0 0 82.284112782857846 -579.20245731587784 0 -579.20245731587784 219.0550197901448 0 0 0 0 -77.846665185705206 -306.65052163716609 0 -306.65052163716609 -4.2631989498186158 0 0 0 0 84.047421298830159 -396.73418118743757 0 -396.73418118743757 -67.314728228928288 0 0 0 0 22.815266718193016 -341.46628518326179 0 -341.46628518326179 5.1573819793156872 0 0 0 0 15.384956228313968 -267.30333630060704 0 -267.30333630060704 -95.252493971762306 0 0 0 0 64.186981360369828 -245.03680035898105 0 -245.03680035898105 -98.707476895095169 0 0 0 0 20.095450565160718 -203.96149451558449 0 -203.96149451558449 -92.648683894842179 0 0 0 0 -27.520468362933798 -46.128176210717271 0 -46.128176210717271 -73.580950955009513 0 0 0 0 -16.12276006819593 -166.52443921670965 0 -166.52443921670965 -102.13442974723876 0 0 0 0 -20.80324064726301 -188.57201278400407 0 -188.57201278400407 -60.036165565570627 0 0 0 0 -57.255872829337022 -210.22864784336889 0 -210.22864784336889 -81.195519679689824 0 0 0 0 -21.94681521585153 -157.72111981630314 0 -157.72111981630314 -42.238012306572273 0 0 0 0 -19.78662965178691 -52.774444630709418 0 -52.774444630709418 -67.872921206153421 0 0 0 0 424.95201198602444 14.384917213180074 0 14.384917213180074 -342.37038979724457 0 0 0 0 -53.745278129594226 -195.12044665020221 0 -195.12044665020221 -167.08023548817619 0 0 0 0 -84.872412903321674 -526.72473019909739 0 -526.72473019909739 -282.19596995450047 0 0 0 0 9.3194879877268306 -31.638832773456528 0 -31.638832773456528 9.9906329403218024 0 0 0 0 47.002157911368556 -84.758304422939162 0 -84.758304422939162 23.538926441468121 0 0 0 0 -550.38939974462573 -125.39649833562112 0 -125.39649833562112 -177.05469747685856 0 0 0 0 -610.71555196191184 157.42404958895168 0 157.42404958895168 610.39199372945359 0 0 0 0 391.03342881362914 443.65254668494174 0 443.65254668494174 -314.9126879595151 0 0 0 0 439.94755650531442 -300.43749437195947 0 -300.43749437195947 -671.15477842572727 0 0 0 0 -581.86273041334789 197.16735985388846 0 197.16735985388846 427.14135701706255 0 0 0 0 -517.45568862294022 -1165.8482530286055 0 -1165.8482530286055 -64.480257977134897 0 0 0 0 4.9569689401610333 -4.6816898539591989 0 -4.6816898539591989 6.9336916579878078 0 0 0 0 47.498985943948583 -53.002162024207294 0 -53.002162024207294 60.998795904644339 0 0 0 0 1163.1079939854862 365.03860148645117 0 365.03860148645117 -244.58882283066487 0 0 0 0 -356.66619207982149 -347.00695081373487 0 -347.00695081373487 119.05964448973646 0 0 0 0 -237.09347211161366 -113.1672634592469 0 -113.1672634592469 -58.049123653625429 0 0 0 0 -26.099316557136262 -210.07580040592256 0 -210.07580040592256 209.29422118522052 0 0 0 0 -33.057076916302321 -179.85129841260641 0 -179.85129841260641 176.879661835148 0 0 0 0 12.812879610966775 -228.93284669807326 0 -228.93284669807326 116.6065339781926 0 0 0 0 2.2526674982763382 -32.260922464264176 0 -32.260922464264176 -44.343532120224907 0 0 0 0 -6.201606885457295 -258.74247607713187 0 -258.74247607713187 248.2142269619726 0 0 0 0 -44.855550355348043 -57.241556459829752 0 -57.241556459829752 -3.589534629137006 0 0 0 0 -12.732444277290966 -82.624212139427698 0 -82.624212139427698 22.259545981191174 0 0 0 0 53.500084780398538 -109.79714254129067 0 -109.79714254129067 90.309240760045213 0 0 0 0 -194.51306544657564 5.2544591195469366 0 5.2544591195469366 -510.06725425368199 0 0 0 0 -13.430549554570462 -13.507668070720683 0 -13.507668070720683 -282.93151285886779 0 0 0 0 2.5012247926255213 -96.1092870647648 0 -96.1092870647648 10.543479600914241 0 0 0 0 -204.31924257172795 -186.45047368799987 0 -186.45047368799987 150.41791455644852 0 0 0 0 -21.383348115719855 -147.56108579238025 0 -147.56108579238025 -30.162836244191567 0 0 0 0 17.509687161348523 -106.15712484863357 0 -106.15712484863357 -4.6045832227163999 0 0 0 0 31.747657987463754 -167.03654938021327 0 -167.03654938021327 -42.391127009708725 0 0 0 0 16.524268672405483 -110.17675298348024 0 -110.17675298348024 0.6938675332235249 0 0 0 0 -30.352733170075226 -154.38564452570427 0 -154.38564452570427 24.823262323831841 0 0 0 0 -24.224383731169212 -109.33775986031614 0 -109.33775986031614 54.688730159559476 0 0 0 0 -22.999351507445681 -127.10694422382585 0 -127.10694422382585 -56.374042710050617 0 0 0 0 -51.620207612999366 -118.63231976773386 0 -118.63231976773386 4.4443901797931176 0 0 0 0 -88.686571187366098 -472.4101298437572 0 -472.4101298437572 325.40062199975364 0 0 0 0 -18.838495637377491 -139.46030427231381 0 -139.46030427231381 -98.630975181104077 0 0 0 0 49.074118023345903 -70.177928343520776 0 -70.177928343520776 9.6081327000846954 0 0 0 0 111.88276828642483 -195.09802240841555 0 -195.09802240841555 -213.57101669757685 0 0 0 0 5.7945671123161446 -178.50210406692349 0 -178.50210406692349 -3.3805092461043387 0 0 0 0 -155.13203876734769 -19.024393746993155 0 -19.024393746993155 -86.74672298997757 0 0 0 0 4.0676206449934398 -118.43388847700953 0 -118.43388847700953 0.37608898138569202 0 0 0 0 51.646001741039271 -64.780437730716528 0 -64.780437730716528 60.171996331227461 0 0 0 0 -302.65947085802327 -176.45388207865835 0 -176.45388207865835 30.686008190430584 0 0 0 0 -111.89651057630545 -175.23417699975835 0 -175.23417699975835 -8.1965622907155193 0 0 0 0 -110.58526892853843 -96.112223976560927 0 -96.112223976560927 29.277858861352797 0 0 0 0 46.2347264968339 -160.21533420308333 0 -160.21533420308333 -32.724851983744884 0 0 0 0 63.750439282148363 -223.67051637069289 0 -223.67051637069289 58.047599963450921 0 0 0 0 102.11467959378115 -344.15991975360498 0 -344.15991975360498 72.844719963613898 0 0 0 0 138.41259955204441 -179.00012692475138 0 -179.00012692475138 76.066304675179708 0 0 0 0 114.8678789739206 -165.0565092321558 0 -165.0565092321558 22.055027305625117 0 0 0 0 92.788701954232238 -186.60370654212966 0 -186.60370654212966 64.173428557765874 0 0 0 0 -4.6852063638475556 -146.24018186661152 0 -146.24018186661152 44.474953207114595 0 0 0 0 -5.2843650279464782 -172.02651839349346 0 -172.02651839349346 69.779984698077897 0 0 0 0 -48.970632148644654 -175.22837223435636 0 -175.22837223435636 133.45583483148221 0 0 0 0 -126.90279600719077 -113.86856500991234 0 -113.86856500991234 120.70405487774406 0 0 0 0 -66.370428952348448 -216.32383694310192 0 -216.32383694310192 145.93355080889887 0 0 0 0 70.332501520802907 -247.01711649198114 0 -247.01711649198114 115.01739163933962 0 0 0 0 86.014176659526129 -182.61783573928551 0 -182.61783573928551 210.89833736061701 0 0 0 0 -177.26125358504942 -276.25343227720441 0 -276.25343227720441 63.109917905152543 0 0 0 0 -82.339135387133638 -65.802010496225307 0 -65.802010496225307 -56.793315055198036 0 0 0 0 -230.66091925135697 79.342933652522333 0 79.342933652522333 160.23710541143373 0 0 0 0 -138.6487512335807 -19.450806094933796 0 -19.450806094933796 260.80419665224326 0 0 0 0 99.104724564584103 -120.74716862228343 0 -120.74716862228343 232.70518888207152 0 0 0 0 -79.347564115247224 31.569350039761048 0 31.569350039761048 215.12349491547502 0 0 0 0 -80.703984505630388 -110.79245842680416 0 -110.79245842680416 318.79890641324164 0 0 0 0 -44.44910556238392 -66.159621085385879 0 -66.159621085385879 -22.808650056962506 0 0 0 0 69.721614634952857 -64.089869942057703 0 -64.089869942057703 -23.075898461816905 0 0 0 0 -350.71234217882011 -117.18833204075418 0 -117.18833204075418 70.692114900935849 0 0 0 0 0.27943369624699699 -125.17121566371134 0 -125.17121566371134 -392.47032690333435 0 0 0 0 -286.79653697692629 -132.484853942482 0 -132.484853942482 219.67845681324252 0 0 0 0 -3.7864226892220643 4.1450014070827308 0 4.1450014070827308 0.78723558218326062 0 0 0 0 -113.19996051402995 -10.488610518696078 0 -10.488610518696078 297.51820929881978 0 0 0 0 -28.332149157569802 -126.34881081571075 0 -126.34881081571075 187.19374189681548 0 0 0 0 68.983451206979225 -109.97290329961834 0 -109.97290329961834 95.126627043297049 0 0 0 0 -54.620331072152112 -93.441460181729781 0 -93.441460181729781 171.87448654780746 0 0 0 0 -2.1529992213108926 -22.168467389026773 0 -22.168467389026773 -89.740094230422983 0 0 0 0 -111.6654776596406 -77.822868777235271 0 -77.822868777235271 209.98877725477359 0 0 0 0 -133.4967736350809 -77.704713206971064 0 -77.704713206971064 211.36336410062904 0 0 0 0 -93.638471825281158 -54.477390888496302 0 -54.477390888496302 93.494414965025499 0 0 0 0 -109.08161031956843 -106.09630288753397 0 -106.09630288753397 110.68205959002808 0 0 0 0 -112.261852810655 -132.93949542484324 0 -132.93949542484324 73.341593886420014 0 0 0 0 -129.89604597700963 -112.65860681316553 0 -112.65860681316553 50.341710595126642 0 0 0 0 -172.53601165196415 -226.1171978749353 0 -226.1171978749353 -46.797946567021427 0 0 0 0 25.861901783195208 -100.71496318783102 0 -100.71496318783102 48.733671924223017 0 0 0 0 56.374418928937118 -82.999505543792864 0 -82.999505543792864 83.637941892314643 0 0 0 0 -19.31432997569209 -104.69591833194136 0 -104.69591833194136 103.33355074439896 0 0 0 0 -11.297730818361742 -121.67927380511719 0 -121.67927380511719 81.953108728055668 0 0 0 0 -17.95167524489807 -108.91719452031248 0 -108.91719452031248 52.405677393627684 0 0 0 0 -10.321845242244308 -119.53463459689374 0 -119.53463459689374 64.090500575912301 0 0 0 0 -19.011708729201928 -107.79754260876507 0 -107.79754260876507 88.907779907123768 0 0 0 0 -19.985664493084187 -99.25186041098641 0 -99.25186041098641 62.430762070327546 0 0 0 0 -20.514295101427706 -100.11082727561006 0 -100.11082727561006 48.014430326686124 0 0 0 0 -34.022589255677303 -121.7323319636962 0 -121.7323319636962 51.828859118904802 0 0 0 0 -15.436878552864073 -78.608711393510021 0 -78.608711393510021 87.04312942573597 0 0 0 0 -18.821890729246661 -86.961962022105581 0 -86.961962022105581 70.682705063619778 0 0 0 0 -25.64174794164137 -103.46059832669562 0 -103.46059832669562 72.25657454438624 0 0 0 0 -22.123489514866378 -86.558908801951475 0 -86.558908801951475 84.325214855969534 0 0 0 0 -19.569768378991284 -85.246574573619 0 -85.246574573619 81.297231795528205 0 0 0 0 -12.291555098374374 -79.197849140167818 0 -79.197849140167818 72.033380453147402 0 0 0 0 -13.809053806991869 -85.072401308416374 0 -85.072401308416374 70.758247381338151 0 0 0 0 -22.935818678321084 -94.414406386076735 0 -94.414406386076735 65.590314084285637 0 0 0 0 -289.36797726694022 -306.6344602148647 0 -306.6344602148647 371.66987881113891 0 0 0 0 7.1393616746611315 -54.380069252502174 0 -54.380069252502174 60.74760124812974 0 0 0 0 47.127360139227562 -65.415709163822086 0 -65.415709163822086 25.623931155173466 0 0 0 0 -147.55200699687703 193.73542485389044 0 193.73542485389044 347.21102524522576 0 0 0 0 -19.125996142975055 -92.256142838916276 0 -92.256142838916276 103.2464125000115 0 0 0 0 -16.983238558763333 -247.17352878426391 0 -247.17352878426391 350.07082941409317 0 0 0 0 -247.33589210085484 -152.64665735604649 0 -152.64665735604649 -95.390412161650602 0 0 0 0 13.256262092414545 -60.989488657811307 0 -60.989488657811307 -119.60347463337166 0 0 0 0 -8.2756519462016342 -1.5862471416392907 0 -1.5862471416392907 1.9410756540376681 0 0 0 0 -6.7890786809053623 -6.2760397168968893 0 -6.2760397168968893 -0.4490846136002915 0 0 0 0 200.41762291108171 -172.9754878720305 0 -172.9754878720305 122.87740400487382 0 0 0 0 -60.324197552431144 -45.734586904842331 0 -45.734586904842331 20.451496361800118 0 0 0 0 -72.41350606904598 -112.94824713345588 0 -112.94824713345588 -27.029364487767452 0 0 0 0 -38.383812547966954 -87.591300425990994 0 -87.591300425990994 -40.588721856656775 0 0 0 0 -34.481911687690911 -80.978139771380995 0 -80.978139771380995 57.537881039177265 0 0 0 0 -0.0630711567673643 -1.5071487304877564 0 -1.5071487304877564 10.690692379318818 0 0 0 0 63.340166815411067 -90.735675398784224 0 -90.735675398784224 -59.221145767834969 0 0 0 0 -0.16117212157439553 -51.902710157981431 0 -51.902710157981431 8.8383895521064346 0 0 0 0 -25.29976207704749 -53.361392693113885 0 -53.361392693113885 2.1298362470151915 0 0 0 0 -38.731126142665744 -147.38378463196568 0 -147.38378463196568 92.224815754918382 0 0 0 0 -51.871748757082969 -212.62308129339362 0 -212.62308129339362 89.821672138289614 0 0 0 0 -94.583426291705109 -154.14629964821506 0 -154.14629964821506 141.6797517259547 0 0 0 0 14.88270616922911 -4.2366820798038702 0 -4.2366820798038702 0.87671374588410345 0 0 0 0 -43.387305948795984 -53.240396642569976 0 -53.240396642569976 10.872335167099664 0 0 0 0 -92.079816399636911 -92.987169338570311 0 -92.987169338570311 13.774790901938104 0 0 0 0 -46.431903228272859 -86.25880069521736 0 -86.25880069521736 -7.3050097883678973 0 0 0 0 -4.4412615635442023 -37.009151810642805 0 -37.009151810642805 23.38627356593409 0 0 0 0 10.075327101520088 -61.877768273512629 0 -61.877768273512629 3.7498954458133085 0 0 0 0 11.149998132144546 -37.287731798611645 0 -37.287731798611645 -1.8746023112589114 0 0 0 0 -5.2054994532862366 -38.849615953862212 0 -38.849615953862212 7.3351716449909645 0 0 0 0 -51.303044570842758 -63.984679003129713 0 -63.984679003129713 -4.6898455756017938 0 0 0 0 -44.986313278634043 -85.050003854918032 0 -85.050003854918032 12.866308859651326 0 0 0 0 -201.26394667991553 -128.83303455662099 0 -128.83303455662099 10.157276609734254 0 0 0 0 -88.519714853813639 -169.31167726241983 0 -169.31167726241983 -159.73373807481403 0 0 0 0 -7.3593063213629648 3.4337510814875714 0 3.4337510814875714 -57.42748230513098 0 0 0 0 -31.019502749841195 23.855158808954002 0 23.855158808954002 29.884713625593577 0 0 0 0 -40.598393486492569 -102.30975436991866 0 -102.30975436991866 -2.7870077139414207 0 0 0 0 -22.250484965799842 -123.21591791095125 0 -123.21591791095125 -128.21074380359642 0 0 0 0 -80.051378786942223 -118.41386954937843 0 -118.41386954937843 -30.754567778763885 0 0 0 0 3.2416535828623978 -9.4800102736059273 0 -9.4800102736059273 8.4448667506280728 0 0 0 0 21.509305680105115 -33.362217254492329 0 -33.362217254492329 -4.5423328912627596 0 0 0 0 -42.795958301343433 -47.140475931988476 0 -47.140475931988476 13.483754403305284 0 0 0 0 -34.369880081961014 -33.617711627869994 0 -33.617711627869994 12.126734238745016 0 0 0 0 -23.654600088461052 -38.1033659577013 0 -38.1033659577013 12.542358205242664 0 0 0 0 -36.49723745486699 -89.319164600645308 0 -89.319164600645308 93.061419781873155 0 0 0 0 -36.199084288353333 -17.853273283813905 0 -17.853273283813905 72.609791226033849 0 0 0 0 -26.545212685388833 -63.056742090469925 0 -63.056742090469925 24.249642229173332 0 0 0 0 -31.809452544344822 -80.875088159915322 0 -80.875088159915322 -10.062225421534094 0 0 0 0 -35.525804305663769 -72.766740646283324 0 -72.766740646283324 66.870877995293995 0 0 0 0 -24.001457784150261 -101.23764374945313 0 -101.23764374945313 19.093737729854183 0 0 0 0 -24.673851595638553 -93.115483577355917 0 -93.115483577355917 64.641113387449877 0 0 0 0 -37.895531574948109 -125.47581779401662 0 -125.47581779401662 36.641595486955339 0 0 0 0 -31.100714081840124 -117.83948885441714 0 -117.83948885441714 37.72589573298319 0 0 0 0 -37.901927343060379 -118.65634203936133 0 -118.65634203936133 3.6328972153714858 0 0 0 0 -63.144568675910705 -125.1184080403109 0 -125.1184080403109 22.91245464784879 0 0 0 0 -60.482814153634536 -126.29078643198409 0 -126.29078643198409 7.1336672910765628 0 0 0 0 -43.942732827767031 -147.79432242279836 0 -147.79432242279836 15.095946915535023 0 0 0 0 -53.670734313948742 -137.83808630664612 0 -137.83808630664612 55.848147191529279 0 0 0 0 -41.111905297031626 -145.85655580531602 0 -145.85655580531602 18.061600075910974 0 0 0 0 -54.961497586060432 -129.20030981981472 0 -129.20030981981472 8.5297311221365817 0 0 0 0 -39.232650947189541 -142.03977738519461 0 -142.03977738519461 20.72237157076961 0 0 0 0 -46.426062072481727 -143.07991068014235 0 -143.07991068014235 24.709956479942775 0 0 0 0 -41.216883171324298 -137.43483256070976 0 -137.43483256070976 28.290751793247182 0 0 0 0 -31.842685977375368 -137.82634599600715 0 -137.82634599600715 25.428883686821791 0 0 0 0 -33.988838632561965 -124.09723153066443 0 -124.09723153066443 53.107238313046309 0 0 0 0 -20.681104383867932 -137.01420587374741 0 -137.01420587374741 23.5510212841873 0 0 0 0 -31.289452695215004 -102.61793783883695 0 -102.61793783883695 63.178030888317153 0 0 0 0 -30.857249290162144 -123.64050126924212 0 -123.64050126924212 9.1438188053289196 0 0 0 0 -53.169250867940718 -132.86229376557458 0 -132.86229376557458 8.2088707607340439 0 0 0 0 -30.859563590606456 -100.28975044666647 0 -100.28975044666647 37.842953097425664 0 0 0 0 -19.30470958648948 -129.78951793565466 0 -129.78951793565466 -70.946428062161431 0 0 0 0 -42.378355901804753 -143.99525313785648 0 -143.99525313785648 -43.839659028401911 0 0 0 0 -41.347737543474068 -126.59360884915986 0 -126.59360884915986 -88.26902023850198 0 0 0 0 -76.369456630418426 -151.95647469833466 0 -151.95647469833466 -92.581015321505589 0 0 0 0 -76.201937534526223 -154.09025128459325 0 -154.09025128459325 -113.0404774934068 0 0 0 0 -58.87133052771361 -115.82730909642851 0 -115.82730909642851 32.043035262977 0 0 0 0 -40.179693912180653 -95.652850402969364 0 -95.652850402969364 39.788344249603334 0 0 0 0 -68.701661624563712 -157.5459380457346 0 -157.5459380457346 -93.950218202514407 0 0 0 0 -36.502649930698681 -139.34678812268248 0 -139.34678812268248 -25.38668888038228 0 0 0 0 39.013942230783869 -102.90078608812837 0 -102.90078608812837 -87.829720814745087 0 0 0 0 3.8778127756377216 -115.5183813256217 0 -115.5183813256217 -10.332110188073784 0 0 0 0 19.856720326773939 -108.50500307263337 0 -108.50500307263337 -33.370362762776494 0 0 0 0 -19.110219322174089 -89.386616681698797 0 -89.386616681698797 -38.043439033785489 0 0 0 0 61.160906614386477 -128.98334898815665 0 -128.98334898815665 -57.119267785392367 0 0 0 0 -120.2581470428413 -188.47664954566699 0 -188.47664954566699 -138.84868746271741 0 0 0 0 0.83713955178101784 -114.83930988873641 0 -114.83930988873641 -92.660218725236945 0 0 0 0 -12.27658941570553 -171.06461326775479 0 -171.06461326775479 -112.60945210457066 0 0 0 0 8.6017025492565935 -88.236201924631274 0 -88.236201924631274 -93.229006157919656 0 0 0 0 52.800010622537229 -98.185315447728499 0 -98.185315447728499 -90.010732409558841 0 0 0 0 48.013242237710074 -78.929264777447088 0 -78.929264777447088 -108.90526032973503 0 0 0 0 -24.093514700856758 -24.585199461937009 0 -24.585199461937009 -88.370762537875635 0 0 0 0 14.400996397802373 -61.237417993068448 0 -61.237417993068448 -53.540846106116078 0 0 0 0 12.675971523451153 -67.632177117051469 0 -67.632177117051469 -66.582750382502127 0 0 0 0 -19.716114848590223 3.2647668708978017 0 3.2647668708978017 -79.602983674143616 0 0 0 0 -28.0337951516305 -32.072500889444058 0 -32.072500889444058 -36.939211686852474 0 0 0 0 -5.2065779161348473 -371.28472058104671 0 -371.28472058104671 131.57792729680659 0 0 0 0 211.50705494168506 103.58374383183218 0 103.58374383183218 -278.20056679806112 0 0 0 0 -1.6988999168935379 -4.272009612342373 0 -4.272009612342373 2.0290536635341994 0 0 0 0 -11.699334377248306 -71.919096773002821 0 -71.919096773002821 -41.935280504094408 0 0 0 0 -40.486589898904924 -46.250246338020958 0 -46.250246338020958 -47.453097680201012 0 0 0 0 25.738586065548589 -94.048222836210698 0 -94.048222836210698 -35.857549707128783 0 0 0 0 6.8871433299791533 -74.129971842972736 0 -74.129971842972736 -53.110235163674133 0 0 0 0 3.0849971663265023 -80.824532937254844 0 -80.824532937254844 -62.819891715219455 0 0 0 0 25.002574398113097 -16.787432958809603 0 -16.787432958809603 -36.189084139064917 0 0 0 0 50.795172168596764 -14.408545992371728 0 -14.408545992371728 43.993582958908519 0 0 0 0 -7.3776447248528711 -8.9557917023284972 0 -8.9557917023284972 174.54644045075474 0 0 0 0 135.12648945242108 20.306190748831796 0 20.306190748831796 6.180549401906319 0 0 0 0 14.58890167020877 -3.2967757417491086 0 -3.2967757417491086 -1.7793720675084188 0 0 0 0 8.3476376840408193 -77.345075129735051 0 -77.345075129735051 121.70753973423052 0 0 0 0 23.203303281974513 -62.324988966636738 0 -62.324988966636738 88.751351000311843 0 0 0 0 -2.8013134791981429 -128.6771384653548 0 -128.6771384653548 -24.93736753803023 0 0 0 0 -45.691369347303407 -150.27691812341072 0 -150.27691812341072 24.833088529463566 0 0 0 0 -160.19356565896305 -256.07360209131002 0 -256.07360209131002 -84.214828471347573 0 0 0 0 -61.612659902544692 -195.26417036214843 0 -195.26417036214843 -58.304966907206108 0 0 0 0 4.0739562955277506 -105.86783091250436 0 -105.86783091250436 -70.39086714667792 0 0 0 0 -427.33355431226119 -495.340330988716 0 -495.340330988716 214.18638358663884 0 0 0 0 -220.55654137486999 -111.36285982038862 0 -111.36285982038862 14.559439508724608 0 0 0 0 -57.469286767594895 -73.386234783787614 0 -73.386234783787614 4.6325800469424898 0 0 0 0 -191.24245451274328 69.563024420574948 0 69.563024420574948 -26.034314147676923 0 0 0 0 -4.0688526103543268 -6.2634355707685643 0 -6.2634355707685643 4.5640168115134827 0 0 0 0 -447.12780368865424 -122.82684444817698 0 -122.82684444817698 131.57916300886427 0 0 0 0 -58.043029544438468 -252.29255316827039 0 -252.29255316827039 -12.423612146129017 0 0 0 0 -12.0341657958326 -115.62432132768978 0 -115.62432132768978 8.7710841716856862 0 0 0 0 -11.9300263565965 -153.87281175082171 0 -153.87281175082171 18.580595379826264 0 0 0 0 -62.428524260103586 196.95864967854504 0 196.95864967854504 -270.23827553412593 0 0 0 0 -92.306577506824397 -140.59791189558746 0 -140.59791189558746 5.13689666411301 0 0 0 0 -69.570297716229106 -102.75975921759346 0 -102.75975921759346 -37.154884299452533 0 0 0 0 9.2254193586944737 -88.706470364589876 0 -88.706470364589876 -14.676459213960641 0 0 0 0 -232.05132927250816 -168.64563531219756 0 -168.64563531219756 37.815372878365451 0 0 0 0 -282.34052240996971 -196.99358997883974 0 -196.99358997883974 38.243476106938033 0 0 0 0 -86.597447795851622 -141.8184707727778 0 -141.8184707727778 37.891618500041659 0 0 0 0 -54.327334257643088 -143.44499079273737 0 -143.44499079273737 -13.495934743128601 0 0 0 0 -113.97162125095201 -171.77322643498337 0 -171.77322643498337 17.208719584494247 0 0 0 0 -27.098083899531048 -137.33721100092225 0 -137.33721100092225 -87.655104324861895 0 0 0 0 -50.883090437477222 -173.56101702508749 0 -173.56101702508749 -28.35105757007841 0 0 0 0 -72.224354806734482 -174.63259955933245 0 -174.63259955933245 17.322477096575312 0 0 0 0 -77.090841123732389 -107.98767671786845 0 -107.98767671786845 -4.3250592114636675 0 0 0 0 9.7626560348748868 -94.925984255938118 0 -94.925984255938118 -37.687583859632042 0 0 0 0 -140.88157472490275 -90.778857748264272 0 -90.778857748264272 11.948989877044369 0 0 0 0 -59.745356021789576 -56.220882642621916 0 -56.220882642621916 -9.1757838474468585 0 0 0 0 -13.270227106244036 -62.061677006238881 0 -62.061677006238881 3.5987471260252164 0 0 0 0 -36.992037819756661 -68.560767453902372 0 -68.560767453902372 21.369832798322022 0 0 0 0 9.8987309980848295 -46.420561098939089 0 -46.420561098939089 -11.540938026858484 0 0 0 0 -8.6795422299474012 -135.15861903013501 0 -135.15861903013501 -68.720218879410822 0 0 0 0 -93.842036194284447 -182.95640851325879 0 -182.95640851325879 45.134941920401616 0 0 0 0 -56.097776239039376 -171.38872784560226 0 -171.38872784560226 -26.712488456669234 0 0 0 0 -51.620656331906503 -167.5421468776367 0 -167.5421468776367 -70.119697985050152 0 0 0 0 -31.526708226883784 -176.28838826159699 0 -176.28838826159699 -131.26979770402977 0 0 0 0 3.8744806109862679 -17.155608551567589 0 -17.155608551567589 6.7871720170359353 0 0 0 0 -47.314920023200102 -84.105152858159272 0 -84.105152858159272 110.91376688979653 0 0 0 0 4.0571767035125106 -52.812620562032919 0 -52.812620562032919 33.804725680376578 0 0 0 0 -6.6285077645221691 -47.061682401055911 0 -47.061682401055911 17.675704104055185 0 0 0 0 92.222789674939122 -93.985804714928236 0 -93.985804714928236 24.237609297917516 0 0 0 0 -35.081283539882861 -8.5403248036891455 0 -8.5403248036891455 86.855759669801046 0 0 0 0 93.114640107320156 -234.19899635544425 0 -234.19899635544425 -440.32312433597872 0 0 0 0 120.25059557895293 -327.29194861272663 0 -327.29194861272663 -136.53142218904395 0 0 0 0 -51.151119928515982 -72.302291031068307 0 -72.302291031068307 517.94312746806099 0 0 0 0 5.7691828426316079 4.3693415812989898 0 4.3693415812989898 -2.0846989567394516 0 0 0 0 -73.861543037681258 -171.58658723656117 0 -171.58658723656117 -70.345595374135883 0 0 0 0 -66.41247741380721 -119.74477032970071 0 -119.74477032970071 -159.88762594644504 0 0 0 0 -11.526408795587486 -216.1830885158306 0 -216.1830885158306 -72.92944713799443 0 0 0 0 -7.7925905621959828 -189.631672080101 0 -189.631672080101 -64.622890953956812 0 0 0 0 -30.918063273056759 -205.40597765865823 0 -205.40597765865823 40.207534767738252 0 0 0 0 -3.761517991675646 -168.59897332232686 0 -168.59897332232686 27.336948722535453 0 0 0 0 29.64742648936226 -239.85253830406509 0 -239.85253830406509 -3.3004703541027993 0 0 0 0 -74.100075185036985 -189.11626564661856 0 -189.11626564661856 1.2224460675788578 0 0 0 0 -37.33949271790334 -188.20476945897826 0 -188.20476945897826 -1.6414006980594422 0 0 0 0 -72.159673854155699 -193.87976363734197 0 -193.87976363734197 -26.998227446543751 0 0 0 0 -96.410435541649349 -201.43312774590413 0 -201.43312774590413 30.055700035707559 0 0 0 0 -32.198488032561727 -177.4258283743111 0 -177.4258283743111 -5.2357630229962524 0 0 0 0 -33.999665647740585 -140.69550218005929 0 -140.69550218005929 66.308330234212917 0 0 0 0 -16.284758066700306 -143.10803592997399 0 -143.10803592997399 58.060687169303492 0 0 0 0 -9.6166960284244851 -102.73571119886219 0 -102.73571119886219 180.93756872100494 0 0 0 0 12.233514033025131 -218.07193937255579 0 -218.07193937255579 123.32682608007781 0 0 0 0 11.694372928795929 -225.72300706719761 0 -225.72300706719761 270.38408345173229 0 0 0 0 34.129008382195025 -216.04998622476705 0 -216.04998622476705 49.29026872090617 0 0 0 0 36.193853343342198 -322.19411708904954 0 -322.19411708904954 -6.5236619345123472 0 0 0 0 31.067911963835286 -228.32681061456015 0 -228.32681061456015 62.675837683251302 0 0 0 0 71.295523155939009 -275.36616905704795 0 -275.36616905704795 -54.810683699026413 0 0 0 0 76.255084865515528 -336.67887565959427 0 -336.67887565959427 -14.581032579255407 0 0 0 0 -16.514305197284557 -314.6346877598553 0 -314.6346877598553 3.524378874564718 0 0 0 0 0.084785707847913727 -351.49449616812126 0 -351.49449616812126 -29.498382958652655 0 0 0 0 74.483375974436058 -314.81677712346209 0 -314.81677712346209 -55.218474240582111 0 0 0 0 42.5197603537963 -312.84119682542587 0 -312.84119682542587 73.061354983117781 0 0 0 0 63.23949013951642 -267.40498478799054 0 -267.40498478799054 38.279755336487142 0 0 0 0 -0.041314571985790215 -313.27543361065733 0 -313.27543361065733 135.48766553006863 0 0 0 0 27.390601761202561 -201.93796820805801 0 -201.93796820805801 312.50088393982878 0 0 0 0 75.443201884059818 -251.09563838543181 0 -251.09563838543181 81.378781170350976 0 0 0 0 0.28353234753012657 -296.5294889454799 0 -296.5294889454799 364.84162201361869 0 0 0 0 1.0873284318636252 1.7991949658941309 0 1.7991949658941309 -0.47181436085610073 0 0 0 0 -0.38923432110261352 -522.47270660396111 0 -522.47270660396111 -545.52795711467115 0 0 0 0 -13.39315610700578 -74.797053908241651 0 -74.797053908241651 -348.68087393870883 0 0 0 0 -294.59783228016749 -444.56220274018779 0 -444.56220274018779 -302.69426793212187 0 0 0 0 -38.761870329049998 -75.347566784586888 0 -75.347566784586888 799.03188283903728 0 0 0 0 -9.046462836136925 -56.258614529488113 0 -56.258614529488113 375.41316133368673 0 0 0 0 19.301552399338107 -114.46628864537342 0 -114.46628864537342 223.43335226153886 0 0 0 0 25.564755278581288 -59.265484599542106 0 -59.265484599542106 129.58699612068449 0 0 0 0 4.8990183383022554 -0.2708063119588644 0 -0.2708063119588644 0.77218391022305255 0 0 0 0 -335.39979121500801 -11.889070446479309 0 -11.889070446479309 175.6618599739104 0 0 0 0 -707.06897989979916 -557.09325422871825 0 -557.09325422871825 -266.96585876931931 0 0 0 0 122.17869301708561 87.438524826211506 0 87.438524826211506 -227.63623295981961 0 0 0 0 -135.14700351303327 -342.63056983589922 0 -342.63056983589922 5.2413117407177197 0 0 0 0 -5.5419521743421569 0.33703002031234064 0 0.33703002031234064 3.9223638194840618 0 0 0 0 468.21644155079412 350.80421736885819 0 350.80421736885819 -714.78936945574969 0 0 0 0 -167.23733425718092 -152.16872254481586 0 -152.16872254481586 -1022.6366579072419 0 0 0 0 -922.43841603936744 -418.04638931851514 0 -418.04638931851514 -19.283917719410965 0 0 0 0 -812.3196851556022 -1210.0948832782688 0 -1210.0948832782688 -1434.1982891591906 0 0 0 0 157.40855365278549 -146.43981389691271 0 -146.43981389691271 -621.03208496935258 0 0 0 0 0.50881598581327125 -406.94887697007289 0 -406.94887697007289 -372.75001839236211 0 0 0 0 187.36633640130458 -558.55371878618644 0 -558.55371878618644 -869.22587436753383 0 0 0 0 -5.6730765398533549 -806.32159621816027 0 -806.32159621816027 -1047.865929815096 0 0 0 0 -206.42729683569632 -679.46496883921282 0 -679.46496883921282 -576.56872157584439 0 0 0 0 -489.02574474079302 -932.65746044895423 0 -932.65746044895423 -749.07711008889601 0 0 0 0 -841.62536343513057 -51.991957896891108 0 -51.991957896891108 -1083.8390533909451 0 0 0 0 0.0089750561455730349 -16.429972499125142 0 -16.429972499125142 -30.302738159894943 0 0 0 0 3.5935260257401751 2.6836190643466153 0 2.6836190643466153 -1.7610053887909771 0 0 0 0 -48.142905762972077 0.73042519808950601 0 0.73042519808950601 401.97770849685185 0 0 0 0 0.12324601988075301 -176.13846917454794 0 -176.13846917454794 162.63861815435666 0 0 0 0 -9.0572003125125775 -51.174850746188895 0 -51.174850746188895 105.65194883194636 0 0 0 0 -21.835832285156357 -86.627530384073907 0 -86.627530384073907 129.72985161809265 0 0 0 0 -9.9181117039552191 -113.85090554341878 0 -113.85090554341878 39.48256975847471 0 0 0 0 59.897390250582248 -113.13537787103996 0 -113.13537787103996 46.445929296023678 0 0 0 0 30.269933531293646 -76.046403293607 0 -76.046403293607 75.043598299464065 0 0 0 0 86.584169255773304 -61.118678868981078 0 -61.118678868981078 26.026648414583178 0 0 0 0 8.5240084783144994 -47.194347691525763 0 -47.194347691525763 62.932230844900914 0 0 0 0 -6.8929780361726216 -8.9433254476517732 0 -8.9433254476517732 -8.2695015051029657 0 0 0 0 -0.61206104543816764 -40.782345454448659 0 -40.782345454448659 116.92568608353758 0 0 0 0 4.7887361451911374 -0.056358194212506874 0 -0.056358194212506874 -4.2825062609469597 0 0 0 0 77.483121336263139 -73.040732840157034 0 -73.040732840157034 60.418884900471312 0 0 0 0 2.7367821462248685 -16.392165893048514 0 -16.392165893048514 -15.238138761033042 0 0 0 0 -8.0431460755556827 -7.6007714178053334 0 -7.6007714178053334 -3.8502098348145068 0 0 0 0 94.735675385047216 -157.55645852321322 0 -157.55645852321322 148.32858682607184 0 0 0 0 244.00104257365456 -111.75883756756957 0 -111.75883756756957 -12.494408719692728 0 0 0 0 123.55868800985627 -125.45956256467616 0 -125.45956256467616 119.19258758581418 0 0 0 0 0.99573587203434499 -0.31848405472624819 0 -0.31848405472624819 -5.2293340620530557 0 0 0 0 195.90402884157083 -100.95447314369085 0 -100.95447314369085 41.433201309700962 0 0 0 0 169.29446347667545 -101.62842018748779 0 -101.62842018748779 58.402699696453055 0 0 0 0 181.4112327007897 -85.750259514403297 0 -85.750259514403297 69.34407769649988 0 0 0 0 183.86132684735639 -116.76069384942093 0 -116.76069384942093 30.758681687977514 0 0 0 0 136.88209942189133 -83.1594218614282 0 -83.1594218614282 8.3467805293912534 0 0 0 0 177.96433701565547 -97.246561934985948 0 -97.246561934985948 5.8092923479998717 0 0 0 0 160.79525027176715 -108.377793310181 0 -108.377793310181 27.79444579911069 0 0 0 0 125.5351882247196 -101.38691271960852 0 -101.38691271960852 46.343697958891426 0 0 0 0 4.8962757576809963 -18.757160037635913 0 -18.757160037635913 0.7705350118858405 0 0 0 0 -2.1382875111376052 -9.2897014636182575 0 -9.2897014636182575 -0.29049668859806843 0 0 0 0 1.8957333700964227 -5.6777298831875669 0 -5.6777298831875669 -15.04966575391154 0 0 0 0 -0.0086607624543830752 -15.02864077835693 0 -15.02864077835693 -0.20461473970499355 0 0 0 0 0.013238425890449435 -12.339242153750092 0 -12.339242153750092 8.8751635095395613 0 0 0 0 3.5944063481729245 -9.9560020295066352 0 -9.9560020295066352 6.6677928778517526 0 0 0 0 -6.5285651014879704 -4.994735318278515 0 -4.994735318278515 -1.6725415232734804 0 0 0 0 90.035372297672438 -69.035486889322783 0 -69.035486889322783 2.3200506312277867 0 0 0 0 64.433658550893597 -33.82791003575403 0 -33.82791003575403 -6.8683715771039715 0 0 0 0 46.784047334942443 61.52352924063598 0 61.52352924063598 -369.61453387717484 0 0 0 0 -4.7044091236752479 -2.3898617718963919 0 -2.3898617718963919 1.5864218673821711 0 0 0 0 -0.075321300275390968 -393.97173775235933 0 -393.97173775235933 -185.6581848998685 0 0 0 0 148.74836401663197 -243.1105813815193 0 -243.1105813815193 -463.24854909313672 0 0 0 0 139.48657145111792 -254.35151996136392 0 -254.35151996136392 -165.4886205526127 0 0 0 0 84.137298914698476 -307.55297314008294 0 -307.55297314008294 -143.59522830772039 0 0 0 0 -2.078226201478742 0.091878589524895915 0 0.091878589524895915 0.54802016952790211 0 0 0 0 201.69293190124881 -457.36981711952194 0 -457.36981711952194 382.60385001199757 0 0 0 0 64.038253977370914 -261.40154066266041 0 -261.40154066266041 -176.16011097504816 0 0 0 0 175.97022280920646 -339.98451277346612 0 -339.98451277346612 -145.17714432847424 0 0 0 0 154.76070815505227 -198.62078771066444 0 -198.62078771066444 -25.961289351973392 0 0 0 0 197.47581288509537 -225.4447713427835 0 -225.4447713427835 -38.832783321238821 0 0 0 0 162.06344777219056 -163.03526945389603 0 -163.03526945389603 191.35996770927886 0 0 0 0 206.33622044938966 -126.98574710091998 0 -126.98574710091998 -18.477135845372686 0 0 0 0 184.23056747551891 -102.16613903675898 0 -102.16613903675898 -41.115043375737287 0 0 0 0 168.39469897962408 -104.3243909063458 0 -104.3243909063458 -26.921464564380585 0 0 0 0 138.11206430880702 -39.662316364592698 0 -39.662316364592698 -161.98245656498455 0 0 0 0 90.543798369853903 -72.714050893378953 0 -72.714050893378953 22.933231308299582 0 0 0 0 149.25744479882997 -73.396153758141736 0 -73.396153758141736 -35.140260221101926 0 0 0 0 173.29656736089964 -100.56093334253455 0 -100.56093334253455 3.4350042311707512 0 0 0 0 170.77686696250748 -103.95061370085386 0 -103.95061370085386 4.6064824012864847 0 0 0 0 186.00622071299586 -107.36254122765968 0 -107.36254122765968 3.1968839338805992 0 0 0 0 170.78953698812984 -114.03269857991836 0 -114.03269857991836 13.846972074417863 0 0 0 0 183.12011831993004 -110.64286309860472 0 -110.64286309860472 13.582528639803058 0 0 0 0 117.63366289330588 -101.15483506901728 0 -101.15483506901728 28.230094324433594 0 0 0 0 163.44015861146909 -132.38703656163852 0 -132.38703656163852 34.849321131347097 0 0 0 0 85.306163274886785 -111.15018534546834 0 -111.15018534546834 80.080613422112947 0 0 0 0 183.03541802315158 -139.97963608707505 0 -139.97963608707505 60.391694195903256 0 0 0 0 189.15017408569111 -144.80466543689181 0 -144.80466543689181 58.026045624019389 0 0 0 0 -6.6065719948826995 -0.4691056864778318 0 -0.4691056864778318 -0.24794199672106743 0 0 0 0 157.47400313265098 -204.70861311585759 0 -204.70861311585759 199.44895201222971 0 0 0 0 109.92729860312829 -2.6851697905040055 0 -2.6851697905040055 -337.89625677235017 0 0 0 0 107.74434112184099 -356.97152486981577 0 -356.97152486981577 34.929290192914777 0 0 0 0 214.60380945891666 169.058597291365 0 169.058597291365 -721.37934235291323 0 0 0 0 -90.009345731668873 -70.225085056612443 0 -70.225085056612443 24.002308494043973 0 0 0 0 -1.6907280657906085 -129.47553801242975 0 -129.47553801242975 -14.707821596835856 0 0 0 0 21.481853403471177 -41.606805674105999 0 -41.606805674105999 -4.2464451421401463 0 0 0 0 4.8561272742954316 -107.57565772898761 0 -107.57565772898761 25.663637187302811 0 0 0 0 25.525711107155075 -111.3945953804041 0 -111.3945953804041 24.885857346955163 0 0 0 0 3.9574877627662204 -21.839678329402602 0 -21.839678329402602 5.4948340119891128 0 0 0 0 5.3769846603719884 -55.506640455196759 0 -55.506640455196759 12.327262705088458 0 0 0 0 56.881011637771735 -87.844620475549164 0 -87.844620475549164 -23.529841844720067 0 0 0 0 -31.131210603602085 -134.97270071482581 0 -134.97270071482581 -5.635688910522731 0 0 0 0 -55.428472023457289 -56.398708943206657 0 -56.398708943206657 -3.5128777231147978 0 0 0 0 34.950843183076358 -104.87884467202457 0 -104.87884467202457 -24.444738049729494 0 0 0 0 6.4654705895763982 -30.840642916732449 0 -30.840642916732449 52.217267116553217 0 0 0 0 88.413910985182156 -80.962703011500707 0 -80.962703011500707 78.282725823490182 0 0 0 0 106.18513132224325 -93.726008178538905 0 -93.726008178538905 -13.635603186368826 0 0 0 0 -12.46838083883631 -128.19307830579055 0 -128.19307830579055 27.999864107288886 0 0 0 0 3.0968415365180704 -7.0301669782396914 0 -7.0301669782396914 11.667032559055727 0 0 0 0 49.028163994355282 -72.242428242816402 0 -72.242428242816402 0.080459427006260853 0 0 0 0 85.247423619805886 -112.17439912221312 0 -112.17439912221312 62.538280162669253 0 0 0 0 7.5696055730113656 -71.340651455334608 0 -71.340651455334608 50.490999243377701 0 0 0 0 22.496330211375607 -88.85896580537883 0 -88.85896580537883 69.707962103930186 0 0 0 0 120.37990695660119 -91.421370344294701 0 -91.421370344294701 22.232860917552898 0 0 0 0 -68.710485021423665 -55.495561473071575 0 -55.495561473071575 57.537859824886255 0 0 0 0 9.6230624251465997 -132.74980141431911 0 -132.74980141431911 -18.594125834933948 0 0 0 0 42.106888616231799 -51.42303120908776 0 -51.42303120908776 48.988221431653699 0 0 0 0 -127.86796890426194 -106.55763878490689 0 -106.55763878490689 39.145284548674681 0 0 0 0 -120.48602867629961 -130.32413038271989 0 -130.32413038271989 18.510052228499262 0 0 0 0 107.40559079564082 -95.261877180677857 0 -95.261877180677857 33.430879803665448 0 0 0 0 4.5679146658546159 -64.563521113917034 0 -64.563521113917034 29.855558225175059 0 0 0 0 124.41934984800173 -86.783707699047227 0 -86.783707699047227 24.733053678693977 0 0 0 0 166.67446825147363 -97.935109233231969 0 -97.935109233231969 20.139084617287153 0 0 0 0 167.36744291557898 -111.98269910861745 0 -111.98269910861745 15.7120646367257 0 0 0 0 174.11231247000978 -103.78030640364159 0 -103.78030640364159 25.677636105276179 0 0 0 0 171.02186352366698 -107.39079307077918 0 -107.39079307077918 24.037214523254079 0 0 0 0 173.20286839085747 -131.4530998133414 0 -131.4530998133414 52.533569317318324 0 0 0 0 149.47174740537594 -148.55493158047466 0 -148.55493158047466 60.35647519689519 0 0 0 0 188.4897364427452 -97.647864865066367 0 -97.647864865066367 13.764081107066886 0 0 0 0 166.14099553566484 -112.75551146600992 0 -112.75551146600992 25.627375918687903 0 0 0 0 242.12708530569216 -135.3397342095559 0 -135.3397342095559 24.993340322712811 0 0 0 0 206.29773919477157 -90.036334259650175 0 -90.036334259650175 6.3253427347808611 0 0 0 0 175.78563875482359 -175.75466772552318 0 -175.75466772552318 73.191030500827765 0 0 0 0 128.26817851755914 -148.32385684815381 0 -148.32385684815381 60.37035408653901 0 0 0 0 38.995994349243119 -122.97937483227724 0 -122.97937483227724 87.632856570513468 0 0 0 0 -9.029581733312682 -8.1905520375668743 0 -8.1905520375668743 -10.235301831950693 0 0 0 0 251.52401684081997 -264.96395652535648 0 -264.96395652535648 145.18306586291874 0 0 0 0 -37.271322754870141 -9.7249264510012097 0 -9.7249264510012097 5.432175391355031 0 0 0 0 26.328289593792199 -116.61166769437438 0 -116.61166769437438 46.675043548915255 0 0 0 0 500.60367080417927 -113.21256184523372 0 -113.21256184523372 6.0958108737850125 0 0 0 0 -37.077271796333662 -41.889837828784948 0 -41.889837828784948 79.156200311635075 0 0 0 0 3.8794890202821648 -56.11140903511339 0 -56.11140903511339 58.386183480582588 0 0 0 0 -250.26057660232254 -144.4929623837852 0 -144.4929623837852 91.327564408107719 0 0 0 0 15.814899384957943 -67.958398457229748 0 -67.958398457229748 8.783632621944605 0 0 0 0 173.83980051416438 -96.835893152157951 0 -96.835893152157951 25.177755166361749 0 0 0 0 309.34613939149131 7.4230408119910862 0 7.4230408119910862 66.831779475935036 0 0 0 0 -91.289117486172472 -60.425187427448691 0 -60.425187427448691 383.57116567547928 0 0 0 0 -10.416123545117443 -72.813835506913165 0 -72.813835506913165 -40.982508585235337 0 0 0 0 -5.6240229314716998 -26.294418157696782 0 -26.294418157696782 63.716153940333243 0 0 0 0 117.10271538316738 -194.13383470605186 0 -194.13383470605186 -74.755524745087314 0 0 0 0 -3.7496996508416487 -110.15067796671792 0 -110.15067796671792 77.117095404071733 0 0 0 0 -12.409067977343511 -136.75478926551659 0 -136.75478926551659 83.2942334201216 0 0 0 0 93.700171202115598 -247.19225680682575 0 -247.19225680682575 214.40205103978224 0 0 0 0 -32.324093777075177 -13.262570671198773 0 -13.262570671198773 346.35578954502853 0 0 0 0 235.67629821999435 -8.9760390202718554 0 -8.9760390202718554 -38.168618666517432 0 0 0 0 4.4294802376550706 -1.6487652718705164 0 -1.6487652718705164 1.1285843516466798 0 0 0 0 -26.545052076988213 -24.46039164665126 0 -24.46039164665126 49.127355252407142 0 0 0 0 -1.9707574253863811 -10.985457314706885 0 -10.985457314706885 6.5386256207862061 0 0 0 0 -9.5411779300338821 -34.202076705063519 0 -34.202076705063519 5.7561039280844852 0 0 0 0 -43.789097904867958 -32.236169100771804 0 -32.236169100771804 45.621533020726929 0 0 0 0 7.9422414648943231 -61.017615107237361 0 -61.017615107237361 -28.497355196683202 0 0 0 0 12.53881067992188 -57.836377134655777 0 -57.836377134655777 -48.736064385506324 0 0 0 0 34.360970064555659 -59.275216274736522 0 -59.275216274736522 -69.563748827204108 0 0 0 0 147.60169018177476 -278.2303495498636 0 -278.2303495498636 62.767312022057013 0 0 0 0 -89.946226274099899 -94.562687356614333 0 -94.562687356614333 24.814338287236751 0 0 0 0 -263.43837392522255 -304.21775811530824 0 -304.21775811530824 56.912968882163113 0 0 0 0 5.739790158069809 -177.38735792364605 0 -177.38735792364605 -88.018236080104543 0 0 0 0 -81.597061927939649 -120.89966556645231 0 -120.89966556645231 -32.893818388307409 0 0 0 0 -193.71149020333542 -197.73023925678717 0 -197.73023925678717 -41.990689467151242 0 0 0 0 -106.87381479554824 -195.66868829281339 0 -195.66868829281339 19.592046565710916 0 0 0 0 35.927567860984738 -48.514158844514725 0 -48.514158844514725 45.278715730615261 0 0 0 0 -146.50766376761021 -140.667504692683 0 -140.667504692683 -17.814494374324568 0 0 0 0 -42.997908978220948 -83.413350947532308 0 -83.413350947532308 -39.999549454427324 0 0 0 0 35.817208302716608 -98.18176018595841 0 -98.18176018595841 -77.084794883907307 0 0 0 0 39.659288892755285 -63.47501980351808 0 -63.47501980351808 -35.607202614184644 0 0 0 0 35.735972026512741 -44.581931101645949 0 -44.581931101645949 38.167335078748408 0 0 0 0 -145.41009010912239 -171.39871942033278 0 -171.39871942033278 78.088170903356513 0 0 0 0 -158.16794256789581 -131.07863085914505 0 -131.07863085914505 52.679907009689487 0 0 0 0 -124.65101844246965 -50.611893921843148 0 -50.611893921843148 70.125552819190489 0 0 0 0 -161.24144020452513 -147.8453858714056 0 -147.8453858714056 -17.006350816296617 0 0 0 0 -25.599586788812303 -3.6541308149026008 0 -3.6541308149026008 55.356581952077249 0 0 0 0 -66.301825110422214 -117.31083225306793 0 -117.31083225306793 -6.7410731259005843 0 0 0 0 -80.544947190297535 -93.318104457706795 0 -93.318104457706795 14.215844892818495 0 0 0 0 -72.168004494102206 -49.862939402632037 0 -49.862939402632037 38.436833375031711 0 0 0 0 26.783615188932458 -46.172434733238724 0 -46.172434733238724 25.038364349344647 0 0 0 0 -90.968590189761017 -131.97916275107127 0 -131.97916275107127 -5.9264218311727745 0 0 0 0 -1.0167919271320329 -25.82245858086943 0 -25.82245858086943 47.330731911862358 0 0 0 0 -26.989336215607182 -141.90300081146415 0 -141.90300081146415 81.089723226788919 0 0 0 0 56.993571406099363 -68.002431679959045 0 -68.002431679959045 -62.370406354457373 0 0 0 0 -24.922123841893722 -23.304190594705062 0 -23.304190594705062 -4.1405251153634453 0 0 0 0 -31.341533755835755 -50.344835814266787 0 -50.344835814266787 -14.661932219237315 0 0 0 0 -56.575173816119786 -115.7990289494046 0 -115.7990289494046 -15.295680976181757 0 0 0 0 -20.84901018376695 -72.817123664324754 0 -72.817123664324754 -8.6770749839633936 0 0 0 0 13.715846384176984 -70.993053571102791 0 -70.993053571102791 -32.057504507305566 0 0 0 0 33.278491162112914 -48.516481682367157 0 -48.516481682367157 4.9434357736681704 0 0 0 0 -68.397171881813804 -75.619592337840885 0 -75.619592337840885 27.587876585176048 0 0 0 0 -26.914871851389108 -13.822323272254508 0 -13.822323272254508 -1.4608779138834507 0 0 0 0 -10.007358032838169 -48.702620640194937 0 -48.702620640194937 4.5057743928170169 0 0 0 0 -122.06121378832904 -100.74697515322259 0 -100.74697515322259 16.375545079950825 0 0 0 0 -108.94347683389788 71.124335927743232 0 71.124335927743232 107.60205955611309 0 0 0 0 -194.47417396849778 -12.888690784820938 0 -12.888690784820938 52.198854227914126 0 0 0 0 0.8152430386654288 -1.6637417002325918 0 -1.6637417002325918 0.65433410494802047 0 0 0 0 197.67517129269254 -58.93334964915266 0 -58.93334964915266 -74.931928648569738 0 0 0 0 -8.7817943188128993 -121.23367572638381 0 -121.23367572638381 -42.196544705424458 0 0 0 0 -68.183072021813132 -34.367326483654324 0 -34.367326483654324 -9.2848267119843513 0 0 0 0 31.216355678858235 -96.722763768997538 0 -96.722763768997538 -25.62395923762233 0 0 0 0 253.53986707858894 -450.4977784685434 0 -450.4977784685434 -117.44325893267523 0 0 0 0 -94.773674595402554 -120.96730195728014 0 -120.96730195728014 -224.52728794573341 0 0 0 0 -27.41965710961108 -45.113044624012929 0 -45.113044624012929 -16.442920577391988 0 0 0 0 310.84914055283298 134.9151978463633 0 134.9151978463633 -98.660210591522628 0 0 0 0 -357.69855932668725 -86.276614623373462 0 -86.276614623373462 47.112649682327174 0 0 0 0 -0.73204208535206305 -1.5489041377106787 0 -1.5489041377106787 -0.98687653046670221 0 0 0 0 454.26240510388743 -188.16556170860713 0 -188.16556170860713 83.813875167688821 0 0 0 0 -172.54147092302446 -210.05401771930337 0 -210.05401771930337 -96.573893793451134 0 0 0 0 -98.578580379893538 -52.221669398291851 0 -52.221669398291851 -3.6231343569961609 0 0 0 0 -167.03954244070337 -153.57241377951868 0 -153.57241377951868 46.928313726675697 0 0 0 0 -86.765767285804031 -139.96626442990964 0 -139.96626442990964 -33.841569880300085 0 0 0 0 80.585848412665655 -194.25331167547847 0 -194.25331167547847 -27.666834577394184 0 0 0 0 13.617456919309916 -119.71019941920531 0 -119.71019941920531 -29.860761194369843 0 0 0 0 -56.782845397479832 -83.968028399685863 0 -83.968028399685863 -16.834845439239871 0 0 0 0 327.98081737167377 -135.29237814879161 0 -135.29237814879161 36.709205480001401 0 0 0 0 400.91759024458588 -74.009390432358487 0 -74.009390432358487 -6.732003650336992 0 0 0 0 15.3895723662705 -8.3044206375128056 0 -8.3044206375128056 -2.2324891134145446 0 0 0 0 -18.306277548443177 -56.962203278941161 0 -56.962203278941161 -16.451076626370195 0 0 0 0 -12.715136519814678 -50.932000437173173 0 -50.932000437173173 -9.6345336522351772 0 0 0 0 -22.969266420055646 -55.183006745835883 0 -55.183006745835883 -9.8263686872815015 0 0 0 0 128.5622255621056 120.74760941326531 0 120.74760941326531 49.458911353296116 0 0 0 0 1.9550584502682682 -90.054361038256715 0 -90.054361038256715 12.325645415572637 0 0 0 0 -27.070765522876172 -54.512956589605892 0 -54.512956589605892 19.201664216539939 0 0 0 0 207.65697911480675 -9.3284311995957978 0 -9.3284311995957978 51.23764307376041 0 0 0 0 6.297238761395306 -19.54089768690109 0 -19.54089768690109 15.0631354160613 0 0 0 0 145.84233612989192 88.648291631057873 0 88.648291631057873 -78.105942650450743 0 0 0 0 -48.739321404864313 -71.995908428616531 0 -71.995908428616531 18.112336603566746 0 0 0 0 -25.710128651102423 -50.442608025463414 0 -50.442608025463414 -8.2064829324317543 0 0 0 0 -156.62525707242082 2.741682975884487 0 2.741682975884487 101.64532720830175 0 0 0 0 -7.4945418507122668 -47.484224397026992 0 -47.484224397026992 5.6145153930265224 0 0 0 0 -47.681069345620926 71.125819127219074 0 71.125819127219074 84.601608247598051 0 0 0 0 -159.2236766590795 -129.77013061817706 0 -129.77013061817706 3.7942628705354764 0 0 0 0 17.842380221991334 46.960631584137445 0 46.960631584137445 143.48982404106937 0 0 0 0 -169.65276903501217 -140.31651793325727 0 -140.31651793325727 282.35477379430085 0 0 0 0 -20.984897609769604 -0.50670860957353625 0 -0.50670860957353625 0.45851596197152844 0 0 0 0 -20.022394809406251 -78.768102524678397 0 -78.768102524678397 -232.71083259039733 0 0 0 0 1.6767995154734194 -2.6063158504628632 0 -2.6063158504628632 2.6108014962761104 0 0 0 0 -222.99792919796892 657.02566466349526 0 657.02566466349526 -536.02326942028594 0 0 0 0 -202.49506625642243 -36.579620627861004 0 -36.579620627861004 306.16611345838464 0 0 0 0 -291.57107593375258 110.0590545653904 0 110.0590545653904 238.26713094473052 0 0 0 0 -6.932553567195157 -0.031362545014957277 0 -0.031362545014957277 -0.0720004577528357 0 0 0 0 -231.08562972604705 125.09185481316672 0 125.09185481316672 165.57724975779274 0 0 0 0 695.73466073963209 -486.70186596497661 0 -486.70186596497661 -1021.8819709109957 0 0 0 0 -509.05197368962399 -316.29565642600937 0 -316.29565642600937 75.566694662877126 0 0 0 0 -349.63178444406367 -187.53443186182994 0 -187.53443186182994 -52.977951519471389 0 0 0 0 -444.60593907615112 -371.73529220597993 0 -371.73529220597993 -21.739097223442513 0 0 0 0 -400.40982694348349 -121.26380901577795 0 -121.26380901577795 194.17689138263813 0 0 0 0 -456.93326341043576 -123.77049264752713 0 -123.77049264752713 241.21668414602755 0 0 0 0 -456.95136636885582 66.875520607347426 0 66.875520607347426 131.49540076730773 0 0 0 0 -493.98152264035889 -49.600982925287099 0 -49.600982925287099 274.95553806122916 0 0 0 0 -496.86926427108847 -39.506947366919121 0 -39.506947366919121 253.46400498709409 0 0 0 0 5.0133259518841271 -5.6453391443679948 0 -5.6453391443679948 8.4847179650934095 0 0 0 0 -183.54017462895717 9.0642604063468752 0 9.0642604063468752 148.88084459870151 0 0 0 0 -152.9377609067451 130.22681049169478 0 130.22681049169478 145.3527445832151 0 0 0 0 -125.58646588464762 19.111701071509742 0 19.111701071509742 93.290656341647264 0 0 0 0 -205.85737889161464 65.621189869147202 0 65.621189869147202 45.802087149917497 0 0 0 0 -516.74013444419688 197.91205078265193 0 197.91205078265193 -10.475447267723212 0 0 0 0 -537.11410170511135 20.513081802281249 0 20.513081802281249 27.34176458948059 0 0 0 0 -370.54595276663531 -200.0042524196233 0 -200.0042524196233 -1557.3245088869444 0 0 0 0 -365.24817571063068 -116.87412199450227 0 -116.87412199450227 -319.45850695579429 0 0 0 0 -401.05522547051078 -469.93212149773899 0 -469.93212149773899 -649.74704934177862 0 0 0 0 -16.303625954482413 -166.34900265210308 0 -166.34900265210308 -354.78178720829601 0 0 0 0 -313.76477646324929 -187.34444005602199 0 -187.34444005602199 30.202753328892868 0 0 0 0 -281.1686392116244 -199.65554107191565 0 -199.65554107191565 -249.0787918173155 0 0 0 0 -81.127993146757944 90.004078405749169 0 90.004078405749169 -377.51770103306626 0 0 0 0 -53.003520134880091 -11.392430690524634 0 -11.392430690524634 -35.754034306253743 0 0 0 0 126.7301665986306 35.239000033587217 0 35.239000033587217 -152.52146170425112 0 0 0 0 -15.026870210673437 -50.485320480254131 0 -50.485320480254131 23.717908372078625 0 0 0 0 301.05797373993119 -101.42784903331631 0 -101.42784903331631 -81.499600646362524 0 0 0 0 296.31128808669746 -114.99871796007938 0 -114.99871796007938 36.350015894218814 0 0 0 0 14.544270897330051 -7.1382512707851333 0 -7.1382512707851333 3.2150682687536118 0 0 0 0 159.53665140175144 -122.30564558767946 0 -122.30564558767946 74.252565223432612 0 0 0 0 141.86679070717764 -40.545135332331483 0 -40.545135332331483 81.876771329232724 0 0 0 0 187.83282386205974 -46.210582451421942 0 -46.210582451421942 18.395074469561223 0 0 0 0 82.340627746845712 -203.19640372155118 0 -203.19640372155118 94.854454883068684 0 0 0 0 -17.793799145139928 -158.64719982830866 0 -158.64719982830866 -2.2615108137979405 0 0 0 0 112.74025999917649 -170.22764064544754 0 -170.22764064544754 -164.7844342009339 0 0 0 0 79.193314419139824 -174.45917568649111 0 -174.45917568649111 -85.331932404631516 0 0 0 0 -74.707972398908169 -319.19957386021269 0 -319.19957386021269 53.79564287464018 0 0 0 0 -26.336102523223502 -48.110505509920955 0 -48.110505509920955 57.840181322286185 0 0 0 0 -28.836985862726578 -101.66725105510341 0 -101.66725105510341 129.98298016513218 0 0 0 0 127.11327527119283 -221.49370828003885 0 -221.49370828003885 46.793094633409055 0 0 0 0 36.586206011471234 -95.949052962605606 0 -95.949052962605606 31.531624755693642 0 0 0 0 23.539304211415583 -159.81847993428528 0 -159.81847993428528 312.11283073114464 0 0 0 0 -4.4471143523961132 -13.023205558809764 0 -13.023205558809764 2.770675677375948 0 0 0 0 -625.60799288512499 -128.29849133567768 0 -128.29849133567768 125.08308148755896 0 0 0 0 -261.87872561530094 -705.16249319056806 0 -705.16249319056806 -911.05076868689503 0 0 0 0 -880.15427597220696 -1105.006280635469 0 -1105.006280635469 -994.11701666416775 0 0 0 0 1.9408203361247729 5.5739915191766727 0 5.5739915191766727 -3.0189479292534998 0 0 0 0 -893.46740158546891 -1090.8644597310995 0 -1090.8644597310995 -968.40604528874974 0 0 0 0 -341.25503851547546 -477.1676036426943 0 -477.1676036426943 -1081.7802287185914 0 0 0 0 -343.68397620531641 -341.5704684223499 0 -341.5704684223499 -448.73475725966273 0 0 0 0 -541.47299581102561 -571.45197159398231 0 -571.45197159398231 -510.99769869111333 0 0 0 0 -692.10088536611602 -734.67122781425951 0 -734.67122781425951 -254.55970266420627 0 0 0 0 -856.88087956928211 -944.61007163521572 0 -944.61007163521572 -423.23988720535999 0 0 0 0 -693.68709976119862 -708.42717612590059 0 -708.42717612590059 -170.26239062516834 0 0 0 0 -567.55682858516229 -665.16851746402972 0 -665.16851746402972 -249.83128744630085 0 0 0 0 -741.47050270602631 -720.45530619152123 0 -720.45530619152123 -209.00304537950433 0 0 0 0 -678.26719962550305 -659.73279055244711 0 -659.73279055244711 -312.26268715737388 0 0 0 0 -674.31737536659239 -686.58627120649362 0 -686.58627120649362 -186.31831629836233 0 0 0 0 -580.15970294304134 -635.07060072519926 0 -635.07060072519926 -79.657218439737335 0 0 0 0 -227.50923746793706 -83.026354291811003 0 -83.026354291811003 769.10599574978914 0 0 0 0 -1145.0552110539138 -1315.8109750397271 0 -1315.8109750397271 98.863066305531902 0 0 0 0 -208.7336194444797 -1051.5808506601024 0 -1051.5808506601024 1962.815843255552 0 0 0 0 -230.71134230907774 242.70929084518866 0 242.70929084518866 2023.5909102850419 0 0 0 0 21.098363991192599 -13.043309350470821 0 -13.043309350470821 7.946516448208655 0 0 0 0 757.20542215636897 -1590.6223151969016 0 -1590.6223151969016 173.84629479178693 0 0 0 0 -24.010287599085132 -135.68849443463841 0 -135.68849443463841 1098.6575152669247 0 0 0 0 36.519835001920001 -237.54046993450902 0 -237.54046993450902 519.92823599747499 0 0 0 0 -22.986069394479273 -137.7318405235419 0 -137.7318405235419 708.75763213532628 0 0 0 0 244.11161724225349 90.553509832710915 0 90.553509832710915 439.44154401664855 0 0 0 0 279.22531976451864 311.9491194045986 0 311.9491194045986 850.71892997785471 0 0 0 0 -411.27180474219494 -696.54595228961261 0 -696.54595228961261 -1561.9606851878634 0 0 0 0 -1.2324927009455848 -0.08788986835219248 0 -0.08788986835219248 -1.228700823119766 0 0 0 0 19.655748791495171 1060.4092444327789 0 1060.4092444327789 312.06348188944685 0 0 0 0 -635.7008972359472 -1509.3520286096027 0 -1509.3520286096027 -1946.2088015693444 0 0 0 0 -1537.4706308606983 -1439.6035470722127 0 -1439.6035470722127 -855.02025995314762 0 0 0 0 0.60886402146275032 -45.89650078917407 0 -45.89650078917407 -58.708552794113871 0 0 0 0 -418.36355630301114 -519.1180153630994 0 -519.1180153630994 -544.16500233214174 0 0 0 0 -915.31261733343126 -246.02045143065334 0 -246.02045143065334 -305.08865475296625 0 0 0 0 119.31398167052976 -266.0815284092314 0 -266.0815284092314 152.37890019957558 0 0 0 0 18.478183737795916 -161.29271470471576 0 -161.29271470471576 82.97226726631925 0 0 0 0 98.194282809083234 -111.9420502121211 0 -111.9420502121211 140.35144119923461 0 0 0 0 -34.665614644458401 -271.08130756473838 0 -271.08130756473838 -50.251662750524702 0 0 0 0 -97.500509522564244 -204.82619411586347 0 -204.82619411586347 -87.611654050735524 0 0 0 0 -4296.2611327664927 -1605.0875194159162 0 -1605.0875194159162 1852.1000949446461 0 0 0 0 -4.8262247684102988 -8.0703979657236573 0 -8.0703979657236573 -23.799192085835159 0 0 0 0 769.28928406386694 -512.96406704739638 0 -512.96406704739638 -350.79404426697874 0 0 0 0 -972.17950406997988 -366.73935336883005 0 -366.73935336883005 -328.58473459181187 0 0 0 0 -230.50807451155561 -982.19235372054391 0 -982.19235372054391 -564.34091944854299 0 0 0 0 798.99529556516791 -303.7596412517305 0 -303.7596412517305 -2534.4158818240394 0 0 0 0 -282.6813190078683 9.825279193391907 0 9.825279193391907 -140.50501854930189 0 0 0 0 -2140.6780718147929 1049.8599854675413 0 1049.8599854675413 -643.00286849687109 0 0 0 0 -2641.9916351173215 -851.5110682452887 0 -851.5110682452887 -45.019575396057917 0 0 0 0 -889.80127543440904 -713.55298440229672 0 -713.55298440229672 -36.04273932093929 0 0 0 0 -1620.1070390114692 131.01779836833884 0 131.01779836833884 136.26753242767882 0 0 0 0 -167.44438356552564 -403.27755410836835 0 -403.27755410836835 -292.2634989815997 0 0 0 0 -608.26791927824524 -499.95951733864786 0 -499.95951733864786 58.363269215711625 0 0 0 0 -535.13491114887438 -572.26586300317285 0 -572.26586300317285 -147.57617529385607 0 0 0 0 -557.00013902716091 -418.53489071744843 0 -418.53489071744843 100.96313451658352 0 0 0 0 -622.96637726348126 -499.18499051783874 0 -499.18499051783874 58.489097019661131 0 0 0 0 -838.59788207279053 -244.1190130463583 0 -244.1190130463583 191.30335554547491 0 0 0 0 -459.21494293936121 -125.28149172964913 0 -125.28149172964913 127.77149553588242 0 0 0 0 -147.67299253528472 -251.09689992893982 0 -251.09689992893982 7.2216080013895407 0 0 0 0 -236.3091614608129 -93.345327372022439 0 -93.345327372022439 55.957328552809486 0 0 0 0 -455.4455186475825 -133.87470805361227 0 -133.87470805361227 116.35042628546944 0 0 0 0 15.868590610480169 -31.583196110586869 0 -31.583196110586869 -79.290832568396581 0 0 0 0 35.958061889174132 -249.08091987245643 0 -249.08091987245643 705.20540320669534 0 0 0 0 277.63857089096564 -521.26533264957834 0 -521.26533264957834 250.43254323047586 0 0 0 0 -140.40692820295226 120.85652311173908 0 120.85652311173908 -352.90101913781837 0 0 0 0 92.724388762637318 -368.84951703045044 0 -368.84951703045044 306.29328950762283 0 0 0 0 -8.4338478747667978 -232.97193449642509 0 -232.97193449642509 531.08046469265537 0 0 0 0 81.735144198830312 -429.81138398621624 0 -429.81138398621624 584.51626013749046 0 0 0 0 58.590423289482715 -217.56822748112609 0 -217.56822748112609 394.75848535486148 0 0 0 0 34.19047098740748 -353.01847478517266 0 -353.01847478517266 258.6383328262018 0 0 0 0 -12.13406931424106 -303.42978380929708 0 -303.42978380929708 281.5292840480688 0 0 0 0 -80.259539008387947 -181.81422426895006 0 -181.81422426895006 41.896492148833204 0 0 0 0 93.083248558061314 -258.36405571331852 0 -258.36405571331852 18.083511415490648 0 0 0 0 1.4535386015995755 -273.76113223618449 0 -273.76113223618449 -36.002091777219903 0 0 0 0 -72.438534729950334 -293.53094827701716 0 -293.53094827701716 -70.61052639290574 0 0 0 0 -136.84000900141837 -217.69403295216034 0 -217.69403295216034 -1.5419838928501122 0 0 0 0 -8.2753033077678992 -238.8817319825539 0 -238.8817319825539 -37.129602338740369 0 0 0 0 -471.08203159735422 -253.9369221033412 0 -253.9369221033412 99.877031263604295 0 0 0 0 -259.83049500620109 -303.93377861833869 0 -303.93377861833869 26.449382538208738 0 0 0 0 -330.45467231010844 -249.89426383807586 0 -249.89426383807586 92.246474685234716 0 0 0 0 -283.1370869139937 -304.88578652944852 0 -304.88578652944852 26.499276088800343 0 0 0 0 -161.89677891776955 -389.78379059625513 0 -389.78379059625513 -29.180825865623774 0 0 0 0 -24.551351363261347 -296.69435422159586 0 -296.69435422159586 -70.40375861825305 0 0 0 0 -41.611484361339535 -348.34803747410479 0 -348.34803747410479 -49.75423197006603 0 0 0 0 -244.18540502496762 -464.15550187732515 0 -464.15550187732515 0.021075155629660003 0 0 0 0 -41.230168489163589 -353.54944232870457 0 -353.54944232870457 20.495185923558893 0 0 0 0 -644.37667519657407 -348.54660189096467 0 -348.54660189096467 38.102995408786228 0 0 0 0 -311.87584714449986 -349.99438701206964 0 -349.99438701206964 -2.6918480243039085 0 0 0 0 -483.14376338472357 -463.03005192745331 0 -463.03005192745331 0.19772762237889874 0 0 0 0 -455.23739519172523 -418.15777732968127 0 -418.15777732968127 46.860641072038561 0 0 0 0 -474.03677444616915 -364.43297565240937 0 -364.43297565240937 74.539645408469369 0 0 0 0 -573.41009428008692 -441.28779884849791 0 -441.28779884849791 42.707686057992305 0 0 0 0 -565.63983296079095 -399.00976787187392 0 -399.00976787187392 118.12459682405461 0 0 0 0 -302.18205178117933 -351.38407266062495 0 -351.38407266062495 49.748919521982316 0 0 0 0 -435.97636434754531 -360.26091796487162 0 -360.26091796487162 62.1523574930834 0 0 0 0 -527.92033711163094 -306.51804870217893 0 -306.51804870217893 132.66522658403846 0 0 0 0 -460.24371732540385 -281.0696612776992 0 -281.0696612776992 139.50805152978864 0 0 0 0 -529.63914298805321 -395.10095113986608 0 -395.10095113986608 108.78500948200235 0 0 0 0 -557.32190186718799 -386.29836793708819 0 -386.29836793708819 130.16632727248361 0 0 0 0 -460.85697882567183 -345.4550749074333 0 -345.4550749074333 108.6525838084417 0 0 0 0 -506.53890362417587 -234.51584073982667 0 -234.51584073982667 110.33060245648812 0 0 0 0 -764.83518752313103 -119.96745121045387 0 -119.96745121045387 138.3556241044862 0 0 0 0 -364.10997250873788 -194.36878010881219 0 -194.36878010881219 110.69753435297753 0 0 0 0 -654.64547684288118 -380.69420740061469 0 -380.69420740061469 112.35912174909026 0 0 0 0 -570.32676156817433 -348.6230265054819 0 -348.6230265054819 119.38147258656682 0 0 0 0 -619.6667274010324 -345.20186163182734 0 -345.20186163182734 77.146145860402612 0 0 0 0 -419.97113754430029 -10.471790813920961 0 -10.471790813920961 96.660550133718061 0 0 0 0 -0.41543242936376146 -1.4462993174140024 0 -1.4462993174140024 -5.1045924954548809 0 0 0 0 -1331.3632146970776 192.13989093540295 0 192.13989093540295 51.747312368475832 0 0 0 0 -687.50084731274546 -476.35822815955362 0 -476.35822815955362 -0.69830149349581916 0 0 0 0 -1017.0300283953184 -408.15185415495216 0 -408.15185415495216 102.89797850780451 0 0 0 0 55.231795848201727 -135.45317528968008 0 -135.45317528968008 0.01033109518175479 0 0 0 0 148.45503473394638 -65.390918916646115 0 -65.390918916646115 38.211325805372326 0 0 0 0 181.82281195977703 -112.95584337307082 0 -112.95584337307082 0.096576725586868611 0 0 0 0 184.37307217928901 -193.32142883362394 0 -193.32142883362394 35.103673006218742 0 0 0 0 -4.5350989754880118 -6.2255648339558434 0 -6.2255648339558434 -7.593091048867791 0 0 0 0 -350.79192372876514 -25.458320199026502 0 -25.458320199026502 63.054651709462632 0 0 0 0 -328.59226240315911 -57.691501377266832 0 -57.691501377266832 45.941633211681619 0 0 0 0 -278.99026624290855 -80.864302182773827 0 -80.864302182773827 60.590347637145896 0 0 0 0 -64.660628596771858 -51.450806424181792 0 -51.450806424181792 29.722860823036171 0 0 0 0 -28.131609540097998 -98.132352644934144 0 -98.132352644934144 43.574563558577211 0 0 0 0 -7.7218918470136373 -7.2897819242929813 0 -7.2897819242929813 -10.292109715542324 0 0 0 0 -31.546347358218554 -37.075958143254411 0 -37.075958143254411 46.322375717543764 0 0 0 0 53.236009556545469 -77.779704611224588 0 -77.779704611224588 52.821705540802213 0 0 0 0 -59.062727947162784 -40.190302753388096 0 -40.190302753388096 136.17648313981772 0 0 0 0 -0.51354271337913815 -92.461073252750793 0 -92.461073252750793 36.517515053790703 0 0 0 0 -204.96659050216113 -160.28743156545534 0 -160.28743156545534 49.343384969761246 0 0 0 0 -38.292210014242301 -108.60787825871421 0 -108.60787825871421 32.749859253468458 0 0 0 0 -286.68736193157861 -233.93276550768405 0 -233.93276550768405 33.843958325189305 0 0 0 0 -175.15503378176072 -182.31744184286799 0 -182.31744184286799 50.008473211379169 0 0 0 0 -298.89551220784779 -400.53080425025837 0 -400.53080425025837 -25.087426299389335 0 0 0 0 -154.84570256849111 -181.95822758038412 0 -181.95822758038412 -7.1040107987028023 0 0 0 0 -333.00926613221964 -346.10385615917403 0 -346.10385615917403 -37.013395513145952 0 0 0 0 -103.28923794632101 -85.02803117455278 0 -85.02803117455278 125.31514308460464 0 0 0 0 -87.557491865189149 -202.79912601328033 0 -202.79912601328033 -9.3891601513605565 0 0 0 0 -118.91957638236636 -118.73745733538817 0 -118.73745733538817 127.35433997775544 0 0 0 0 6.9551883489402826 -145.56552843911777 0 -145.56552843911777 132.75937654958398 0 0 0 0 -61.693150931710989 -59.649560251866205 0 -59.649560251866205 229.96439683901554 0 0 0 0 24.470386723187403 -96.430937984237971 0 -96.430937984237971 123.73115702281939 0 0 0 0 20.865540105599962 -84.938851697962491 0 -84.938851697962491 38.230104783267791 0 0 0 0 -13.672116242843913 0.017097954652854241 0 0.017097954652854241 237.94270466324451 0 0 0 0 3.8623572514161992 -77.457598301009625 0 -77.457598301009625 33.185966244489379 0 0 0 0 26.864882829155249 -63.557879296888132 0 -63.557879296888132 142.52365008986817 0 0 0 0 71.268923272400571 -86.390286646208551 0 -86.390286646208551 111.28661434917012 0 0 0 0 47.154886657008319 -88.285926715099777 0 -88.285926715099777 49.256055360299797 0 0 0 0 7.2799537636243752 -53.788262324483583 0 -53.788262324483583 86.068439941404733 0 0 0 0 8.9508466048573609 -47.842999893888191 0 -47.842999893888191 225.11864883857197 0 0 0 0 -109.51130363131961 -106.58865972820422 0 -106.58865972820422 23.23586344125215 0 0 0 0 -22.129769081737777 -87.635864425230352 0 -87.635864425230352 52.92053198580696 0 0 0 0 432.71932307165116 -74.011604774754232 0 -74.011604774754232 -342.52197099896148 0 0 0 0 -256.28716452709341 -249.42035918482816 0 -249.42035918482816 389.25319788299385 0 0 0 0 6.4733569164818618 54.766430263603979 0 54.766430263603979 204.04369756710366 0 0 0 0 9.1571534052549168 -23.770152286443306 0 -23.770152286443306 -0.18434344078809772 0 0 0 0 88.270622902658943 -96.589387825089943 0 -96.589387825089943 -7.6881816513923695 0 0 0 0 85.069008247718841 -43.313517298028628 0 -43.313517298028628 10.899518616078481 0 0 0 0 21.567551913143802 -26.276932197635915 0 -26.276932197635915 22.300256708033658 0 0 0 0 91.99940452231931 -73.207859413843977 0 -73.207859413843977 33.483222870529247 0 0 0 0 226.24807810351922 -53.501131846338467 0 -53.501131846338467 271.01617231477576 0 0 0 0 486.55874363065232 -458.50654930624296 0 -458.50654930624296 390.47801925816748 0 0 0 0 574.49928439612268 -665.9847969521943 0 -665.9847969521943 643.18627814713545 0 0 0 0 49.702477609840571 -63.043740146968048 0 -63.043740146968048 91.399227576977864 0 0 0 0 -1.0203681159103422 -25.860659523297215 0 -25.860659523297215 74.201812644809877 0 0 0 0 -13.061025574097584 -120.0127069167429 0 -120.0127069167429 105.91492387188191 0 0 0 0 1.8136064745116869 -17.522818358814845 0 -17.522818358814845 -1.4945578240934196 0 0 0 0 72.342409742748714 -17.538287059796858 0 -17.538287059796858 7.9654079920655931 0 0 0 0 119.19946662345319 -207.05604465139186 0 -207.05604465139186 91.530982273165137 0 0 0 0 4.8258644023355721 -22.692272334633657 0 -22.692272334633657 46.747657583928742 0 0 0 0 -193.8689520817934 -76.565385321635404 0 -76.565385321635404 119.82079868053552 0 0 0 0 35.729158109112177 -43.061215395697218 0 -43.061215395697218 105.69983103882805 0 0 0 0 -177.17225244265865 -16.343899050436448 0 -16.343899050436448 41.604305729160842 0 0 0 0 10.034901014296338 -99.148224352829857 0 -99.148224352829857 -16.12512672925368 0 0 0 0 -301.14188269193346 -88.626245308843863 0 -88.626245308843863 81.155235697224271 0 0 0 0 6.1405750283193754 -8.3059520513962184 0 -8.3059520513962184 15.610610732635678 0 0 0 0 -143.18562082257995 -125.41958706135483 0 -125.41958706135483 -0.082490010376204737 0 0 0 0 18.998713710607262 -32.967010178545024 0 -32.967010178545024 -20.021046573790954 0 0 0 0 3122.1557573136815 -2891.8910259712975 0 -2891.8910259712975 1.2582997556601185 0 0 0 0 6206.6299667316134 -1771.7938885091826 0 -1771.7938885091826 -67.117680271025165 0 0 0 0 2309.9656354875478 -1597.5056755959449 0 -1597.5056755959449 206.1524945134006 0 0 0 0 2476.135032648097 -2762.9045850890498 0 -2762.9045850890498 865.73370660872024 0 0 0 0 1219.4428629262402 -766.77022359517287 0 -766.77022359517287 197.9379070644718 0 0 0 0 1199.1169915882799 -1966.8488196307346 0 -1966.8488196307346 1250.0491402674525 0 0 0 0 2551.4593281533748 -1333.2221095636457 0 -1333.2221095636457 432.27544030813442 0 0 0 0 567.61448117565305 -3112.8088815979063 0 -3112.8088815979063 1704.7516834410344 0 0 0 0 -0.70768164271430578 -3671.2118276223082 0 -3671.2118276223082 1814.8798929275144 0 0 0 0 1425.4672240299697 -2989.3077773995828 0 -2989.3077773995828 1185.5745183897525 0 0 0 0 1278.3175113589677 -2401.6844116031425 0 -2401.6844116031425 857.68004646117333 0 0 0 0 1625.3326444910708 -3119.0212534909915 0 -3119.0212534909915 1118.4583725648845 0 0 0 0 1609.1779939643457 -3041.8181037825125 0 -3041.8181037825125 778.34952850640184 0 0 0 0 1171.4885667357157 -3850.0646811984807 0 -3850.0646811984807 -3.1784456436251425 0 0 0 0 492.12214139975549 -2739.9956412696301 0 -2739.9956412696301 3404.1990014481999 0 0 0 0 9.8758991342474953 -3325.3307927973151 0 -3325.3307927973151 3507.5286775682471 0 0 0 0 18.062297568858526 -12.306699010231767 0 -12.306699010231767 10.382069362813738 0 0 0 0 -228.16391483988264 -1127.1097236709102 0 -1127.1097236709102 7015.3500353903364 0 0 0 0 428.18609417612606 -2118.1378527304114 0 -2118.1378527304114 2920.3987249777929 0 0 0 0 639.79900882852962 -1661.9634516852966 0 -1661.9634516852966 1223.5143252740818 0 0 0 0 -57.228070391080109 -486.6350477600572 0 -486.6350477600572 1520.677697145542 0 0 0 0 140.82104056681055 -939.49224641788351 0 -939.49224641788351 2525.2929185800458 0 0 0 0 -200.37524149178353 -1260.0262194846946 0 -1260.0262194846946 2228.10490907653 0 0 0 0 53.614044641109899 -32.889958284033014 0 -32.889958284033014 14.812945956439904 0 0 0 0 31.574604157009162 -131.72822666140928 0 -131.72822666140928 -111.71692335033731 0 0 0 0 34.521939160957118 -73.087489168116008 0 -73.087489168116008 45.542024056630908 0 0 0 0 38.622516296982212 -64.330106736117159 0 -64.330106736117159 -9.055240279994905 0 0 0 0 14.944814972957829 -154.51778698909766 0 -154.51778698909766 9.2254810261147213 0 0 0 0 -0.67753280207398348 -68.00720532660489 0 -68.00720532660489 -14.568439291935647 0 0 0 0 56.37669888426899 -129.65281709015107 0 -129.65281709015107 -297.55022657243899 0 0 0 0 -0.10689701040722696 -176.00806208702997 0 -176.00806208702997 -92.125056020973716 0 0 0 0 -14.672680607312941 -74.380906286161917 0 -74.380906286161917 -52.810701687340043 0 0 0 0 -710.14238892301273 -494.26694617327303 0 -494.26694617327303 132.87996210299025 0 0 0 0 178.91347114213067 -12.381471144468378 0 -12.381471144468378 -248.03210466940072 0 0 0 0 2.2886876029049148 -0.13835871936692001 0 -0.13835871936692001 -7.540591512184676 0 0 0 0 -829.46733719794247 -166.31822837676009 0 -166.31822837676009 -34.119162337414309 0 0 0 0 894.84034699167751 -205.78808603109064 0 -205.78808603109064 -321.70908398920437 0 0 0 0 -25.525324035243102 -115.64059483569156 0 -115.64059483569156 -62.040066219298353 0 0 0 0 -167.49446904781689 19.533020067741745 0 19.533020067741745 -202.89993307294208 0 0 0 0 348.97518711564794 -455.76123519571411 0 -455.76123519571411 -310.25191574059136 0 0 0 0 -315.03487470778146 -263.06529309027246 0 -263.06529309027246 91.214888108886953 0 0 0 0 0.75573127959007813 -25.852838667421977 0 -25.852838667421977 28.299803897104596 0 0 0 0 -176.60232078310082 -87.843383180930687 0 -87.843383180930687 94.509827517351368 0 0 0 0 -465.94112072552798 74.492127264176816 0 74.492127264176816 85.114442812162451 0 0 0 0 2.96115741463605 -5.619565835744595 0 -5.619565835744595 -2.6191326990889365 0 0 0 0 -0.71419446140862419 -125.5726011134102 0 -125.5726011134102 139.99808440814377 0 0 0 0 20.218958935687368 -31.169881874544103 0 -31.169881874544103 -6.6678199775339237 0 0 0 0 0.76133919854873966 -52.632601635203173 0 -52.632601635203173 -5.472887846379308 0 0 0 0 49.105630143643353 -42.473056433645098 0 -42.473056433645098 0.14728265681168295 0 0 0 0 27.775201403553865 -21.393379345681069 0 -21.393379345681069 175.99583381146658 0 0 0 0 12.757368533537374 -78.537993902922608 0 -78.537993902922608 -98.246144360127801 0 0 0 0 15.919413552382196 -91.609237015310157 0 -91.609237015310157 -9.6472713825138499 0 0 0 0 60.503093789618021 -16.572812382062807 0 -16.572812382062807 -21.730797589259907 0 0 0 0 32.245516760853207 -149.05382468455355 0 -149.05382468455355 -40.209009395770408 0 0 0 0 30.206748379448044 -152.26580615763987 0 -152.26580615763987 4.8513149526843335 0 0 0 0 83.252911099692938 -21.892495497988421 0 -21.892495497988421 41.444557839728077 0 0 0 0 93.191381198779709 -67.342240824116743 0 -67.342240824116743 -197.37600809607829 0 0 0 0 -157.68625808863362 -382.93476795712195 0 -382.93476795712195 -353.45011942276324 0 0 0 0 196.69237208941558 -200.1244254914709 0 -200.1244254914709 -508.50586959616339 0 0 0 0 116.07914160451401 -185.9193534032529 0 -185.9193534032529 -216.67595222425734 0 0 0 0 67.291222020345231 -304.70834912484133 0 -304.70834912484133 -496.05121069629968 0 0 0 0 -368.0775199718264 -312.03699129377492 0 -312.03699129377492 -8.6682922376239731 0 0 0 0 -0.3790663641974561 -4.977372933229816 0 -4.977372933229816 -10.447361146737961 0 0 0 0 138.96781947435375 -88.631718253105646 0 -88.631718253105646 -519.42323664220748 0 0 0 0 -24.277768976269726 -205.05537957605702 0 -205.05537957605702 61.185217101012313 0 0 0 0 28.987301553387624 -96.190988112059131 0 -96.190988112059131 40.782155696899281 0 0 0 0 2.0525777894722523 -86.834942684705311 0 -86.834942684705311 62.211435275770782 0 0 0 0 -66.430056302477169 -282.46948672373401 0 -282.46948672373401 -858.85982275554852 0 0 0 0 -459.98743859233014 47.4023770791282 0 47.4023770791282 60.613727116578957 0 0 0 0 419.25750143040079 -77.378995121096523 0 -77.378995121096523 -240.34907908305468 0 0 0 0 -32.829701115296302 72.999959534281516 0 72.999959534281516 86.626530661924335 0 0 0 0 -41.713595830301699 -118.67732537013612 0 -118.67732537013612 -39.750921297590423 0 0 0 0 -51.71221219297604 119.77742040126759 0 119.77742040126759 186.90212253386562 0 0 0 0 -64.421332550017652 -95.61958767564829 0 -95.61958767564829 -76.991451318914187 0 0 0 0 1.9209605570478203 -53.19235023530085 0 -53.19235023530085 18.666479187437915 0 0 0 0 -255.28091495319768 -115.40935615308626 0 -115.40935615308626 -17.177598769136239 0 0 0 0 -76.592015798931243 -64.705266354751075 0 -64.705266354751075 -16.113524719257839 0 0 0 0 -53.107932040607821 -45.399277882734054 0 -45.399277882734054 -3.6794668061968991 0 0 0 0 -50.11243629209639 -41.73100615903968 0 -41.73100615903968 -4.8636208274110686 0 0 0 0 -273.93309376299112 -72.189841951039853 0 -72.189841951039853 -36.551939528551884 0 0 0 0 -32.955148085042396 -25.984001437312941 0 -25.984001437312941 25.22921562017676 0 0 0 0 -61.775996000242806 -28.217425356678945 0 -28.217425356678945 12.162262955284291 0 0 0 0 -244.14349884656258 -64.874215432646452 0 -64.874215432646452 -88.509975125780329 0 0 0 0 -244.48791258256824 -89.015842407286982 0 -89.015842407286982 -33.674312592949718 0 0 0 0 -213.34892364768166 -48.48153625780833 0 -48.48153625780833 -30.362240387890779 0 0 0 0 -61.918988108422951 -71.048078808502197 0 -71.048078808502197 -16.168360587953316 0 0 0 0 -142.35212059766673 -67.068198333559849 0 -67.068198333559849 -9.8350271781091578 0 0 0 0 -87.38534584918456 -17.617694304431822 0 -17.617694304431822 11.953673146373092 0 0 0 0 -85.354751054402243 13.611218510607983 0 13.611218510607983 19.481309456948168 0 0 0 0 -347.95467069762526 -38.411514748382615 0 -38.411514748382615 -82.62398754984315 0 0 0 0 -355.88019566953699 -159.84749903383545 0 -159.84749903383545 82.159860970801674 0 0 0 0 -147.35745653212695 -11.971551980326694 0 -11.971551980326694 60.286812192826517 0 0 0 0 -104.00654861375722 -15.798967125624586 0 -15.798967125624586 14.212937363007399 0 0 0 0 -44.872141740008374 -34.957930900738575 0 -34.957930900738575 -6.9419402238563634 0 0 0 0 -262.08456001446029 -110.6929143134621 0 -110.6929143134621 -43.729833605757449 0 0 0 0 -134.47044029075963 -63.725773839611577 0 -63.725773839611577 6.0639435066825911 0 0 0 0 -267.10795631952533 -112.42611181816756 0 -112.42611181816756 0.42403314786497504 0 0 0 0 -79.637467857155158 -61.032841064957211 0 -61.032841064957211 4.4397816206655421 0 0 0 0 -268.82753939178752 -86.975358688620418 0 -86.975358688620418 -10.818535956845153 0 0 0 0 -269.03169314336628 -79.674072055408033 0 -79.674072055408033 -29.150812450970989 0 0 0 0 -253.2066378668751 -82.996789689146681 0 -82.996789689146681 -34.275168050051434 0 0 0 0 -68.842935013903968 -54.279808616811025 0 -54.279808616811025 -21.064164997219621 0 0 0 0 -14.941616278918445 -62.045269729295256 0 -62.045269729295256 -102.24500990883098 0 0 0 0 -121.94890971246059 -186.0251045274199 0 -186.0251045274199 -54.048913148893917 0 0 0 0 -87.159998105700708 -75.377361117197196 0 -75.377361117197196 -33.72994936637923 0 0 0 0 -112.40568725269986 -77.305001099215588 0 -77.305001099215588 -28.759367700840812 0 0 0 0 2.9293655898880502 -16.54996829502187 0 -16.54996829502187 -1.6420989771217478 0 0 0 0 -60.026114345477254 -93.459815625785268 0 -93.459815625785268 288.35913148443797 0 0 0 0 -218.26320223355287 7.5041915667898138 0 7.5041915667898138 30.12538544263225 0 0 0 0 -19.963303945768232 -13.419394297599965 0 -13.419394297599965 2.5708196308892752 0 0 0 0 -14.874093903898029 -144.10659981592471 0 -144.10659981592471 335.56913133186754 0 0 0 0 -272.45822931280418 83.815467778549646 0 83.815467778549646 17.935089730279287 0 0 0 0 -234.31533912081795 -208.90327556780539 0 -208.90327556780539 23.886124431795906 0 0 0 0 -389.86716548452387 -34.82991361716995 0 -34.82991361716995 96.946391324512661 0 0 0 0 -419.37810586224077 26.057959715981269 0 26.057959715981269 49.08786795080232 0 0 0 0 -499.7872299401497 -90.366967409805511 0 -90.366967409805511 -4.791201947897207 0 0 0 0 -328.54619413544424 -297.60770298345597 0 -297.60770298345597 117.55458077901858 0 0 0 0 -537.09629673539894 -362.47543857520213 0 -362.47543857520213 212.98519295624283 0 0 0 0 -582.63260809671556 -84.144553724181606 0 -84.144553724181606 155.95830984303029 0 0 0 0 -395.92660008682287 -155.69181374149775 0 -155.69181374149775 81.732341091090348 0 0 0 0 -83.519576353457609 -55.585889038451917 0 -55.585889038451917 -2.6737358106434499 0 0 0 0 -323.69532496965257 -107.84643363318173 0 -107.84643363318173 154.67500450423267 0 0 0 0 -279.65561150945723 -29.74342849641107 0 -29.74342849641107 95.674095692244009 0 0 0 0 -211.57883905572817 -170.65439584286651 0 -170.65439584286651 152.77110148919746 0 0 0 0 -172.72178439120762 -70.962492684659082 0 -70.962492684659082 49.683872690133285 0 0 0 0 -266.77096126855758 -66.799514782280312 0 -66.799514782280312 107.21005864650942 0 0 0 0 -323.70948538114317 -32.869198804430198 0 -32.869198804430198 96.762296831824642 0 0 0 0 -358.92909365578089 -96.839998271258082 0 -96.839998271258082 150.75784839798871 0 0 0 0 -350.30192812066525 -94.402647467592033 0 -94.402647467592033 148.45697282324545 0 0 0 0 -351.55513050257287 -85.756963546013139 0 -85.756963546013139 151.58953750750516 0 0 0 0 -367.33319725218462 -84.938196197443176 0 -84.938196197443176 151.7318187848432 0 0 0 0 -130.18524410017562 -107.09357789062778 0 -107.09357789062778 11.827638120972551 0 0 0 0 -193.4387495204719 -125.03603868036225 0 -125.03603868036225 29.232479738886468 0 0 0 0 -125.95388018076483 -104.55648192600347 0 -104.55648192600347 -16.607367435353808 0 0 0 0 -163.28607707457559 -172.16903792830999 0 -172.16903792830999 -76.436404523235979 0 0 0 0 -248.24275625344308 -119.56338243684513 0 -119.56338243684513 -96.472191764783929 0 0 0 0 -135.78507519465347 -207.55497027001547 0 -207.55497027001547 -153.09971575761665 0 0 0 0 -12.778134792963101 -498.73997394210164 0 -498.73997394210164 -435.92146131394111 0 0 0 0 -93.983971475288854 -107.70687914495647 0 -107.70687914495647 -295.55208815509104 0 0 0 0 -78.345111449452816 -222.03870049351826 0 -222.03870049351826 -150.214439637959 0 0 0 0 -259.32349563101161 170.09549884574153 0 170.09549884574153 1297.5254773092602 0 0 0 0 7.4371130660011602 0.35196541765122902 0 0.35196541765122902 0.76540933403936151 0 0 0 0 -85.085741924489412 75.42588338673886 0 75.42588338673886 1006.3071287972853 0 0 0 0 73.560637294445769 -237.08063205431245 0 -237.08063205431245 309.8534995580485 0 0 0 0 2.9343531448633655 -1.0102614955224567 0 -1.0102614955224567 0.16954659886842194 0 0 0 0 -133.97030872758478 -533.33786336171761 0 -533.33786336171761 -777.58129111009475 0 0 0 0 -134.95387145562563 -271.57166868196509 0 -271.57166868196509 -641.91219809496397 0 0 0 0 -192.54490078621893 -320.03885623245151 0 -320.03885623245151 -416.6153865360269 0 0 0 0 -218.34336577790236 -213.99634896145653 0 -213.99634896145653 -368.071958525019 0 0 0 0 -1258.3638955999413 -662.5525509690342 0 -662.5525509690342 136.38060106427292 0 0 0 0 -1134.2562505844398 -184.6464499355352 0 -184.6464499355352 378.05558000557357 0 0 0 0 -554.25190956116421 120.4921395436977 0 120.4921395436977 -466.59099610152771 0 0 0 0 -540.32285998982843 -779.58017239376204 0 -779.58017239376204 -552.86486751277698 0 0 0 0 -582.14851851609637 -679.92823910352126 0 -679.92823910352126 188.07225162314717 0 0 0 0 -451.387540372285 107.4129002241225 0 107.4129002241225 169.38171660364605 0 0 0 0 58.505581720848568 -166.625260366578 0 -166.625260366578 173.67036141463905 0 0 0 0 -214.37956972312531 -437.92658820909855 0 -437.92658820909855 -108.92532102717087 0 0 0 0 -305.67550987232244 -211.89976791122172 0 -211.89976791122172 386.1572781772411 0 0 0 0 -643.62695513493964 -608.80587598253624 0 -608.80587598253624 9.2546536450172425 0 0 0 0 -354.50379925104062 -394.11094275817595 0 -394.11094275817595 -313.0671911444515 0 0 0 0 -262.82297406998259 -528.72904456238757 0 -528.72904456238757 -419.03499651569291 0 0 0 0 -277.1944713765406 -533.04971986876626 0 -533.04971986876626 -63.706751193836681 0 0 0 0 -284.43534626727342 -344.36948670155834 0 -344.36948670155834 -316.51751420792834 0 0 0 0 -1.952576234687502 -2.7048988955996549 0 -2.7048988955996549 -10.634362961350462 0 0 0 0 -864.6288623010405 -190.29508813378197 0 -190.29508813378197 -112.34501630289014 0 0 0 0 1008.8259780248627 -29.292085600285645 0 -29.292085600285645 -172.91367930074921 0 0 0 0 -160.3018253867267 -186.99855961180219 0 -186.99855961180219 -201.09125122822297 0 0 0 0 363.70780930002547 -105.97720999505327 0 -105.97720999505327 -87.772429547185311 0 0 0 0 19.834899615542593 -11.247165783613568 0 -11.247165783613568 -32.076494187412834 0 0 0 0 -367.86526485289505 -118.56405547442409 0 -118.56405547442409 -172.41443650846486 0 0 0 0 -257.99116790217522 -304.46370055939769 0 -304.46370055939769 -261.87673960725078 0 0 0 0 -157.02815573793487 -225.9407734618726 0 -225.9407734618726 -239.84867782589572 0 0 0 0 -236.55298863036296 -223.43469391859253 0 -223.43469391859253 -102.58032204284973 0 0 0 0 -165.18049962584337 -250.55319581957883 0 -250.55319581957883 -169.08321616892681 0 0 0 0 -104.20980297890492 -93.557693331153132 0 -93.557693331153132 -30.175335587962763 0 0 0 0 -2.4913371151104116 -16.651873349084127 0 -16.651873349084127 1.4920436194822884 0 0 0 0 134.37250206288314 -106.14544819317024 0 -106.14544819317024 -8.9732115171372584 0 0 0 0 -237.97888855100791 -324.20916785459758 0 -324.20916785459758 -206.90573506220244 0 0 0 0 -177.81228096610721 -320.06622013702145 0 -320.06622013702145 -362.1261408158025 0 0 0 0 -209.3098942407305 -264.04367122117401 0 -264.04367122117401 -215.59351967259136 0 0 0 0 -211.16825436135696 -371.07285951857921 0 -371.07285951857921 -230.19500140922173 0 0 0 0 -162.49166001551202 -278.23298459094076 0 -278.23298459094076 -302.43007005381878 0 0 0 0 -239.40887319049216 -362.78571479476523 0 -362.78571479476523 -347.69799020704522 0 0 0 0 -218.73829499183921 -269.21037456921113 0 -269.21037456921113 -162.46432494676264 0 0 0 0 -12.30812176478139 -252.9424114159774 0 -252.9424114159774 -230.7399958488968 0 0 0 0 -244.13332873792388 -314.37645931875886 0 -314.37645931875886 -114.79984436590166 0 0 0 0 -273.2829738764558 -333.76798464507738 0 -333.76798464507738 -111.83411249716119 0 0 0 0 -277.34999265054284 -332.28457455837633 0 -332.28457455837633 -34.384105406352319 0 0 0 0 -368.06502458013711 -76.232231310625139 0 -76.232231310625139 -191.23033199634665 0 0 0 0 -306.50995067390613 -243.43253734016253 0 -243.43253734016253 52.14044679718063 0 0 0 0 -451.01700263613748 -156.78595988949382 0 -156.78595988949382 311.49267303062879 0 0 0 0 -115.94409991050634 -530.84212355310592 0 -530.84212355310592 134.69537066697376 0 0 0 0 205.04893784774322 -422.10935888992026 0 -422.10935888992026 -483.55277825484518 0 0 0 0 149.91386143896671 -432.36090919965136 0 -432.36090919965136 76.271454338624608 0 0 0 0 -202.60749455641781 -317.89552225819352 0 -317.89552225819352 -325.58968169949003 0 0 0 0 46.109782039044369 -91.144218339513088 0 -91.144218339513088 -2.6775560301537382 0 0 0 0 71.993187258689431 -131.20122039307171 0 -131.20122039307171 -37.103061609726865 0 0 0 0 -45.686229160950461 -113.27814291204413 0 -113.27814291204413 85.583384948142339 0 0 0 0 -10.431528235584665 -188.4135099573723 0 -188.4135099573723 100.95032310776878 0 0 0 0 -27.991090421582435 -9.4917773340130083 0 -9.4917773340130083 4.2490201678301105 0 0 0 0 -1.9997761892154813 -334.57040117218276 0 -334.57040117218276 370.51199871982317 0 0 0 0 -50.371807410367182 -21.957364833906468 0 -21.957364833906468 481.2039667834033 0 0 0 0 -51.136347972395015 -86.696386469644494 0 -86.696386469644494 18.453192013541411 0 0 0 0 6.4979725423650621 0.85458289673002241 0 0.85458289673002241 -2.8523001994742714 0 0 0 0 10.648702708280325 -189.4563099320585 0 -189.4563099320585 0.75838898459915072 0 0 0 0 22.654380043473793 -167.11457819871066 0 -167.11457819871066 -74.896984050574247 0 0 0 0 186.37001511218841 -317.53836469943053 0 -317.53836469943053 -227.26012554852787 0 0 0 0 38.283610727973596 3.0636094470744411 0 3.0636094470744411 -0.3017770243124005 0 0 0 0 55.625883655753569 -209.08852849002869 0 -209.08852849002869 -252.67331355634815 0 0 0 0 86.534401434564643 10.431040998650133 0 10.431040998650133 39.454567831511667 0 0 0 0 218.5690249700092 -121.90558321401113 0 -121.90558321401113 -137.53327980436734 0 0 0 0 79.323454030856396 -81.29320108020211 0 -81.29320108020211 -10.862737447480754 0 0 0 0 -1.493809030300099 -21.206350138182643 0 -21.206350138182643 42.968078263103962 0 0 0 0 30.191978787570861 -259.61337055280728 0 -259.61337055280728 52.72748849481286 0 0 0 0 -30.05416177232928 -286.86534202280927 0 -286.86534202280927 -49.214815627870848 0 0 0 0 -81.582139167445348 -179.90907298107777 0 -179.90907298107777 -3.4314468840966583 0 0 0 0 70.605551657863543 -201.77599334710249 0 -201.77599334710249 16.858830399774888 0 0 0 0 163.56458015434328 -219.77784603334294 0 -219.77784603334294 -113.05418944005942 0 0 0 0 -23.402983050103522 -123.52717356258272 0 -123.52717356258272 -51.090049051038449 0 0 0 0 -27.123633147522014 -174.79057826588542 0 -174.79057826588542 17.17879106428154 0 0 0 0 -32.107731351195298 -180.20597824445758 0 -180.20597824445758 12.572492769410019 0 0 0 0 -38.385246900066704 -186.94284706815961 0 -186.94284706815961 153.74087812913058 0 0 0 0 -30.074450630684623 -192.92268081717339 0 -192.92268081717339 86.40152553585358 0 0 0 0 2.8865319223623374 -146.25329444042291 0 -146.25329444042291 2.2371947048741276 0 0 0 0 0.28933946721008397 -121.09691751020728 0 -121.09691751020728 114.94649885752006 0 0 0 0 49.03718120033227 -182.47805930346658 0 -182.47805930346658 -91.208102682212484 0 0 0 0 4.6545804626803147 -196.78503916083719 0 -196.78503916083719 -92.829192174862328 0 0 0 0 3.0891673636433552 -164.12841288052732 0 -164.12841288052732 -123.34069058881141 0 0 0 0 2.3056678277596347 -142.48763319376076 0 -142.48763319376076 -88.826651250768919 0 0 0 0 4.861754825389653 -151.0798807987594 0 -151.0798807987594 -115.88215596662485 0 0 0 0 -13.492385815901798 -161.87025236748741 0 -161.87025236748741 -79.777248178084847 0 0 0 0 -11.598930957516131 -157.58010285140335 0 -157.58010285140335 -84.125526608404471 0 0 0 0 -8.1521610362979118 -136.31851928631659 0 -136.31851928631659 4.2063332168509078 0 0 0 0 -15.035179742855689 -165.00851482841972 0 -165.00851482841972 -48.843435791990487 0 0 0 0 -14.321670416247798 -145.66000651226204 0 -145.66000651226204 -57.350854939868441 0 0 0 0 -15.859984386885117 -148.59118617088689 0 -148.59118617088689 -47.097750797664048 0 0 0 0 7.9146742972961874 -163.70492192528764 0 -163.70492192528764 -40.573954123283329 0 0 0 0 -36.483483095558768 -168.60946501191938 0 -168.60946501191938 -56.382294590337551 0 0 0 0 -55.146911423507845 -119.11610418968485 0 -119.11610418968485 -72.093282794521656 0 0 0 0 -19.274647099036883 -161.26761678065668 0 -161.26761678065668 -82.377158731134841 0 0 0 0 -36.330158542608842 -148.7634658132738 0 -148.7634658132738 -90.265993716398953 0 0 0 0 -34.69568488758523 -181.15306208361289 0 -181.15306208361289 -100.20533472107491 0 0 0 0 -48.160990409687656 -181.41098016888282 0 -181.41098016888282 -121.26534215205174 0 0 0 0 -135.2576099403509 -125.1073618798182 0 -125.1073618798182 15.582460186502431 0 0 0 0 -58.342918894043208 -67.567915983691165 0 -67.567915983691165 60.939432740772148 0 0 0 0 27.252108904454175 -82.523864528922644 0 -82.523864528922644 -72.366750515679541 0 0 0 0 -130.49205117183192 -129.83250878988474 0 -129.83250878988474 -71.681767003996356 0 0 0 0 -103.0441188139921 -166.6112493259352 0 -166.6112493259352 -94.571732756234269 0 0 0 0 305.59580750529858 -87.339371111957007 0 -87.339371111957007 79.737066218131076 0 0 0 0 7.7428702266670371 -265.32903249637457 0 -265.32903249637457 42.77175972790792 0 0 0 0 -5.5564856391824096 -124.70504874003051 0 -124.70504874003051 -72.312593005118742 0 0 0 0 40.232474337761232 -11.900388352449227 0 -11.900388352449227 -48.161099267199461 0 0 0 0 69.829898785331252 -40.343236641347858 0 -40.343236641347858 -16.511056008398356 0 0 0 0 32.855636003303516 -115.74106079227931 0 -115.74106079227931 -119.20769158517942 0 0 0 0 30.015908501219883 -36.867876882072082 0 -36.867876882072082 2.3879625136674463 0 0 0 0 -2.4436940491868882 -99.800161524224677 0 -99.800161524224677 -68.769652386428788 0 0 0 0 56.818854157142894 -60.769839396019243 0 -60.769839396019243 -9.3328084268752605 0 0 0 0 19.146072498248031 -114.94813420496757 0 -114.94813420496757 -74.004188396138488 0 0 0 0 132.62575837142504 -139.19131221963835 0 -139.19131221963835 -121.30728871238898 0 0 0 0 72.355834078167391 -80.410432349006442 0 -80.410432349006442 -49.120898009488883 0 0 0 0 53.10810731723177 -136.62977214207058 0 -136.62977214207058 -148.35173917887005 0 0 0 0 -85.688020649824466 -122.26906755450182 0 -122.26906755450182 -68.550945672803209 0 0 0 0 -13.770598979166607 -188.61405258794912 0 -188.61405258794912 -134.93276645177684 0 0 0 0 7.9454104295109573 -125.02748204824456 0 -125.02748204824456 -14.723182284964423 0 0 0 0 -23.469602699099795 -120.73183273783252 0 -120.73183273783252 -30.642580509418934 0 0 0 0 89.824146808525256 -166.27476428665977 0 -166.27476428665977 -71.660241660312749 0 0 0 0 -165.72497325067525 -128.89347439489211 0 -128.89347439489211 -12.805513594132208 0 0 0 0 -206.77782434803339 -201.11040500983472 0 -201.11040500983472 -101.29668851128372 0 0 0 0 -371.08574111768394 -119.04739654670993 0 -119.04739654670993 -77.573067626446573 0 0 0 0 -363.00477509639677 -91.852799406304257 0 -91.852799406304257 -21.645451748830965 0 0 0 0 -511.48033717542057 -78.865458504042181 0 -78.865458504042181 -23.848589202349103 0 0 0 0 924.06162145395319 38.765081780489709 0 38.765081780489709 -637.37585150712403 0 0 0 0 -18.528477422117504 -76.290702275594711 0 -76.290702275594711 -81.001729868289544 0 0 0 0 -461.0711334621883 -716.30790649159462 0 -716.30790649159462 -82.356626501554274 0 0 0 0 -914.63235768920276 -160.12488591826695 0 -160.12488591826695 510.99695727482322 0 0 0 0 504.83831911731249 294.89373040806822 0 294.89373040806822 78.052259638585383 0 0 0 0 -382.23397847060369 -130.61739104939988 0 -130.61739104939988 -81.264493528527964 0 0 0 0 -686.62541008766857 -65.472164059796341 0 -65.472164059796341 -77.824310657892738 0 0 0 0 1723.4062347943618 -674.74775322203641 0 -674.74775322203641 -445.82690588604601 0 0 0 0 -17.031244589897554 -70.605401989004349 0 -70.605401989004349 -80.134492425865801 0 0 0 0 -586.98157059415826 -747.17459790059365 0 -747.17459790059365 140.00186376945931 0 0 0 0 287.53362569902674 -738.7050884155542 0 -738.7050884155542 578.85948412495782 0 0 0 0 -1044.5030621010519 -54.933481035230216 0 -54.933481035230216 70.701650698014419 0 0 0 0 254.02654648446332 -879.98310585098079 0 -879.98310585098079 110.21544447672204 0 0 0 0 -927.39540981921891 -27.071249169785006 0 -27.071249169785006 504.00588633457664 0 0 0 0 -128.39999634862761 -882.82509252402815 0 -882.82509252402815 1106.0170250937808 0 0 0 0 1656.6479796430503 -216.65727995715861 0 -216.65727995715861 597.91557754663518 0 0 0 0 438.22191342127917 -1427.1000028327253 0 -1427.1000028327253 1672.3212025422836 0 0 0 0 -116.05157772064558 358.96105921592971 0 358.96105921592971 712.52112646288515 0 0 0 0 -843.12602154967317 -214.33953448482862 0 -214.33953448482862 344.1350318157929 0 0 0 0 -375.11727782632806 -457.77882140343718 0 -457.77882140343718 324.81233364944637 0 0 0 0 -73.480938804934937 -53.574940935467055 0 -53.574940935467055 -24.518846372775712 0 0 0 0 -31.893547525591885 -21.811943772401094 0 -21.811943772401094 12.107152531165355 0 0 0 0 4450.453275237116 -1469.2656439455459 0 -1469.2656439455459 218.89276679421891 0 0 0 0 -1387.6442050970909 -658.43440634294529 0 -658.43440634294529 1330.5934601020126 0 0 0 0 938.34510698714439 -353.83879963937579 0 -353.83879963937579 -406.66348060991731 0 0 0 0 642.57597976349643 -1267.4264770213049 0 -1267.4264770213049 143.19226316582353 0 0 0 0 -385.42648159908276 -73.468885821093863 0 -73.468885821093863 -246.58791619024487 0 0 0 0 -15.926314896269218 -42.593887710692627 0 -42.593887710692627 -22.771747493156852 0 0 0 0 -374.59378758991079 -169.80797933685244 0 -169.80797933685244 -111.11456819998421 0 0 0 0 -34.702073953250874 -160.68528680646523 0 -160.68528680646523 -206.39432478115486 0 0 0 0 -107.8571848134543 -190.65750081556416 0 -190.65750081556416 -149.69910235308635 0 0 0 0 -421.99160542024765 -196.68930960647049 0 -196.68930960647049 -170.02286945840751 0 0 0 0 -28.259224637738953 -189.55564606780536 0 -189.55564606780536 -74.996132577522076 0 0 0 0 -319.27062001972809 -184.17310158861801 0 -184.17310158861801 216.58939100116186 0 0 0 0 -456.21725148111 -202.32081579171063 0 -202.32081579171063 322.06444975975319 0 0 0 0 -296.50852860836312 -325.00254888171912 0 -325.00254888171912 213.71029606845173 0 0 0 0 -488.06282145778096 -150.30902688896549 0 -150.30902688896549 94.217936107335845 0 0 0 0 67.203340368971112 -623.73559428939916 0 -623.73559428939916 -452.99159908207366 0 0 0 0 -242.88481810496887 -60.223155489329656 0 -60.223155489329656 -146.56234997115098 0 0 0 0 481.58541380399402 -200.47007155560277 0 -200.47007155560277 -145.2486715047271 0 0 0 0 38.807065343888098 -369.2767167480597 0 -369.2767167480597 141.85755610428168 0 0 0 0 270.72961173704243 -329.61658873666602 0 -329.61658873666602 100.86405576457037 0 0 0 0 327.13327254942851 -449.71241277832451 0 -449.71241277832451 156.16453083502711 0 0 0 0 864.60370013792999 -382.92441695120215 0 -382.92441695120215 -79.860697159907431 0 0 0 0 768.38829546134002 -171.89447896201818 0 -171.89447896201818 65.100305261454196 0 0 0 0 697.4434077199985 -282.29295955222551 0 -282.29295955222551 -26.271471171654412 0 0 0 0 619.87476410782256 -403.51706208097312 0 -403.51706208097312 -60.450476676505787 0 0 0 0 35.911297125312558 -3.9404777568743157 0 -3.9404777568743157 -113.62503590941196 0 0 0 0 -751.5674438928545 -416.2072831497353 0 -416.2072831497353 -186.43838795600459 0 0 0 0 2.5882565275429528 -17.213030947366562 0 -17.213030947366562 16.602351577736329 0 0 0 0 1.3996128878115162 -24.611431656757873 0 -24.611431656757873 19.146506535315154 0 0 0 0 658.65381350892858 -270.10130190016207 0 -270.10130190016207 -12.323834444236127 0 0 0 0 -103.97167780605378 1.3554153559161932 0 1.3554153559161932 76.124441530773765 0 0 0 0 -1435.3106111272136 -753.30330260292249 0 -753.30330260292249 330.59464838847634 0 0 0 0 -3.4522744360164808 -10.445236469422412 0 -10.445236469422412 7.4664687440059652 0 0 0 0 -2.111902488783457 -6.1956265606977183 0 -6.1956265606977183 10.747684712142529 0 0 0 0 0.86470031032754235 -12.587412179706263 0 -12.587412179706263 6.6611418662585038 0 0 0 0 -2403.5397874972841 -146.30282885819179 0 -146.30282885819179 414.43566777548403 0 0 0 0 -30.101762278933165 -1.7498032268413226 0 -1.7498032268413226 47.491365233145189 0 0 0 0 -983.56928147110739 -30.550258470077097 0 -30.550258470077097 -381.2581295776763 0 0 0 0 -1408.647648716862 -722.71811687645823 0 -722.71811687645823 70.359851375542348 0 0 0 0 1856.1923418519145 -1388.1476004511933 0 -1388.1476004511933 906.32816915340663 0 0 0 0 -1658.3104810069926 399.29412205099652 0 399.29412205099652 -379.31871949211927 0 0 0 0 -1323.950737748266 -374.55777625950577 0 -374.55777625950577 570.31340594973881 0 0 0 0 -0.93376508800051994 -2.6117614846518507 0 -2.6117614846518507 4.3854030170005558 0 0 0 0 -2819.7197182806412 258.05631703431573 0 258.05631703431573 669.29428642228595 0 0 0 0 -1308.2231715016824 510.80828044976806 0 510.80828044976806 330.40708161752264 0 0 0 0 -1866.4002186717844 -189.72293856489705 0 -189.72293856489705 55.764564780431101 0 0 0 0 2368.6570757914378 -1342.2680704088416 0 -1342.2680704088416 62.797202687856043 0 0 0 0 1286.1423524025886 -1220.8591884661146 0 -1220.8591884661146 863.52566157324031 0 0 0 0 1397.805965348176 45.866879471475841 0 45.866879471475841 878.22699119886647 0 0 0 0 462.3416938065493 -580.37665694705356 0 -580.37665694705356 665.99722265006858 0 0 0 0 1605.3098849371427 -741.05817845476292 0 -741.05817845476292 204.14187337621115 0 0 0 0 2584.2699688416251 -552.32138754001789 0 -552.32138754001789 -108.21171964422683 0 0 0 0 1614.8653920934012 -16.125496451379149 0 -16.125496451379149 45.276646537909983 0 0 0 0 1246.5540966511471 4.3772738506377209 0 4.3772738506377209 106.53093911039468 0 0 0 0 836.401082767974 -616.93102890691443 0 -616.93102890691443 242.97176994147594 0 0 0 0 122.23477475333493 -671.67663877827363 0 -671.67663877827363 474.177888934355 0 0 0 0 674.54776836920064 -452.43153503813664 0 -452.43153503813664 145.70131157711512 0 0 0 0 -230.31394710786117 -354.67400576057844 0 -354.67400576057844 340.84549920534482 0 0 0 0 0.59304626378434477 -404.04616083664587 0 -404.04616083664587 333.313336177991 0 0 0 0 -282.49160751983436 -259.78080252025029 0 -259.78080252025029 422.61593886057381 0 0 0 0 -163.47815398307284 -515.6493824190693 0 -515.6493824190693 540.48872217997268 0 0 0 0 478.62802259979071 -578.50521013991965 0 -578.50521013991965 397.05272688390687 0 0 0 0 -549.27058295047027 -601.01806517902878 0 -601.01806517902878 628.26476064225426 0 0 0 0 547.99433736251376 -178.56034696794813 0 -178.56034696794813 -58.765813567588339 0 0 0 0 -695.33757292517112 -225.9846515008976 0 -225.9846515008976 444.27481218914909 0 0 0 0 -363.21431143984773 -125.79175000527539 0 -125.79175000527539 237.75024038853007 0 0 0 0 -1299.9073237852717 -238.33082517523144 0 -238.33082517523144 252.70900285551033 0 0 0 0 -744.38884423095442 145.86487216030946 0 145.86487216030946 193.87373463022232 0 0 0 0 -648.24620571621927 -154.28025550751045 0 -154.28025550751045 394.34201758270501 0 0 0 0 -349.09496915337513 -317.76633283958654 0 -317.76633283958654 397.55572808573925 0 0 0 0 -233.11317667649064 -243.34054504667074 0 -243.34054504667074 249.7149789116811 0 0 0 0 -356.15419848202146 -267.01407331835071 0 -267.01407331835071 358.95881216187263 0 0 0 0 -779.21287904550263 -943.57447310045245 0 -943.57447310045245 -746.49262683777488 0 0 0 0 -579.78386215958744 245.70054643288313 0 245.70054643288313 -410.90505880984711 0 0 0 0 -1476.3420880107878 536.87283829640364 0 536.87283829640364 -474.69539630931104 0 0 0 0 -1751.0075899811454 -772.44291934991634 0 -772.44291934991634 -575.07976730441442 0 0 0 0 -347.75747961056186 -106.09209476254182 0 -106.09209476254182 -264.87301201462105 0 0 0 0 -459.42048032296589 -768.08826166361905 0 -768.08826166361905 -403.49795076088049 0 0 0 0 543.41597234072105 117.83591707844607 0 117.83591707844607 -1018.7877467553189 0 0 0 0 -12.142863586554739 -7.6972676258504293 0 -7.6972676258504293 -12.604140711740854 0 0 0 0 -168.26410251708876 769.5487267211065 0 769.5487267211065 -1836.7139445926696 0 0 0 0 24.135605526404106 -679.92946529993787 0 -679.92946529993787 -2084.5688958217215 0 0 0 0 843.3730278256553 -324.86084446177119 0 -324.86084446177119 -1096.5468269459088 0 0 0 0 240.48029703235079 -74.074121375859249 0 -74.074121375859249 -936.72432160413882 0 0 0 0 222.36185975851549 20.866622829722473 0 20.866622829722473 -453.55106898778467 0 0 0 0 620.68159287702474 -422.03222573575204 0 -422.03222573575204 -832.46915510989493 0 0 0 0 469.6392275400467 -669.23854177517205 0 -669.23854177517205 350.28415116798715 0 0 0 0 1428.1190035468171 -107.84774704216397 0 -107.84774704216397 -713.17043550914968 0 0 0 0 720.94114393244672 -364.30063483748381 0 -364.30063483748381 -826.93595617357641 0 0 0 0 870.76070937978511 -847.34813417377518 0 -847.34813417377518 210.63585176560446 0 0 0 0 117.91829242720996 -948.43831565249275 0 -948.43831565249275 71.143425156245939 0 0 0 0 103.12946953868232 -689.84382209412433 0 -689.84382209412433 -566.59723165629839 0 0 0 0 543.97542889286706 -853.03293841371487 0 -853.03293841371487 -1025.2616798379531 0 0 0 0 163.71993536571244 -410.88513108532788 0 -410.88513108532788 -540.39707967170398 0 0 0 0 60.772687531392194 -40.08738663957817 0 -40.08738663957817 4.7947076685401555 0 0 0 0 64.172964324912755 -138.52109649454724 0 -138.52109649454724 -85.899478244245984 0 0 0 0 40.083387399016772 -57.692426599824245 0 -57.692426599824245 46.323181209477724 0 0 0 0 7.365956655703485 -148.00696013052948 0 -148.00696013052948 -250.6755770916352 0 0 0 0 -160.00104330996692 -392.15947409102955 0 -392.15947409102955 -274.09513342456194 0 0 0 0 264.9741344713475 -263.21133490953434 0 -263.21133490953434 -421.5070960643061 0 0 0 0 118.59550213500188 -148.63680216197463 0 -148.63680216197463 -450.07094144637813 0 0 0 0 70.186174870068498 -151.96238022488251 0 -151.96238022488251 131.98856772563886 0 0 0 0 3.8888303109561093 -166.45911848494143 0 -166.45911848494143 25.970098085541395 0 0 0 0 94.161131646811555 -131.12357790017268 0 -131.12357790017268 39.473791843367508 0 0 0 0 -1.8443051380745601 -65.028964967365027 0 -65.028964967365027 113.15754911256954 0 0 0 0 26.303726821445039 -36.727407272764253 0 -36.727407272764253 13.662623026546839 0 0 0 0 107.20892423379701 -96.664371938997647 0 -96.664371938997647 22.600658325274708 0 0 0 0 114.83862831940132 -109.86620525777471 0 -109.86620525777471 -4.7876286781975068 0 0 0 0 78.911680664933442 -113.8387064619514 0 -113.8387064619514 44.616430372512241 0 0 0 0 -8.213440515629884 -47.130363603648505 0 -47.130363603648505 -10.762127320283753 0 0 0 0 161.9435370528081 -224.52009779421496 0 -224.52009779421496 6.5251220289501362 0 0 0 0 58.024152283838703 -61.765899378106042 0 -61.765899378106042 -473.76727931288769 0 0 0 0 52.529213964357041 -69.416916498281353 0 -69.416916498281353 -52.593400606245268 0 0 0 0 -979.84396508532518 -139.70874175747304 0 -139.70874175747304 221.43744946295919 0 0 0 0 139.715918011545 -74.259365823110784 0 -74.259365823110784 -196.01985353563214 0 0 0 0 78.782573296012629 -50.673770892923841 0 -50.673770892923841 17.046093594718201 0 0 0 0 17.372599637057533 -25.680634340951428 0 -25.680634340951428 13.894510822815846 0 0 0 0 98.253593079891289 -75.009748539800057 0 -75.009748539800057 -13.095259433495812 0 0 0 0 -274.86036695330404 -509.52874694831553 0 -509.52874694831553 161.47083033822128 0 0 0 0 53.420179013555753 -20.716093585477211 0 -20.716093585477211 80.646784255659441 0 0 0 0 -253.71376366078039 -63.667512508109212 0 -63.667512508109212 -61.178448923295946 0 0 0 0 24.410805617953883 91.035664414303028 0 91.035664414303028 -128.66402501845732 0 0 0 0 -397.14040811365703 -358.80688182840822 0 -358.80688182840822 -361.29757896414958 0 0 0 0 21.882332651896149 -187.45157113920231 0 -187.45157113920231 -264.21687100228155 0 0 0 0 -409.29252643254586 -325.32856087564141 0 -325.32856087564141 -158.9692041006856 0 0 0 0 -359.33469252796203 -380.1991582007031 0 -380.1991582007031 -203.35990257259255 0 0 0 0 -202.83948547356704 -347.94112770537322 0 -347.94112770537322 -363.06500565144233 0 0 0 0 -498.38405893684831 -410.05190657518688 0 -410.05190657518688 -207.50569107130286 0 0 0 0 -801.85445137145871 -477.91726797021693 0 -477.91726797021693 46.95811569414218 0 0 0 0 -1066.838775680385 -829.5149225481091 0 -829.5149225481091 -246.85837632667972 0 0 0 0 61.773860206472932 -35.439850467945135 0 -35.439850467945135 2.4730220573666486 0 0 0 0 39.094309261345188 -73.018946953408886 0 -73.018946953408886 -62.475430564518319 0 0 0 0 42.846097203648242 -70.117666726218886 0 -70.117666726218886 -79.98092088579142 0 0 0 0 51.102482037189731 -32.492396938420768 0 -32.492396938420768 -16.241259059874096 0 0 0 0 91.144648106597742 -38.5599969272007 0 -38.5599969272007 65.79621130954547 0 0 0 0 37.85897397102093 -39.544685176181403 0 -39.544685176181403 16.670587900099719 0 0 0 0 -28.409757256271405 -116.52991017621389 0 -116.52991017621389 -99.331259888698696 0 0 0 0 66.764345737077406 -19.98797746492842 0 -19.98797746492842 -5.315201150875339 0 0 0 0 104.42672171540835 268.60677428354393 0 268.60677428354393 198.99922884902116 0 0 0 0 -42.550991584852454 -95.723633967529167 0 -95.723633967529167 -10.940884244868357 0 0 0 0 -247.66280549141084 -250.98259486274037 0 -250.98259486274037 -79.777716436656192 0 0 0 0 19.503340870811371 -218.01969429002202 0 -218.01969429002202 -77.262003772615572 0 0 0 0 13.390880412720435 -276.37683149781515 0 -276.37683149781515 -470.62215345754521 0 0 0 0 -159.15444301479147 -442.39210902650666 0 -442.39210902650666 279.8480201443308 0 0 0 0 125.2601626101241 -628.43026671226107 0 -628.43026671226107 -289.50137403783447 0 0 0 0 157.6522987538483 -703.92369950277498 0 -703.92369950277498 -243.93457725057669 0 0 0 0 130.2917085306035 -375.01463282331315 0 -375.01463282331315 -333.54837305805995 0 0 0 0 457.35133598249377 -788.40791339927819 0 -788.40791339927819 -1013.8462869418727 0 0 0 0 -1704.6862735822797 194.91581895579293 0 194.91581895579293 256.06209757411852 0 0 0 0 -10.986253443494206 -1048.6920486366798 0 -1048.6920486366798 -2101.864095920464 0 0 0 0 -22.706066497732536 563.34843117010314 0 563.34843117010314 -1853.383440100506 0 0 0 0 -624.95680676370102 238.02982013115979 0 238.02982013115979 -1718.3529725817789 0 0 0 0 -367.91820345535234 -1198.8816352214926 0 -1198.8816352214926 -1017.0036712949877 0 0 0 0 6.2021150747950742 -13.961506235732116 0 -13.961506235732116 -7.2216140551911394 0 0 0 0 -972.25352352475966 -368.20379015580329 0 -368.20379015580329 58.055185442470247 0 0 0 0 5.4643670997320442 -75.104610690250411 0 -75.104610690250411 -94.555994893846218 0 0 0 0 88.054816523304908 -144.513361350997 0 -144.513361350997 -42.966109271714231 0 0 0 0 113.97999037364207 -95.252349149115616 0 -95.252349149115616 -292.88038487394806 0 0 0 0 18.287579788870062 0.77154639731543284 0 0.77154639731543284 -308.38748487041448 0 0 0 0 101.19441394039313 1.0666120787864202 0 1.0666120787864202 -864.31019226195167 0 0 0 0 39.515136988804443 -33.293370215891628 0 -33.293370215891628 -1.244658462528605 0 0 0 0 41.462467725221302 -19.815662834658241 0 -19.815662834658241 -24.110943916249596 0 0 0 0 12.485808866632823 -35.972627050526171 0 -35.972627050526171 14.495967957159792 0 0 0 0 35.325598337240393 -42.355354072341783 0 -42.355354072341783 -14.102979613116247 0 0 0 0 27.133553989784559 -17.893519028963055 0 -17.893519028963055 -68.06976582131756 0 0 0 0 298.81208687491016 79.394259033026174 0 79.394259033026174 38.787092715501785 0 0 0 0 39.918355753228411 -54.694104778349526 0 -54.694104778349526 -28.387378999069881 0 0 0 0 253.66799456895387 -163.99722031525744 0 -163.99722031525744 -230.09365396278736 0 0 0 0 -0.55577504774853992 -4.0718892922132852 0 -4.0718892922132852 -12.506386087964728 0 0 0 0 -50.085137263406068 -53.259636803675676 0 -53.259636803675676 150.04833826635149 0 0 0 0 -38.615649328596191 -135.05043630272849 0 -135.05043630272849 101.50882109254599 0 0 0 0 -12.57586457884463 -156.56826911958342 0 -156.56826911958342 -38.164111461839639 0 0 0 0 43.257712288641969 -68.838985295449163 0 -68.838985295449163 5.8476267374635995 0 0 0 0 -2.4769799669447821 -56.828283475071657 0 -56.828283475071657 32.090951526712161 0 0 0 0 51.63989476462433 -38.713273662037409 0 -38.713273662037409 -79.16839260315453 0 0 0 0 46.552244982070988 9.3053672475216445 0 9.3053672475216445 -83.836307851655874 0 0 0 0 44.151440911173552 -67.598503477301705 0 -67.598503477301705 -46.223215794598616 0 0 0 0 25.358958325057756 -94.526487846975215 0 -94.526487846975215 -94.65546965613612 0 0 0 0 50.083882969873997 -51.116219177371335 0 -51.116219177371335 5.7805818123721053 0 0 0 0 19.239980136811937 -89.966485344335524 0 -89.966485344335524 -96.007740774759441 0 0 0 0 47.080864393856814 -51.294539793611847 0 -51.294539793611847 27.486525702948398 0 0 0 0 223.62957085194648 -146.22264330838516 0 -146.22264330838516 -170.81521665558103 0 0 0 0 -56.756877237552544 -79.099463021557312 0 -79.099463021557312 5.311810970219085 0 0 0 0 -105.6616648909403 -35.239788426981249 0 -35.239788426981249 -17.092920817944105 0 0 0 0 -83.677460129110841 -111.62674698795308 0 -111.62674698795308 116.78761316481541 0 0 0 0 -62.287984081802279 -135.3925733775759 0 -135.3925733775759 120.25166188468575 0 0 0 0 189.11027183747501 -258.68544527367339 0 -258.68544527367339 -120.86791325514787 0 0 0 0 175.06697858030384 -228.57501787408546 0 -228.57501787408546 61.089332158386242 0 0 0 0 -1.9593081153244327 -35.45643848356795 0 -35.45643848356795 -74.988090866164555 0 0 0 0 139.44401772666606 -150.51225331468231 0 -150.51225331468231 -50.850713888619794 0 0 0 0 3.4179782945447101 -9.7714998256282684 0 -9.7714998256282684 -23.987542106882415 0 0 0 0 40.436589756747708 -73.210067840918782 0 -73.210067840918782 -52.336175673801336 0 0 0 0 281.13067387306364 236.81338316929032 0 236.81338316929032 -44.91997849199106 0 0 0 0 422.8397227051355 -425.16543857847137 0 -425.16543857847137 -133.69440613659208 0 0 0 0 -5.6938292739353926 -52.700649324171479 0 -52.700649324171479 -74.522973436492634 0 0 0 0 60.402521992222319 -79.514419558108784 0 -79.514419558108784 -62.473288640103419 0 0 0 0 448.88944041438663 -286.31378124645562 0 -286.31378124645562 -1049.0683263755709 0 0 0 0 -421.8830867121651 317.27648459118063 0 317.27648459118063 -152.77395305386744 0 0 0 0 -578.79889068938792 116.31719663007971 0 116.31719663007971 228.03155625838554 0 0 0 0 2.9222917314264123 -59.46050662862217 0 -59.46050662862217 -72.697468050406314 0 0 0 0 -25.701491791013879 -55.295047339731639 0 -55.295047339731639 -62.294128465252612 0 0 0 0 -1.4591055767182297 -84.805933690507118 0 -84.805933690507118 -43.43374029287952 0 0 0 0 -35.353238170308032 -44.219708252872806 0 -44.219708252872806 -1.3526840910490137 0 0 0 0 -2.0764152475686046 -35.138506575112245 0 -35.138506575112245 -3.6656362130608926 0 0 0 0 -4.3241470646462403 -34.594958613670315 0 -34.594958613670315 -38.152223403565586 0 0 0 0 -13.055876636193716 -23.930092284499551 0 -23.930092284499551 -2.5360578563049785 0 0 0 0 -4.9294316003612266 -33.777646817696791 0 -33.777646817696791 -1.2641187213935439 0 0 0 0 6.3634108420446864 -70.078770127700409 0 -70.078770127700409 -90.882092998494045 0 0 0 0 -2.4876828746055253 -59.73570332863892 0 -59.73570332863892 -56.40402122400701 0 0 0 0 2.1113149802222324 -69.764681910193758 0 -69.764681910193758 -71.239638422179269 0 0 0 0 -10.984315472342736 -36.567409815156083 0 -36.567409815156083 -72.757648026511788 0 0 0 0 238.29643135365404 -42.098043845471693 0 -42.098043845471693 -181.64777262424468 0 0 0 0 297.06905240473861 -134.89132591614907 0 -134.89132591614907 -55.250273755191301 0 0 0 0 -261.32778026984306 -158.68689576072575 0 -158.68689576072575 119.26155103213387 0 0 0 0 292.5612577716563 -217.19489317491025 0 -217.19489317491025 -141.6599689249997 0 0 0 0 -45.602676033930038 -539.30718422285281 0 -539.30718422285281 -448.22701448644511 0 0 0 0 -328.07124250901688 -321.41100661931705 0 -321.41100661931705 458.1670943974168 0 0 0 0 647.8627490176732 -52.146949324189336 0 -52.146949324189336 -544.07517514773826 0 0 0 0 247.14342676482192 -295.44172794884071 0 -295.44172794884071 218.55107812277129 0 0 0 0 436.8217278358934 226.80077933892608 0 226.80077933892608 67.477640419470845 0 0 0 0 1.8199905449400262 -11.549710132103542 0 -11.549710132103542 -10.25570476487573 0 0 0 0 324.38632275676355 -236.2392382377293 0 -236.2392382377293 119.25021248317717 0 0 0 0 581.48252834467712 -167.3062664173267 0 -167.3062664173267 89.905665123340441 0 0 0 0 344.36823037793147 20.262215159134939 0 20.262215159134939 355.91594757046551 0 0 0 0 296.10452252267351 -228.92658295822184 0 -228.92658295822184 249.47935559494363 0 0 0 0 327.97386911996909 -220.4327018365293 0 -220.4327018365293 39.276956050511217 0 0 0 0 394.50104090588138 -277.80581768844422 0 -277.80581768844422 71.542232211824739 0 0 0 0 -4.9076461678490162 -11.192168514148833 0 -11.192168514148833 -17.370937790268101 0 0 0 0 -173.65498002892127 -78.276219349936582 0 -78.276219349936582 -17.681627130266861 0 0 0 0 -54.808573433154379 -58.913561714420212 0 -58.913561714420212 -15.507192260316515 0 0 0 0 -10.603004490607418 -51.007413924839057 0 -51.007413924839057 -43.008163880935172 0 0 0 0 -20.133476857407004 -40.908736166857125 0 -40.908736166857125 -24.192677922546864 0 0 0 0 64.786165473055007 -139.3237736153751 0 -139.3237736153751 173.26825284652296 0 0 0 0 -6.4575384275268632 -17.341196781545889 0 -17.341196781545889 -22.461277768587365 0 0 0 0 -7.5626658343244344 -131.02689673777786 0 -131.02689673777786 470.71928494372696 0 0 0 0 -23.266598802278168 -181.57051553935162 0 -181.57051553935162 304.36160067102173 0 0 0 0 -39.042553025850793 -166.06101956743805 0 -166.06101956743805 432.28143918100977 0 0 0 0 36.368456788972253 -47.241848107689293 0 -47.241848107689293 400.35696036350419 0 0 0 0 127.07818245262024 -53.33634020484169 0 -53.33634020484169 292.88295541811385 0 0 0 0 -441.52561688181413 -967.03519188921018 0 -967.03519188921018 312.03184081119252 0 0 0 0 52.114147756979662 -37.165517116513428 0 -37.165517116513428 25.459043528448433 0 0 0 0 103.24182239704533 527.38612425894826 0 527.38612425894826 -47.727819158288185 0 0 0 0 64.144688705957378 -45.980649619014002 0 -45.980649619014002 292.29842314556117 0 0 0 0 3.5285612715954926 -4.9807312267037389 0 -4.9807312267037389 2.475735283683548 0 0 0 0 4.8263260394742247 -103.49350742319075 0 -103.49350742319075 300.36380601319252 0 0 0 0 29.041939620554331 -3.7104203612834681 0 -3.7104203612834681 241.40200112223101 0 0 0 0 10.531546376019833 -86.957648869909463 0 -86.957648869909463 222.18115153210238 0 0 0 0 13.440512615736225 -76.309009587857872 0 -76.309009587857872 230.39615128585137 0 0 0 0 31.412107638578163 -0.55686455266550183 0 -0.55686455266550183 126.31896480952855 0 0 0 0 66.911135444439424 -3.2248122891323874 0 -3.2248122891323874 19.232409890857525 0 0 0 0 38.284807792544598 -72.776986915647285 0 -72.776986915647285 94.782089917571284 0 0 0 0 54.813938229119231 -78.365498985403974 0 -78.365498985403974 42.382502195192501 0 0 0 0 -18.279440029447414 -195.2065165861477 0 -195.2065165861477 112.50250189009239 0 0 0 0 -19.695537555555347 -180.76446983467031 0 -180.76446983467031 303.90330582577735 0 0 0 0 18.175147141053458 -284.31438802971388 0 -284.31438802971388 219.15336649984238 0 0 0 0 40.526569119065243 -334.0798181525679 0 -334.0798181525679 -6.3995506528881378 0 0 0 0 77.005474912672071 -166.88723505986854 0 -166.88723505986854 119.20532488581375 0 0 0 0 88.200221443596092 -157.97610019132117 0 -157.97610019132117 -64.687970716651762 0 0 0 0 138.46589353206218 -54.961904712843534 0 -54.961904712843534 -423.23179600559524 0 0 0 0 122.30660743426415 -109.92720355247729 0 -109.92720355247729 -5.7202067592734238 0 0 0 0 -0.12653465652290663 -3.0636992287891758 0 -3.0636992287891758 -5.5626857271678318 0 0 0 0 2.8584783479782345 -541.78018814480311 0 -541.78018814480311 -286.36833818387822 0 0 0 0 23.962768377707107 -369.64331185288029 0 -369.64331185288029 160.70845249044214 0 0 0 0 25.761565713703021 -184.36688981764746 0 -184.36688981764746 292.41536712966627 0 0 0 0 134.32956937466952 -302.68711018920294 0 -302.68711018920294 171.6181416610616 0 0 0 0 314.76157945997693 -383.71119127457496 0 -383.71119127457496 209.36483043251428 0 0 0 0 -98.071835197471955 -434.95745661854016 0 -434.95745661854016 271.1179496567056 0 0 0 0 59.515468572652026 -412.97785427726558 0 -412.97785427726558 220.86813514257665 0 0 0 0 -56.884469997312408 -332.09439986280631 0 -332.09439986280631 208.33700050193147 0 0 0 0 -183.48741039459856 -304.72316408695769 0 -304.72316408695769 276.34740895515642 0 0 0 0 -55.228390113166824 -312.43789483016735 0 -312.43789483016735 275.19042730354704 0 0 0 0 -89.247829361309414 -288.83265437517548 0 -288.83265437517548 343.36366335316416 0 0 0 0 -75.966089924128028 -252.29832296262612 0 -252.29832296262612 129.06631904869573 0 0 0 0 -24.034926640037156 -305.22310488468793 0 -305.22310488468793 83.722526558056416 0 0 0 0 -49.919295951360255 -261.93388641452475 0 -261.93388641452475 104.94459648635893 0 0 0 0 31.309173695990467 -320.78172024125524 0 -320.78172024125524 117.96966574209364 0 0 0 0 -57.947335331824434 -322.97961564937577 0 -322.97961564937577 292.20580209681066 0 0 0 0 -31.190478483622428 -262.24016830134497 0 -262.24016830134497 302.90286106159328 0 0 0 0 -35.801429423940135 -307.40696024491626 0 -307.40696024491626 440.90699869381569 0 0 0 0 -1.2922052712237928 -318.90879367700836 0 -318.90879367700836 -114.18900519976887 0 0 0 0 64.352663236313674 -280.61171534921596 0 -280.61171534921596 -125.95289932879678 0 0 0 0 10.256442395111662 -253.40843674832286 0 -253.40843674832286 -129.79570562791196 0 0 0 0 -79.322047460140311 -217.10814614933042 0 -217.10814614933042 16.0002934626973 0 0 0 0 -118.65047643565777 -134.64383005255877 0 -134.64383005255877 -131.16372733458411 0 0 0 0 -57.958103468343324 -181.94125023793458 0 -181.94125023793458 -93.530283524494735 0 0 0 0 -137.15134926365863 -277.51398895041348 0 -277.51398895041348 -118.64585581185111 0 0 0 0 -0.87506398679204267 -1.0111560761437204 0 -1.0111560761437204 5.7668839659889954 0 0 0 0 -133.98992662372984 -260.95605758858801 0 -260.95605758858801 -40.211054493585834 0 0 0 0 -1.5726274218464766 0.44428895084983822 0 0.44428895084983822 4.2616198902963447 0 0 0 0 -461.39707767596701 -303.54829609026638 0 -303.54829609026638 245.07787351183833 0 0 0 0 492.23527550473591 -300.25708083602512 0 -300.25708083602512 -32.847266666212818 0 0 0 0 186.56984705883224 -81.899518643265765 0 -81.899518643265765 -119.36713209115624 0 0 0 0 98.279136790037228 -271.30297907192289 0 -271.30297907192289 -0.1276315852010157 0 0 0 0 -335.57303749069979 -236.61224383257286 0 -236.61224383257286 0.022441061344579794 0 0 0 0 -56.057658802428705 -65.899304676851898 0 -65.899304676851898 -61.597159993063542 0 0 0 0 148.85878686631622 -147.03119901061291 0 -147.03119901061291 -107.81666608227533 0 0 0 0 556.44033116133141 -155.2429190062503 0 -155.2429190062503 -147.89896960250917 0 0 0 0 -1.7134943007064578 0.89572084255722473 0 0.89572084255722473 3.9806397684488388 0 0 0 0 228.03071716894192 -474.42306333154556 0 -474.42306333154556 -0.048158538366588614 0 0 0 0 158.14819414181693 -364.50931378018868 0 -364.50931378018868 -101.99372914046398 0 0 0 0 471.13339828025346 -215.77690680231171 0 -215.77690680231171 81.794616563340242 0 0 0 0 640.87265505600226 -296.49597738502052 0 -296.49597738502052 21.44527519827534 0 0 0 0 -3.1439359105607849 -7.376696111577985 0 -7.376696111577985 -10.562820849440925 0 0 0 0 -510.75637765982901 -59.107577262857376 0 -59.107577262857376 23.308852310161456 0 0 0 0 385.40358905726498 -269.46173797925803 0 -269.46173797925803 73.26857526988897 0 0 0 0 335.649787610153 -299.79138005854475 0 -299.79138005854475 82.294144057421363 0 0 0 0 334.94516852598099 -290.03368482608494 0 -290.03368482608494 34.055197237379616 0 0 0 0 254.67878003447004 -324.37803577420527 0 -324.37803577420527 31.717059694696218 0 0 0 0 440.93760020810078 -307.77040429243789 0 -307.77040429243789 15.653475229541073 0 0 0 0 523.81892107794556 -238.4762167231529 0 -238.4762167231529 -46.8931652790925 0 0 0 0 352.14484114784864 -258.34874117850995 0 -258.34874117850995 65.228457426899695 0 0 0 0 353.51816460901318 -263.27451267286961 0 -263.27451267286961 -95.154490201297449 0 0 0 0 276.689297914294 -151.94053475372493 0 -151.94053475372493 -30.415465052668878 0 0 0 0 354.05449719250373 -286.32862106290486 0 -286.32862106290486 0.071897805260960013 0 0 0 0 535.75121454045711 -184.65088247039876 0 -184.65088247039876 80.129778732880368 0 0 0 0 -0.47472987939117672 -0.78398671390486641 0 -0.78398671390486641 -4.5932363428018448 0 0 0 0 719.83460768543227 -273.88902783156664 0 -273.88902783156664 -0.014105139576713555 0 0 0 0 -303.09838850138112 -803.84642194180924 0 -803.84642194180924 -0.37728720841391156 0 0 0 0 473.9071037080721 -136.6463390765457 0 -136.6463390765457 -246.17781739195925 0 0 0 0 -15.112855552797555 -305.40554906523903 0 -305.40554906523903 -262.79703589990822 0 0 0 0 -1381.8867553225537 -25.917059487597726 0 -25.917059487597726 76.971789707589778 0 0 0 0 -1.6433907168066071 -8.1555197323177708 0 -8.1555197323177708 -0.017827540068537928 0 0 0 0 -1.5236277813528432 -8.2369869419198949 0 -8.2369869419198949 -0.0044420676858862862 0 0 0 0 190.62526574713047 116.39808814759454 0 116.39808814759454 33.07656494078401 0 0 0 0 3.1154495195000607 -3.8598446840187535 0 -3.8598446840187535 1.9978265767681052 0 0 0 0 39.498007182923175 -21.692584657619591 0 -21.692584657619591 -78.104373797323206 0 0 0 0 36.196209164587344 -58.506655997756752 0 -58.506655997756752 -68.480588125745271 0 0 0 0 34.156941953444402 -57.20446998958505 0 -57.20446998958505 -52.096298227726948 0 0 0 0 34.497653111526233 -15.95208854485827 0 -15.95208854485827 -24.884714242158225 0 0 0 0 15.787502518760448 -148.46593500212475 0 -148.46593500212475 -88.425250778673217 0 0 0 0 4.2488779872555824 -96.596603753487216 0 -96.596603753487216 -38.952496794518083 0 0 0 0 -6.7217291646920785 -79.520979383800295 0 -79.520979383800295 -59.767335056181764 0 0 0 0 145.03258996302975 -116.62303867927403 0 -116.62303867927403 -134.23097734674229 0 0 0 0 -14.998168057612929 -189.50957871885475 0 -189.50957871885475 -143.0923331695958 0 0 0 0 -50.613774587753142 -168.16719276724325 0 -168.16719276724325 -52.610438911535311 0 0 0 0 -52.446610843478993 -162.17904418804392 0 -162.17904418804392 -28.483005111615057 0 0 0 0 -83.453806927260302 -198.8341922358959 0 -198.8341922358959 -66.636617917523836 0 0 0 0 -40.912387664229755 -150.91383320002933 0 -150.91383320002933 -23.215266245329985 0 0 0 0 -62.914477160093156 -124.68790714581701 0 -124.68790714581701 -50.684237454173854 0 0 0 0 -259.5019656793811 -225.23377577796782 0 -225.23377577796782 1.938148955878205 0 0 0 0 -262.62369542574197 -238.88671364529728 0 -238.88671364529728 -52.572566650182125 0 0 0 0 -172.52541390087572 -199.03396040349617 0 -199.03396040349617 -11.909828404968721 0 0 0 0 -85.005574791655704 -169.5515643700428 0 -169.5515643700428 -39.809263707167702 0 0 0 0 -164.66980661948764 -100.03734912258369 0 -100.03734912258369 19.654234260730846 0 0 0 0 -213.68083685126476 -156.25588066019554 0 -156.25588066019554 46.360730532062007 0 0 0 0 -199.71906655526982 -219.75591211805295 0 -219.75591211805295 -18.007918090777821 0 0 0 0 -49.102871933984716 -196.51618923727074 0 -196.51618923727074 -45.974297461623792 0 0 0 0 -82.937406972273493 -142.69465891609434 0 -142.69465891609434 -131.27370872432948 0 0 0 0 -23.032817613744555 -0.77979859620973002 0 -0.77979859620973002 -26.688034681530553 0 0 0 0 59.629814772000827 -24.219292717782082 0 -24.219292717782082 -757.49614099923565 0 0 0 0 -2.1265998456415218 -4.2708229056830191 0 -4.2708229056830191 -8.3731382782398782 0 0 0 0 52.554564856967772 3.5963140025996836 0 3.5963140025996836 -293.48686984216511 0 0 0 0 -87.390110001746507 -314.17415723086742 0 -314.17415723086742 -340.61686859557449 0 0 0 0 -74.212295338409604 -399.57845842801908 0 -399.57845842801908 45.57336548314197 0 0 0 0 -17.129948340872943 -730.43172182947455 0 -730.43172182947455 -929.24711547169136 0 0 0 0 -282.29916581225552 -65.240497422284534 0 -65.240497422284534 858.93414130737074 0 0 0 0 -331.81177567950363 -344.92915919049119 0 -344.92915919049119 34.533558351395186 0 0 0 0 -200.90619619883182 -222.43346543292864 0 -222.43346543292864 143.80840909990366 0 0 0 0 -51.213799269484298 -110.78093890247692 0 -110.78093890247692 50.890835488360608 0 0 0 0 155.33344648132334 20.216465413715923 0 20.216465413715923 69.841628875139577 0 0 0 0 -72.949438151749746 -176.68145374554479 0 -176.68145374554479 3.8121758144698106 0 0 0 0 -116.24450152149802 -263.09421669133008 0 -263.09421669133008 -176.22353393105732 0 0 0 0 -40.20703510138992 -199.66635234313799 0 -199.66635234313799 -161.69508665203466 0 0 0 0 -79.784610512453582 -93.717319384726579 0 -93.717319384726579 -65.103569609345868 0 0 0 0 -115.36315577833739 -140.1171526365215 0 -140.1171526365215 -18.409814813559933 0 0 0 0 -198.27317466535169 -193.78521408647066 0 -193.78521408647066 -80.573682601967448 0 0 0 0 -88.443989349636468 -120.16562793331832 0 -120.16562793331832 -66.17680625471985 0 0 0 0 -283.0509430098848 -141.17532828223557 0 -141.17532828223557 -64.349516265938291 0 0 0 0 -112.98210418894814 -136.05518354511878 0 -136.05518354511878 -63.02393729306641 0 0 0 0 -127.9260683576158 -115.20746864557441 0 -115.20746864557441 -92.096650858380599 0 0 0 0 -11.440217706681771 -13.149488787196091 0 -13.149488787196091 2.9435206444431969 0 0 0 0 512.2579908990856 111.70869846845017 0 111.70869846845017 -1109.6469813492877 0 0 0 0 -297.02963175764307 -286.11804122649482 0 -286.11804122649482 -95.249886554796831 0 0 0 0 -421.64728922174254 -1147.5352895924298 0 -1147.5352895924298 444.9961332079838 0 0 0 0 -203.45109860859969 -83.810802175690696 0 -83.810802175690696 223.23716297009378 0 0 0 0 -43.003830346279443 -52.078399045265343 0 -52.078399045265343 -14.902536473793532 0 0 0 0 -64.653801688582462 -218.14456420818169 0 -218.14456420818169 182.92779809410058 0 0 0 0 265.13129385874618 -215.24783144910907 0 -215.24783144910907 -93.358306190173607 0 0 0 0 -65.67412629800836 -51.778611802717251 0 -51.778611802717251 -25.082081854857563 0 0 0 0 -52.750282145419078 -77.371066213941958 0 -77.371066213941958 10.332760841702111 0 0 0 0 -7.2112840837362349 -37.262942474711878 0 -37.262942474711878 13.694948668551092 0 0 0 0 -41.090937714500342 -34.088507431205812 0 -34.088507431205812 21.631633473559674 0 0 0 0 -28.959650716886699 -118.00241986825131 0 -118.00241986825131 -76.325674089067434 0 0 0 0 -32.577627486275105 -145.89167640668893 0 -145.89167640668893 -108.47199171414832 0 0 0 0 -46.57196287245938 -52.018450328667313 0 -52.018450328667313 55.43294595790212 0 0 0 0 -8.8199118357556223 -39.640700714690098 0 -39.640700714690098 21.186730577751021 0 0 0 0 -39.300245841664491 -75.802753785646928 0 -75.802753785646928 -213.40032633257215 0 0 0 0 -11.239304537173048 -30.044539133187413 0 -30.044539133187413 -0.14652990678328592 0 0 0 0 -93.370457404638728 21.859695465558616 0 21.859695465558616 199.20187877928402 0 0 0 0 0.48153987913974561 -13.581567772489507 0 -13.581567772489507 76.037337566842325 0 0 0 0 -17.182395010246029 -20.206469280913751 0 -20.206469280913751 7.6293830739131181 0 0 0 0 -18.516995151672837 -68.283234581788008 0 -68.283234581788008 9.7367191079290478 0 0 0 0 -42.59100964377285 -53.74681641330244 0 -53.74681641330244 62.405524645495461 0 0 0 0 -112.53522906268699 -46.596222704778484 0 -46.596222704778484 109.64419185440784 0 0 0 0 -5.03090742607219 -84.587585700130148 0 -84.587585700130148 84.12334117339924 0 0 0 0 -9.4221476009552134 -62.191499915876193 0 -62.191499915876193 47.904755660521914 0 0 0 0 -33.795939019438137 -81.098899017435627 0 -81.098899017435627 8.6932342155274114 0 0 0 0 8.699968588683987 -259.76239019599598 0 -259.76239019599598 216.5629815582015 0 0 0 0 -22.171354535136743 -72.678272983746865 0 -72.678272983746865 25.966367927321699 0 0 0 0 -15.888387905884727 -22.305515337129322 0 -22.305515337129322 3.6691051958047751 0 0 0 0 -208.47763677858791 81.359794859111162 0 81.359794859111162 13.444085094874026 0 0 0 0 -40.9699797407593 -82.663131467706989 0 -82.663131467706989 117.3269152155699 0 0 0 0 7.3392654949057032 -93.88947063528758 0 -93.88947063528758 74.709581836825237 0 0 0 0 -73.199430326050788 -30.191719702255796 0 -30.191719702255796 74.645288949075621 0 0 0 0 -71.558832936520048 -50.760071980810608 0 -50.760071980810608 89.568428151949774 0 0 0 0 -152.99163425123697 -234.3809309270946 0 -234.3809309270946 -347.86492097315931 0 0 0 0 -236.60490799838044 55.26769619348488 0 55.26769619348488 40.854259137820918 0 0 0 0 9.8044550886377664 -13.529628484785235 0 -13.529628484785235 -5.8555672092232101 0 0 0 0 -353.25849446181928 -98.081824563163536 0 -98.081824563163536 40.268572790286271 0 0 0 0 -51.951112218550406 -0.59789995002211072 0 -0.59789995002211072 -18.093631433235714 0 0 0 0 -173.64843581501918 -118.70258080713393 0 -118.70258080713393 33.911076705509913 0 0 0 0 -158.2410434779631 -55.4482022360462 0 -55.4482022360462 37.101897112785082 0 0 0 0 -91.727202894631603 -47.422419470581708 0 -47.422419470581708 -10.780574256191926 0 0 0 0 -237.79812397600472 -431.11657385453873 0 -431.11657385453873 -168.2534231897298 0 0 0 0 25.445886404093471 76.37512113450066 0 76.37512113450066 -153.20897546719061 0 0 0 0 -172.18170083493578 -213.71580273447034 0 -213.71580273447034 -116.77541818385362 0 0 0 0 -45.974200026987091 -28.833295682357857 0 -28.833295682357857 -93.911127260536887 0 0 0 0 -71.134478851185122 -15.606916777527658 0 -15.606916777527658 110.37440332371625 0 0 0 0 -22.276731514640947 -62.625787735695425 0 -62.625787735695425 -35.753479131794791 0 0 0 0 -639.77423823301433 -160.77082195840194 0 -160.77082195840194 53.975093549277517 0 0 0 0 17.192810247252964 -29.246023766718281 0 -29.246023766718281 -42.683267564938433 0 0 0 0 -8.3671677042221617 -11.885794648625932 0 -11.885794648625932 -21.439202602942089 0 0 0 0 -260.5486984034851 -46.672169731959002 0 -46.672169731959002 -80.327853817274445 0 0 0 0 -272.20748546657796 -56.45943946368061 0 -56.45943946368061 -67.41142130389926 0 0 0 0 -1008.099889165861 177.53006036717852 0 177.53006036717852 326.7560852492461 0 0 0 0 -1.0731675174389821 -3.0067235564006847 0 -3.0067235564006847 -6.2129455232596911 0 0 0 0 -368.66431918532135 -362.77938357352105 0 -362.77938357352105 70.145037370471982 0 0 0 0 -749.22875194402559 333.57317200349644 0 333.57317200349644 169.13109808924492 0 0 0 0 -115.1668046368759 -75.771995594339387 0 -75.771995594339387 14.67451658200298 0 0 0 0 -156.01484717789208 -90.90577706421027 0 -90.90577706421027 -16.726212181238225 0 0 0 0 -14.784486412823295 -61.097956251438497 0 -61.097956251438497 -34.607519387550951 0 0 0 0 -102.34624021090713 -113.36278225263231 0 -113.36278225263231 -66.604574731260072 0 0 0 0 210.46703872695093 3.1289455405640183 0 3.1289455405640183 -394.98191564070294 0 0 0 0 -268.6861154519604 -743.33479131021522 0 -743.33479131021522 -585.50506118498743 0 0 0 0 40.678048389264404 608.29097140302474 0 608.29097140302474 808.14924061612692 0 0 0 0 -1138.6333547957529 -1200.6657855341327 0 -1200.6657855341327 -643.37216924128006 0 0 0 0 -47.682183451288125 -45.313192516919912 0 -45.313192516919912 -28.975532235303206 0 0 0 0 -103.65012498504575 -95.780089232343016 0 -95.780089232343016 -35.291367326834006 0 0 0 0 -60.259080730105779 -65.825367538986029 0 -65.825367538986029 -39.832015407329891 0 0 0 0 -77.786764924032468 -104.61691810390039 0 -104.61691810390039 -40.481404880527407 0 0 0 0 -96.785325498763996 -63.879642298896215 0 -63.879642298896215 -25.001919383183122 0 0 0 0 -63.814391983913772 -52.053049782363303 0 -52.053049782363303 -22.950956111835524 0 0 0 0 -103.70845872098289 -26.151641070726328 0 -26.151641070726328 -5.1111535812087823 0 0 0 0 -89.680026536778314 -20.575690794459661 0 -20.575690794459661 -9.0350396184658166 0 0 0 0 -119.00851357034753 -17.840072772715757 0 -17.840072772715757 -1.5318689809646457 0 0 0 0 -117.07718559802743 -36.386571321694646 0 -36.386571321694646 -12.795241778658237 0 0 0 0 -146.46961102809382 -50.347243966454698 0 -50.347243966454698 17.870238981209695 0 0 0 0 -160.24552431692928 -21.379475054129216 0 -21.379475054129216 32.207474820752395 0 0 0 0 -155.35886429005041 -49.386814244833658 0 -49.386814244833658 27.254922260854073 0 0 0 0 -69.402081242567192 -96.13293278526271 0 -96.13293278526271 69.834042093003518 0 0 0 0 -165.44812299954538 -8.7138956935305032 0 -8.7138956935305032 95.368747698856168 0 0 0 0 -46.836998650246151 -14.245341243661045 0 -14.245341243661045 7.8226093053326622 0 0 0 0 -104.47368025129981 -0.58477824110013898 0 -0.58477824110013898 18.876661378366407 0 0 0 0 -101.43729440597599 -0.51411106305022258 0 -0.51411106305022258 -11.573345940530999 0 0 0 0 -88.749873394845054 -7.9845626587339211 0 -7.9845626587339211 -12.614742049167035 0 0 0 0 -50.471494119527051 -23.575989793112967 0 -23.575989793112967 -20.023155682720244 0 0 0 0 -5.4929620346112387 -5.1080489252763073 0 -5.1080489252763073 -6.0582459321661872 0 0 0 0 -143.38189429589329 -70.969825165515431 0 -70.969825165515431 -17.508092617004877 0 0 0 0 -88.670891548735199 -44.59305276977102 0 -44.59305276977102 -28.638802949775709 0 0 0 0 -80.816897369921207 -30.1882949549763 0 -30.1882949549763 -12.072438163682818 0 0 0 0 -79.075284587954229 -29.417388499918161 0 -29.417388499918161 -13.941985049794312 0 0 0 0 -37.528310110324128 -13.683432861067558 0 -13.683432861067558 1.5544720062171109 0 0 0 0 -28.257369884358653 -22.820816868306984 0 -22.820816868306984 -6.7503642875972218 0 0 0 0 -47.2638133942921 -29.442447118508227 0 -29.442447118508227 -6.0293291465284824 0 0 0 0 -119.88327596997442 -15.526513382068515 0 -15.526513382068515 -6.0619449672522023 0 0 0 0 -5.6897170909277222 -3.4328452859419833 0 -3.4328452859419833 0.87919813045164119 0 0 0 0 -110.31109121628833 -25.401376897032605 0 -25.401376897032605 -2.6969376316992566 0 0 0 0 -107.80503188401053 -20.523188665596535 0 -20.523188665596535 -10.251178005259135 0 0 0 0 -54.084190795288571 -2.231569369425813 0 -2.231569369425813 -0.33834022676410314 0 0 0 0 -62.128053068156532 -57.539962448412552 0 -57.539962448412552 3.8113644806144293 0 0 0 0 -79.677477477494918 -29.646031101783223 0 -29.646031101783223 -2.0535739094810879 0 0 0 0 -106.90851424294669 -28.325058438938868 0 -28.325058438938868 5.7846716404164908 0 0 0 0 -33.167093325325119 -1.9901840095554917 0 -1.9901840095554917 12.681689648942665 0 0 0 0 -71.574350854395107 -37.309503398908419 0 -37.309503398908419 -3.3793971762061119 0 0 0 0 -100.48845171426274 -51.518996887258254 0 -51.518996887258254 28.795571156093501 0 0 0 0 -37.024570297290246 -18.109826915334111 0 -18.109826915334111 -1.1894341955787695 0 0 0 0 -20.246918519174955 -17.159099285610921 0 -17.159099285610921 -7.6144882617967369 0 0 0 0 -34.679115358017839 -147.65115226173475 0 -147.65115226173475 135.84029340976849 0 0 0 0 -46.60589817106154 -18.236385086365772 0 -18.236385086365772 2.0822063697414706 0 0 0 0 -40.67425191098846 -78.165445000558975 0 -78.165445000558975 -38.092344212491298 0 0 0 0 -50.809536607119298 -75.530657458835776 0 -75.530657458835776 -16.721012268972117 0 0 0 0 -36.232670546971349 -90.142482797949924 0 -90.142482797949924 -37.854204393952386 0 0 0 0 -18.792735702506125 -36.341947840303519 0 -36.341947840303519 -20.944532663790255 0 0 0 0 -82.257788753359591 -42.195031783732702 0 -42.195031783732702 0.1244834583485499 0 0 0 0 -62.111212854078531 -45.401702381801442 0 -45.401702381801442 -18.302101418579696 0 0 0 0 -100.41927796123559 -33.512295552667638 0 -33.512295552667638 -14.161718675823067 0 0 0 0 -1.9570229360491611 -32.117969669388117 0 -32.117969669388117 -13.761292902914192 0 0 0 0 -70.276354712553712 -26.083836169986171 0 -26.083836169986171 -22.863875864888541 0 0 0 0 11.503131930116069 -41.016110905344249 0 -41.016110905344249 -16.810223559080697 0 0 0 0 35.881598048625165 -45.132223059183161 0 -45.132223059183161 -47.512930881770444 0 0 0 0 7.6064721824950539 -53.811711685426417 0 -53.811711685426417 -40.690456019161502 0 0 0 0 11.024089410498163 -39.960476976979407 0 -39.960476976979407 1.8964752666943241 0 0 0 0 14.114260479072243 -4.965831827128369 0 -4.965831827128369 -5.5412391529137039 0 0 0 0 14.7437253453827 -15.726877355278702 0 -15.726877355278702 -4.0816583353298483 0 0 0 0 19.195008783237427 -20.444545141654089 0 -20.444545141654089 -6.2587368880485883 0 0 0 0 -59.661243022590497 38.015614651681972 0 38.015614651681972 -16.935052644723328 0 0 0 0 -25.862385480104987 3.7015800793754465 0 3.7015800793754465 12.809325699012788 0 0 0 0 -93.433700338178824 -33.399183944158722 0 -33.399183944158722 -21.406087328796275 0 0 0 0 -24.895285589516305 -10.801086870000859 0 -10.801086870000859 5.2013055659471092 0 0 0 0 -10.086577846563159 -6.5572536616527941 0 -6.5572536616527941 6.2451411820366047 0 0 0 0 -8.8844690639775159 -1.4323152920786129 0 -1.4323152920786129 3.9268272406823144 0 0 0 0 -3.4494477143598488 -3.6543350662686862 0 -3.6543350662686862 2.8366455707000569 0 0 0 0 -2.5734966252001463 -36.409209847652733 0 -36.409209847652733 0.86903086563768284 0 0 0 0 0.21506387312746988 -10.456496884662503 0 -10.456496884662503 -1.5100879237910476 0 0 0 0 8.1852947113648042 -28.444783411301614 0 -28.444783411301614 14.894788742589299 0 0 0 0 -7.6702068797940228 -12.67995746491215 0 -12.67995746491215 0.010453494018292986 0 0 0 0 -2.3412924552200138 -13.381115928132203 0 -13.381115928132203 -1.3982611803949112 0 0 0 0 -1.4656741100673203 3.2280978390884485 0 3.2280978390884485 0.048013355903322008 0 0 0 0 -22.743294431640606 -7.7437939457158791 0 -7.7437939457158791 4.5887010719161481 0 0 0 0 -5.5228826303350615 0.28936226963924128 0 0.28936226963924128 5.014884841919411 0 0 0 0 -12.392027976504323 -6.2339606003079098 0 -6.2339606003079098 6.9659875650249887 0 0 0 0 -8.9945765126804069 -6.5652293246350553 0 -6.5652293246350553 4.1452635655359416 0 0 0 0 -3.359144691009412 -5.5570066485831067 0 -5.5570066485831067 1.4536209438955439 0 0 0 0 28.222437015727337 -14.773123407707317 0 -14.773123407707317 -11.450124222552404 0 0 0 0 11.108453591710528 -7.757189299025498 0 -7.757189299025498 1.6647018298862264 0 0 0 0 16.079943059732614 -16.324400359473657 0 -16.324400359473657 -12.435582673817407 0 0 0 0 14.634535597447012 -5.114196266594945 0 -5.114196266594945 -8.4589198642061092 0 0 0 0 -13.076636067772739 -10.041861646649636 0 -10.041861646649636 0.46838956017745659 0 0 0 0 -5.8616187633379155 -10.589616230701296 0 -10.589616230701296 4.790465468262795 0 0 0 0 1.3829168687066122 -12.003066514594934 0 -12.003066514594934 1.1599647417140773 0 0 0 0 -0.88109267681829806 -20.287232162554574 0 -20.287232162554574 -0.011510019307024777 0 0 0 0 -2.2548634922963053 0.75838949865837435 0 0.75838949865837435 2.6458486528418348 0 0 0 0 297.44259878555636 47.270739278123074 0 47.270739278123074 -564.63508847600315 0 0 0 0 -6.3609044032287301 -13.636793349478731 0 -13.636793349478731 -4.6886478593179959 0 0 0 0 -53.382948607369826 -5.8224791033844667 0 -5.8224791033844667 -3.0198303529323312 0 0 0 0 -407.48522693428276 63.001711641336442 0 63.001711641336442 426.65146452409681 0 0 0 0 -50.440985225290206 52.32515279125073 0 52.32515279125073 -92.61863304405415 0 0 0 0 -6.4487629780456341 -1.8956210568699987 0 -1.8956210568699987 1.299399199091539 0 0 0 0 -191.32935832334806 148.63709106849274 0 148.63709106849274 -40.779720332036959 0 0 0 0 -198.43004123373976 -139.83843104096013 0 -139.83843104096013 -92.591068667126819 0 0 0 0 -70.50211706178834 14.622343174240086 0 14.622343174240086 82.045243830114487 0 0 0 0 -58.93313522173321 -256.181928603095 0 -256.181928603095 -15.950727690942585 0 0 0 0 1.456465945791539 -0.67107585818047255 0 -0.67107585818047255 -4.5071625479537261 0 0 0 0 -385.18324832100188 -2.8609967917000176 0 -2.8609967917000176 -17.17812893079099 0 0 0 0 -45.143701543622228 -168.37944470407092 0 -168.37944470407092 -23.621094739122782 0 0 0 0 -386.82036508082479 -233.5181917078346 0 -233.5181917078346 178.66301424067933 0 0 0 0 -40.333935197756546 -269.9829442085902 0 -269.9829442085902 0.28532554130651988 0 0 0 0 -101.35310644909816 -20.194666250871705 0 -20.194666250871705 -0.01606931492278818 0 0 0 0 613.41729335642367 113.39913083560532 0 113.39913083560532 114.13843952395837 0 0 0 0 -57.818760368213248 -133.24852845536589 0 -133.24852845536589 169.91440573451109 0 0 0 0 -11.545996390940042 -1.6741835426125391 0 -1.6741835426125391 3.1301317449407975 0 0 0 0 -69.398286262705369 -217.09493739555728 0 -217.09493739555728 60.133798495517112 0 0 0 0 -9.7180866101200198 3.7822820531291335 0 3.7822820531291335 -0.77229484511269675 0 0 0 0 -18.818676354541822 -8.2824641847400926 0 -8.2824641847400926 -0.0084375254227779806 0 0 0 0 -11.449529544202688 1.2267710940493259 0 1.2267710940493259 2.968539655372183 0 0 0 0 -82.992486200311305 -25.147982423091889 0 -25.147982423091889 -5.2910621323535452 0 0 0 0 -81.676026209999236 -21.981867361184413 0 -21.981867361184413 -4.0723466728522908 0 0 0 0 -86.781932894692758 -22.494013588330972 0 -22.494013588330972 -1.8595188134058844 0 0 0 0 -27.74132163322151 5.7397138924579281 0 5.7397138924579281 8.6339678890474829 0 0 0 0 -86.673111422283 -25.939085211764905 0 -25.939085211764905 -3.2783457799232565 0 0 0 0 -58.814770374747418 -25.462403377944725 0 -25.462403377944725 -4.9982703401736899 0 0 0 0 -111.83552354535277 -22.901364921017375 0 -22.901364921017375 -7.1769511918973876 0 0 0 0 -14.943358377120603 34.193597614532337 0 34.193597614532337 -37.102182015332801 0 0 0 0 -121.10669383254572 -19.856236510968301 0 -19.856236510968301 0.020659851201344281 0 0 0 0 -29.789035748856151 22.066790111567741 0 22.066790111567741 11.536701033811596 0 0 0 0 -7.3367043390988442 0.66262807577965077 0 0.66262807577965077 -5.003901530881933 0 0 0 0 -23.267101109216128 8.6472615920138196 0 8.6472615920138196 -0.8748627356835641 0 0 0 0 -37.550318641164722 -9.1434366270914325 0 -9.1434366270914325 0.0079775542544666678 0 0 0 0 2.3823640885612214 -1.5763520324953788 0 -1.5763520324953788 -5.1735577813435611 0 0 0 0 -8.5694539896630886 -9.5094839849480195 0 -9.5094839849480195 -0.0079790427085141367 0 0 0 0 -855.49541416230545 136.68469104257201 0 136.68469104257201 -5.4378708769218065 0 0 0 0 -576.62314899528792 -398.4102710266452 0 -398.4102710266452 -0.25910652415768709 0 0 0 0 -795.77680775867248 -319.10262584640623 0 -319.10262584640623 7.5576090288232081 0 0 0 0 -422.55769701662575 -250.58999383822083 0 -250.58999383822083 20.133356627928151 0 0 0 0 -551.49672858543818 -171.83917394254968 0 -171.83917394254968 12.389270992352976 0 0 0 0 -193.57418268185029 -84.144404189719353 0 -84.144404189719353 13.226321781066304 0 0 0 0 -184.7527948137049 77.355392910452792 0 77.355392910452792 -18.960037306904269 0 0 0 0 -222.12976248460745 -62.715355428495968 0 -62.715355428495968 30.327521600935142 0 0 0 0 -47.536263968685489 15.654590074249427 0 15.654590074249427 0.19779467990156263 0 0 0 0 -387.65082777850876 -270.27156908622419 0 -270.27156908622419 -71.893733654447715 0 0 0 0 -83.084629729664812 -112.06190238844647 0 -112.06190238844647 -86.768236689866171 0 0 0 0 -58.114684241816576 -23.389570341445506 0 -23.389570341445506 37.939339458229369 0 0 0 0 -169.93240047094514 -34.839660607267433 0 -34.839660607267433 54.118673535645939 0 0 0 0 -49.634302859895953 -7.2866279030398573 0 -7.2866279030398573 15.798583490236339 0 0 0 0 -140.88282280277053 -233.35827785835136 0 -233.35827785835136 58.071655029954854 0 0 0 0 2.4451867454232854 5.868258474397777 0 5.868258474397777 4.1762262512997381 0 0 0 0 -25.404652043126145 13.459673811283622 0 13.459673811283622 26.673333236061296 0 0 0 0 0.15875238067378916 -3.5959153988190735 0 -3.5959153988190735 1.0539324239553594 0 0 0 0 13.67940918358126 -17.066119771285599 0 -17.066119771285599 2.0903285146764574 0 0 0 0 -136.9442563253906 -126.72013947492815 0 -126.72013947492815 -532.22997993888566 0 0 0 0 1.5164590679623871 -8.6660938600070949 0 -8.6660938600070949 26.24143829967943 0 0 0 0 -985.51872126842136 -1480.6673436402853 0 -1480.6673436402853 1617.7648129359586 0 0 0 0 -131.14316936078103 35.834293300635181 0 35.834293300635181 20.951273066537397 0 0 0 0 -7.079909216165106 -28.19380927029124 0 -28.19380927029124 -17.754416213894729 0 0 0 0 -36.571322217616398 3.877137236573617 0 3.877137236573617 -20.121266617847141 0 0 0 0 -100.36799310963033 -20.262599342619069 0 -20.262599342619069 -3.6398550222511403 0 0 0 0 -47.580030399753014 -11.212414756097132 0 -11.212414756097132 -9.8786041419371031 0 0 0 0 -46.012248778515641 -18.558979714456655 0 -18.558979714456655 10.357401364744874 0 0 0 0 -44.815141372873768 2.0983282118177158 0 2.0983282118177158 6.4086130613577552 0 0 0 0 0.051319375350992402 -12.557282104997228 0 -12.557282104997228 -4.8242719324057362 0 0 0 0 -50.089494416606613 -10.17239806339785 0 -10.17239806339785 -8.4742928151390515 0 0 0 0 -194.12586130298587 -54.154702534186072 0 -54.154702534186072 35.663946401269641 0 0 0 0 -162.0444180990271 -126.62084954035527 0 -126.62084954035527 -142.88270514144097 0 0 0 0 -818.8521304031492 -565.24130838085694 0 -565.24130838085694 -56.609916463141417 0 0 0 0 -693.54275687179279 -480.8891500884356 0 -480.8891500884356 -0.10929401362955105 0 0 0 0 -633.87300111409422 -501.35966382968036 0 -501.35966382968036 -129.10590066282748 0 0 0 0 -625.15731241827598 -475.5620607881574 0 -475.5620607881574 -64.668870850786334 0 0 0 0 -672.19810610860168 -539.53117685679172 0 -539.53117685679172 -86.681658437271835 0 0 0 0 -555.26788098797806 -435.40282318702521 0 -435.40282318702521 -0.050990999399800785 0 0 0 0 -561.29167538556794 -417.98511070431414 0 -417.98511070431414 -50.299575967488636 0 0 0 0 -492.01954149552148 -394.28842198962229 0 -394.28842198962229 -91.788109742527013 0 0 0 0 -340.40732425644092 -304.14689059299417 0 -304.14689059299417 -64.753334429151437 0 0 0 0 -453.44523375346398 -437.37838446212118 0 -437.37838446212118 -156.81469754831051 0 0 0 0 -331.58057003268914 -332.40606304706307 0 -332.40606304706307 -128.7830707084504 0 0 0 0 -212.07035197621371 -202.41296235533082 0 -202.41296235533082 -111.20073275521281 0 0 0 0 -126.78998901107843 -51.937199691252317 0 -51.937199691252317 -66.182798434143479 0 0 0 0 -79.975094404129777 -185.21845060845953 0 -185.21845060845953 -305.91829396730827 0 0 0 0 -259.55778131676925 -340.19100674286892 0 -340.19100674286892 -284.77551891817711 0 0 0 0 -163.29085655137897 -286.42844258533296 0 -286.42844258533296 -276.83092887874227 0 0 0 0 -247.55192519869343 -353.28269610585994 0 -353.28269610585994 -339.36207893982646 0 0 0 0 -422.05566884208383 -478.28762491740054 0 -478.28762491740054 -288.42618244051118 0 0 0 0 -199.39344897611591 -260.8959346365591 0 -260.8959346365591 -456.02004129973648 0 0 0 0 -338.78260075913568 -407.76386106596328 0 -407.76386106596328 -367.72712778340792 0 0 0 0 -367.61275688596652 -502.22163627371629 0 -502.22163627371629 -526.40053121710662 0 0 0 0 -231.45687527833798 -390.7629137141048 0 -390.7629137141048 -496.82672478014138 0 0 0 0 -440.41084433772085 -462.81359900791722 0 -462.81359900791722 -207.05980688906857 0 0 0 0 -492.90138568746261 -440.79664575667266 0 -440.79664575667266 -185.17017059351201 0 0 0 0 -704.23872117634164 -533.04839240647561 0 -533.04839240647561 -141.93650983335101 0 0 0 0 -558.92496028671303 -546.06161432487716 0 -546.06161432487716 -318.43971562932711 0 0 0 0 -598.40480005286918 -462.84803995837865 0 -462.84803995837865 -273.79010656574974 0 0 0 0 -524.77420896702097 -454.05306205910165 0 -454.05306205910165 -277.49961981301021 0 0 0 0 -647.29722714943637 -569.28047528036404 0 -569.28047528036404 -441.50513172302817 0 0 0 0 -606.8001861067969 -571.93483653655858 0 -571.93483653655858 -441.95113620118354 0 0 0 0 -725.42707154521486 -497.5770547894499 0 -497.5770547894499 -272.33912907828926 0 0 0 0 -561.18290620221524 -483.60992368500592 0 -483.60992368500592 -384.42038930032868 0 0 0 0 -632.05069366805401 -393.67682963708648 0 -393.67682963708648 -389.16196702947127 0 0 0 0 -271.34559242211253 -355.34191651789297 0 -355.34191651789297 -506.35736240280676 0 0 0 0 -692.21913279304135 -633.09339980519144 0 -633.09339980519144 -303.52998148016923 0 0 0 0 -722.3220979848993 -574.12322611494528 0 -574.12322611494528 -230.49474324888433 0 0 0 0 -841.78000514556697 -395.38180681212543 0 -395.38180681212543 404.82274781243177 0 0 0 0 -374.22637254059373 -564.63164712971775 0 -564.63164712971775 274.16069131909171 0 0 0 0 -120.03206678641436 -747.93388608939858 0 -747.93388608939858 349.77949668007204 0 0 0 0 -423.89207520986383 -363.17866321248584 0 -363.17866321248584 275.8693975819042 0 0 0 0 -603.91328532325133 -661.09996884495195 0 -661.09996884495195 263.56130045514146 0 0 0 0 -1116.9648835051048 -618.94298849196639 0 -618.94298849196639 -336.81308776278456 0 0 0 0 -242.96164516468707 -286.48497452720949 0 -286.48497452720949 -380.47861276898766 0 0 0 0 -381.67115153435589 -472.16646525145188 0 -472.16646525145188 -460.83769349718932 0 0 0 0 -734.10898345229361 -145.65799176358996 0 -145.65799176358996 -236.91456457701861 0 0 0 0 817.00145169094321 -1475.0138606333057 0 -1475.0138606333057 899.14085785873249 0 0 0 0 -839.35746440984076 -891.61543142037408 0 -891.61543142037408 -931.3152432332281 0 0 0 0 -10.372881469516571 -1.3063439835005966 0 -1.3063439835005966 0.030270294843347756 0 0 0 0 -369.46485130691872 -756.27608914574375 0 -756.27608914574375 -1437.8282395136484 0 0 0 0 -374.82372994452453 -609.6518241634185 0 -609.6518241634185 -813.07475071208319 0 0 0 0 -93.040295750746736 -284.97624213527888 0 -284.97624213527888 -926.57591550488723 0 0 0 0 -331.65202937129652 690.28349260440154 0 690.28349260440154 1070.7790483536492 0 0 0 0 -79.536413964020539 -564.37927556042996 0 -564.37927556042996 169.46694853584631 0 0 0 0 7.5551943887930051 -10.430961779537881 0 -10.430961779537881 17.862570029085305 0 0 0 0 -154.40379937969556 -376.41405702524935 0 -376.41405702524935 124.67225075126044 0 0 0 0 -343.98904550119187 -330.04297919665987 0 -330.04297919665987 437.44328728725668 0 0 0 0 -243.65006741539401 -430.41361036475428 0 -430.41361036475428 497.95265696302522 0 0 0 0 -221.35175147862174 -655.46077837233315 0 -655.46077837233315 681.28699987768778 0 0 0 0 -497.65010214796348 -304.5995353324688 0 -304.5995353324688 982.13572024580208 0 0 0 0 -26.611764114772086 -886.00564442046743 0 -886.00564442046743 1016.0935952420114 0 0 0 0 -192.38565718059544 -536.6880368500133 0 -536.6880368500133 321.19145048616338 0 0 0 0 -191.63496333840885 -168.56169100623811 0 -168.56169100623811 -405.09309074963676 0 0 0 0 -33.312753167876508 636.44865771627519 0 636.44865771627519 -771.23984198138351 0 0 0 0 -40.922294708459177 6.6372550208772907 0 6.6372550208772907 5.868353521847169 0 0 0 0 -730.79796915574116 -355.74587948803673 0 -355.74587948803673 2693.7885069927434 0 0 0 0 -929.76718396494107 1901.285334066255 0 1901.285334066255 1843.9688931961718 0 0 0 0 -116.60923230774642 -121.94077166973148 0 -121.94077166973148 -514.4557664814638 0 0 0 0 -240.57635151143768 -340.10515988312545 0 -340.10515988312545 -604.02785209775902 0 0 0 0 -74.457921631983481 -148.83963833609596 0 -148.83963833609596 -404.89200670487844 0 0 0 0 -202.54830497819785 -282.87360325510963 0 -282.87360325510963 -371.82766724098474 0 0 0 0 -462.00347616890031 -157.36363004468512 0 -157.36363004468512 313.61811916518491 0 0 0 0 -288.45756742252706 -107.02234031427361 0 -107.02234031427361 263.92341087134264 0 0 0 0 -879.48467774873279 258.99443640255049 0 258.99443640255049 415.36717917252099 0 0 0 0 -41.377063662172873 -16.672789415797411 0 -16.672789415797411 11.620535160330874 0 0 0 0 -278.54419168080494 -128.25216490542516 0 -128.25216490542516 303.86180809799407 0 0 0 0 -274.78360945046279 -94.399098280686303 0 -94.399098280686303 111.45775950734969 0 0 0 0 -39.915661214119609 -224.03496465344506 0 -224.03496465344506 -278.8010854695458 0 0 0 0 -10.006518000109907 9.6400361518067825 0 9.6400361518067825 9.5449487627105611 0 0 0 0 -49.67685336495245 15.921535299734074 0 15.921535299734074 18.140419991878559 0 0 0 0 158.16923599586153 -148.03899778601772 0 -148.03899778601772 -881.67974629826494 0 0 0 0 -276.91532467531215 -366.05943341529928 0 -366.05943341529928 -43.881758516276022 0 0 0 0 -389.79003616982709 -583.22108209699127 0 -583.22108209699127 557.41619293612894 0 0 0 0 -390.01361301390307 -567.44246929927283 0 -567.44246929927283 1394.8820953878458 0 0 0 0 -468.67809144750936 -274.41232911139377 0 -274.41232911139377 1087.1730688528914 0 0 0 0 -360.58950052803993 -326.49327571416507 0 -326.49327571416507 586.91625459579518 0 0 0 0 -432.58703403983964 -356.68967512800009 0 -356.68967512800009 604.11212573065131 0 0 0 0 -339.04596638477233 -293.3129175635986 0 -293.3129175635986 646.71340911701554 0 0 0 0 -288.58063503810263 -129.4197859512642 0 -129.4197859512642 503.46501267454005 0 0 0 0 -298.24497057998087 -102.14851149723108 0 -102.14851149723108 620.11557293767692 0 0 0 0 -276.59174571095537 71.085255770884032 0 71.085255770884032 1261.4961985170958 0 0 0 0 -293.15546421539329 -57.851220874275896 0 -57.851220874275896 683.90621098459815 0 0 0 0 -15.651412172730488 148.95343872175727 0 148.95343872175727 298.75383501002216 0 0 0 0 -248.85566991583619 -171.23322592637851 0 -171.23322592637851 368.46779673726996 0 0 0 0 -96.703531643524911 -14.380830777867232 0 -14.380830777867232 308.65464881761 0 0 0 0 -50.377223770170531 -15.779910159046267 0 -15.779910159046267 -12.118488997395616 0 0 0 0 -23.730627605807967 -120.58643797819968 0 -120.58643797819968 -63.332262088195421 0 0 0 0 -29.196325102297124 -122.19066679946263 0 -122.19066679946263 -50.886060125252698 0 0 0 0 -24.081636922477628 -128.17264208613778 0 -128.17264208613778 -58.598502974957228 0 0 0 0 -10.874438049664604 -136.48402646182512 0 -136.48402646182512 -55.981439482740825 0 0 0 0 -112.71832122272463 -1798.5696272971318 0 -1798.5696272971318 2379.0349288563302 0 0 0 0 7.0813084759276208 -20.902405909041974 0 -20.902405909041974 46.923696772063522 0 0 0 0 -36.224026876443531 -130.37974622970796 0 -130.37974622970796 -63.290510182356229 0 0 0 0 -24.406282666011975 -155.77681198291975 0 -155.77681198291975 -9.3068384366342798 0 0 0 0 -52.118973667209502 -150.17734534011106 0 -150.17734534011106 -50.816287406312767 0 0 0 0 -23.981101465834286 -133.95706504621535 0 -133.95706504621535 -45.200512421957683 0 0 0 0 -103.98558096359193 -154.00178886047797 0 -154.00178886047797 -20.920302326470846 0 0 0 0 -85.195376441864937 -114.28897768630122 0 -114.28897768630122 -37.704364775156137 0 0 0 0 -103.06701798471477 -169.52922671902343 0 -169.52922671902343 -33.178520698653301 0 0 0 0 -133.72143196793331 -160.67265525905532 0 -160.67265525905532 -56.883615754068728 0 0 0 0 -135.49921446229564 -116.05670069657208 0 -116.05670069657208 -56.739361587013207 0 0 0 0 -245.5236410492289 -129.06605594573193 0 -129.06605594573193 1.1598112504871096 0 0 0 0 -131.11558645548939 -96.837566083631827 0 -96.837566083631827 -12.522687009128276 0 0 0 0 -130.77835739585862 -186.29663351431373 0 -186.29663351431373 38.217939510912402 0 0 0 0 -120.13677843479672 -137.27709414632409 0 -137.27709414632409 71.208861125989642 0 0 0 0 -65.88902668729861 -96.098142707043735 0 -96.098142707043735 60.193789094744716 0 0 0 0 -144.68602094437301 -129.37486640970747 0 -129.37486640970747 157.81355361110764 0 0 0 0 -165.968372456613 -250.55104418258998 0 -250.55104418258998 195.81836399773601 0 0 0 0 -221.44657364733575 -207.17038048410905 0 -207.17038048410905 389.11077556583041 0 0 0 0 -184.08617981548014 -231.51422151818406 0 -231.51422151818406 180.55797934753355 0 0 0 0 -414.86057471255754 -116.07303952309303 0 -116.07303952309303 62.362880699089146 0 0 0 0 -257.82595632830635 7.3140895699179964 0 7.3140895699179964 -276.39899456725107 0 0 0 0 -132.01877375241384 -215.49259892019472 0 -215.49259892019472 65.893418390944134 0 0 0 0 -186.14854507508062 -98.782149295679119 0 -98.782149295679119 -44.871655551338335 0 0 0 0 -343.92665227968973 -43.76744677516399 0 -43.76744677516399 -0.6850921204459155 0 0 0 0 -240.17133296773318 -91.282824235147928 0 -91.282824235147928 -10.361681641370524 0 0 0 0 -354.47615733615385 -86.837221037843847 0 -86.837221037843847 8.4383601982844993 0 0 0 0 -418.80699873395497 -126.85643518948928 0 -126.85643518948928 19.11955164020037 0 0 0 0 -340.01826545986842 -114.64490327742533 0 -114.64490327742533 9.8896270398108754 0 0 0 0 -354.00411175255431 -70.055011287142406 0 -70.055011287142406 16.361487829883117 0 0 0 0 -361.84772117323882 -73.209341610810952 0 -73.209341610810952 18.695641943893861 0 0 0 0 -357.40704185118921 -89.168759963096818 0 -89.168759963096818 27.562454703147523 0 0 0 0 12.259265403140866 -11.628058893544249 0 -11.628058893544249 9.7148945698881448 0 0 0 0 -348.91771751040505 -76.404206181527115 0 -76.404206181527115 11.454010311248567 0 0 0 0 88.2887955450351 -32.11591923879314 0 -32.11591923879314 9.8044710760004818 0 0 0 0 9.667260532299963 -62.943984137582277 0 -62.943984137582277 -29.064050615482699 0 0 0 0 -9.9286521942703985 -51.450853333051782 0 -51.450853333051782 -39.890764361596666 0 0 0 0 91.947634570293047 -57.103665177265853 0 -57.103665177265853 -35.800578931678729 0 0 0 0 91.397773992121245 -58.552389477514978 0 -58.552389477514978 -32.583019478936365 0 0 0 0 7.4114088490605354 -58.652412512688898 0 -58.652412512688898 -45.942280772374943 0 0 0 0 -7.3716647243854823 -64.848981700692093 0 -64.848981700692093 -27.731904601387214 0 0 0 0 -36.719403955672618 -61.346369712845757 0 -61.346369712845757 -16.424009745169542 0 0 0 0 14.107474905038515 -58.451916925832805 0 -58.451916925832805 -44.332270999162802 0 0 0 0 13.136327586639084 -38.197042177927869 0 -38.197042177927869 45.349457339715457 0 0 0 0 31.385842818650417 -258.31498519057641 0 -258.31498519057641 231.63776098869857 0 0 0 0 283.43244267663613 -630.77611567980057 0 -630.77611567980057 0.23093290365068242 0 0 0 0 -53.018236843847262 -121.55603302158124 0 -121.55603302158124 74.142360622994602 0 0 0 0 -13.440871745400084 -19.899885105767154 0 -19.899885105767154 -8.5506197512773952 0 0 0 0 -78.892532663645198 -32.108317285846965 0 -32.108317285846965 3.3544497034447716 0 0 0 0 -177.44573102255345 -78.992637062321592 0 -78.992637062321592 199.58713994803838 0 0 0 0 15.588233016551385 -24.820342782368243 0 -24.820342782368243 -27.344184817833593 0 0 0 0 -57.962618063662376 -30.713275627480471 0 -30.713275627480471 70.839383505284786 0 0 0 0 56.209813100504107 -7.3838032760759233 0 -7.3838032760759233 -80.327272543174331 0 0 0 0 -128.89411597358412 1.0025819873571891 0 1.0025819873571891 -5.6049410143168643 0 0 0 0 -31.556279250538381 -13.837231335243075 0 -13.837231335243075 8.5253983466863019 0 0 0 0 30.891081898205584 -92.058230963863025 0 -92.058230963863025 0.15519200288690627 0 0 0 0 -81.909766006057907 26.695795573672513 0 26.695795573672513 21.628474557022855 0 0 0 0 -46.539078957441234 83.927977227474912 0 83.927977227474912 -138.87273829686455 0 0 0 0 -4.3800938146950088 -0.5224009089813535 0 -0.5224009089813535 0.51088459126276575 0 0 0 0 -69.517320996921626 -23.306261391961016 0 -23.306261391961016 46.167436692980118 0 0 0 0 -13.218468406523449 -21.543077547705906 0 -21.543077547705906 22.431635608057434 0 0 0 0 -326.30254768660961 28.642757804802386 0 28.642757804802386 1.0147109437384643 0 0 0 0 -321.26676095478797 16.406472018614295 0 16.406472018614295 179.31920609316148 0 0 0 0 -305.16219529679938 112.31871636901451 0 112.31871636901451 -13.730745313660009 0 0 0 0 56.751176265671347 7.4065047848562244 0 7.4065047848562244 -971.91245524538681 0 0 0 0 -48.765515416802373 -3.3571674650738714 0 -3.3571674650738714 85.187990047961648 0 0 0 0 -35.640605170727213 -10.081477403553436 0 -10.081477403553436 39.527947206341196 0 0 0 0 -72.090101658016593 -11.591862173058587 0 -11.591862173058587 31.173321543033239 0 0 0 0 -59.420460686604201 -11.017099164702813 0 -11.017099164702813 44.390561429594527 0 0 0 0 165.23559511431085 -1104.5897199777683 0 -1104.5897199777683 186.89536461756506 0 0 0 0 -4.1847646275986037 -40.283984809913647 0 -40.283984809913647 62.958512106498404 0 0 0 0 -55.842656333370542 -956.06164091523533 0 -956.06164091523533 775.01119747370103 0 0 0 0 751.46625497413697 1161.051968638676 0 1161.051968638676 -790.57764031650731 0 0 0 0 -137.76680750902779 -178.59497931734222 0 -178.59497931734222 -50.627919280304923 0 0 0 0 -85.550933628859639 -65.947002487868303 0 -65.947002487868303 -42.059740194737969 0 0 0 0 -31.276295771415789 3.3388769769053397 0 3.3388769769053397 81.307405618746998 0 0 0 0 -9.5040699460014366 -107.64476975764592 0 -107.64476975764592 -180.91549329305417 0 0 0 0 -32.059756861592177 -88.168489523959579 0 -88.168489523959579 169.3431692832819 0 0 0 0 392.01337298572616 -149.1923841204225 0 -149.1923841204225 -160.21647833200404 0 0 0 0 6.1803146313022594 -13.885489907146791 0 -13.885489907146791 14.320933931041225 0 0 0 0 -5.9593707323328999 204.64938641658955 0 204.64938641658955 618.27782345781452 0 0 0 0 -2.5736069994964055 199.53614930195909 0 199.53614930195909 128.08974841531017 0 0 0 0 -55.281636688960134 145.47964261696688 0 145.47964261696688 890.35651993576903 0 0 0 0 12.862129315124925 -15.507959306852911 0 -15.507959306852911 18.20751239963198 0 0 0 0 109.230347867815 438.98385426598543 0 438.98385426598543 -676.12019832750957 0 0 0 0 -219.22221273334981 -76.871786862899171 0 -76.871786862899171 640.64823665330186 0 0 0 0 -175.52018611247877 -294.49746648024848 0 -294.49746648024848 1704.9536466870632 0 0 0 0 -159.81212998611591 -37.225939660449512 0 -37.225939660449512 273.65432460927696 0 0 0 0 -158.26402742177015 -66.46337443937955 0 -66.46337443937955 632.27537622483214 0 0 0 0 -88.701839919369377 -202.09721292936592 0 -202.09721292936592 461.66325666876219 0 0 0 0 -32.391464917360281 -116.55049512920232 0 -116.55049512920232 166.34205199278949 0 0 0 0 12.893758353238809 -153.34233632536416 0 -153.34233632536416 166.61633270065067 0 0 0 0 -44.339724651828874 -32.361081467868644 0 -32.361081467868644 151.66420104645294 0 0 0 0 -57.273212132300614 -87.587052135837439 0 -87.587052135837439 63.079627043247456 0 0 0 0 13.34231208046549 -47.971187005954562 0 -47.971187005954562 -49.091406347946759 0 0 0 0 -91.086397817794932 -72.534828785981517 0 -72.534828785981517 -59.428072826907737 0 0 0 0 -63.909085405973656 -28.84443642700586 0 -28.84443642700586 -11.686226706257742 0 0 0 0 -79.814774351383676 -19.822473862899642 0 -19.822473862899642 78.427615243606851 0 0 0 0 -1.6394339218968526 -105.77857533170027 0 -105.77857533170027 29.712658145137539 0 0 0 0 -126.46362885413691 -128.47466699853976 0 -128.47466699853976 99.385221282442217 0 0 0 0 28.890994226803741 -146.94599341257708 0 -146.94599341257708 26.321872163607622 0 0 0 0 181.8736493352626 -199.27398139396973 0 -199.27398139396973 117.01012976840138 0 0 0 0 51.973852852133859 -235.57576086731933 0 -235.57576086731933 153.63566224623355 0 0 0 0 128.32807478657924 -235.68485329989926 0 -235.68485329989926 118.51733530622005 0 0 0 0 109.49271965396474 -200.33185878217046 0 -200.33185878217046 152.33057251828723 0 0 0 0 305.6012621903501 -322.88287088363359 0 -322.88287088363359 318.49342706258176 0 0 0 0 323.84830178516859 -306.3763088969572 0 -306.3763088969572 121.65439715874527 0 0 0 0 91.141979331252514 -279.96582340608438 0 -279.96582340608438 188.09700088157842 0 0 0 0 87.780898653159966 -334.15971699153306 0 -334.15971699153306 138.35278068973275 0 0 0 0 110.09368109714705 -310.64751422108384 0 -310.64751422108384 142.59880169903045 0 0 0 0 -78.207558514957782 -227.75657116288494 0 -227.75657116288494 87.265769604506204 0 0 0 0 92.902162670087364 -255.37892549762864 0 -255.37892549762864 -29.362988739856519 0 0 0 0 -49.397832078466308 -523.01882090837171 0 -523.01882090837171 97.848918228432012 0 0 0 0 524.56379777305119 -118.7335586959307 0 -118.7335586959307 74.834884287120076 0 0 0 0 56.149736853258219 -20.662614907007082 0 -20.662614907007082 489.72043526966172 0 0 0 0 -17.532531218370423 -362.35148126129934 0 -362.35148126129934 461.59369901349419 0 0 0 0 114.15263016470658 -208.15361987165556 0 -208.15361987165556 136.93041160076973 0 0 0 0 24.668474251753651 -346.0650775123795 0 -346.0650775123795 171.47372403886402 0 0 0 0 48.974943637149408 -295.13977201522357 0 -295.13977201522357 210.6801646828244 0 0 0 0 1.0704090161016211 -172.00996803266025 0 -172.00996803266025 277.59722738988785 0 0 0 0 17.153420319726138 -69.615694874831206 0 -69.615694874831206 -38.126283480291022 0 0 0 0 17.322520856410847 -163.1061155676507 0 -163.1061155676507 192.75879245143733 0 0 0 0 -81.170900493183581 60.3468392230061 0 60.3468392230061 158.78341698748409 0 0 0 0 -19.558250973313989 74.072596893573063 0 74.072596893573063 -68.956897045776714 0 0 0 0 -165.78351377451327 -279.82915400429556 0 -279.82915400429556 -344.88846729612123 0 0 0 0 2.0325594457904401 -3.178390052144664 0 -3.178390052144664 1.5148099372159862 0 0 0 0 204.44059419675614 -195.38790433786926 0 -195.38790433786926 58.062253634598164 0 0 0 0 53.548314724990632 74.724292407205212 0 74.724292407205212 44.186526210614829 0 0 0 0 -24.397713911472238 -113.34551552470657 0 -113.34551552470657 91.949057297482796 0 0 0 0 -119.02137673509242 50.361902776132411 0 50.361902776132411 175.39444858365459 0 0 0 0 -226.80406739589671 -67.737670998343674 0 -67.737670998343674 72.000784406278399 0 0 0 0 -133.87336383818183 -81.935305464503472 0 -81.935305464503472 13.266596921661403 0 0 0 0 -128.88220309009193 -13.78521721332072 0 -13.78521721332072 -30.404814341643942 0 0 0 0 -0.66621967205244204 -6.2431348574705936 0 -6.2431348574705936 -1.1886032605012815 0 0 0 0 -114.65464395095842 43.594042851975246 0 43.594042851975246 -39.516890306040295 0 0 0 0 -90.970107065666525 86.856008133618161 0 86.856008133618161 24.558250917994883 0 0 0 0 3.8893542636195164 -3.6012389619832277 0 -3.6012389619832277 -1.9285882989323682 0 0 0 0 -463.41655823212204 331.44808432723221 0 331.44808432723221 160.17892518678855 0 0 0 0 3.297278515568614 -4.8629474063742464 0 -4.8629474063742464 9.8381491000300798 0 0 0 0 -70.23445393552538 75.059723967468017 0 75.059723967468017 -89.180851257988252 0 0 0 0 261.70617736459826 276.19996040013575 0 276.19996040013575 -90.554630220474792 0 0 0 0 -36.556890494881372 -111.50617006063112 0 -111.50617006063112 72.73599464999279 0 0 0 0 -674.3307292607642 -250.87179015623406 0 -250.87179015623406 18.12682816079905 0 0 0 0 -203.73317446137662 19.448037480928178 0 19.448037480928178 97.343300307373283 0 0 0 0 -369.3158100069777 -243.88056324054924 0 -243.88056324054924 -5.2591584174952004 0 0 0 0 -367.01481643538864 -426.14063113843804 0 -426.14063113843804 -391.92637733634911 0 0 0 0 -210.24373837751045 285.1005057582297 0 285.1005057582297 -342.13923527744191 0 0 0 0 -9.9565864515389819 6.56358564845209 0 6.56358564845209 4.7692502200793001 0 0 0 0 333.7026827883019 -104.56238447578653 0 -104.56238447578653 -134.31207841268042 0 0 0 0 287.89801780856214 -311.59453999681136 0 -311.59453999681136 -1012.4761976976297 0 0 0 0 2.6333211161241366 -3.8339579984369863 0 -3.8339579984369863 0.47531911084348621 0 0 0 0 -375.22533590207604 -792.04393908635393 0 -792.04393908635393 72.537993288191501 0 0 0 0 -128.02439171564765 -660.82651731726946 0 -660.82651731726946 340.16332130182127 0 0 0 0 -208.00515659591474 -514.21289979944777 0 -514.21289979944777 435.15166920714546 0 0 0 0 -151.91078276458575 -531.44751212643678 0 -531.44751212643678 439.44784001508378 0 0 0 0 -75.660337341396371 -433.49668854866468 0 -433.49668854866468 318.35513267631904 0 0 0 0 304.61737311040815 -530.62860309951429 0 -530.62860309951429 299.29287176131038 0 0 0 0 406.32419998335536 -307.32735446498555 0 -307.32735446498555 -169.58232111975667 0 0 0 0 -357.87629933748394 157.27933380896866 0 157.27933380896866 -451.42350342232385 0 0 0 0 -293.66040648198396 -608.85227429473889 0 -608.85227429473889 1036.7944091436366 0 0 0 0 -262.38931604269237 -531.21514853627741 0 -531.21514853627741 1023.6009589850437 0 0 0 0 902.87289086332021 -863.52785996381135 0 -863.52785996381135 -258.69298186825472 0 0 0 0 191.91314861536375 -1191.2292996812612 0 -1191.2292996812612 1906.2330243554898 0 0 0 0 1633.3800010006089 -1803.5130114569038 0 -1803.5130114569038 814.97651918034535 0 0 0 0 2298.8172659064148 -108.24234107740631 0 -108.24234107740631 -1950.2143227001652 0 0 0 0 100.66281446682115 66.617031147616217 0 66.617031147616217 -9.6353494518261869 0 0 0 0 508.38149808422531 1084.9078666254486 0 1084.9078666254486 -1223.8152001650888 0 0 0 0 -46.138422767711745 -0.31956467757117935 0 -0.31956467757117935 133.98307612740609 0 0 0 0 -36.855167947491282 -29.896155226510018 0 -29.896155226510018 -127.42856388520158 0 0 0 0 -264.69204187297873 -232.40386308814777 0 -232.40386308814777 -147.1587875354162 0 0 0 0 -135.48168253515087 39.888885132955693 0 39.888885132955693 -265.6305972977716 0 0 0 0 -128.67376430684817 -6.7704880273740855 0 -6.7704880273740855 41.883107212750474 0 0 0 0 -183.96912625252298 -31.23276811534015 0 -31.23276811534015 170.73328541826777 0 0 0 0 49.658707260627125 -52.631804548982473 0 -52.631804548982473 0.8252429618005408 0 0 0 0 -850.44366446847926 626.95356713575529 0 626.95356713575529 -407.23131443423335 0 0 0 0 3.973521086548331 -21.725516065082601 0 -21.725516065082601 56.367929777973075 0 0 0 0 5.5210456130798207 -16.608434653822229 0 -16.608434653822229 -6.3761189052858072 0 0 0 0 -62.407886910623496 -73.249460850920386 0 -73.249460850920386 -29.879548915875375 0 0 0 0 164.40514006037483 -149.70220952686213 0 -149.70220952686213 -320.4559348483599 0 0 0 0 -259.36399257084122 -65.851185591425747 0 -65.851185591425747 6.6185098183559603 0 0 0 0 -153.57768639313872 -84.014853742039122 0 -84.014853742039122 1.9386680318493745 0 0 0 0 -96.238999188703019 -91.473789155752456 0 -91.473789155752456 -47.200514219730394 0 0 0 0 -37.76043994569045 -60.224348733019724 0 -60.224348733019724 -34.028110805724282 0 0 0 0 -97.872503685434197 -55.605496773568944 0 -55.605496773568944 -21.395462260984573 0 0 0 0 -371.53981391474099 -272.34352334919276 0 -272.34352334919276 103.12867909524357 0 0 0 0 -390.43292530195322 -78.604686138423858 0 -78.604686138423858 31.561926896771183 0 0 0 0 -480.58430437953211 28.244850453062099 0 28.244850453062099 117.62059590462013 0 0 0 0 -154.22952593017908 -20.157432467101899 0 -20.157432467101899 120.93876375478158 0 0 0 0 -48.337211329944694 -281.50482806022774 0 -281.50482806022774 87.903602248537936 0 0 0 0 -77.833259422562051 -64.090298628997118 0 -64.090298628997118 -2.8744138827981374 0 0 0 0 -73.676473645617079 -71.812887651463825 0 -71.812887651463825 29.543156573185115 0 0 0 0 -85.47790542828443 -40.693285963352537 0 -40.693285963352537 -41.099325041504926 0 0 0 0 -253.51644554229279 -70.893368064018432 0 -70.893368064018432 169.69696500578357 0 0 0 0 -198.11028599656129 30.12111667143472 0 30.12111667143472 351.97802254598355 0 0 0 0 -114.65886509888344 -33.475623507753795 0 -33.475623507753795 14.326701243084344 0 0 0 0 -107.03335587623872 -79.552165464023375 0 -79.552165464023375 11.120586841540387 0 0 0 0 -262.8966817947512 -339.66848856861179 0 -339.66848856861179 300.08543109926541 0 0 0 0 -121.88905788665215 -301.26473837075537 0 -301.26473837075537 309.86886405962287 0 0 0 0 -718.65178029936214 -145.43459682133744 0 -145.43459682133744 709.26581908187654 0 0 0 0 -99.323133322555805 241.66519800679816 0 241.66519800679816 502.57517073163035 0 0 0 0 -265.07821864180005 -207.42582153264084 0 -207.42582153264084 -181.14776998195885 0 0 0 0 -265.7332254904104 -189.27941856364851 0 -189.27941856364851 -95.371438990448951 0 0 0 0 -8.6436096613117286 -7.7669755954357669 0 -7.7669755954357669 -5.8213508466621988 0 0 0 0 -39.431016054213757 -33.463131304373462 0 -33.463131304373462 13.253942277183029 0 0 0 0 20.45264654456696 -60.961590264487313 0 -60.961590264487313 18.128616794347181 0 0 0 0 121.77467460783373 -66.594068688988045 0 -66.594068688988045 -12.659297463389521 0 0 0 0 0.31790023379036114 -0.58161823949414782 0 -0.58161823949414782 -0.8677071830826435 0 0 0 0 -600.73606803928124 -329.4632881768448 0 -329.4632881768448 6.0160665145085659 0 0 0 0 214.3960060727768 -120.6630177387924 0 -120.6630177387924 -4.2078742060548393 0 0 0 0 -373.90548770406531 -130.77255097928719 0 -130.77255097928719 -94.198104139970383 0 0 0 0 -153.90316541738866 -66.214657730713952 0 -66.214657730713952 -50.637230853033543 0 0 0 0 -328.15442009296385 -202.84269485833647 0 -202.84269485833647 2.37594133714083 0 0 0 0 -118.7445382833248 -88.641976669336145 0 -88.641976669336145 18.379333976117778 0 0 0 0 -62.050653136277106 13.07979948954744 0 13.07979948954744 54.545203645742731 0 0 0 0 -235.11658199700469 -74.227007684712589 0 -74.227007684712589 49.218123139813542 0 0 0 0 -204.6122783288356 -266.12872569409319 0 -266.12872569409319 -131.25606139437878 0 0 0 0 473.23516753467629 -505.55441928035907 0 -505.55441928035907 -110.17803135875147 0 0 0 0 531.37779580559436 -336.25247173270691 0 -336.25247173270691 -298.5224928498501 0 0 0 0 -79.362528096814742 -94.409478041208757 0 -94.409478041208757 -6.2382393237003271 0 0 0 0 -136.20573195156612 -284.28124246618245 0 -284.28124246618245 -35.29912350520317 0 0 0 0 -41.99883588917146 -136.28434512775857 0 -136.28434512775857 -31.429156335929292 0 0 0 0 244.27040383362328 -432.35476823296631 0 -432.35476823296631 -137.51660805780557 0 0 0 0 243.85804720592569 -388.59040095529053 0 -388.59040095529053 244.41810155671556 0 0 0 0 218.37224322605471 -265.54770461110093 0 -265.54770461110093 306.65061349232565 0 0 0 0 99.017294892968494 -223.74136103825003 0 -223.74136103825003 88.214269762655022 0 0 0 0 256.01588271860965 -297.89257010518304 0 -297.89257010518304 -189.54441465961281 0 0 0 0 271.17567095012055 -401.81017400747805 0 -401.81017400747805 128.6677169140894 0 0 0 0 205.4705263946671 -219.50491387964576 0 -219.50491387964576 142.73530536040198 0 0 0 0 268.1165223166463 -171.31151731873979 0 -171.31151731873979 17.022211343370145 0 0 0 0 153.44457711474388 -276.18781300674164 0 -276.18781300674164 84.617672342894366 0 0 0 0 281.04595889625489 -121.89530383919191 0 -121.89530383919191 160.88482562628633 0 0 0 0 -95.158776689546769 -53.320414713054227 0 -53.320414713054227 33.889183600587216 0 0 0 0 -180.94703136815224 -354.26787854173017 0 -354.26787854173017 -4.8974222901779285 0 0 0 0 380.77325584742357 -223.40805172255205 0 -223.40805172255205 60.340272070840001 0 0 0 0 34.648305246722884 -37.72061231333646 0 -37.72061231333646 -38.192052984930342 0 0 0 0 -401.08779765949294 92.575943043928419 0 92.575943043928419 221.12331457543769 0 0 0 0 -60.791206315001205 -29.183549507918997 0 -29.183549507918997 19.962682113232773 0 0 0 0 -117.51147324043995 -45.893320896357181 0 -45.893320896357181 74.735202992000268 0 0 0 0 -11.196559303958963 -0.71447754415225972 0 -0.71447754415225972 0.72932262326531827 0 0 0 0 -235.87303077521938 -751.67295434119296 0 -751.67295434119296 -716.79850019876176 0 0 0 0 82.816631508350838 -292.77900763723301 0 -292.77900763723301 -488.11875580654305 0 0 0 0 -404.9633032232814 15.687824290318531 0 15.687824290318531 -193.07050140392676 0 0 0 0 -576.823361662151 -695.83150776808361 0 -695.83150776808361 -70.115698011766654 0 0 0 0 432.41839489765698 -173.09578532414162 0 -173.09578532414162 -257.06865368710714 0 0 0 0 144.16403078346048 -155.19238083824166 0 -155.19238083824166 -187.45025817054557 0 0 0 0 108.31407176247012 -219.33008323566719 0 -219.33008323566719 -111.69653841466061 0 0 0 0 -357.94227902646526 -161.50992316341581 0 -161.50992316341581 88.339073686613119 0 0 0 0 -486.39686985241133 -498.81941089659813 0 -498.81941089659813 81.361685046562343 0 0 0 0 -248.01598966910387 -405.15692667098483 0 -405.15692667098483 48.511995873450815 0 0 0 0 -1044.9147497357408 -472.84902286565921 0 -472.84902286565921 46.332112636519014 0 0 0 0 -24.031074770125997 -464.67826757960393 0 -464.67826757960393 78.872217550408095 0 0 0 0 -146.99029017370412 -258.49701823901705 0 -258.49701823901705 85.919764267193386 0 0 0 0 89.891963386777206 -211.74998687685002 0 -211.74998687685002 57.849976729077753 0 0 0 0 185.92128397303168 -266.44520566452411 0 -266.44520566452411 15.490026451174344 0 0 0 0 285.18439812416909 -238.47849544522978 0 -238.47849544522978 23.155709323029441 0 0 0 0 -213.77662200473787 53.647787702994265 0 53.647787702994265 106.1012130198942 0 0 0 0 20.249424872119562 -41.796978524496808 0 -41.796978524496808 -38.856979463947937 0 0 0 0 -2.9510890979693727 -5.443767466467591 0 -5.443767466467591 0.38784360591637324 0 0 0 0 -157.21119000803446 23.222608235373627 0 23.222608235373627 -78.404176993528381 0 0 0 0 -46.690252338870707 -73.121701811941108 0 -73.121701811941108 39.186766000687214 0 0 0 0 186.09994578194164 -158.73346070112893 0 -158.73346070112893 95.24451044180023 0 0 0 0 215.48552729460062 -185.84735754891881 0 -185.84735754891881 109.13184528665442 0 0 0 0 240.14096920459997 -169.0487927542963 0 -169.0487927542963 31.541031785614905 0 0 0 0 89.075637434289092 -126.84411496257962 0 -126.84411496257962 84.322724559366179 0 0 0 0 200.13875410915352 -115.16091886825598 0 -115.16091886825598 57.241065336242173 0 0 0 0 123.71423894161853 -168.87090333628294 0 -168.87090333628294 64.631857624452095 0 0 0 0 -195.88652112602722 -239.28884960092819 0 -239.28884960092819 182.77705671451622 0 0 0 0 253.23880281262973 -98.69979372828675 0 -98.69979372828675 78.418178881005588 0 0 0 0 201.91283763539104 -128.86800164980741 0 -128.86800164980741 113.52202743210364 0 0 0 0 9.3712301636282263 -55.391744543714907 0 -55.391744543714907 -44.805077586600476 0 0 0 0 -174.80879429834749 -91.691988284204854 0 -91.691988284204854 -10.108457337482832 0 0 0 0 -194.82541656501417 -58.542040481501317 0 -58.542040481501317 -67.101160671256366 0 0 0 0 -49.53695487841469 -109.11268853795627 0 -109.11268853795627 -58.176616716897115 0 0 0 0 58.813506227481412 -63.000257201754721 0 -63.000257201754721 25.728829600091558 0 0 0 0 -23.688510186259364 -62.831210607046884 0 -62.831210607046884 -13.421249472818175 0 0 0 0 -96.207398174853907 -54.347574649516503 0 -54.347574649516503 1.6366302782276705 0 0 0 0 20.557931884737627 -49.593516551794892 0 -49.593516551794892 -24.353127426235005 0 0 0 0 3.5878109368392046 -35.574135709928058 0 -35.574135709928058 7.7905218342696969 0 0 0 0 -139.07444734133605 -88.326018905943783 0 -88.326018905943783 19.466198925787467 0 0 0 0 -69.111109915313136 -75.581268850633933 0 -75.581268850633933 -34.853001726136426 0 0 0 0 -231.97966108183027 -132.97714887734764 0 -132.97714887734764 -9.5576480325689772 0 0 0 0 -128.20740992655919 -130.43577547832683 0 -130.43577547832683 -63.89819936054846 0 0 0 0 -156.95986639292641 -130.13006057794337 0 -130.13006057794337 -40.485723892954411 0 0 0 0 -305.37393154745223 -134.19995631610072 0 -134.19995631610072 -22.103855650959304 0 0 0 0 -195.32307778659742 -101.960623599276 0 -101.960623599276 -49.962148844497278 0 0 0 0 -290.87133057673054 -153.39114647209863 0 -153.39114647209863 -7.8899027113075135 0 0 0 0 -353.3216968827619 -238.79737810848746 0 -238.79737810848746 -36.304361406255339 0 0 0 0 -321.56875638142083 -274.55688865717821 0 -274.55688865717821 -14.626350987629849 0 0 0 0 -287.32354334847332 -197.30463537455944 0 -197.30463537455944 -16.305001270837238 0 0 0 0 -326.4903495357139 -298.87442507341621 0 -298.87442507341621 -78.48579800403968 0 0 0 0 -228.57373959514371 -365.53259473099752 0 -365.53259473099752 -88.577794828204787 0 0 0 0 -274.09801276076178 -242.88735000543966 0 -242.88735000543966 -113.08106502121882 0 0 0 0 -306.79959592693194 -213.59814176717191 0 -213.59814176717191 -55.590409112373891 0 0 0 0 -221.12269625756744 -191.27417970886017 0 -191.27417970886017 -64.440958309452981 0 0 0 0 -237.29372783833242 -178.85492279660684 0 -178.85492279660684 -42.957429749680159 0 0 0 0 -164.49124626247794 -176.55631772406196 0 -176.55631772406196 -117.78265928996552 0 0 0 0 -240.0146208669903 -271.21338612653926 0 -271.21338612653926 -123.59921827656945 0 0 0 0 -236.94922251445774 -235.68729008375405 0 -235.68729008375405 -58.117437516964856 0 0 0 0 -237.46467680934438 -258.75730655674124 0 -258.75730655674124 -89.187469209799019 0 0 0 0 -109.97677115952683 -186.21881662805936 0 -186.21881662805936 -241.63455010126927 0 0 0 0 -133.28848665190162 -250.89262571986183 0 -250.89262571986183 -337.63328739200733 0 0 0 0 -100.64156777514836 -111.28798029806603 0 -111.28798029806603 -94.031466864646063 0 0 0 0 -108.17727779029519 -58.314953060413245 0 -58.314953060413245 -5.4243323967093602 0 0 0 0 -114.33853087943862 -105.78610654437944 0 -105.78610654437944 -81.364731022200431 0 0 0 0 -66.813852996732749 42.469735509053862 0 42.469735509053862 -83.041541552840499 0 0 0 0 -5.0002035379134782 -2.6336551909755883 0 -2.6336551909755883 2.8552133973492033 0 0 0 0 -6.903379914069447 -14.243974846588117 0 -14.243974846588117 20.150067429057003 0 0 0 0 -20.808781580242794 -34.493922619876685 0 -34.493922619876685 59.30373628178495 0 0 0 0 -99.629676162338001 16.167530846578302 0 16.167530846578302 65.560946286488615 0 0 0 0 -155.27254132433154 -84.33633506365004 0 -84.33633506365004 24.348673507920466 0 0 0 0 -80.408203324561327 19.135250428080326 0 19.135250428080326 118.38315218218486 0 0 0 0 -50.756860299797808 -15.095186116835038 0 -15.095186116835038 20.646941717052187 0 0 0 0 -51.56669456071819 -27.793915598014905 0 -27.793915598014905 33.186492326921581 0 0 0 0 -62.744524714813451 -69.288452996279375 0 -69.288452996279375 2.1657488966302481 0 0 0 0 10.207042876287424 -23.302279928017882 0 -23.302279928017882 -10.821898294043763 0 0 0 0 -126.6121225078823 -56.979147078105598 0 -56.979147078105598 -15.671203106896428 0 0 0 0 -1.605359320829308 -14.403569199912624 0 -14.403569199912624 4.2456459137627576 0 0 0 0 -27.14755761071865 -42.75451629392046 0 -42.75451629392046 -61.456603363651084 0 0 0 0 0.20272683059738483 -109.81513293122407 0 -109.81513293122407 15.653346638740913 0 0 0 0 -156.83960765081156 -118.2429480636506 0 -118.2429480636506 -33.793667424208252 0 0 0 0 -64.584160674712621 -102.14620945384377 0 -102.14620945384377 -87.779902903996117 0 0 0 0 -820.42979691368237 -828.9827202799861 0 -828.9827202799861 251.08310293542309 0 0 0 0 -823.40327082322938 -757.30502735446476 0 -757.30502735446476 17.122919865098083 0 0 0 0 -687.94582826603983 -579.97425912049493 0 -579.97425912049493 408.59128294885159 0 0 0 0 -717.1139439381368 -760.9682421063917 0 -760.9682421063917 63.819312350649852 0 0 0 0 -866.32724141489598 -1368.3641594670335 0 -1368.3641594670335 -311.79227110369538 0 0 0 0 -699.36763829636038 -665.34621486045944 0 -665.34621486045944 -254.57039231236377 0 0 0 0 -214.95247548251064 -450.38047074540373 0 -450.38047074540373 -228.71236076054083 0 0 0 0 -158.99700207175192 -250.71723765962088 0 -250.71723765962088 -219.87194030813407 0 0 0 0 2.8995337857183507 -32.541980671973107 0 -32.541980671973107 10.07965653236505 0 0 0 0 -1000.9608773396467 -381.12707599391433 0 -381.12707599391433 -2.7656319371089921 0 0 0 0 -515.61279599619593 -215.25192803495884 0 -215.25192803495884 52.310173535712238 0 0 0 0 -983.80769807157412 -380.15767036851503 0 -380.15767036851503 -24.425256149683264 0 0 0 0 -1097.8623457008216 -649.77939430721744 0 -649.77939430721744 66.497128809105561 0 0 0 0 -2.2654211214998998 -29.847586479319347 0 -29.847586479319347 6.3506624939117273 0 0 0 0 -1544.3306530545524 -269.90264306739846 0 -269.90264306739846 -22.174704152049571 0 0 0 0 -2023.7031146285517 -526.30650096307727 0 -526.30650096307727 -14.088576122980157 0 0 0 0 -1.5498239061393804 -24.513406748863645 0 -24.513406748863645 0.63449247302128242 0 0 0 0 -1177.934025607392 -741.86959980682877 0 -741.86959980682877 -213.07467720536806 0 0 0 0 -678.72893077344634 -798.83214711419714 0 -798.83214711419714 -381.07131166991894 0 0 0 0 -1095.6461653659499 -611.05694570484775 0 -611.05694570484775 -19.186429713923644 0 0 0 0 -837.07260631692043 -703.51524277500357 0 -703.51524277500357 -64.360223713556479 0 0 0 0 -828.06166541946004 -659.02528245856047 0 -659.02528245856047 144.68981354899006 0 0 0 0 -463.97869830737181 -691.89869274938246 0 -691.89869274938246 -148.68308188684023 0 0 0 0 -533.27299494652834 -570.90244730071572 0 -570.90244730071572 -91.223446384534327 0 0 0 0 -70.172355696326122 -661.37437024563405 0 -661.37437024563405 -131.91220724922346 0 0 0 0 -162.76827160266112 -531.92944732857723 0 -531.92944732857723 -127.6456245126019 0 0 0 0 -16.157525913171412 -575.26827025027887 0 -575.26827025027887 5.2228074508093414 0 0 0 0 -347.22472612225829 -520.70363597245523 0 -520.70363597245523 40.88443062697479 0 0 0 0 -246.1096211168624 -630.03381626000191 0 -630.03381626000191 22.474841157389164 0 0 0 0 181.92192826030077 -477.26942119954401 0 -477.26942119954401 14.896842200031188 0 0 0 0 40.834888442128431 -572.89123498013942 0 -572.89123498013942 -88.898244588098351 0 0 0 0 99.629961657585227 -663.31969377913629 0 -663.31969377913629 -78.208850994873501 0 0 0 0 38.733031949719589 -688.0179044782235 0 -688.0179044782235 2.5801336478180019 0 0 0 0 -127.2835972871253 -550.40443659448647 0 -550.40443659448647 24.761112393038275 0 0 0 0 -166.23892658780096 -781.16376139663043 0 -781.16376139663043 -124.89258850704937 0 0 0 0 9.3327964827039978 -359.4350688444465 0 -359.4350688444465 -204.83301360591577 0 0 0 0 19.391903765441384 -612.41853309280123 0 -612.41853309280123 5.5370569104875358 0 0 0 0 118.63826630625408 -686.40006409738271 0 -686.40006409738271 60.318442882766249 0 0 0 0 137.67597431612739 -485.64753953166701 0 -485.64753953166701 324.06086312863044 0 0 0 0 -23.937543019790212 -6.3882111650208628 0 -6.3882111650208628 1.3522374716911898 0 0 0 0 17.105329377518501 -275.99030380267504 0 -275.99030380267504 378.02819722352433 0 0 0 0 -602.88449506711913 -457.92747836373746 0 -457.92747836373746 1747.9663000325218 0 0 0 0 15.719780300292769 -548.11382580679856 0 -548.11382580679856 818.47135131212417 0 0 0 0 -419.80336289020488 285.27508577657863 0 285.27508577657863 1233.5171415115055 0 0 0 0 -106.84033506646665 -429.70645987516764 0 -429.70645987516764 302.45426946120278 0 0 0 0 -255.48822808988916 -646.22757671505678 0 -646.22757671505678 416.01995141837324 0 0 0 0 -323.69836355888401 -440.21358716620307 0 -440.21358716620307 444.27811594886589 0 0 0 0 114.8432370396622 -674.89063814098336 0 -674.89063814098336 42.587208962504519 0 0 0 0 174.24742882333521 -118.08798182300416 0 -118.08798182300416 953.94486565349507 0 0 0 0 322.04585519139073 -560.35309527514619 0 -560.35309527514619 353.07890618019155 0 0 0 0 -792.88632179479464 -593.39156737753365 0 -593.39156737753365 1995.0546485251762 0 0 0 0 -13.123381638609715 -3.9735049497575403 0 -3.9735049497575403 0.71766359681598146 0 0 0 0 -1047.838980841625 -1176.9242848073045 0 -1176.9242848073045 951.23060122135939 0 0 0 0 -237.71424819603271 -1338.2022729033306 0 -1338.2022729033306 -795.9266777796729 0 0 0 0 -881.9336257271425 -1654.588230599933 0 -1654.588230599933 -436.70663033235178 0 0 0 0 -1614.6225334838236 -1729.1976057261345 0 -1729.1976057261345 665.7488741724228 0 0 0 0 683.89714513139916 -401.04473614168819 0 -401.04473614168819 -385.89774903783109 0 0 0 0 -721.58485670232767 -527.65244641917161 0 -527.65244641917161 -319.66229230554018 0 0 0 0 -266.89657967833045 -1071.9163021928034 0 -1071.9163021928034 88.200410921999719 0 0 0 0 -1149.2318878175865 -432.82217831310118 0 -432.82217831310118 21.439666364502045 0 0 0 0 -969.85753004328581 -734.72398052394419 0 -734.72398052394419 -13.615614959344384 0 0 0 0 -919.08676244378148 -651.52744281599007 0 -651.52744281599007 117.98828797685564 0 0 0 0 -1027.1744518529304 -450.60278812933393 0 -450.60278812933393 36.384870428522845 0 0 0 0 -1051.9139000535506 -514.93371954975373 0 -514.93371954975373 497.7356970943074 0 0 0 0 -927.28674232404592 -888.01557687318564 0 -888.01557687318564 439.59388355640112 0 0 0 0 -974.11610310073593 -950.60147637477348 0 -950.60147637477348 363.51711693925608 0 0 0 0 -270.46387916932872 117.59335587906389 0 117.59335587906389 485.00208005405148 0 0 0 0 507.75531363679329 147.26054480883613 0 147.26054480883613 485.15009003054001 0 0 0 0 -20.939851247399929 95.866712561037275 0 95.866712561037275 143.69162018911447 0 0 0 0 -975.47243117698235 274.53625860913598 0 274.53625860913598 1127.5724315622792 0 0 0 0 -84.314019749377621 302.67913935796241 0 302.67913935796241 8.2753313672583317 0 0 0 0 -343.46370600115915 -280.02262403233908 0 -280.02262403233908 592.77958570623014 0 0 0 0 -271.70169131047442 72.981519595487043 0 72.981519595487043 -303.57293252769159 0 0 0 0 -0.89978017090135154 3.8366744554482182 0 3.8366744554482182 -4.2799707189284391 0 0 0 0 -1227.1323468407863 -639.37894653740295 0 -639.37894653740295 -69.90452739680768 0 0 0 0 -76.817407910973998 -158.81852835489553 0 -158.81852835489553 -261.99344826783636 0 0 0 0 -6.0297165191947215 -9.7326317372045423 0 -9.7326317372045423 -9.2839845316597831 0 0 0 0 8.0874466590029428 -37.815115478217535 0 -37.815115478217535 -36.056341916072256 0 0 0 0 -141.55257155674917 -60.343772707194148 0 -60.343772707194148 -2.3658224097198399 0 0 0 0 -77.573482552426867 46.729988160121138 0 46.729988160121138 -200.17583426614874 0 0 0 0 -12.987208058932339 -10.472804079847492 0 -10.472804079847492 -4.1473506510261018 0 0 0 0 -14.873817157553276 -5.3387848816491896 0 -5.3387848816491896 56.167235506407451 0 0 0 0 -88.056424855124192 -8.9318284146027338 0 -8.9318284146027338 2.6591074071008194 0 0 0 0 -90.126040794635628 42.116977055171446 0 42.116977055171446 155.57368360180408 0 0 0 0 -201.86495674534672 -185.02217097680114 0 -185.02217097680114 81.713996493752347 0 0 0 0 -235.5353998021601 -49.83601405047375 0 -49.83601405047375 -56.444397665269207 0 0 0 0 -25.265347684212571 0.7203046407290401 0 0.7203046407290401 -16.021817034809089 0 0 0 0 -967.54884498871979 -407.19039917073678 0 -407.19039917073678 -221.5145485748144 0 0 0 0 -736.05254404998414 -224.90175003818877 0 -224.90175003818877 -213.0092341536365 0 0 0 0 -818.54565066390205 -311.13253362090472 0 -311.13253362090472 -159.58933587020147 0 0 0 0 -1042.1356258675023 -282.0574137289957 0 -282.0574137289957 -36.37115095165791 0 0 0 0 -1042.1350403375691 -269.75628591206623 0 -269.75628591206623 -117.66021894135338 0 0 0 0 -982.06468922566273 -164.94759030419664 0 -164.94759030419664 -172.4690101481101 0 0 0 0 -837.72197992468136 -246.63722944543406 0 -246.63722944543406 -144.36364006093027 0 0 0 0 -880.71895233434043 -185.10096231167699 0 -185.10096231167699 -146.96193388341635 0 0 0 0 -741.58972433047165 -211.33149879802659 0 -211.33149879802659 -165.11995782595477 0 0 0 0 8.0210280049603568 -38.520418322946341 0 -38.520418322946341 -27.392066096977828 0 0 0 0 -824.56857304164441 -180.14820637033699 0 -180.14820637033699 -51.563313027814729 0 0 0 0 -604.81716604795656 -295.38817805345752 0 -295.38817805345752 -121.17677896469831 0 0 0 0 -199.43128675135085 -257.62804083399533 0 -257.62804083399533 -223.86375402455451 0 0 0 0 -17.38759795230218 -41.641825746092451 0 -41.641825746092451 -56.509797859445086 0 0 0 0 -800.05655578257574 -356.01453660707193 0 -356.01453660707193 158.95406668449141 0 0 0 0 -1118.8008740846999 -391.31176354404306 0 -391.31176354404306 153.69584228542226 0 0 0 0 -1190.1403538602026 -246.53283288767852 0 -246.53283288767852 15.249846931445063 0 0 0 0 -1078.1727271450727 -343.73015788888006 0 -343.73015788888006 -71.365494476340245 0 0 0 0 -1145.2262098722713 -323.80384448591212 0 -323.80384448591212 -157.64041347435705 0 0 0 0 -1085.6082252667693 -210.82127782527095 0 -210.82127782527095 -122.52966255274077 0 0 0 0 -1013.1469909908774 -166.47352382506506 0 -166.47352382506506 -252.82224762400438 0 0 0 0 -1091.385677014925 -518.44960535993414 0 -518.44960535993414 71.275934790653992 0 0 0 0 -119.97703408059897 -352.51016545898165 0 -352.51016545898165 -87.533055260173569 0 0 0 0 -908.38979715105961 -722.74624616984511 0 -722.74624616984511 -261.202299761615 0 0 0 0 30.758689261783729 -336.15917265901226 0 -336.15917265901226 -336.66505745339236 0 0 0 0 319.78934232547908 -370.5527284872187 0 -370.5527284872187 149.78508890062221 0 0 0 0 -205.49253090674028 -516.61568186891782 0 -516.61568186891782 122.21441996544308 0 0 0 0 -745.81439545513422 -711.21522352730972 0 -711.21522352730972 374.44534527285577 0 0 0 0 -950.52416458301468 -438.84641098131647 0 -438.84641098131647 1132.6046407008253 0 0 0 0 -426.34577298062504 -244.03784341487699 0 -244.03784341487699 1001.6306656759552 0 0 0 0 159.46640003583161 -1217.0053423509598 0 -1217.0053423509598 1143.298638434173 0 0 0 0 10.233204403636989 -6.5876106640948251 0 -6.5876106640948251 3.2673565500619759 0 0 0 0 -331.54532579688384 -1012.0782771697377 0 -1012.0782771697377 -1403.9653130727529 0 0 0 0 -524.74802196692326 -308.40851132596072 0 -308.40851132596072 3675.5410953014725 0 0 0 0 -218.17551618666039 -1366.568451331259 0 -1366.568451331259 -438.95613032813708 0 0 0 0 -1720.2188697719557 -1255.8782430911106 0 -1255.8782430911106 1448.8174650688015 0 0 0 0 30.642680192118178 14.499660870240177 0 14.499660870240177 1896.9506853332132 0 0 0 0 -382.44123275708989 -338.65563926512914 0 -338.65563926512914 -193.48773591716599 0 0 0 0 35.274881788279117 -22.751089395363806 0 -22.751089395363806 2.8999319854141774 0 0 0 0 -185.03588102709909 -375.99248026320856 0 -375.99248026320856 1916.5692277510848 0 0 0 0 212.92981792631326 -508.29237541463954 0 -508.29237541463954 1252.5908820026089 0 0 0 0 -242.55719408718869 -122.94580867240438 0 -122.94580867240438 2004.3060372885229 0 0 0 0 39.170272176968865 558.94170896202559 0 558.94170896202559 947.42105914151762 0 0 0 0 -291.13881398015656 767.48328745737672 0 767.48328745737672 1743.0298669010226 0 0 0 0 3.0111613752977497 -10.423170922654776 0 -10.423170922654776 0.96327734117801356 0 0 0 0 -119.59176535002189 -777.02289612287132 0 -777.02289612287132 1328.4875012372058 0 0 0 0 367.73825265381311 -306.64750464850295 0 -306.64750464850295 1259.8664088134392 0 0 0 0 249.33936264039949 -327.76192780872225 0 -327.76192780872225 988.00907298663515 0 0 0 0 101.19905401434517 -406.00888789148303 0 -406.00888789148303 1137.9367811200646 0 0 0 0 26.488279543991666 -716.43163731091772 0 -716.43163731091772 1044.2144554272818 0 0 0 0 414.69186933149467 -990.08367532797274 0 -990.08367532797274 222.13287859773845 0 0 0 0 -228.96470689929265 -1012.4499029460894 0 -1012.4499029460894 706.07246562227374 0 0 0 0 -36.881054381763533 -353.87156374050483 0 -353.87156374050483 223.96393065965094 0 0 0 0 -196.57518249432906 -839.48562438922818 0 -839.48562438922818 86.925960578962986 0 0 0 0 -1366.331082862067 -237.81739046295115 0 -237.81739046295115 41.70437196745479 0 0 0 0 1674.6636758849054 -643.94550808202621 0 -643.94550808202621 166.05539710193989 0 0 0 0 -0.93731842613709659 -3.4491824059821568 0 -3.4491824059821568 -3.9560756995301745 0 0 0 0 -370.18023451601039 -207.92312656839204 0 -207.92312656839204 -71.811368086084258 0 0 0 0 -2.2787717592350134 -7.2938649469038523 0 -7.2938649469038523 -4.0298572819594369 0 0 0 0 -608.71062943994912 -39.432487637073791 0 -39.432487637073791 55.725834694021614 0 0 0 0 -297.5610146904437 38.818871802571266 0 38.818871802571266 -2.9747701654123375 0 0 0 0 -129.15777254654677 -266.86182694217132 0 -266.86182694217132 45.848787895964051 0 0 0 0 -204.95441599801416 -162.25449950995971 0 -162.25449950995971 80.23254001251189 0 0 0 0 -223.67915458895732 -222.76080618116248 0 -222.76080618116248 -20.928470458311494 0 0 0 0 -245.06967262458056 -134.00989639207546 0 -134.00989639207546 -47.390421981690452 0 0 0 0 -165.34047478783032 -220.67565963638845 0 -220.67565963638845 -117.4755742867419 0 0 0 0 -159.31790498446207 -159.30890672950773 0 -159.30890672950773 -19.928195606378722 0 0 0 0 -282.6477200716181 -229.14614354392324 0 -229.14614354392324 -111.45026311081892 0 0 0 0 -270.85413391437032 -210.26315304318268 0 -210.26315304318268 -82.812444576411508 0 0 0 0 -162.14576194918482 -363.73126915650209 0 -363.73126915650209 -295.87941260790103 0 0 0 0 16.705238776936312 -367.76720080031373 0 -367.76720080031373 -354.5357902036485 0 0 0 0 -38.906435581622645 -194.79891235734976 0 -194.79891235734976 -187.05826868169243 0 0 0 0 4.5985161235762462 -496.083364359386 0 -496.083364359386 -714.78696993160702 0 0 0 0 121.8578635282538 -165.60009510152668 0 -165.60009510152668 -506.90724411814153 0 0 0 0 -44.024756465529208 -122.34284641563136 0 -122.34284641563136 210.00918291334438 0 0 0 0 -34.398713382436711 -83.738992044502623 0 -83.738992044502623 -52.384053057363417 0 0 0 0 -49.250452355758171 -257.51673241682875 0 -257.51673241682875 26.56133386248257 0 0 0 0 -60.84760277820169 -261.53776503854169 0 -261.53776503854169 -73.131854854378616 0 0 0 0 25.083398849485093 -239.99124466143985 0 -239.99124466143985 -68.722173789847147 0 0 0 0 -157.88149968169455 -159.69285437476356 0 -159.69285437476356 235.8613910908316 0 0 0 0 -107.74810918586445 -269.72198499781371 0 -269.72198499781371 -55.440197545351111 0 0 0 0 3.7824363597464981 -129.71197641452454 0 -129.71197641452454 42.388614315372251 0 0 0 0 54.609511156086228 -227.19998290565127 0 -227.19998290565127 420.13297084414808 0 0 0 0 -38.482566902786715 -18.516065810290456 0 -18.516065810290456 -7.5831512045984937 0 0 0 0 -25.840800203892286 -105.39312924713886 0 -105.39312924713886 153.92333065613639 0 0 0 0 -27.767476790671935 -78.103759547171649 0 -78.103759547171649 208.45465622545453 0 0 0 0 -727.13935083141405 -389.19879457257048 0 -389.19879457257048 384.10182994153001 0 0 0 0 -318.05945373844588 -228.74918900476769 0 -228.74918900476769 446.48975602837163 0 0 0 0 512.78830221707904 114.6335816174178 0 114.6335816174178 -1434.8156682710687 0 0 0 0 -11.14560181291364 -11.163639339231338 0 -11.163639339231338 -6.5434058927168905 0 0 0 0 -323.70669090276351 105.23727087245788 0 105.23727087245788 -450.75317899593938 0 0 0 0 158.86422713784123 -2.6210848751943558 0 -2.6210848751943558 -821.02021950834023 0 0 0 0 230.45364757702919 46.681419987784466 0 46.681419987784466 -1959.9815445785352 0 0 0 0 -9.8840786371270326 -8.7494623879132121 0 -8.7494623879132121 -4.3623885187542015 0 0 0 0 291.07347788089828 -759.08983926798101 0 -759.08983926798101 -1443.4180348345762 0 0 0 0 -318.92389247461688 -714.22470327510382 0 -714.22470327510382 -166.02428332453201 0 0 0 0 1149.7794362547284 413.72785059374291 0 413.72785059374291 355.85334015912667 0 0 0 0 -925.23544177798613 312.80020417234482 0 312.80020417234482 423.44337195987464 0 0 0 0 -12.726611593549023 653.20935817077407 0 653.20935817077407 -90.574718854099046 0 0 0 0 -38.097346776814192 -84.891034094573385 0 -84.891034094573385 -58.916614392314173 0 0 0 0 -1168.7295561216742 -1150.0752444015234 0 -1150.0752444015234 -621.3604450605344 0 0 0 0 -186.79564436408691 -128.50348052431946 0 -128.50348052431946 222.87395017140443 0 0 0 0 -123.77013925899519 -99.211506539337279 0 -99.211506539337279 11.673252779481118 0 0 0 0 -154.64827612423687 -42.109702002766426 0 -42.109702002766426 163.43895275468822 0 0 0 0 2.3404867027275031 -262.77766825193976 0 -262.77766825193976 82.849040115214621 0 0 0 0 -42.79030142787434 -83.571361528982976 0 -83.571361528982976 -56.742088160881707 0 0 0 0 -167.58120963888359 -312.31818566977017 0 -312.31818566977017 281.49354083879007 0 0 0 0 -485.7640497606335 -328.16523613384925 0 -328.16523613384925 710.42326429023524 0 0 0 0 681.4861472092598 -530.76948033927329 0 -530.76948033927329 -349.88085244005924 0 0 0 0 -35.245290307203504 -52.925462446987176 0 -52.925462446987176 -58.553918968614425 0 0 0 0 -388.64141266030492 -400.72479559927888 0 -400.72479559927888 -851.80458018885111 0 0 0 0 -1.676581692360017 -2.5718473631994456 0 -2.5718473631994456 -4.0920550813007139 0 0 0 0 -68.767625302504399 -58.527494204465427 0 -58.527494204465427 -32.713337077197551 0 0 0 0 11.161015041856444 -84.702768901806849 0 -84.702768901806849 -114.60413688072003 0 0 0 0 -11.143726306871926 -17.272645639124391 0 -17.272645639124391 0.64268814832337284 0 0 0 0 -794.62686510825006 -216.72202751591976 0 -216.72202751591976 -119.23821140038126 0 0 0 0 -813.62236116882923 -9.89711098038606 0 -9.89711098038606 1014.4134553859476 0 0 0 0 -464.32882656139554 -156.60482664205483 0 -156.60482664205483 -162.39495095843449 0 0 0 0 -53.581377535447245 -39.525502371448965 0 -39.525502371448965 -26.602890449168626 0 0 0 0 -1110.6991627172829 -389.86702747587697 0 -389.86702747587697 -172.06077598176489 0 0 0 0 -1909.9747651557118 946.75724630084005 0 946.75724630084005 497.97310279357771 0 0 0 0 -1998.8524093315282 1463.3692924778734 0 1463.3692924778734 -868.81494252092671 0 0 0 0 -619.79421517833543 405.41513624317304 0 405.41513624317304 -3568.7644942683692 0 0 0 0 -2221.0838389581186 -2166.4606766158249 0 -2166.4606766158249 643.03500839904882 0 0 0 0 -64.261335333006002 -60.049316225060252 0 -60.049316225060252 -31.653007539812052 0 0 0 0 -2606.5903085752434 -2954.9892049074915 0 -2954.9892049074915 -545.25873600271007 0 0 0 0 -1617.8266566315215 -560.98301754573185 0 -560.98301754573185 -307.32534162250886 0 0 0 0 -1036.3072006810908 -402.05857064086376 0 -402.05857064086376 -533.46997702476801 0 0 0 0 -1222.0923963372043 -203.67025071459648 0 -203.67025071459648 -294.68530049486435 0 0 0 0 -1194.7239313890796 -644.03493623646455 0 -644.03493623646455 -802.7345990697504 0 0 0 0 -2227.7655927620945 -1103.2175097513318 0 -1103.2175097513318 -501.76952473574784 0 0 0 0 -11.354360106713671 -19.640443013393252 0 -19.640443013393252 -16.412902412007554 0 0 0 0 159.49851725715416 -8.839024642300501 0 -8.839024642300501 -108.65429365781893 0 0 0 0 77.896752171393018 98.593446946513723 0 98.593446946513723 -322.85914830327238 0 0 0 0 -38.452493596668916 -54.486853114802358 0 -54.486853114802358 32.420517113059191 0 0 0 0 -906.62439133792941 -976.74062359506206 0 -976.74062359506206 254.07722173972434 0 0 0 0 -67.670091144781622 -30.560721934538179 0 -30.560721934538179 4.4716241989425924 0 0 0 0 -39.469747800845653 -140.30273564947129 0 -140.30273564947129 169.72429283356178 0 0 0 0 -13.86783889590393 -20.382020689389705 0 -20.382020689389705 29.992777219251593 0 0 0 0 656.88393222980812 450.89876224257023 0 450.89876224257023 -1382.1605280145304 0 0 0 0 -731.72072611172189 -408.69453897571657 0 -408.69453897571657 426.82735636521829 0 0 0 0 -2920.1362259961934 -1620.9180380536272 0 -1620.9180380536272 677.28305933004594 0 0 0 0 1332.3988473353857 -442.23044972591015 0 -442.23044972591015 -546.75773588349693 0 0 0 0 -4392.4394544140159 -593.92418944410747 0 -593.92418944410747 1284.4818360788231 0 0 0 0 -3083.4812936087983 -992.46440752416675 0 -992.46440752416675 1121.3260477914591 0 0 0 0 -2879.1687229721283 493.44263744627824 0 493.44263744627824 259.09117645695369 0 0 0 0 -1128.3266728609378 580.86090066737961 0 580.86090066737961 41.919955664983718 0 0 0 0 -749.18270124968694 -1375.6847426675595 0 -1375.6847426675595 -2382.8945631556417 0 0 0 0 -37.917341264370464 -14.456832888061825 0 -14.456832888061825 12.70885754122547 0 0 0 0 -4559.9127105739244 -1128.0818629509886 0 -1128.0818629509886 383.55464421960642 0 0 0 0 -3389.2528526324604 -1397.1479641908663 0 -1397.1479641908663 -2355.8941776782012 0 0 0 0 -4040.6826397334808 -403.6072005268361 0 -403.6072005268361 743.64700565047679 0 0 0 0 -908.11280758440262 1392.058189743635 0 1392.058189743635 101.04983938415535 0 0 0 0 -3924.3918600642792 -293.91576822672505 0 -293.91576822672505 715.63512041751528 0 0 0 0 -4375.4008630386015 -144.14107985634473 0 -144.14107985634473 1058.8584467680193 0 0 0 0 -21.915781487580929 -23.365043005111552 0 -23.365043005111552 -24.616157335857793 0 0 0 0 1159.1318161209929 -957.1129202782904 0 -957.1129202782904 -708.69672557461308 0 0 0 0 485.22903990368286 -479.03887229204702 0 -479.03887229204702 -690.05464306374779 0 0 0 0 -136.78934038910666 -175.56522054312518 0 -175.56522054312518 -176.26857454599121 0 0 0 0 -191.48702903486173 -540.12096988571648 0 -540.12096988571648 -163.23737610990065 0 0 0 0 -114.47900610719807 -657.45117338048294 0 -657.45117338048294 816.66571303144497 0 0 0 0 1085.9446894967987 101.4985453090776 0 101.4985453090776 -2716.0932215260691 0 0 0 0 143.95527874292748 -962.65561613204773 0 -962.65561613204773 360.95226903265575 0 0 0 0 75.666690571888466 -157.67115796727012 0 -157.67115796727012 365.13607219367987 0 0 0 0 -211.46766787768865 -872.64310395542998 0 -872.64310395542998 391.63380147425869 0 0 0 0 109.98364846649929 -30.973174459817528 0 -30.973174459817528 817.8779258846771 0 0 0 0 -729.93301900319966 -751.93480578747221 0 -751.93480578747221 -142.88967141718604 0 0 0 0 -725.79983889288997 -990.19440317647241 0 -990.19440317647241 -341.6156182463892 0 0 0 0 -248.12099377281902 -809.79531672765233 0 -809.79531672765233 -827.48251483874628 0 0 0 0 -3319.323423970367 -283.59666471544551 0 -283.59666471544551 861.97461054788437 0 0 0 0 -65.505723608697735 -1417.5506421183127 0 -1417.5506421183127 -812.12597952911165 0 0 0 0 -1472.1271050095966 -1828.4324345570058 0 -1828.4324345570058 -646.23896235202847 0 0 0 0 -1.8630913609725042 2.1896439226368614 0 2.1896439226368614 -2.7710572743253579 0 0 0 0 -466.3162918785747 169.69417869884637 0 169.69417869884637 400.98877284107584 0 0 0 0 -944.22457915549239 -582.09367809783726 0 -582.09367809783726 -92.381951467032195 0 0 0 0 3.6680549851610351 -2.8245300915456255 0 -2.8245300915456255 -1.0604000021034494 0 0 0 0 1276.3513233865087 393.17661041069368 0 393.17661041069368 -2331.409242816153 0 0 0 0 -482.31543425589189 -256.69994395360845 0 -256.69994395360845 -145.47444798387005 0 0 0 0 -235.83670083082507 -522.85865402090712 0 -522.85865402090712 116.25480530655477 0 0 0 0 -169.46803393287701 -281.999343853553 0 -281.999343853553 -295.75412182652508 0 0 0 0 -521.28820017897306 -252.96486329874097 0 -252.96486329874097 -145.16148219256138 0 0 0 0 -378.22357438601466 -124.49410282605095 0 -124.49410282605095 147.91239958132792 0 0 0 0 -1.4666954391805191 1.4646142537934566 0 1.4646142537934566 1.2526745358177891 0 0 0 0 304.83283057761582 -2.4754647561785532 0 -2.4754647561785532 -285.34779927984346 0 0 0 0 -876.05105342266324 -356.05428371737071 0 -356.05428371737071 100.61160687833035 0 0 0 0 -270.77409454680128 -500.83347545355355 0 -500.83347545355355 0.2757522125612013 0 0 0 0 -305.50840793517909 -377.06323257487202 0 -377.06323257487202 -492.28795518461266 0 0 0 0 -1211.7160335593435 -404.64495207915024 0 -404.64495207915024 -17.418533465577639 0 0 0 0 -791.41051193003113 -459.65274350278196 0 -459.65274350278196 -22.182111795264063 0 0 0 0 -925.64795412118838 -543.47610244556563 0 -543.47610244556563 0.14106550712124608 0 0 0 0 -832.10433154996463 -585.87805226039927 0 -585.87805226039927 -61.855705316906096 0 0 0 0 -1013.8546736267599 -741.14106526064279 0 -741.14106526064279 -111.91914366384299 0 0 0 0 -841.25236157379913 -596.80576506384386 0 -596.80576506384386 -66.355591009225463 0 0 0 0 -3.327258782901481 -36.889596026936488 0 -36.889596026936488 -8.8868231813976308 0 0 0 0 -31.774245810498542 -93.598129402782433 0 -93.598129402782433 32.660041914961766 0 0 0 0 5.8610899512219135 -16.262580181468962 0 -16.262580181468962 11.725792581842143 0 0 0 0 -56.150883466493156 -27.965176115238762 0 -27.965176115238762 -2.6433452409386007 0 0 0 0 -114.74673688280745 -85.736538122495404 0 -85.736538122495404 558.81282607935282 0 0 0 0 -37.741769990621265 -23.067625120457933 0 -23.067625120457933 -11.785695006960282 0 0 0 0 128.67600247498194 -216.96202453962178 0 -216.96202453962178 172.03944111625606 0 0 0 0 89.42435627571831 -163.72629940573825 0 -163.72629940573825 153.84801157800393 0 0 0 0 205.01082816721464 -161.08951904662536 0 -161.08951904662536 454.15222226216065 0 0 0 0 237.78923289205341 -172.01420518853411 0 -172.01420518853411 71.179698939056834 0 0 0 0 117.53909840781125 -85.660667979842401 0 -85.660667979842401 43.52578917505889 0 0 0 0 -724.22673613047664 -345.07801669787295 0 -345.07801669787295 331.45165947789792 0 0 0 0 -0.89268254710643191 0.46846854215016265 0 0.46846854215016265 1.3845644579330383 0 0 0 0 268.7010870604754 -167.15173408434202 0 -167.15173408434202 41.12841626824229 0 0 0 0 170.03982462406566 0.88063185785722453 0 0.88063185785722453 -114.65415960790415 0 0 0 0 -154.35112530916012 -225.44924073806033 0 -225.44924073806033 -124.80726651812438 0 0 0 0 -0.51974865128238434 -0.40238651300552419 0 -0.40238651300552419 1.2148153554841201 0 0 0 0 184.95139423308865 -130.59469768623967 0 -130.59469768623967 -66.185677811634378 0 0 0 0 140.24309188647749 -28.263646788407641 0 -28.263646788407641 -198.93248101937934 0 0 0 0 394.37366834565182 -91.439720838105131 0 -91.439720838105131 -323.92400294556865 0 0 0 0 -464.68645313817615 -686.27335479917929 0 -686.27335479917929 1.4062549042137107 0 0 0 0 323.93104944425158 183.66739656176196 0 183.66739656176196 23.956095604895381 0 0 0 0 0.059615008325437202 -3.0398706028690583 0 -3.0398706028690583 5.2130885392175514 0 0 0 0 -31.818942929858167 -35.391797802090878 0 -35.391797802090878 -0.068818880271521013 0 0 0 0 -42.873344874282338 -56.352079838809004 0 -56.352079838809004 -38.732341498427559 0 0 0 0 134.27462118185213 -79.235959629295394 0 -79.235959629295394 -66.94360029186646 0 0 0 0 7.4588312610828211 -7.4298685655085706 0 -7.4298685655085706 8.1831945111092068 0 0 0 0 -34.542331816526712 -51.291315382237372 0 -51.291315382237372 -37.62618216474948 0 0 0 0 -34.174854036165129 -69.460774674303821 0 -69.460774674303821 -60.05402586812852 0 0 0 0 -64.59336221171543 -61.330599026994605 0 -61.330599026994605 -0.020828164721024223 0 0 0 0 -100.7488498304665 -94.248275871599617 0 -94.248275871599617 -29.976682792243082 0 0 0 0 -98.706502098903002 -102.72681622478558 0 -102.72681622478558 -71.53716923459433 0 0 0 0 -198.72763813620259 -168.3921162829356 0 -168.3921162829356 -66.38193495941232 0 0 0 0 -160.66266647510201 -116.28021575650928 0 -116.28021575650928 -0.14040626013593283 0 0 0 0 -157.74467413453385 -90.309963840205455 0 -90.309963840205455 -93.652851621882292 0 0 0 0 -122.33541418125969 -87.550039204114 0 -87.550039204114 -124.93173856793874 0 0 0 0 -135.18978835736198 -50.915025882946793 0 -50.915025882946793 -103.65724648916512 0 0 0 0 -101.27119347169355 -59.144020461870241 0 -59.144020461870241 -78.778950393643754 0 0 0 0 -90.588070625221008 -79.044815582870797 0 -79.044815582870797 -44.941480162626249 0 0 0 0 -121.26228189468929 -96.705600278912243 0 -96.705600278912243 -55.220630411204183 0 0 0 0 -63.538660308855469 -50.155697278562002 0 -50.155697278562002 -54.7044589038087 0 0 0 0 -106.19324381939805 -134.88965084344818 0 -134.88965084344818 -82.328399370831903 0 0 0 0 -152.56327490543481 -60.932293332036352 0 -60.932293332036352 -45.37542026493611 0 0 0 0 -130.79279103249428 -67.22337296763726 0 -67.22337296763726 -44.373172457155306 0 0 0 0 -156.16492554690922 -50.776239041209919 0 -50.776239041209919 -49.575782193875057 0 0 0 0 -170.32273323607114 -62.329554906617886 0 -62.329554906617886 38.441856506891781 0 0 0 0 -170.32037300764932 -60.108171561500058 0 -60.108171561500058 -30.322868852585088 0 0 0 0 -146.97946696105646 -66.238645130390069 0 -66.238645130390069 -40.429505942476681 0 0 0 0 -162.18497171381023 -68.069701131316833 0 -68.069701131316833 -22.56498191744322 0 0 0 0 -178.05821299197851 322.38201451909845 0 322.38201451909845 -428.58843001295463 0 0 0 0 -180.2056657199646 -107.35246765235206 0 -107.35246765235206 -8.2069610850667232 0 0 0 0 -166.19334658014122 -112.13579668816237 0 -112.13579668816237 13.399443268441246 0 0 0 0 -43.965441943863027 -24.696372660523934 0 -24.696372660523934 5.7591965209416003 0 0 0 0 -165.16773909908079 -114.3641543523845 0 -114.3641543523845 -18.610126328099796 0 0 0 0 362.32972243602853 416.80931073252577 0 416.80931073252577 -127.16680819395697 0 0 0 0 460.90200900653144 -114.95605895937479 0 -114.95605895937479 -739.99107503157575 0 0 0 0 -2.4646299605744275 2.5433958187074666 0 2.5433958187074666 5.9821882059160032 0 0 0 0 -206.79103089098498 -109.30887664870534 0 -109.30887664870534 187.19994577205944 0 0 0 0 -44.024277566949166 -82.931879809956399 0 -82.931879809956399 -51.546826157522446 0 0 0 0 -206.155485806863 -76.973853338771733 0 -76.973853338771733 3.4295167498348746 0 0 0 0 -133.53149215009034 -37.806895046938735 0 -37.806895046938735 -73.717397957923822 0 0 0 0 -158.25971334709902 -11.136179529887158 0 -11.136179529887158 -23.065029186400352 0 0 0 0 -184.92855428127223 -49.471432838356122 0 -49.471432838356122 -74.696588987933865 0 0 0 0 -210.84446276047674 -1.6403477032290539 0 -1.6403477032290539 -58.147205530651263 0 0 0 0 -76.618615624407539 -19.426366799423704 0 -19.426366799423704 26.87507226318121 0 0 0 0 -150.56025085298916 -306.40824151674587 0 -306.40824151674587 324.46980805674684 0 0 0 0 -81.234373830371624 -169.09236635678099 0 -169.09236635678099 -242.92094655253459 0 0 0 0 -73.637108898445149 -210.70296736003365 0 -210.70296736003365 -753.57613809479517 0 0 0 0 -263.02381644216075 -133.63779248202627 0 -133.63779248202627 -249.83378971376806 0 0 0 0 -228.40991812837456 -106.78815942277652 0 -106.78815942277652 -277.77889017370762 0 0 0 0 -264.21629207407932 -331.04739134721785 0 -331.04739134721785 -463.49815951043274 0 0 0 0 -149.47334343136026 -54.518983053705597 0 -54.518983053705597 -144.30997402244247 0 0 0 0 -162.57651272852672 -60.112807064273511 0 -60.112807064273511 -227.63460993321496 0 0 0 0 -207.23705365369096 -148.42124723244342 0 -148.42124723244342 -216.04725889821566 0 0 0 0 -199.68493982116343 -91.381252527353354 0 -91.381252527353354 -148.10968389413938 0 0 0 0 -152.63679450011477 -89.896980840036122 0 -89.896980840036122 -190.79944245747174 0 0 0 0 -249.57959799701348 -187.02257096500398 0 -187.02257096500398 -141.10518755784142 0 0 0 0 -208.64675592615095 -214.11768750401097 0 -214.11768750401097 -172.25165289439246 0 0 0 0 -371.64041017091949 -355.82300336071057 0 -355.82300336071057 -0.13961534326598199 0 0 0 0 -273.44980797361859 -589.92136270981791 0 -589.92136270981791 -791.84724686533445 0 0 0 0 -27.035127597715473 -105.80826564829476 0 -105.80826564829476 179.92236913430679 0 0 0 0 -5.1045319353004288 -2.9456854703607291 0 -2.9456854703607291 2.9266738576810951 0 0 0 0 -416.82692969645723 -362.68357768614078 0 -362.68357768614078 -311.8478001046733 0 0 0 0 408.69692594972003 -340.8870230149696 0 -340.8870230149696 -368.95919104918721 0 0 0 0 -513.94666885153856 -377.45340537153243 0 -377.45340537153243 0.11845731199719012 0 0 0 0 -9.9803972194871449 -8.3913777444720949 0 -8.3913777444720949 -1.5988228519703149 0 0 0 0 228.72349108027993 -315.21665723653859 0 -315.21665723653859 -1409.9569825920207 0 0 0 0 -385.21191005105356 -164.47959522867313 0 -164.47959522867313 304.36576387508831 0 0 0 0 353.85879830690101 -954.54725963761302 0 -954.54725963761302 -803.37775783179677 0 0 0 0 -174.11898240484879 -471.73797346571519 0 -471.73797346571519 -708.04265213295002 0 0 0 0 -1207.4951489609812 510.03817064066243 0 510.03817064066243 42.762244207326148 0 0 0 0 -10.095235761281003 -5.3676566127186902 0 -5.3676566127186902 11.094160578517915 0 0 0 0 -103.52589380055724 -79.544977495243074 0 -79.544977495243074 -538.07442168937996 0 0 0 0 -30.8720035036431 -13.020550940665601 0 -13.020550940665601 -1.8040845182550989 0 0 0 0 33.638750703335973 -74.224842048140999 0 -74.224842048140999 51.412775630597025 0 0 0 0 -186.34944810984598 -172.66593708335859 0 -172.66593708335859 -215.2160211323644 0 0 0 0 73.700028782041045 -69.404576617613202 0 -69.404576617613202 0.21925647182618363 0 0 0 0 -286.65281990414951 -222.41183829461806 0 -222.41183829461806 -304.10379557976557 0 0 0 0 -10.395367876567605 -23.33610420018988 0 -23.33610420018988 -36.207199775444508 0 0 0 0 214.85864188196138 -217.15630156442057 0 -217.15630156442057 -773.87983198231086 0 0 0 0 -320.69705674753641 -315.65919976512669 0 -315.65919976512669 -263.40135654938058 0 0 0 0 -235.73745934525505 -292.73254075393197 0 -292.73254075393197 -506.56132539949613 0 0 0 0 -222.61666063965822 -210.35268243348764 0 -210.35268243348764 -423.91984282253543 0 0 0 0 -244.14599700301187 -206.03216251678532 0 -206.03216251678532 -403.08185667917132 0 0 0 0 -211.75368209904991 -240.25626461411593 0 -240.25626461411593 -393.71627615828766 0 0 0 0 -243.06749168422539 -221.05255267219036 0 -221.05255267219036 -400.30669068425777 0 0 0 0 -145.48803848208536 -111.34207491950974 0 -111.34207491950974 -427.14608160150237 0 0 0 0 -148.08124391795718 -169.71076720133715 0 -169.71076720133715 -553.77992849849397 0 0 0 0 -130.1088007302169 -138.10151252020296 0 -138.10151252020296 -467.57537494855933 0 0 0 0 -29.927060668291972 -99.584662356631583 0 -99.584662356631583 -61.649612685212873 0 0 0 0 -64.10926232363272 -253.9939866202767 0 -253.9939866202767 -427.55328772540088 0 0 0 0 -0.88398488819586873 -25.302537383544092 0 -25.302537383544092 -25.829339771557656 0 0 0 0 -216.92577245969733 -519.03462168500118 0 -519.03462168500118 -290.50405903431238 0 0 0 0 -228.27034073528921 -298.17589776848945 0 -298.17589776848945 -232.64660647422716 0 0 0 0 -370.19936331103963 -108.43509890166024 0 -108.43509890166024 -168.52673029123252 0 0 0 0 3.8549490093736836 -153.21911892524287 0 -153.21911892524287 -13.522225455935484 0 0 0 0 -31.454175762090273 -55.561668610156872 0 -55.561668610156872 -30.324092474030465 0 0 0 0 -357.4403661985998 -143.0703274296975 0 -143.0703274296975 -80.410001199772523 0 0 0 0 -198.48925544467056 -63.444805250073841 0 -63.444805250073841 -41.312215157420724 0 0 0 0 -137.90607427610303 -242.43581521141823 0 -242.43581521141823 -128.05690382582543 0 0 0 0 -47.86947201496514 -192.00371959411859 0 -192.00371959411859 -182.47235625573012 0 0 0 0 256.50030795806379 -26.973583318351302 0 -26.973583318351302 -510.1092479869767 0 0 0 0 -264.04527415875782 15.424867551861098 0 15.424867551861098 177.31031007297861 0 0 0 0 38.029325466578427 -59.989276120300957 0 -59.989276120300957 -66.811294089841311 0 0 0 0 -199.10624712498247 -570.19239546739118 0 -570.19239546739118 -228.22406923358358 0 0 0 0 110.13686297938693 -119.30628120446636 0 -119.30628120446636 -40.248410100663023 0 0 0 0 3.4335522487890557 -83.405490367593302 0 -83.405490367593302 43.800759629739332 0 0 0 0 -2.0917791091051186 -122.3838850579632 0 -122.3838850579632 -98.505566012088821 0 0 0 0 -8.0936652356393779 -71.12610267129611 0 -71.12610267129611 -50.969199454138533 0 0 0 0 46.337292680182145 -133.05412745365902 0 -133.05412745365902 1.4127057880286884 0 0 0 0 -80.896728058272856 -20.227412722018926 0 -20.227412722018926 68.75235374137992 0 0 0 0 -41.442628948026766 -26.118464907606061 0 -26.118464907606061 1.8649295247046211 0 0 0 0 130.42282520869048 -400.78830272219056 0 -400.78830272219056 745.29177718608116 0 0 0 0 -37.616536481373771 -29.185333878341353 0 -29.185333878341353 -8.259625100087078 0 0 0 0 -41.677572502521798 -120.39040251634287 0 -120.39040251634287 139.51663203073258 0 0 0 0 -85.468516026639861 -30.062791201479598 0 -30.062791201479598 -0.40051782378948531 0 0 0 0 -35.8286650950904 -237.71755495354591 0 -237.71755495354591 204.46335888148315 0 0 0 0 -129.6485560146175 -156.41404730107388 0 -156.41404730107388 -48.031414173223311 0 0 0 0 -24.78430476557196 -18.14654943811334 0 -18.14654943811334 -7.5544630252032192 0 0 0 0 10.476244192162994 -158.85490783715795 0 -158.85490783715795 -90.775839783746051 0 0 0 0 6.9990116392145865 -49.542713792601717 0 -49.542713792601717 -50.415107367305609 0 0 0 0 93.887786313149263 -428.55117187500218 0 -428.55117187500218 960.15378273671377 0 0 0 0 2.2380928753700573 -425.18678280237145 0 -425.18678280237145 1105.6593896444028 0 0 0 0 -21.336994490382494 -443.74469462656998 0 -443.74469462656998 959.21553519998361 0 0 0 0 40.220944234388298 -535.24110713470509 0 -535.24110713470509 1062.9681635544257 0 0 0 0 39.020909973376547 -407.21609385873307 0 -407.21609385873307 709.48913851956604 0 0 0 0 35.965166229449096 -290.45488718636625 0 -290.45488718636625 982.9814299224854 0 0 0 0 -36.558500322658801 -354.58320033893688 0 -354.58320033893688 874.65197256320062 0 0 0 0 4.5645955206855433 -444.73547066984611 0 -444.73547066984611 898.27223203367612 0 0 0 0 376.66800995775702 -837.13812850184331 0 -837.13812850184331 1308.6392542869871 0 0 0 0 -15.519192895713189 2.3941597727773569 0 2.3941597727773569 11.962636296166465 0 0 0 0 -80.423803850404511 109.78584905370008 0 109.78584905370008 218.98367749998579 0 0 0 0 229.60503641107061 -527.83213891822379 0 -527.83213891822379 856.15560718392226 0 0 0 0 139.86470205309161 -388.74274445237825 0 -388.74274445237825 729.64938968628121 0 0 0 0 467.913141050798 -454.64993563891403 0 -454.64993563891403 666.56560527060356 0 0 0 0 158.15446355601307 -231.85807317501167 0 -231.85807317501167 1209.0704749422803 0 0 0 0 129.53747017073329 -768.32894656604185 0 -768.32894656604185 960.7138117809518 0 0 0 0 -117.20565234922105 -557.64259159003996 0 -557.64259159003996 786.53703239381139 0 0 0 0 -217.34209407801973 -215.21175128025789 0 -215.21175128025789 1241.1204677686292 0 0 0 0 -53.134640702032868 -15.170074121361395 0 -15.170074121361395 -4.59386949768205 0 0 0 0 -142.21570600970517 -170.74236145249961 0 -170.74236145249961 414.9253561712685 0 0 0 0 -122.05828712564835 -603.27578581127455 0 -603.27578581127455 514.10649153976556 0 0 0 0 -102.40550850662112 -411.24035177107726 0 -411.24035177107726 740.58980295719084 0 0 0 0 -315.80798486353888 -697.49534340541868 0 -697.49534340541868 630.04438671880052 0 0 0 0 -94.356143012722896 -432.48687045762654 0 -432.48687045762654 46.408359336026479 0 0 0 0 631.53429207534646 228.56507763346599 0 228.56507763346599 766.68889378401946 0 0 0 0 -74.057444455480436 -464.17065003242169 0 -464.17065003242169 522.11767262116336 0 0 0 0 -476.84640413208399 -1111.0045366812919 0 -1111.0045366812919 99.962685616170347 0 0 0 0 -435.25394841397065 -283.47177711595577 0 -283.47177711595577 890.43741042983675 0 0 0 0 1397.369261731772 -947.7207097871069 0 -947.7207097871069 -1630.6433347093698 0 0 0 0 -419.44647983332106 388.45616799718846 0 388.45616799718846 711.66963208875677 0 0 0 0 -17.456568010924229 -5.614504428360064 0 -5.614504428360064 -1.9300723110807638 0 0 0 0 -177.207000523631 439.84255152009428 0 439.84255152009428 10.003229995934817 0 0 0 0 92.343507372257591 -548.4903865654087 0 -548.4903865654087 -629.01018461443891 0 0 0 0 -137.3838278852345 1.446661085341475 0 1.446661085341475 186.5311877348322 0 0 0 0 -109.65035185942543 -55.28227915098978 0 -55.28227915098978 278.36091196699999 0 0 0 0 -388.61266121370136 -42.55709752436087 0 -42.55709752436087 884.2300842191471 0 0 0 0 149.11323946213815 -374.13803798362642 0 -374.13803798362642 455.37098929817876 0 0 0 0 -17.605676952205329 -24.190355309842545 0 -24.190355309842545 22.690733753373252 0 0 0 0 -142.23840360883332 -140.40873116147486 0 -140.40873116147486 151.30135993559088 0 0 0 0 -16.389744730538311 -25.447258678426635 0 -25.447258678426635 10.86426007052529 0 0 0 0 -154.64578478460317 -131.70603076568659 0 -131.70603076568659 125.69300403626403 0 0 0 0 -43.321827944252277 -64.193089716865074 0 -64.193089716865074 -31.48898767109209 0 0 0 0 -39.326746112448745 -92.154619261284097 0 -92.154619261284097 33.648263300376129 0 0 0 0 -67.444085430855921 -91.106115275335469 0 -91.106115275335469 240.44148171195411 0 0 0 0 -5.6805362914469981 -12.523476923819828 0 -12.523476923819828 -27.690002474378673 0 0 0 0 -192.32374094973056 -209.13923682632958 0 -209.13923682632958 -171.95950428942888 0 0 0 0 -76.979578653801582 -71.930050799965102 0 -71.930050799965102 225.68025652063079 0 0 0 0 9.7481065361353103 -84.243731664202642 0 -84.243731664202642 -31.597010145880631 0 0 0 0 -158.2811338466563 -85.369086392565805 0 -85.369086392565805 31.263074530739686 0 0 0 0 43.894302065222291 -231.25052919505106 0 -231.25052919505106 -1.4886927700717933 0 0 0 0 -107.74138034503267 -30.038476815090689 0 -30.038476815090689 224.81634751502133 0 0 0 0 -250.89476129847753 -37.785952022051788 0 -37.785952022051788 392.01062086747334 0 0 0 0 -0.83990176283987239 -2604.8327882975555 0 -2604.8327882975555 -603.62205635585997 0 0 0 0 -1990.0780447619104 -2328.2927034335407 0 -2328.2927034335407 53.648021353154036 0 0 0 0 -1858.4074847793963 -3603.1392544803748 0 -3603.1392544803748 -583.36659629545466 0 0 0 0 -4544.7239770824817 -4322.5289859046461 0 -4322.5289859046461 -605.08806176365761 0 0 0 0 -7357.9064782945788 -2135.1255128040211 0 -2135.1255128040211 2.8281041868467582 0 0 0 0 -2422.3084025293792 1512.6794478534066 0 1512.6794478534066 -858.93420274944219 0 0 0 0 -1265.704006964108 -1770.2774780369946 0 -1770.2774780369946 -2661.1019069199538 0 0 0 0 -43.85322136472638 -7.6796181651073425 0 -7.6796181651073425 15.62499685833393 0 0 0 0 -6816.0304956104665 406.87397366547157 0 406.87397366547157 851.72301177715417 0 0 0 0 2.0957433161665904 1.0778729623774268 0 1.0778729623774268 17.922780557931617 0 0 0 0 -4482.9136868208152 -642.36463352905594 0 -642.36463352905594 946.88776361179771 0 0 0 0 -2747.7620242997655 -369.86942495721451 0 -369.86942495721451 936.18452400231035 0 0 0 0 -2236.2958541511325 -574.30501787604589 0 -574.30501787604589 760.77700836825534 0 0 0 0 -1870.4048413746059 -985.49565001892188 0 -985.49565001892188 227.97146494931803 0 0 0 0 -212.71986698952969 -79.901806568144821 0 -79.901806568144821 -15.90230665687011 0 0 0 0 -322.53831654100213 -173.57480527683219 0 -173.57480527683219 -16.999142214611197 0 0 0 0 -185.37962370371679 -137.56429232131632 0 -137.56429232131632 -73.389191307214787 0 0 0 0 -204.59314726986486 -193.52442020323724 0 -193.52442020323724 -220.08603360687266 0 0 0 0 -499.12381838726287 130.52171937099774 0 130.52171937099774 -248.2525990105205 0 0 0 0 -332.1530365026556 -129.0311658589053 0 -129.0311658589053 -53.276294918337953 0 0 0 0 -252.55313059850596 -195.67060236750694 0 -195.67060236750694 -1.5083024716295768 0 0 0 0 -108.66938023280818 -151.99658299050498 0 -151.99658299050498 7.4414065525452315 0 0 0 0 1.1994970109579839 -12.184040736962032 0 -12.184040736962032 105.24034116273634 0 0 0 0 -226.917076345635 -100.1825602366298 0 -100.1825602366298 30.083832623771741 0 0 0 0 -20.830372597703047 -34.165286805273411 0 -34.165286805273411 136.72575207990224 0 0 0 0 -113.51729353579503 -112.19716416857045 0 -112.19716416857045 198.77931485825684 0 0 0 0 -145.03271621585009 781.48345792692999 0 781.48345792692999 -1010.2213926000841 0 0 0 0 -142.22617212490877 -13.544987358131038 0 -13.544987358131038 111.19415561853384 0 0 0 0 -55.883096772246063 -44.594165743532358 0 -44.594165743532358 0.029482578029274009 0 0 0 0 1.3722966697823722 -37.502976976546051 0 -37.502976976546051 154.54191915127194 0 0 0 0 -94.979932277783519 -34.085460056448937 0 -34.085460056448937 -1.4494157274893951 0 0 0 0 -66.661699591463787 -60.381018270634655 0 -60.381018270634655 13.194695035834542 0 0 0 0 -62.10803002375178 -37.626265295199119 0 -37.626265295199119 -12.131000089313602 0 0 0 0 -27.815275356173515 -38.652647754643112 0 -38.652647754643112 0.71796078176703304 0 0 0 0 -1.2634089145360008 -10.363584993101711 0 -10.363584993101711 -3.3372957715745883 0 0 0 0 -123.35997353104176 163.01667821072624 0 163.01667821072624 -180.61397661041701 0 0 0 0 -134.46729421673808 -190.61821226392203 0 -190.61821226392203 324.90415365830995 0 0 0 0 -2.4528078708274847 -77.989271499016681 0 -77.989271499016681 -40.798617574196129 0 0 0 0 -71.066799769338104 -36.992761647874431 0 -36.992761647874431 -17.812761974346358 0 0 0 0 -63.721097001925386 -17.506422062071437 0 -17.506422062071437 -19.683301864617196 0 0 0 0 -67.877367195833358 -52.327898808631289 0 -52.327898808631289 210.40805171249667 0 0 0 0 51.24998449843406 -253.85871699638665 0 -253.85871699638665 -153.54578750985092 0 0 0 0 -14.935099202555989 -88.3200911706829 0 -88.3200911706829 -67.769751306488018 0 0 0 0 -183.20367830770556 -385.67817518644006 0 -385.67817518644006 310.91434659840161 0 0 0 0 -61.738545807820628 -18.165151529130526 0 -18.165151529130526 -0.037925178417935967 0 0 0 0 -89.492251568114625 -145.00834113988503 0 -145.00834113988503 -120.83939588576322 0 0 0 0 -49.417927803166094 -19.945686906146875 0 -19.945686906146875 -4.7943631920788903 0 0 0 0 -49.483102395345725 -13.048940583092673 0 -13.048940583092673 0.24255133876515345 0 0 0 0 -37.863046286453027 -12.311044373840559 0 -12.311044373840559 0.01405459717264739 0 0 0 0 -115.42718842232716 206.66255301436468 0 206.66255301436468 -298.22857030652813 0 0 0 0 -108.47133853336709 -55.958603699256855 0 -55.958603699256855 -259.16123567448813 0 0 0 0 -35.614759217292885 -604.94362213154091 0 -604.94362213154091 -840.37822552934085 0 0 0 0 -190.803599926061 -426.29862747048173 0 -426.29862747048173 -46.833675311623665 0 0 0 0 -15.927434475888731 -1182.1400389839182 0 -1182.1400389839182 -291.30935869239329 0 0 0 0 -299.78836050209611 -429.3737140561193 0 -429.3737140561193 162.24365248647518 0 0 0 0 -1045.8618598526227 -252.63986430419027 0 -252.63986430419027 141.69083056198724 0 0 0 0 -243.13267263019225 -75.445951131317997 0 -75.445951131317997 250.3615193796868 0 0 0 0 -0.17698709817659619 -5.096216294526954 0 -5.096216294526954 8.9238358901338586 0 0 0 0 122.05080341890789 -138.90447027444498 0 -138.90447027444498 -1075.9569310680672 0 0 0 0 -7.3723436457523235 -8.8569687404825714 0 -8.8569687404825714 -3.9457261686072798 0 0 0 0 -426.7072598504601 -397.21928499182104 0 -397.21928499182104 1199.6559442736907 0 0 0 0 -496.51117373800662 -281.92318495312793 0 -281.92318495312793 1240.760130868206 0 0 0 0 -150.64404077378276 -173.45644314956007 0 -173.45644314956007 1019.7961434717108 0 0 0 0 66.816271793068154 -389.09448916044857 0 -389.09448916044857 971.83323973295046 0 0 0 0 -81.710808731397265 -342.5382086128775 0 -342.5382086128775 966.31021562661044 0 0 0 0 -164.00222177800606 -431.52482034901914 0 -431.52482034901914 870.08701154775918 0 0 0 0 -68.547226781462086 -576.85345663835324 0 -576.85345663835324 923.67045963314195 0 0 0 0 -221.64703606374678 -500.59051506336255 0 -500.59051506336255 930.94779842319258 0 0 0 0 -166.22128983932453 -421.15407821860117 0 -421.15407821860117 1038.0295397673326 0 0 0 0 -316.99345152520982 -461.58293356766808 0 -461.58293356766808 1192.8956117650232 0 0 0 0 -361.61280733681633 -530.04015873712342 0 -530.04015873712342 1092.6397556192242 0 0 0 0 -323.78995275942543 -790.28994377248682 0 -790.28994377248682 1508.473518046434 0 0 0 0 360.0875899498933 -921.51995243100828 0 -921.51995243100828 548.96106170312851 0 0 0 0 420.74739088720526 -1093.5972804736375 0 -1093.5972804736375 739.80524854997202 0 0 0 0 -407.69217018428026 -1356.6354859504486 0 -1356.6354859504486 3237.4593550391583 0 0 0 0 -488.2141336700588 -636.23995045264746 0 -636.23995045264746 1373.8044388740673 0 0 0 0 -234.0298668156538 82.863997319982445 0 82.863997319982445 199.12664302819758 0 0 0 0 -405.46320899523562 -221.29811385947323 0 -221.29811385947323 716.87984861597943 0 0 0 0 -523.86979589544353 -116.7670243932298 0 -116.7670243932298 1686.361946588193 0 0 0 0 -346.63876022383556 -617.86960193878258 0 -617.86960193878258 -373.57899577599892 0 0 0 0 -354.99797778431093 -288.55466486189835 0 -288.55466486189835 682.72443201164788 0 0 0 0 -303.66480733745266 -429.65742202609545 0 -429.65742202609545 20.886794340854976 0 0 0 0 -163.11539620216354 -342.82209123977009 0 -342.82209123977009 -213.74217506864807 0 0 0 0 -540.60894248308614 -319.00405802387831 0 -319.00405802387831 -14.685429819859564 0 0 0 0 -1.4263795634797134 -1555.6861176546445 0 -1555.6861176546445 386.71749360196191 0 0 0 0 584.55953390751893 -2423.473867634847 0 -2423.473867634847 1494.8008438851393 0 0 0 0 -1351.0586909516715 -1025.836922544815 0 -1025.836922544815 575.15871847922972 0 0 0 0 0.23609650392671711 -13.308350709235299 0 -13.308350709235299 70.183580087828034 0 0 0 0 -1068.623026388128 -1232.5336526423098 0 -1232.5336526423098 294.18927515381074 0 0 0 0 -735.43006058056199 361.29482377909517 0 361.29482377909517 1976.1359099578403 0 0 0 0 0.30687698016927811 -5.2425117461557988 0 -5.2425117461557988 26.095236330748492 0 0 0 0 1595.3390733109409 -1938.8344926783684 0 -1938.8344926783684 1166.3899569666974 0 0 0 0 1227.8609433716483 -239.05080841859854 0 -239.05080841859854 1090.9979015632416 0 0 0 0 889.86243755420583 -965.70776078697236 0 -965.70776078697236 -112.56194817177311 0 0 0 0 166.03181173533085 -1388.30707917978 0 -1388.30707917978 -47.342398369284638 0 0 0 0 379.18239349153009 -136.33166034122405 0 -136.33166034122405 -620.2268988892065 0 0 0 0 -590.87957881577313 -712.14984870124317 0 -712.14984870124317 2331.6068439285227 0 0 0 0 -881.14123236546584 -1155.528582520059 0 -1155.528582520059 1723.0860669687681 0 0 0 0 -655.29462987991974 -722.73532392858806 0 -722.73532392858806 -403.63298294115521 0 0 0 0 -624.87855525812483 -2038.0997355148356 0 -2038.0997355148356 54.656572490245352 0 0 0 0 0.49580252051237039 -104.89764980608015 0 -104.89764980608015 19.721436200903554 0 0 0 0 79.39617300403188 -48.20769103069324 0 -48.20769103069324 -16.145842138808803 0 0 0 0 79.119560511135091 -86.697881664273183 0 -86.697881664273183 10.611828741995851 0 0 0 0 184.33000728671323 -70.471750935037562 0 -70.471750935037562 -39.491845662159903 0 0 0 0 -955.69536331591371 -429.19797945683968 0 -429.19797945683968 -247.59215261672216 0 0 0 0 2.4703292640719923 -6.7563940167588044 0 -6.7563940167588044 -37.268346180867354 0 0 0 0 -701.95507507208094 -803.55018303416 0 -803.55018303416 134.7195887613052 0 0 0 0 -279.27368838112307 -327.80697188419617 0 -327.80697188419617 474.2501670421625 0 0 0 0 4.923207185944932 6.0574858435771688 0 6.0574858435771688 -8.4026743872702809 0 0 0 0 470.68443623697385 -3098.9789653243824 0 -3098.9789653243824 -4068.5088809021981 0 0 0 0 -44.239325731658028 -52.598629823991359 0 -52.598629823991359 -134.4837134804111 0 0 0 0 -533.62439018338773 -392.7273531432993 0 -392.7273531432993 101.23824113435694 0 0 0 0 -478.31441060951329 36.230301543808309 0 36.230301543808309 24.555799040113925 0 0 0 0 -1.1988495161377699 1.771756135015039 0 1.771756135015039 -28.062595941134589 0 0 0 0 -1523.6255136834225 -1182.2517746174126 0 -1182.2517746174126 -844.10805331612937 0 0 0 0 -1004.7244733630068 -553.14832428817135 0 -553.14832428817135 -655.77755344740581 0 0 0 0 -1594.340395432082 343.64545674537658 0 343.64545674537658 459.6679703015252 0 0 0 0 -2319.7663693059003 -929.13605992007069 0 -929.13605992007069 -103.5451262864517 0 0 0 0 -2524.3840274933027 -306.34819969485397 0 -306.34819969485397 960.80970117571997 0 0 0 0 -1061.2167804083438 -67.515523703099461 0 -67.515523703099461 -68.682216175098802 0 0 0 0 -6.8512958454114141 -2.6613692133495874 0 -2.6613692133495874 -11.002197941295549 0 0 0 0 -0.058771304480615072 -45.789081196635379 0 -45.789081196635379 29.724381606269162 0 0 0 0 46.377071478433209 -34.078287726515555 0 -34.078287726515555 -10.350623932288727 0 0 0 0 45.394556329918487 -65.932405700682239 0 -65.932405700682239 3.0293627407227177 0 0 0 0 16.148565290146507 161.11956959018062 0 161.11956959018062 -467.68220303137787 0 0 0 0 -5.1851189135383606 -2.8706608581451576 0 -2.8706608581451576 0.69671598045124483 0 0 0 0 -420.71287478265003 -644.37294125854532 0 -644.37294125854532 -632.47059119278128 0 0 0 0 -0.55131868082706603 0.67099850956037699 0 0.67099850956037699 -11.519428090156453 0 0 0 0 -620.93740675889421 -451.06300671710051 0 -451.06300671710051 208.82917952910066 0 0 0 0 -2.607268760504212 -4.0412021241197777 0 -4.0412021241197777 -4.9034417641768471 0 0 0 0 -597.92651967968413 -487.51443922367707 0 -487.51443922367707 224.05480502269347 0 0 0 0 -604.51498252226156 -461.98368129781738 0 -461.98368129781738 182.6396448800806 0 0 0 0 -517.46902889126795 238.2151992902036 0 238.2151992902036 -402.66369317355566 0 0 0 0 -645.1328569745383 -134.98535952249767 0 -134.98535952249767 -206.62945108777785 0 0 0 0 249.93436838549678 -433.98400078218401 0 -433.98400078218401 -474.31473328488937 0 0 0 0 301.01274194178404 -324.87888377800846 0 -324.87888377800846 -242.58654675648722 0 0 0 0 213.67486606433522 -27.180813957354985 0 -27.180813957354985 -467.35548012526442 0 0 0 0 202.28118190680743 -119.66991943757921 0 -119.66991943757921 -69.397643420350505 0 0 0 0 -624.3410614868917 -472.44370006203826 0 -472.44370006203826 245.3104843426845 0 0 0 0 -458.42943288595416 -29.862813359912252 0 -29.862813359912252 253.75046642076404 0 0 0 0 -576.00792405480752 -407.6533470546201 0 -407.6533470546201 -940.76409472062369 0 0 0 0 -779.30478156259051 -183.66852142593416 0 -183.66852142593416 -65.282136587513378 0 0 0 0 -22.687140313940006 -11.015148037256068 0 -11.015148037256068 -7.6824716638509756 0 0 0 0 -95.04484561321442 304.01547286924324 0 304.01547286924324 -1183.313456877745 0 0 0 0 -674.478261242999 -745.61818016905454 0 -745.61818016905454 488.37509895561379 0 0 0 0 -664.87652142619481 -808.6408300777257 0 -808.6408300777257 -1287.6597766318737 0 0 0 0 -445.5343092251278 179.28057965955304 0 179.28057965955304 -337.03772891827975 0 0 0 0 374.37662694818573 109.52159677150485 0 109.52159677150485 -538.23172175862419 0 0 0 0 96.243555489614664 -380.8091058268983 0 -380.8091058268983 283.94665802901727 0 0 0 0 -203.60347591678146 527.68317630492675 0 527.68317630492675 22.818642803922558 0 0 0 0 289.50267452884145 -168.99911720351156 0 -168.99911720351156 -1253.1575228028814 0 0 0 0 13.150638163060648 -117.18339086296328 0 -117.18339086296328 295.90150984349748 0 0 0 0 -274.50116640768829 -431.15773799360613 0 -431.15773799360613 188.66159518750283 0 0 0 0 -153.13560526203946 -328.891454260709 0 -328.891454260709 115.72880658850772 0 0 0 0 88.02113188313524 -203.37062761037305 0 -203.37062761037305 159.27639833025751 0 0 0 0 308.61889927473385 -101.99985169996944 0 -101.99985169996944 104.50346203453955 0 0 0 0 51.049255550678936 -126.82096516847378 0 -126.82096516847378 121.59594657705748 0 0 0 0 104.68997276329196 -288.6348411223031 0 -288.6348411223031 244.81066498241853 0 0 0 0 105.69939127418911 -199.14799496193154 0 -199.14799496193154 159.76138486743184 0 0 0 0 337.31244671612512 -241.08407595192693 0 -241.08407595192693 86.740871203961433 0 0 0 0 -4.9965952079060116 -8.8387388616717217 0 -8.8387388616717217 -10.812460617318209 0 0 0 0 233.53372501282865 -282.22179523995146 0 -282.22179523995146 167.48714729235508 0 0 0 0 279.54139369900804 -233.2966187050697 0 -233.2966187050697 87.666254941872467 0 0 0 0 151.84403368935455 -617.62882643805642 0 -617.62882643805642 366.37727815482504 0 0 0 0 395.44938969774375 -624.46805367322304 0 -624.46805367322304 311.31271416164236 0 0 0 0 514.16727837847429 -479.77006057550898 0 -479.77006057550898 -183.51323629690705 0 0 0 0 150.77034620036648 -628.09185835100106 0 -628.09185835100106 477.38294770309585 0 0 0 0 72.501729466275719 -465.08281422673826 0 -465.08281422673826 488.39150573096413 0 0 0 0 200.58782999528921 -421.64449883736961 0 -421.64449883736961 109.21577102101583 0 0 0 0 49.62557555566309 -397.56203440397076 0 -397.56203440397076 364.29597811245185 0 0 0 0 -117.86612406687345 -357.82173303025775 0 -357.82173303025775 381.7687936194161 0 0 0 0 -77.630734578146075 -473.24666922430697 0 -473.24666922430697 597.90050608788442 0 0 0 0 -83.709412394309766 -384.90547576350946 0 -384.90547576350946 851.82123253983082 0 0 0 0 -101.8286143046862 -473.37032178722438 0 -473.37032178722438 598.9771521249786 0 0 0 0 -27.611263024038635 -368.89566719275172 0 -368.89566719275172 424.90004546799173 0 0 0 0 -22.778389655017236 -493.96790845425494 0 -493.96790845425494 221.88864666277368 0 0 0 0 -184.14772595433169 -391.14948710359022 0 -391.14948710359022 429.33187702678697 0 0 0 0 -44.623555092999595 -295.45400280463946 0 -295.45400280463946 214.38182060905092 0 0 0 0 -148.24613140913425 -425.80942326285003 0 -425.80942326285003 108.9340123951406 0 0 0 0 -176.22419959583203 -198.11974217651004 0 -198.11974217651004 215.67392697661126 0 0 0 0 -710.95973115414381 -454.98137796913215 0 -454.98137796913215 141.11509610806388 0 0 0 0 -172.99792438799341 -250.52646706781888 0 -250.52646706781888 -102.4067930572055 0 0 0 0 -90.816731835948303 -599.89753093462787 0 -599.89753093462787 -148.1149478851803 0 0 0 0 52.877996291717864 -262.8787860674056 0 -262.8787860674056 307.03882240095118 0 0 0 0 228.47905176103814 -209.61333861823005 0 -209.61333861823005 73.850820575593389 0 0 0 0 -21.872823166195303 9.8781232666806318 0 9.8781232666806318 19.787757655471069 0 0 0 0 -1.8123061927981325 0.99613844437618582 0 0.99613844437618582 0.73341280713708557 0 0 0 0 -181.28157774987631 -286.39668911132321 0 -286.39668911132321 -473.37245244470978 0 0 0 0 -22.253768436001963 -16.149557120044477 0 -16.149557120044477 3.3989280175454155 0 0 0 0 -28.7218032774108 -30.418301481862727 0 -30.418301481862727 -37.040521152652218 0 0 0 0 -10.253747890431924 -4.9565040020016795 0 -4.9565040020016795 -8.07027316800378 0 0 0 0 -387.87941592966672 -736.07034704755642 0 -736.07034704755642 -109.46574986397172 0 0 0 0 307.64497617745656 -560.80317129410105 0 -560.80317129410105 -345.95627767516999 0 0 0 0 85.904652046476258 -1258.7192262042372 0 -1258.7192262042372 -711.80724459758494 0 0 0 0 -208.54512710190465 -263.0223908279404 0 -263.0223908279404 -429.09030841797357 0 0 0 0 -244.68445245741168 -295.5687974370303 0 -295.5687974370303 -307.32404342170048 0 0 0 0 -4.9778230683461118 -11.57233940449828 0 -11.57233940449828 -85.191254026214892 0 0 0 0 -204.83710380010598 -246.26473411731422 0 -246.26473411731422 -353.48076428525383 0 0 0 0 -263.48752519232221 -344.6189988473343 0 -344.6189988473343 -390.31062546870089 0 0 0 0 -235.0983876511018 -388.37518988639204 0 -388.37518988639204 -323.97612345794914 0 0 0 0 -152.76914725184906 -288.34241834715795 0 -288.34241834715795 -532.39582435099874 0 0 0 0 -221.93162269113236 -441.50071992538869 0 -441.50071992538869 -504.14937411322899 0 0 0 0 -314.07332341726578 -419.97759768080869 0 -419.97759768080869 -172.43957370995486 0 0 0 0 16.178937253087781 -85.586373158955865 0 -85.586373158955865 -114.30336517568095 0 0 0 0 -168.54624549733126 -422.22813579784997 0 -422.22813579784997 -172.41588344137858 0 0 0 0 -304.071192706906 -362.68906562880147 0 -362.68906562880147 -315.64356057017358 0 0 0 0 849.83192314363623 -733.97883448980247 0 -733.97883448980247 107.13506926787522 0 0 0 0 641.12067258916795 -858.99641845483711 0 -858.99641845483711 141.08608264690338 0 0 0 0 1408.1794018172077 -991.24514026458928 0 -991.24514026458928 0.20020225011830917 0 0 0 0 -3.9337747635164817 -7.883648045342909 0 -7.883648045342909 -13.005413474029069 0 0 0 0 -3081.1212765222444 142.64870019189948 0 142.64870019189948 627.18881460006378 0 0 0 0 -2441.8109570912929 -1213.8816317963774 0 -1213.8816317963774 857.81149148440454 0 0 0 0 -280.47193380060344 -324.82397125404532 0 -324.82397125404532 -313.17636010350543 0 0 0 0 -1469.914420469664 -1155.40612432321 0 -1155.40612432321 925.13183073701657 0 0 0 0 -349.67774539180391 -620.95599404118911 0 -620.95599404118911 -681.27609154233869 0 0 0 0 12.419561313070858 -81.540134344100721 0 -81.540134344100721 -117.80541677148919 0 0 0 0 674.91305873762758 -1085.1590966280564 0 -1085.1590966280564 255.59794171183603 0 0 0 0 -330.54024178039981 406.76790258648907 0 406.76790258648907 647.63505523283129 0 0 0 0 396.11640977623756 -202.75852096440394 0 -202.75852096440394 -44.32113300236233 0 0 0 0 2.4399009073893012 -22.769691512050372 0 -22.769691512050372 -9.3218472834250861 0 0 0 0 -296.2972882824688 -1149.3980442240536 0 -1149.3980442240536 -109.30878047403166 0 0 0 0 -959.29443698821706 -292.34013837396196 0 -292.34013837396196 -150.31013153037202 0 0 0 0 108.43151894224866 88.468758080674888 0 88.468758080674888 -7.0539441828295821 0 0 0 0 -193.19283520692261 47.538123246275063 0 47.538123246275063 413.3997549278165 0 0 0 0 37.202361987445329 -395.74447508855178 0 -395.74447508855178 -59.752776357017865 0 0 0 0 -29.370939142085263 -373.94635653706791 0 -373.94635653706791 406.24329109608516 0 0 0 0 -235.62811979823164 -397.13025200537595 0 -397.13025200537595 -19.887920763190778 0 0 0 0 -265.73897212930024 -290.74852848915907 0 -290.74852848915907 -358.12005350524851 0 0 0 0 0.30441540568034497 -3.4294890941252163 0 -3.4294890941252163 -41.206777692604057 0 0 0 0 25.485433335416019 -146.28865792071883 0 -146.28865792071883 65.262283119835047 0 0 0 0 65.278818917465287 -99.235076245892287 0 -99.235076245892287 -69.37682428300468 0 0 0 0 -12.701947119324814 -46.47956934090994 0 -46.47956934090994 -48.279383132867565 0 0 0 0 -6.0210004410764668 -47.077783825101505 0 -47.077783825101505 -80.927916325454134 0 0 0 0 10.560808579692093 -100.50953036072315 0 -100.50953036072315 -69.405622623307863 0 0 0 0 117.14968262211187 0.12280443485360593 0 0.12280443485360593 -685.69059507115162 0 0 0 0 -1039.6618640818051 -145.95325406648044 0 -145.95325406648044 -486.4694178567006 0 0 0 0 220.67721110390266 -153.17742761553382 0 -153.17742761553382 -795.42885040203691 0 0 0 0 -14.408170320808665 -38.832997045458967 0 -38.832997045458967 -21.178199108022227 0 0 0 0 -1.2705077870559194 -4.6634795927590034 0 -4.6634795927590034 -7.3452866528360232 0 0 0 0 -98.628661993687274 -9.797297228462412 0 -9.797297228462412 -946.08379389958282 0 0 0 0 286.34061450877925 -173.99230312812142 0 -173.99230312812142 -1114.3121054712101 0 0 0 0 140.913690229645 86.062253383424832 0 86.062253383424832 -704.56706978450529 0 0 0 0 117.7015423544799 209.63800022003124 0 209.63800022003124 -1343.8962788834251 0 0 0 0 2.2664282231103243 -21.63854963958596 0 -21.63854963958596 -32.802040870124017 0 0 0 0 0.056990687283189345 -88.103121662408256 0 -88.103121662408256 -67.622564264775292 0 0 0 0 -353.98374844118371 176.34387453240925 0 176.34387453240925 -412.95157397654839 0 0 0 0 27.451104574196506 -287.19211500255915 0 -287.19211500255915 -184.62452284229221 0 0 0 0 57.220505501783919 38.377812286984408 0 38.377812286984408 -685.1814034730196 0 0 0 0 353.35877404912026 -318.6432425831299 0 -318.6432425831299 122.0392090853129 0 0 0 0 -48.804856372416339 -46.450700059192563 0 -46.450700059192563 -15.907356154342096 0 0 0 0 104.0352522260946 351.49384522205219 0 351.49384522205219 -475.1022532280731 0 0 0 0 397.04659062887367 -278.91548569125735 0 -278.91548569125735 -257.17056395896361 0 0 0 0 -200.28360948353657 15.997098585983622 0 15.997098585983622 404.04839893817098 0 0 0 0 -20.930709865380777 -110.77767828092328 0 -110.77767828092328 -72.423888771816564 0 0 0 0 341.69025678705657 33.225914922804805 0 33.225914922804805 -225.43203882248963 0 0 0 0 28.967723046714411 -62.99542465857337 0 -62.99542465857337 48.901471261861218 0 0 0 0 329.52510788850486 -42.204097168294538 0 -42.204097168294538 -40.557994218030217 0 0 0 0 -274.90856252610138 -349.31099933699147 0 -349.31099933699147 -76.251342611496511 0 0 0 0 -362.76851501645433 -178.20362669708629 0 -178.20362669708629 190.23620804387247 0 0 0 0 -189.85161347669782 -102.53807559180859 0 -102.53807559180859 2.0676347580356378 0 0 0 0 -214.29341637567268 -49.656151373917965 0 -49.656151373917965 78.070131559070433 0 0 0 0 266.61372220981139 248.99106991136068 0 248.99106991136068 36.859253668844758 0 0 0 0 25.466798326554937 -29.014213420685309 0 -29.014213420685309 38.61218989667762 0 0 0 0 339.93185221827298 -484.2617642124751 0 -484.2617642124751 202.69931049046863 0 0 0 0 12.951440914534032 -89.794669650687865 0 -89.794669650687865 257.66487263252202 0 0 0 0 653.48836946376832 -462.89247115167382 0 -462.89247115167382 109.8950228337344 0 0 0 0 668.33952425868483 47.620614629864576 0 47.620614629864576 204.15535735615413 0 0 0 0 -0.98778596513147932 105.65673954005251 0 105.65673954005251 -45.930824336654041 0 0 0 0 497.61713896715082 -393.6084850505722 0 -393.6084850505722 83.048753681854578 0 0 0 0 -406.18716264952673 -447.28558886058818 0 -447.28558886058818 38.598023414378986 0 0 0 0 1050.8279234680522 -968.82197540931156 0 -968.82197540931156 -45.452610196734895 0 0 0 0 -0.49421948846780595 -7.0932148242085304 0 -7.0932148242085304 9.5440842252702964 0 0 0 0 0.27361317207396496 -1212.2788645174587 0 -1212.2788645174587 149.49399627459934 0 0 0 0 410.58658465412736 -371.64688211304019 0 -371.64688211304019 -837.29431743587338 0 0 0 0 -453.42065520721371 -1184.7672053997376 0 -1184.7672053997376 468.57432392198098 0 0 0 0 -219.78023993686656 140.14836464456312 0 140.14836464456312 -276.26188208154053 0 0 0 0 -501.49861171182465 72.532236591112223 0 72.532236591112223 -145.84754976732074 0 0 0 0 -562.40029141271953 -720.05073575730785 0 -720.05073575730785 -1132.0843662700281 0 0 0 0 1.692761255363024 -6.2537789455431607 0 -6.2537789455431607 -13.215392314461099 0 0 0 0 -426.05574335346319 -606.93305321155822 0 -606.93305321155822 -521.8020088885969 0 0 0 0 -1907.4872881294577 -795.91035775941418 0 -795.91035775941418 10.827397327142535 0 0 0 0 -1079.0561795246031 -67.538174360830453 0 -67.538174360830453 -206.98415593524987 0 0 0 0 411.96118026525801 34.936123756028792 0 34.936123756028792 -343.28396502936084 0 0 0 0 68.797642536279454 -157.38159877527505 0 -157.38159877527505 -28.009852314760792 0 0 0 0 -171.82489776905277 -674.39632675370376 0 -674.39632675370376 356.79625757227041 0 0 0 0 -110.49936886207433 -427.17644929773815 0 -427.17644929773815 89.198187478075852 0 0 0 0 -349.94511627156317 -494.87675615031549 0 -494.87675615031549 209.67218009926728 0 0 0 0 -209.57738081194111 -695.00520005177532 0 -695.00520005177532 51.106480786693282 0 0 0 0 -179.4787382348004 -563.35405666038423 0 -563.35405666038423 265.89987026773451 0 0 0 0 -147.45318098289135 -611.50964669945097 0 -611.50964669945097 -874.11076744073944 0 0 0 0 -151.59239963562868 -293.03462052530085 0 -293.03462052530085 -284.68570632140472 0 0 0 0 18.812689183906912 -25.123345149130841 0 -25.123345149130841 5.239096477983594 0 0 0 0 -88.247808895626804 -395.90509256516088 0 -395.90509256516088 -17.683906295947963 0 0 0 0 -154.21842020763188 -401.54634891109208 0 -401.54634891109208 127.6310707333032 0 0 0 0 24.540029341238551 -225.92538667030749 0 -225.92538667030749 -239.78583556936792 0 0 0 0 -87.225522833134164 -18.577564564358909 0 -18.577564564358909 291.73703692056006 0 0 0 0 -57.047362152967253 -140.93128172044089 0 -140.93128172044089 680.26680305670016 0 0 0 0 -51.634344884048915 -327.34886582985928 0 -327.34886582985928 632.44334469357273 0 0 0 0 -44.378193415206624 -381.95606942090672 0 -381.95606942090672 350.66714489267542 0 0 0 0 -135.21715957588458 -286.31203614608239 0 -286.31203614608239 262.48002027171606 0 0 0 0 33.171541842049919 -108.47273394878721 0 -108.47273394878721 649.92476019039168 0 0 0 0 11.120380982299707 -24.94207375201924 0 -24.94207375201924 10.92617942501262 0 0 0 0 4135.6318736196845 11.635042147507193 0 11.635042147507193 -603.22153492343932 0 0 0 0 134.1998008210212 150.80858215136686 0 150.80858215136686 689.95654802559875 0 0 0 0 36.263181071146391 -220.73250857100356 0 -220.73250857100356 738.76134213002661 0 0 0 0 -5.5689759937813506 -260.95365821066662 0 -260.95365821066662 558.8685875927622 0 0 0 0 -6.269856298204104 -246.4472432135226 0 -246.4472432135226 805.48319764237385 0 0 0 0 17.582105750334449 -191.2372720806743 0 -191.2372720806743 773.81171182944672 0 0 0 0 -14.058955344255082 -218.91535336381639 0 -218.91535336381639 872.67943930043839 0 0 0 0 47.24710917606717 -452.65546936122701 0 -452.65546936122701 759.10246402679331 0 0 0 0 183.16282936610514 -401.13885655396734 0 -401.13885655396734 877.64771641534753 0 0 0 0 -12.501999864471145 -169.98323317748145 0 -169.98323317748145 1268.5732366385637 0 0 0 0 -71.102828876813874 -110.51773595332634 0 -110.51773595332634 1236.5710525513277 0 0 0 0 79.142124842019257 -558.52308231545976 0 -558.52308231545976 799.04725946497638 0 0 0 0 60.820709085237468 -396.87828825175529 0 -396.87828825175529 952.75232601951575 0 0 0 0 2.2813470026230789 -484.55617440213973 0 -484.55617440213973 480.17169233830646 0 0 0 0 2.511139626352815 -450.64266585976293 0 -450.64266585976293 802.55689295925549 0 0 0 0 30.801888979534851 -639.63056567100284 0 -639.63056567100284 629.16390480614791 0 0 0 0 14.288839409491629 -596.55756848680176 0 -596.55756848680176 540.61722293583443 0 0 0 0 43.906193001195788 -579.73360540549038 0 -579.73360540549038 896.94813183514634 0 0 0 0 25.633720141208869 -834.65558365786899 0 -834.65558365786899 635.90284495777451 0 0 0 0 -82.93892376779695 -537.89644489095372 0 -537.89644489095372 377.32369841457694 0 0 0 0 -6.8336947344942018 -596.74646886062692 0 -596.74646886062692 590.14925696456339 0 0 0 0 -39.454301295350888 -502.85588085855852 0 -502.85588085855852 404.55862318986328 0 0 0 0 -94.621816859260434 -678.25575412609032 0 -678.25575412609032 502.01461173191637 0 0 0 0 44.405765526928008 -582.01857007428043 0 -582.01857007428043 549.26953456716728 0 0 0 0 -101.01305369433248 -664.544335249906 0 -664.544335249906 599.95854467899335 0 0 0 0 564.74050763371633 -625.95005364816461 0 -625.95005364816461 419.83991873115156 0 0 0 0 143.61065379239153 -768.44358157359966 0 -768.44358157359966 393.48033669267897 0 0 0 0 174.72222900630732 -700.06108528502955 0 -700.06108528502955 510.74610177217073 0 0 0 0 96.190114380500745 -445.3239966304609 0 -445.3239966304609 692.25898321605928 0 0 0 0 94.055505819596874 -587.47579652951754 0 -587.47579652951754 579.90401393009233 0 0 0 0 -138.76508415446733 -644.71116530321888 0 -644.71116530321888 644.88752388687135 0 0 0 0 -101.96114437146252 -644.8115203646521 0 -644.8115203646521 598.74553523701616 0 0 0 0 6.3783985981281148 -638.83591558295848 0 -638.83591558295848 592.1171580296359 0 0 0 0 -204.62909721914912 -702.32180803464144 0 -702.32180803464144 614.68567357823486 0 0 0 0 -189.68058664043201 -713.06521839368725 0 -713.06521839368725 615.10884732064733 0 0 0 0 -203.27243009321683 -705.82751212812582 0 -705.82751212812582 623.57025669989525 0 0 0 0 -153.6570272626559 -593.50333908277025 0 -593.50333908277025 502.99314684915589 0 0 0 0 -154.82087380983285 -718.88786249770783 0 -718.88786249770783 502.35383662793902 0 0 0 0 -71.824085431500862 -592.95670226879884 0 -592.95670226879884 241.57100794778671 0 0 0 0 -235.02375943414518 -676.75580565018754 0 -676.75580565018754 497.38811631276621 0 0 0 0 -114.06948822464619 -625.58715080100956 0 -625.58715080100956 515.9974069293894 0 0 0 0 20.432827000418911 -723.48342284438877 0 -723.48342284438877 585.99455979285995 0 0 0 0 134.80057750715059 -489.00363724250928 0 -489.00363724250928 466.55037926849036 0 0 0 0 -18.506937507687326 -455.3507643044054 0 -455.3507643044054 688.32973567495355 0 0 0 0 11.631810066261096 -320.50070271995355 0 -320.50070271995355 719.61359575870301 0 0 0 0 98.654363127512624 -321.7120007599151 0 -321.7120007599151 454.58573726342001 0 0 0 0 64.928173921536654 -375.58750213935855 0 -375.58750213935855 429.61596081221796 0 0 0 0 -222.32591088560002 -422.11705302100017 0 -422.11705302100017 458.21312727810073 0 0 0 0 55.299397340975702 -373.50616130188428 0 -373.50616130188428 531.16238502369379 0 0 0 0 -63.543940378207481 -450.56129280391542 0 -450.56129280391542 695.06859524066385 0 0 0 0 44.400837406312348 -307.82848340066994 0 -307.82848340066994 701.41040738929314 0 0 0 0 53.101883160445141 -401.72233510382648 0 -401.72233510382648 510.96693596146361 0 0 0 0 115.20287715960148 -339.17032850577743 0 -339.17032850577743 343.93979890181799 0 0 0 0 100.59117483183945 -354.91210474377658 0 -354.91210474377658 511.56602815965016 0 0 0 0 41.43286527931923 -405.32667592563666 0 -405.32667592563666 519.91990361457647 0 0 0 0 -9.8643359412108111 -495.12035297917646 0 -495.12035297917646 374.0023724402854 0 0 0 0 65.25482923569507 -433.9031396174687 0 -433.9031396174687 375.89413945330307 0 0 0 0 65.991726542502875 -377.12567885240423 0 -377.12567885240423 375.58668585208909 0 0 0 0 74.924870026938152 -431.23484605147678 0 -431.23484605147678 378.53166916506598 0 0 0 0 161.78503998977249 -411.56247579645424 0 -411.56247579645424 363.58004975318545 0 0 0 0 167.91078380501131 -394.34921014949214 0 -394.34921014949214 292.27845647887443 0 0 0 0 -2.489672947745305 -7.9833862103204751 0 -7.9833862103204751 2.1076228730136535 0 0 0 0 -187.91857840695593 -281.05917561660317 0 -281.05917561660317 1566.9504724658182 0 0 0 0 172.81698757653066 -473.48933499776831 0 -473.48933499776831 396.38687324878993 0 0 0 0 17.097004214243498 -162.90525683666056 0 -162.90525683666056 612.88408871426509 0 0 0 0 210.82711843276047 -350.9126588142135 0 -350.9126588142135 401.81080913799815 0 0 0 0 63.331617825620924 -227.88724948135496 0 -227.88724948135496 224.12105403497117 0 0 0 0 -37.792836934226216 -476.8114626619863 0 -476.8114626619863 192.00336446458823 0 0 0 0 -413.70622117226594 -459.84290111354494 0 -459.84290111354494 238.51276132424391 0 0 0 0 -211.29689352300193 -594.89760470060719 0 -594.89760470060719 -293.94361977353401 0 0 0 0 -18.951194360881345 -290.32198196368699 0 -290.32198196368699 343.16637748335779 0 0 0 0 111.89049237812287 -411.79460943523736 0 -411.79460943523736 364.7518546643405 0 0 0 0 109.0993378663552 -450.86144988324668 0 -450.86144988324668 93.006035688216798 0 0 0 0 -71.236388077508309 -295.24119206709292 0 -295.24119206709292 -23.808119712964981 0 0 0 0 -55.443713814252988 -1099.1799294560442 0 -1099.1799294560442 -154.15501578236581 0 0 0 0 -69.818040602403926 -953.22225444547075 0 -953.22225444547075 881.07231525576935 0 0 0 0 -428.05766765848966 -380.10483904878492 0 -380.10483904878492 -346.51816385109851 0 0 0 0 38.190794768393971 -343.60855632985476 0 -343.60855632985476 -1838.8403386829887 0 0 0 0 -406.87288163708581 -328.81359704692295 0 -328.81359704692295 2517.4857622048148 0 0 0 0 3.1082484965602362 -10.103080564466211 0 -10.103080564466211 1.8965250292927252 0 0 0 0 224.56201025114569 185.99578906532406 0 185.99578906532406 1067.0988236580451 0 0 0 0 -184.2448623366945 -1885.9859583907382 0 -1885.9859583907382 -2684.329170952944 0 0 0 0 215.50440867753059 -2199.2516852788358 0 -2199.2516852788358 -2667.9605428324285 0 0 0 0 209.92346627865118 -972.02903533582321 0 -972.02903533582321 -1267.987818100868 0 0 0 0 274.3605600828887 -1383.5620572186599 0 -1383.5620572186599 957.85829729947727 0 0 0 0 448.64310757131898 -295.17472467128391 0 -295.17472467128391 220.02899013203569 0 0 0 0 170.21607183510787 -116.88319718693674 0 -116.88319718693674 371.34152452788112 0 0 0 0 3.9311111919523682 -315.99926952269743 0 -315.99926952269743 157.6863947257516 0 0 0 0 -62.512787493877113 -104.53324047992646 0 -104.53324047992646 -35.618437188270036 0 0 0 0 133.04655046047992 -39.53765325943823 0 -39.53765325943823 -73.622942422080087 0 0 0 0 226.20020356125315 -56.553116036055144 0 -56.553116036055144 -81.209269066850538 0 0 0 0 218.65168934181565 -185.34205956060032 0 -185.34205956060032 31.22171317593893 0 0 0 0 353.19950615923153 -161.6660044418386 0 -161.6660044418386 15.122686307571712 0 0 0 0 197.34087566968083 -117.76158801179554 0 -117.76158801179554 65.109148088173242 0 0 0 0 239.78598664954188 -190.92965498156263 0 -190.92965498156263 7.7453490732659702 0 0 0 0 160.45748929915135 -174.38700963013252 0 -174.38700963013252 470.59987950508366 0 0 0 0 215.51480007718783 -473.57446171918127 0 -473.57446171918127 735.74677947192686 0 0 0 0 214.16865136151318 -100.47175233488088 0 -100.47175233488088 212.86648574206629 0 0 0 0 -9.9621139483456318 -14.791148336743277 0 -14.791148336743277 6.0652572733249031 0 0 0 0 48.926768616242043 -174.76637166630462 0 -174.76637166630462 270.27243119660125 0 0 0 0 -287.67975078450399 -661.14611897651048 0 -661.14611897651048 -1160.1534850250391 0 0 0 0 -145.57519758608396 -317.43985382994288 0 -317.43985382994288 -855.63677389139775 0 0 0 0 101.05763255490456 -193.39173227451101 0 -193.39173227451101 -2015.7379586184907 0 0 0 0 -380.85992744509713 -636.64059335862112 0 -636.64059335862112 -671.25545289985894 0 0 0 0 -872.58519457306829 -287.49720571751823 0 -287.49720571751823 -834.15376764227403 0 0 0 0 -486.73631963701337 -224.65544668347866 0 -224.65544668347866 -231.48005899436248 0 0 0 0 -32.353533755602257 -184.69111810587492 0 -184.69111810587492 -315.88247574152774 0 0 0 0 -353.52861646495876 -142.39931021424127 0 -142.39931021424127 -45.990813298194553 0 0 0 0 -52.360985746461665 -115.13107903963828 0 -115.13107903963828 -151.17641280927637 0 0 0 0 -316.87633250843101 -394.1165233602942 0 -394.1165233602942 -237.37735325924587 0 0 0 0 -302.94640779563633 -411.68271652247859 0 -411.68271652247859 -303.50306232887669 0 0 0 0 -386.60579192120349 -258.84747181317653 0 -258.84747181317653 -402.63289958568203 0 0 0 0 -347.9749344769225 -571.15749626384786 0 -571.15749626384786 -566.10623307927017 0 0 0 0 -181.56906761138816 -388.65165654780867 0 -388.65165654780867 -307.59321197206009 0 0 0 0 -61.696641550137429 -254.89580327853037 0 -254.89580327853037 -140.24752969849214 0 0 0 0 -276.3278734361229 -384.1600127525453 0 -384.1600127525453 -181.22366758063436 0 0 0 0 -229.47478656132444 -201.62526890047047 0 -201.62526890047047 -124.06865273523727 0 0 0 0 -55.484344728145516 -236.92350518112653 0 -236.92350518112653 -120.99612468434498 0 0 0 0 -140.10664082321455 -233.00713096934487 0 -233.00713096934487 -239.62930521024737 0 0 0 0 -201.9435277897428 -137.84078030649107 0 -137.84078030649107 -75.294115369906649 0 0 0 0 -5.4269043471722398 -123.36745603002782 0 -123.36745603002782 -119.15435682451061 0 0 0 0 -66.422355246089865 -112.20340650476282 0 -112.20340650476282 -78.347411467781058 0 0 0 0 36.695918052166235 -273.83135914952436 0 -273.83135914952436 15.222158300952287 0 0 0 0 31.483761584793683 -144.61417792183056 0 -144.61417792183056 -71.6917080841813 0 0 0 0 -8.0408964994003327 -125.04285087464996 0 -125.04285087464996 -40.016424819710664 0 0 0 0 158.72220699556055 -148.24572839544271 0 -148.24572839544271 -37.798569786276857 0 0 0 0 23.362922131755113 -125.511070255699 0 -125.511070255699 -153.83990518392966 0 0 0 0 18.451678218046709 -83.377031676871411 0 -83.377031676871411 -117.27125270432508 0 0 0 0 -159.7784797946515 -203.74716727458872 0 -203.74716727458872 -9.2010043377085822 0 0 0 0 -24.984089085553933 -271.15468634884246 0 -271.15468634884246 17.965604201570386 0 0 0 0 -44.925903308376292 -361.09973022316262 0 -361.09973022316262 -23.62103333241248 0 0 0 0 202.62782939324097 -109.38671511512075 0 -109.38671511512075 -134.15174558464787 0 0 0 0 156.85891897444537 -316.9612306743204 0 -316.9612306743204 -77.780500513559673 0 0 0 0 158.98736338608683 -101.05503606034603 0 -101.05503606034603 -76.39737542902003 0 0 0 0 95.696526797633851 -84.006006060197251 0 -84.006006060197251 -78.428536878200248 0 0 0 0 96.913665073196171 -46.295179060238297 0 -46.295179060238297 -120.25780567675247 0 0 0 0 -11.339962907513836 -80.778750102594131 0 -80.778750102594131 -92.895991379307816 0 0 0 0 77.697361872909823 -126.0505595295399 0 -126.0505595295399 -134.93094157831274 0 0 0 0 78.493947122013196 -61.084690937495907 0 -61.084690937495907 -95.770485792723775 0 0 0 0 103.14748724918172 -87.416379388530913 0 -87.416379388530913 -76.393272755143698 0 0 0 0 77.274978061614092 -141.54532968364947 0 -141.54532968364947 -66.073678101249243 0 0 0 0 67.522818734476459 -135.82832857438189 0 -135.82832857438189 -51.011296977958409 0 0 0 0 48.607517801807262 -183.57348329364322 0 -183.57348329364322 -166.65414566333493 0 0 0 0 50.209567659039749 -117.0762628248267 0 -117.0762628248267 -129.48769157387142 0 0 0 0 36.529709017719881 -52.648605661700458 0 -52.648605661700458 81.003283598657873 0 0 0 0 -410.0746194908279 -170.54844186453556 0 -170.54844186453556 67.607356597573983 0 0 0 0 -33.987754139889148 2.0206774816651887 0 2.0206774816651887 -481.33913670330367 0 0 0 0 -135.916149568744 -218.46309028836549 0 -218.46309028836549 -47.911127960323938 0 0 0 0 -114.09347559725575 -445.98994685006619 0 -445.98994685006619 -300.2061778268544 0 0 0 0 -445.82069563034747 -105.37770405586343 0 -105.37770405586343 79.452091509330785 0 0 0 0 -41.947327253845287 -370.65562166169548 0 -370.65562166169548 502.03358548684628 0 0 0 0 -50.909113122936105 -270.18878398119705 0 -270.18878398119705 131.41333578707417 0 0 0 0 24.968861831111298 -37.971083393425431 0 -37.971083393425431 53.39248255631253 0 0 0 0 -451.54355334289937 -557.77219681582778 0 -557.77219681582778 179.0805860387336 0 0 0 0 163.60104541413602 -1052.6404147398134 0 -1052.6404147398134 791.11752324344707 0 0 0 0 -149.66619942428224 -395.20988750904871 0 -395.20988750904871 19.080490095919231 0 0 0 0 -330.42248392090551 -279.43305586987844 0 -279.43305586987844 509.80056422119378 0 0 0 0 53.245069860720832 -94.414022061017022 0 -94.414022061017022 339.17303439701209 0 0 0 0 -302.79244588686561 -127.48860310827149 0 -127.48860310827149 311.03856912109768 0 0 0 0 -119.40556022327655 -334.76335271524295 0 -334.76335271524295 535.6289535703836 0 0 0 0 -67.355259475807543 81.728007242178137 0 81.728007242178137 669.97813610738376 0 0 0 0 10.032254352800919 -21.578909086084707 0 -21.578909086084707 4.8996067845025735 0 0 0 0 8.484866798913572 -203.13321066137723 0 -203.13321066137723 1102.929413131913 0 0 0 0 910.83188153951778 -302.30672845690424 0 -302.30672845690424 -364.49519150909327 0 0 0 0 -835.50365142331657 -856.70886207597152 0 -856.70886207597152 799.32980369025609 0 0 0 0 -3348.5149102736032 644.34254252145911 0 644.34254252145911 1718.5729891026349 0 0 0 0 -384.65137888211757 -503.32685486238915 0 -503.32685486238915 436.1327835421398 0 0 0 0 9.2929452993882933 -13.017857688105551 0 -13.017857688105551 20.579061321336269 0 0 0 0 915.84061776954331 3.9838398097053869 0 3.9838398097053869 -420.14530742200441 0 0 0 0 -205.44324132712791 826.52402777164389 0 826.52402777164389 1073.8094481122898 0 0 0 0 -408.03651003251434 218.80155063225538 0 218.80155063225538 198.1311030962097 0 0 0 0 565.12729653024871 114.10741049320495 0 114.10741049320495 -448.34516921029717 0 0 0 0 633.54018853278831 -247.64753783088236 0 -247.64753783088236 -344.51111434619816 0 0 0 0 282.37944554036335 -371.57690367374721 0 -371.57690367374721 -77.158015911089024 0 0 0 0 269.00020104974101 -251.95634571781557 0 -251.95634571781557 139.48906684421672 0 0 0 0 407.11893960374664 -485.28173345156779 0 -485.28173345156779 174.04389907025325 0 0 0 0 330.4599559368944 -424.41525913857913 0 -424.41525913857913 383.48312278054073 0 0 0 0 1.0648634310120944 -2.3343221850691407 0 -2.3343221850691407 8.7498667629044462 0 0 0 0 456.14497503811435 -436.23024722279661 0 -436.23024722279661 22.789379841429763 0 0 0 0 541.00086953291611 -290.19306346062513 0 -290.19306346062513 142.42755282446797 0 0 0 0 1178.5767359737802 -600.80355177875026 0 -600.80355177875026 16.787010831889347 0 0 0 0 493.88078640107778 -356.1875839928307 0 -356.1875839928307 417.99797090093489 0 0 0 0 438.93077225016896 -556.11873857834144 0 -556.11873857834144 142.51469696243294 0 0 0 0 -310.01605422940338 -39.576210353574425 0 -39.576210353574425 166.29401069679989 0 0 0 0 -452.13393960167741 -116.87269922302585 0 -116.87269922302585 281.49186134492629 0 0 0 0 -867.32707359332198 337.81612497575316 0 337.81612497575316 -216.17057387245586 0 0 0 0 -679.07813068990799 -525.81679738938965 0 -525.81679738938965 293.10686119094316 0 0 0 0 -1.3340704452454588 -4.7750124343423721 0 -4.7750124343423721 -3.9743378098862223 0 0 0 0 786.57136384971727 -1553.7168637808763 0 -1553.7168637808763 -452.24274391993822 0 0 0 0 2857.8704996390443 -398.6128364087308 0 -398.6128364087308 -639.949903190849 0 0 0 0 654.07871367287589 -334.29428765531338 0 -334.29428765531338 -611.78575756245118 0 0 0 0 -297.4674562927903 -1304.0567612973191 0 -1304.0567612973191 -287.57457012029772 0 0 0 0 -743.12578439284698 -179.38200476753991 0 -179.38200476753991 -376.03502214148102 0 0 0 0 -875.26520362709562 -986.59067274592599 0 -986.59067274592599 -461.76955729629117 0 0 0 0 -1042.5702358058916 -400.63854714195986 0 -400.63854714195986 -268.95564004838525 0 0 0 0 -1012.0014225644118 -448.69820104955215 0 -448.69820104955215 -211.471484843496 0 0 0 0 -1331.3576993122042 -479.68773850983598 0 -479.68773850983598 -216.42370868384023 0 0 0 0 -2731.9785339934169 -1183.7809797098416 0 -1183.7809797098416 -441.8379379501348 0 0 0 0 -954.54172246816961 -1185.7640186815424 0 -1185.7640186815424 -827.08232150120602 0 0 0 0 714.93874908325961 -452.93554801620485 0 -452.93554801620485 245.62296219185373 0 0 0 0 158.65592293126974 -306.24749278720992 0 -306.24749278720992 275.88999414534919 0 0 0 0 236.30854898162943 -161.42930886871909 0 -161.42930886871909 5.7265040199545183 0 0 0 0 -1.629270707831906 -0.73285613212357248 0 -0.73285613212357248 -13.351622109817157 0 0 0 0 -52.23060501938744 -101.413275448067 0 -101.413275448067 -6.3048340149562137 0 0 0 0 -1.7105581436327952 -11.457497332580999 0 -11.457497332580999 -39.439686741151831 0 0 0 0 -13.987679964775452 -74.40022742038127 0 -74.40022742038127 10.537721088483522 0 0 0 0 -58.05814481604466 -236.74410987919509 0 -236.74410987919509 388.99022901830904 0 0 0 0 -12.337873385637067 -160.59418529824688 0 -160.59418529824688 72.695700799013139 0 0 0 0 291.17449410879635 -127.47275631072262 0 -127.47275631072262 308.15666053706082 0 0 0 0 22.619703639182262 37.000635717740806 0 37.000635717740806 149.59474340341694 0 0 0 0 -69.028480044536991 -125.69956246082984 0 -125.69956246082984 -51.632886420455179 0 0 0 0 -51.2735276428063 -62.665031320413412 0 -62.665031320413412 -3.830901552823164 0 0 0 0 -150.03986360295676 3.3392920292171766 0 3.3392920292171766 123.64100795646482 0 0 0 0 -82.926484877854818 -40.988089293670782 0 -40.988089293670782 63.829656652967969 0 0 0 0 -33.413642337798706 -45.688352913485261 0 -45.688352913485261 -19.508480276361929 0 0 0 0 -61.260488366337086 27.132434442009981 0 27.132434442009981 -133.86389708848583 0 0 0 0 -83.125468105158234 -40.445432506201541 0 -40.445432506201541 65.726919531414751 0 0 0 0 -84.27930876420578 -40.708593942181324 0 -40.708593942181324 68.065969469670733 0 0 0 0 -5.9139379147020996 -8.4022571965669215 0 -8.4022571965669215 24.667742267459857 0 0 0 0 -132.61049103585901 -149.84511553599077 0 -149.84511553599077 31.024663621312357 0 0 0 0 -84.10213473003023 -41.569293159223889 0 -41.569293159223889 66.471219029277563 0 0 0 0 42.356666485836087 -85.580668275369931 0 -85.580668275369931 71.615142900676915 0 0 0 0 -58.15703591433703 -275.62721540605708 0 -275.62721540605708 -81.909833489800803 0 0 0 0 15.755578418873483 -138.37507146612916 0 -138.37507146612916 92.445384369231761 0 0 0 0 -39.054299232098856 -183.10657694529073 0 -183.10657694529073 65.122270380205009 0 0 0 0 10.079075295827352 -229.7136935540766 0 -229.7136935540766 -8.8201432514470071 0 0 0 0 1.5033177988676698 -6.989402968717215 0 -6.989402968717215 -31.176541732656901 0 0 0 0 65.045904563972726 -239.25835206534248 0 -239.25835206534248 -33.398409510227793 0 0 0 0 482.60988551861374 -6.244691211861209 0 -6.244691211861209 -332.28473402687086 0 0 0 0 63.000017838843632 -227.43934902936599 0 -227.43934902936599 57.439966571546393 0 0 0 0 12.841284375492251 -79.126711990000331 0 -79.126711990000331 -315.63000531925354 0 0 0 0 21.21329089947676 -89.34745036719255 0 -89.34745036719255 -94.154228563238661 0 0 0 0 67.505602301389445 -112.45364849696489 0 -112.45364849696489 83.917158857744653 0 0 0 0 99.792437056195922 -221.6657156679139 0 -221.6657156679139 -25.145666797790909 0 0 0 0 99.840956102940254 -173.15708532946883 0 -173.15708532946883 24.214142443670426 0 0 0 0 649.11805628055299 -629.24359715782339 0 -629.24359715782339 342.36369954567635 0 0 0 0 640.43281156971352 -479.96429441415239 0 -479.96429441415239 -5.2124215975345578 0 0 0 0 251.42703659493418 72.375290928179311 0 72.375290928179311 -65.371761862458698 0 0 0 0 -1.9861224886248579 -17.761842985948562 0 -17.761842985948562 -11.274841931719209 0 0 0 0 624.48214993550209 -249.59907772496808 0 -249.59907772496808 -286.88151379644114 0 0 0 0 416.48646167293191 -207.84362210668041 0 -207.84362210668041 -178.12672728141479 0 0 0 0 -63.601292341736553 -283.87653948300294 0 -283.87653948300294 534.51923294260632 0 0 0 0 103.55913008989592 125.43888470691672 0 125.43888470691672 -394.28228727071109 0 0 0 0 -144.34479922041646 142.85344311904191 0 142.85344311904191 64.44698496876299 0 0 0 0 17.133522319034398 -111.28318327675001 0 -111.28318327675001 -41.84151881684862 0 0 0 0 3.3395084477720616 -6.0963584441308782 0 -6.0963584441308782 -0.0083822991901882915 0 0 0 0 -9.0216942277620547 -130.02005036592891 0 -130.02005036592891 -154.37787606944039 0 0 0 0 471.64543176040752 -830.52292997085897 0 -830.52292997085897 1129.5494027614623 0 0 0 0 234.67988938750932 27.564764055859996 0 27.564764055859996 -721.71706144456039 0 0 0 0 1056.2667432298767 -620.60980634871885 0 -620.60980634871885 1183.6420010503789 0 0 0 0 913.37447077094112 -1108.4674221583518 0 -1108.4674221583518 619.53258559113601 0 0 0 0 728.33691979919968 -929.84471786542053 0 -929.84471786542053 182.93998774599459 0 0 0 0 260.87385451607406 -282.06817849293293 0 -282.06817849293293 -603.99382286798209 0 0 0 0 883.26343943091342 -835.50056432589918 0 -835.50056432589918 922.91813037559041 0 0 0 0 -103.15487001938163 246.77331592797418 0 246.77331592797418 -311.16193199225381 0 0 0 0 -181.54112723495928 42.337208554512472 0 42.337208554512472 156.24954143335344 0 0 0 0 276.77100872271694 -438.4929547907177 0 -438.4929547907177 515.61144673205854 0 0 0 0 293.57509712333558 -566.98537570544431 0 -566.98537570544431 404.80232395142957 0 0 0 0 477.48808988346718 -800.50768822933605 0 -800.50768822933605 635.20941891845723 0 0 0 0 287.45302822918165 -813.73530656982621 0 -813.73530656982621 701.34336295296089 0 0 0 0 556.81064691991196 -739.37617327935004 0 -739.37617327935004 652.55620664184971 0 0 0 0 543.3374593956687 -810.37295249845192 0 -810.37295249845192 604.84387195399177 0 0 0 0 -124.23585785182513 -590.8661052593643 0 -590.8661052593643 1033.1710966042592 0 0 0 0 -468.02121270113275 -163.09570235323736 0 -163.09570235323736 158.92989565827884 0 0 0 0 -4.4428716146348606 -3.3470594222785905 0 -3.3470594222785905 6.7363792031529783 0 0 0 0 1021.9180648851907 -894.54053857432518 0 -894.54053857432518 500.88268564503232 0 0 0 0 714.56680133874761 -1010.6928783026888 0 -1010.6928783026888 965.8181622330103 0 0 0 0 561.59636172057071 -766.88332197147611 0 -766.88332197147611 671.29035989308613 0 0 0 0 606.20469896154827 -885.01846750055847 0 -885.01846750055847 651.10564131049978 0 0 0 0 732.6408310252591 -973.87409265252063 0 -973.87409265252063 930.10545933687536 0 0 0 0 -455.4122656599211 -270.88274181455017 0 -270.88274181455017 708.56329633208225 0 0 0 0 702.21855194421369 -580.80574077019264 0 -580.80574077019264 373.21523576561594 0 0 0 0 917.11963299402851 -684.39878966868491 0 -684.39878966868491 395.42666545315296 0 0 0 0 -185.80011366765393 18.964899644710385 0 18.964899644710385 42.990712231825455 0 0 0 0 -54.002719683819521 -56.982464274576088 0 -56.982464274576088 -26.971399381863421 0 0 0 0 -344.26821373334678 33.5858169958301 0 33.5858169958301 -75.837801085057436 0 0 0 0 471.67650191512075 -230.03947850660188 0 -230.03947850660188 319.52436309778204 0 0 0 0 22.067053007018899 -8.5948153495301014 0 -8.5948153495301014 -10.76558563105722 0 0 0 0 281.5329690517683 -623.18252619782288 0 -623.18252619782288 609.56352632672497 0 0 0 0 323.72669534524903 -761.8856561609573 0 -761.8856561609573 1035.0950331481145 0 0 0 0 283.8562907516025 -648.10418390166342 0 -648.10418390166342 861.12979254912352 0 0 0 0 135.38117378798779 -165.0828980503793 0 -165.0828980503793 1056.7279841312732 0 0 0 0 -30.880044901947258 -107.96321940597409 0 -107.96321940597409 -110.87262765043852 0 0 0 0 54.36309071163123 -77.766085254730569 0 -77.766085254730569 -166.42030519833497 0 0 0 0 79.756339550527628 -51.140105669099285 0 -51.140105669099285 -140.65729557209124 0 0 0 0 -18.943808060456796 -58.420996871108713 0 -58.420996871108713 -54.632865284583318 0 0 0 0 -83.462627951405011 -185.57360731384324 0 -185.57360731384324 -293.24859646773257 0 0 0 0 341.84989596009837 -521.51998455317516 0 -521.51998455317516 519.60896716537536 0 0 0 0 266.83655702276155 -643.49501848053478 0 -643.49501848053478 730.32660207485605 0 0 0 0 132.7241506362916 -267.69087028889771 0 -267.69087028889771 299.8526361429831 0 0 0 0 -60.175274812470889 -242.45306833116047 0 -242.45306833116047 565.45177575317211 0 0 0 0 192.4446885979487 -623.63967110671365 0 -623.63967110671365 835.66527743851475 0 0 0 0 681.05656833763351 -741.18461055072839 0 -741.18461055072839 948.67118332025711 0 0 0 0 485.67622791443137 -847.07336103960915 0 -847.07336103960915 812.77785479639715 0 0 0 0 369.86958570625029 -883.30239496410127 0 -883.30239496410127 889.08794794643472 0 0 0 0 256.70586781181919 47.256874133970996 0 47.256874133970996 -743.43411667990586 0 0 0 0 494.99411234987201 -1098.5899707475401 0 -1098.5899707475401 1147.4214901737978 0 0 0 0 8.60448781206577 -2.7099214392422226 0 -2.7099214392422226 -2.5578698422150836 0 0 0 0 911.10326513109612 -911.72498600852123 0 -911.72498600852123 478.61917753304442 0 0 0 0 600.85563280788892 -720.02222360410371 0 -720.02222360410371 -303.87574812131061 0 0 0 0 591.02294049735337 -517.37929977398903 0 -517.37929977398903 -258.81258792393783 0 0 0 0 -49.659905696535134 -69.076276395629975 0 -69.076276395629975 -93.610523672236013 0 0 0 0 -25.967727730705519 -177.1261610986403 0 -177.1261610986403 361.78801386202394 0 0 0 0 -8.0444421346255695 -102.0515998822666 0 -102.0515998822666 -94.274878198004444 0 0 0 0 8.7492423100195538 -0.93721371496124561 0 -0.93721371496124561 3.3568352439138351 0 0 0 0 -568.49787469592411 -3.6113340765732573 0 -3.6113340765732573 35.966949141024088 0 0 0 0 262.34956110168059 -1042.6589846533279 0 -1042.6589846533279 -692.83390261226305 0 0 0 0 -279.49553661621758 -175.95929354307737 0 -175.95929354307737 76.598269917434664 0 0 0 0 0.069940782967023551 -62.013864966858819 0 -62.013864966858819 -40.262834723456763 0 0 0 0 -11.344330358260777 -100.58008271540893 0 -100.58008271540893 -51.176815290626109 0 0 0 0 -13.628053700842429 -113.75668800780113 0 -113.75668800780113 -77.745293891944073 0 0 0 0 0.62895169300736598 -74.322254767447703 0 -74.322254767447703 -77.655661237338791 0 0 0 0 13.946421031165357 -30.787142969404329 0 -30.787142969404329 -15.770665355862761 0 0 0 0 -19.571945601623156 -112.48422786279116 0 -112.48422786279116 -68.598505603396916 0 0 0 0 -15.314712464460172 -111.7740402119307 0 -111.7740402119307 -68.789123886162997 0 0 0 0 23.851198443733665 -54.33075596448316 0 -54.33075596448316 -104.28045663527882 0 0 0 0 -6.1899355638846174 -60.095712342342921 0 -60.095712342342921 -88.388025136296818 0 0 0 0 -18.288761855263147 -110.4022563583203 0 -110.4022563583203 -64.610679850593442 0 0 0 0 -11.10350680751268 -85.875124984081054 0 -85.875124984081054 -84.296266518709047 0 0 0 0 -74.590541971148923 233.00895650759048 0 233.00895650759048 -502.92371119323434 0 0 0 0 686.69778788120038 79.033373007421233 0 79.033373007421233 -1010.1257031173009 0 0 0 0 -484.72883731412003 96.775156961484754 0 96.775156961484754 -455.28557764605603 0 0 0 0 -84.116334609841942 -319.0331507456383 0 -319.0331507456383 -647.65066293840209 0 0 0 0 -1748.668694652064 -1254.2052065736279 0 -1254.2052065736279 -683.08871343021019 0 0 0 0 -686.79780545222457 -1094.6969424382332 0 -1094.6969424382332 -964.53273513270688 0 0 0 0 -1873.4615989767481 -656.76455912513484 0 -656.76455912513484 -1120.7066261521322 0 0 0 0 -697.36137832855684 89.298297718141384 0 89.298297718141384 -991.59826901651104 0 0 0 0 -82.396560920897173 -360.39706678150833 0 -360.39706678150833 -663.78848942105105 0 0 0 0 -1306.8022105237469 -338.77527564595221 0 -338.77527564595221 -921.42023198956122 0 0 0 0 -391.47079331930581 25.285737381527724 0 25.285737381527724 -1008.9004412970098 0 0 0 0 -911.13659463671502 -792.86535627928242 0 -792.86535627928242 -1528.0800368514319 0 0 0 0 -1217.6138740313618 -535.47153991497908 0 -535.47153991497908 -1675.0070120637101 0 0 0 0 -2291.9112708986213 -1306.215939574482 0 -1306.215939574482 -1867.4053691609006 0 0 0 0 -958.91537129283824 -582.47247733081531 0 -582.47247733081531 -2025.8784523977956 0 0 0 0 -2050.3840643565272 -1844.1813211658337 0 -1844.1813211658337 -675.45189568065689 0 0 0 0 72.154765109677101 173.37641758598329 0 173.37641758598329 116.47832356561412 0 0 0 0 -1012.4046994436358 -1969.1886474810117 0 -1969.1886474810117 -2590.2340724708993 0 0 0 0 -665.3719775734935 -331.99097550691295 0 -331.99097550691295 966.09344817161764 0 0 0 0 -11.974146844296854 -5.7864757814550956 0 -5.7864757814550956 -1.2469411409970483 0 0 0 0 -82.110935563374369 -1084.9585197570887 0 -1084.9585197570887 -1874.4002371530296 0 0 0 0 -218.85853511090681 -834.98714823189948 0 -834.98714823189948 -637.31445340864593 0 0 0 0 -411.77655586472247 -1387.426985019556 0 -1387.426985019556 -906.39365277454999 0 0 0 0 -30.971664216594718 -10.974366910314373 0 -10.974366910314373 -0.059023150071827679 0 0 0 0 -403.18342556143762 -783.24223761936082 0 -783.24223761936082 309.58347988391324 0 0 0 0 -30.885097697464516 -72.258920486623538 0 -72.258920486623538 379.87176553234076 0 0 0 0 20.599398659614963 -58.175154732984083 0 -58.175154732984083 70.928881800573436 0 0 0 0 -1042.3770101186965 -516.84003787521942 0 -516.84003787521942 1791.5297376981471 0 0 0 0 -88.719724809612671 -73.571515577808896 0 -73.571515577808896 216.357556146766 0 0 0 0 -37.083123011414727 -7.8074180760536933 0 -7.8074180760536933 0.98518154128584001 0 0 0 0 84.319802900470677 -107.20654039554938 0 -107.20654039554938 33.36474720822298 0 0 0 0 -280.62297963169112 -1076.318704183228 0 -1076.318704183228 -285.27119193332328 0 0 0 0 -751.11154644021735 -422.88473269712631 0 -422.88473269712631 -873.14163794938941 0 0 0 0 -764.54505297115247 -745.80479002154971 0 -745.80479002154971 -386.63106334430267 0 0 0 0 -703.20024097450369 -681.27344117001849 0 -681.27344117001849 -894.81634796981507 0 0 0 0 -1068.6593390392445 -1149.7378043918288 0 -1149.7378043918288 -1316.0674681862074 0 0 0 0 165.94413111424365 -555.70305045395435 0 -555.70305045395435 -709.55027442551363 0 0 0 0 -657.96504069212824 -1630.7854915138741 0 -1630.7854915138741 -810.92513344795861 0 0 0 0 4.024997188069392 -845.7304665869051 0 -845.7304665869051 -24.349088544277038 0 0 0 0 -613.86659522977425 -1597.2868535012349 0 -1597.2868535012349 -388.37859676206426 0 0 0 0 -262.5422596631106 -1014.2821740835425 0 -1014.2821740835425 -368.97017719360156 0 0 0 0 -1334.2321726137234 -1322.1845624855487 0 -1322.1845624855487 -434.16531644861971 0 0 0 0 0.54540352248295676 26.003387179225683 0 26.003387179225683 -7.3182984364466392 0 0 0 0 63.820498126064194 -100.31138312363328 0 -100.31138312363328 -173.98720181365115 0 0 0 0 249.2373154895613 24.906973880719306 0 24.906973880719306 -186.07536796032718 0 0 0 0 185.26091979192279 -136.85565890504404 0 -136.85565890504404 -335.43622248237807 0 0 0 0 -1.1441612576924598 -4.3557835370038731 0 -4.3557835370038731 22.951450564422856 0 0 0 0 -24.16133401170373 15.155926466170058 0 15.155926466170058 15.195320222388546 0 0 0 0 -412.6608814112551 402.94494764990668 0 402.94494764990668 -86.337492692939122 0 0 0 0 0.1577740989450831 -14.186448046966689 0 -14.186448046966689 40.49718809229671 0 0 0 0 -359.04869897138997 -63.407007924050959 0 -63.407007924050959 498.42224128077942 0 0 0 0 54.112276597279561 28.984995715991317 0 28.984995715991317 1.293397183122579 0 0 0 0 -1.4163013737084995 -7.5512963558930437 0 -7.5512963558930437 24.04193440612346 0 0 0 0 11.038361795679208 -11.324976632239753 0 -11.324976632239753 10.09480053052738 0 0 0 0 1053.8141906940727 318.3227815223072 0 318.3227815223072 -51.833696330690145 0 0 0 0 827.55031666663126 -1234.2032773831997 0 -1234.2032773831997 1117.7189327659871 0 0 0 0 1149.5610082858184 752.46208379846576 0 752.46208379846576 -582.04845269174984 0 0 0 0 1184.8049138762062 -630.88200439623233 0 -630.88200439623233 -124.42874033829139 0 0 0 0 242.34151742122776 -721.88745767946239 0 -721.88745767946239 691.4276461147092 0 0 0 0 -230.05029283971817 -222.26915451748937 0 -222.26915451748937 179.75986339840165 0 0 0 0 -163.30400186353654 81.220539069508959 0 81.220539069508959 761.22272711611731 0 0 0 0 -176.32405393572117 -71.758537211478142 0 -71.758537211478142 58.12298593052401 0 0 0 0 -215.51480061268376 -171.31665612300276 0 -171.31665612300276 258.68096788112962 0 0 0 0 -398.79554777785233 -527.41075595792609 0 -527.41075595792609 -76.587537940111361 0 0 0 0 -1327.0233072146948 -644.48210326863409 0 -644.48210326863409 102.52073417384963 0 0 0 0 -301.8780030416965 -466.07500297257866 0 -466.07500297257866 -145.21216493284373 0 0 0 0 204.14435759166372 -545.74754904966539 0 -545.74754904966539 -165.95100175108382 0 0 0 0 421.74002610088792 -164.75244912637936 0 -164.75244912637936 -408.59928117919117 0 0 0 0 54.025248284160625 -174.75836370187972 0 -174.75836370187972 -228.29109177976352 0 0 0 0 0.46767651817935985 -159.41752952975003 0 -159.41752952975003 -207.62175539368764 0 0 0 0 -477.93975692259119 -172.47232656959932 0 -172.47232656959932 -219.01558451090386 0 0 0 0 -343.00125250627752 -345.91519395929936 0 -345.91519395929936 80.475981890115236 0 0 0 0 -383.49545314938587 -179.63435179214503 0 -179.63435179214503 88.791228923895687 0 0 0 0 635.29740713318461 -468.06462072841532 0 -468.06462072841532 -195.25307908373361 0 0 0 0 0.75557637082032159 -3.8872950864489155 0 -3.8872950864489155 -1.1283609836750372 0 0 0 0 -285.2723292181945 -378.90037093226783 0 -378.90037093226783 -205.14121008957591 0 0 0 0 -1470.5616615028412 -302.98248890614923 0 -302.98248890614923 117.42608197702793 0 0 0 0 -513.52680182959011 -245.85722217189323 0 -245.85722217189323 -49.152414957107794 0 0 0 0 -540.35000047016365 -359.24020411115998 0 -359.24020411115998 -166.47154960608168 0 0 0 0 -928.43910135008628 6.5375129449857923 0 6.5375129449857923 -271.17122241283505 0 0 0 0 -982.91193678072159 -39.934666157785614 0 -39.934666157785614 -8.3424346882748068 0 0 0 0 -1416.2288052402637 281.47160688560939 0 281.47160688560939 -226.52493164670886 0 0 0 0 1179.5652556323184 -539.21936924010151 0 -539.21936924010151 69.805188242120494 0 0 0 0 594.89795150011196 -609.65849345147581 0 -609.65849345147581 406.93693673962844 0 0 0 0 598.50897579648881 -861.85571511455055 0 -861.85571511455055 453.19596549611015 0 0 0 0 86.750863117456902 -762.86890084148763 0 -762.86890084148763 1154.5299557664839 0 0 0 0 132.17656963292393 -277.57799663579499 0 -277.57799663579499 505.19614715060925 0 0 0 0 -17.694616089395566 -25.431531487167575 0 -25.431531487167575 -36.26028572262328 0 0 0 0 -702.62330642925372 -338.6446321659223 0 -338.6446321659223 -201.40679772533622 0 0 0 0 205.8439439428912 -328.06951257283072 0 -328.06951257283072 351.38322297712875 0 0 0 0 162.64896785504243 -163.31013995074318 0 -163.31013995074318 -130.90371205963311 0 0 0 0 -79.023265280644409 -64.192878098750953 0 -64.192878098750953 29.798054551254609 0 0 0 0 -135.77957285847515 -76.800983007968171 0 -76.800983007968171 -24.679945110983681 0 0 0 0 0.29446007962627618 -3.5972547670981143 0 -3.5972547670981143 -11.534633571028792 0 0 0 0 -20.435360134102723 -11.852871077482519 0 -11.852871077482519 -7.904193205847406 0 0 0 0 -24.975917755554747 -22.977613243617611 0 -22.977613243617611 -11.549466888662806 0 0 0 0 -5.634093260508962 -22.888107749953633 0 -22.888107749953633 -5.8358876079728361 0 0 0 0 -33.867456265829105 -28.099753979112471 0 -28.099753979112471 -27.290617253880811 0 0 0 0 -49.093123088976199 -31.598175798323467 0 -31.598175798323467 -11.352974290439533 0 0 0 0 -14.423288871119439 -35.579255653477958 0 -35.579255653477958 -27.030385346079129 0 0 0 0 -412.13808580583827 -323.21133025255267 0 -323.21133025255267 32.50478038485744 0 0 0 0 -1187.3894197691407 -393.90340766136796 0 -393.90340766136796 92.734134571870527 0 0 0 0 -776.44532936110045 215.59256627797731 0 215.59256627797731 -81.833070361615682 0 0 0 0 -585.56400473890244 -247.35795591502392 0 -247.35795591502392 13.303043384214106 0 0 0 0 -512.93530346109765 -379.00648295858264 0 -379.00648295858264 -87.436191988887003 0 0 0 0 -41.077840825637395 -38.149160445199414 0 -38.149160445199414 -147.50151145207928 0 0 0 0 -7.1430233948745467 -2.711209241001086 0 -2.711209241001086 -3.0920131768746444 0 0 0 0 -11.352489480773642 -3.9052540933142836 0 -3.9052540933142836 1.8931225445442124 0 0 0 0 -543.64929084817413 25.659501194852055 0 25.659501194852055 -32.015476499887882 0 0 0 0 -177.68476555129746 -201.24899943552009 0 -201.24899943552009 -103.65565816763228 0 0 0 0 -202.7343207958038 -74.099303400540521 0 -74.099303400540521 70.368054977963766 0 0 0 0 -150.02808590623317 -128.1848140912698 0 -128.1848140912698 -38.873753296957148 0 0 0 0 0.26810282295414822 -0.27678984499735293 0 -0.27678984499735293 -0.77990263410180205 0 0 0 0 -652.27000703429803 -415.87065395381796 0 -415.87065395381796 -34.190615217405139 0 0 0 0 -148.55904427387577 -139.6585964089827 0 -139.6585964089827 -97.027817369351396 0 0 0 0 -164.11331049104047 -70.148344154282313 0 -70.148344154282313 -110.38062263152642 0 0 0 0 -116.38426122517558 -132.49174065050465 0 -132.49174065050465 -144.73516923549687 0 0 0 0 -10.957038830826889 -14.484792996120092 0 -14.484792996120092 -20.533848385935777 0 0 0 0 15.273140120363678 -271.85169549828606 0 -271.85169549828606 -1043.8740955777175 0 0 0 0 -212.25632256481913 -310.68325890126653 0 -310.68325890126653 -580.36999409448458 0 0 0 0 -167.70259796119353 -358.53877448868661 0 -358.53877448868661 -532.20615659637406 0 0 0 0 -166.55642683891347 -197.79949497517555 0 -197.79949497517555 -530.39699512346124 0 0 0 0 1.0068902306334166 -1.5215805591447804 0 -1.5215805591447804 -1.8166661036180329 0 0 0 0 -221.14132986462209 -418.29559617814994 0 -418.29559617814994 -596.79417379876395 0 0 0 0 -335.40355641263886 -410.75907452723186 0 -410.75907452723186 -579.60813239507479 0 0 0 0 -231.85099746510241 -388.33892863000438 0 -388.33892863000438 -615.89899495123973 0 0 0 0 -541.12219843069761 -321.76703089522198 0 -321.76703089522198 -158.2653315714706 0 0 0 0 -448.3077199972322 -461.89434688075562 0 -461.89434688075562 -497.96846166362593 0 0 0 0 -439.45386387054168 -236.92504010658558 0 -236.92504010658558 -17.848903561585757 0 0 0 0 -374.81971851624257 -321.9343084392076 0 -321.9343084392076 -217.67085168760241 0 0 0 0 -356.42905438688467 -341.18591975839809 0 -341.18591975839809 -260.70013540336367 0 0 0 0 -469.12959130649688 -399.42295715987893 0 -399.42295715987893 -215.15195540614513 0 0 0 0 -616.36176541383611 -283.59852740888891 0 -283.59852740888891 -16.123525443392282 0 0 0 0 -423.44057976298791 -238.43714568007272 0 -238.43714568007272 -52.021466608537594 0 0 0 0 88.99951682628307 -185.08169803847522 0 -185.08169803847522 -112.10401802106571 0 0 0 0 2.3311237508867748 -7.9019568654804289 0 -7.9019568654804289 -2.6146296770171773 0 0 0 0 -710.64814515892067 -456.04672706289421 0 -456.04672706289421 -63.674522731751495 0 0 0 0 -279.19282571267104 -210.54718810183476 0 -210.54718810183476 -108.84511856660174 0 0 0 0 -191.70914943749813 -413.9178202664134 0 -413.9178202664134 72.203419092846161 0 0 0 0 -50.261356703631463 -495.23243732071933 0 -495.23243732071933 72.607942707460097 0 0 0 0 2.9234349082571782 -8.8221500608886458 0 -8.8221500608886458 -4.0192060125553724 0 0 0 0 1310.3853142554944 -593.11015647489512 0 -593.11015647489512 -632.23271622148604 0 0 0 0 -1280.7337190941034 -786.86940687334572 0 -786.86940687334572 -413.07747133016528 0 0 0 0 1.8006454082675702 -5.3751165873147215 0 -5.3751165873147215 -2.7773970439290139 0 0 0 0 -303.80898323105066 -783.1821871530301 0 -783.1821871530301 -894.79430247633354 0 0 0 0 -60.527855550302775 -546.78978688617462 0 -546.78978688617462 -12.753923520249373 0 0 0 0 457.60066962451674 -507.4956583812309 0 -507.4956583812309 -34.726317097403808 0 0 0 0 166.79287916768226 -780.68602873503551 0 -780.68602873503551 -124.536609704086 0 0 0 0 -27.820111198801897 -770.27809717527452 0 -770.27809717527452 -120.04455439813319 0 0 0 0 126.54748930501228 -891.67015330771756 0 -891.67015330771756 -473.78863597017698 0 0 0 0 96.444742809748277 -732.31233720399177 0 -732.31233720399177 -717.2116560786726 0 0 0 0 -64.517017837570165 -665.70846864031046 0 -665.70846864031046 218.48452815146084 0 0 0 0 0.24163195801606099 -891.11806384635497 0 -891.11806384635497 -189.15119262347434 0 0 0 0 545.19060815127159 -721.77224822015341 0 -721.77224822015341 206.8410103900751 0 0 0 0 0.11573499209771398 -641.11610757035123 0 -641.11610757035123 920.79653828246956 0 0 0 0 -146.94264439670951 -514.01773995657277 0 -514.01773995657277 866.6500111428868 0 0 0 0 134.51585997179791 -812.37557727879903 0 -812.37557727879903 333.55992452697683 0 0 0 0 -168.5540872959391 -382.26626404380295 0 -382.26626404380295 115.40031478293167 0 0 0 0 -122.6655741573577 -43.664006506372289 0 -43.664006506372289 94.716946871834807 0 0 0 0 -0.29212636703131523 -3.6224141031149486 0 -3.6224141031149486 8.4142373263840682 0 0 0 0 495.78524181942703 -521.63344915098787 0 -521.63344915098787 514.06117163029558 0 0 0 0 -0.022745674606994726 -53.046607016471171 0 -53.046607016471171 -26.267917538215897 0 0 0 0 6.4973057341657068 -3.8918151937543826 0 -3.8918151937543826 5.2331374902204502 0 0 0 0 -102.39021698958823 -587.10153039070519 0 -587.10153039070519 407.71254669060067 0 0 0 0 -5.8839380837463047 -59.497292824331673 0 -59.497292824331673 4.791089047834248 0 0 0 0 -45.602301803446608 -166.67266782706338 0 -166.67266782706338 339.52870387846269 0 0 0 0 -10.614531220678543 -9.234097022713792 0 -9.234097022713792 0.82754449410929354 0 0 0 0 14.479079617787193 -19.721580456228111 0 -19.721580456228111 9.1673463484971336 0 0 0 0 -0.02510765018814709 -56.082833483847935 0 -56.082833483847935 65.007863997456298 0 0 0 0 -5.8839380837598583 -11.196322481398965 0 -11.196322481398965 -10.448608256993339 0 0 0 0 190.31377457288909 -238.39675282323333 0 -238.39675282323333 -2976.1039534228785 0 0 0 0 -4.6021330857383305 0.47794767966979546 0 0.47794767966979546 -2.3324890747913187 0 0 0 0 -150.7378407267388 -555.12272723635397 0 -555.12272723635397 -758.78014743786571 0 0 0 0 -0.42327938920746799 -856.05061025279394 0 -856.05061025279394 -1518.1723351013643 0 0 0 0 124.32288255424646 -591.59919713117233 0 -591.59919713117233 -628.36068692912431 0 0 0 0 108.51829165653908 -846.02741296378917 0 -846.02741296378917 -1241.1589089842273 0 0 0 0 45.83631929762123 -416.8308408544126 0 -416.8308408544126 -1305.5417136061405 0 0 0 0 36.23346364912868 -350.58248981485667 0 -350.58248981485667 -1463.4118401015912 0 0 0 0 6.5889226964285399 -5.0302395719963613 0 -5.0302395719963613 -10.077242369569419 0 0 0 0 -102.72403235631646 -792.99570706785198 0 -792.99570706785198 -1036.7952678203292 0 0 0 0 342.79141156241531 -798.53825581346427 0 -798.53825581346427 -1072.15012956598 0 0 0 0 311.79660975375737 -977.13344459236032 0 -977.13344459236032 -777.59710137897491 0 0 0 0 433.9022291301917 -531.41227005381506 0 -531.41227005381506 -814.69824704276107 0 0 0 0 957.63095695716402 -467.80060349750147 0 -467.80060349750147 743.20443473343403 0 0 0 0 943.87011399790572 -267.05820047270117 0 -267.05820047270117 -1318.4709194792158 0 0 0 0 5353.3392119507189 -4059.8047444534532 0 -4059.8047444534532 203.24869713623775 0 0 0 0 -2785.9787757247686 -28.027108605685498 0 -28.027108605685498 8986.4159728896448 0 0 0 0 -180.22752540113288 363.53352691839063 0 363.53352691839063 -910.6018526379703 0 0 0 0 -432.64310601534089 44.538795799528089 0 44.538795799528089 -458.4445029992421 0 0 0 0 -265.46071233757539 -216.583749677171 0 -216.583749677171 -379.87340080771537 0 0 0 0 40.772401288588298 -190.916411630531 0 -190.916411630531 -538.11101714931647 0 0 0 0 6.4447235190213519 -24.936676340611093 0 -24.936676340611093 -1.4193853422475158 0 0 0 0 -46.978045746334828 -90.336133363060071 0 -90.336133363060071 -297.54697452191976 0 0 0 0 50.340545524624758 -497.82104546709888 0 -497.82104546709888 57.807379472298635 0 0 0 0 -102.5959687443974 -574.93572036004844 0 -574.93572036004844 20.639608712956033 0 0 0 0 35.59261552632961 -656.06318998449206 0 -656.06318998449206 24.161276325590734 0 0 0 0 363.75629659809056 -513.54732420575056 0 -513.54732420575056 -145.95308621519962 0 0 0 0 65.125267046212684 -156.77458994456265 0 -156.77458994456265 34.679839361699123 0 0 0 0 210.14288857326028 -240.52778776674859 0 -240.52778776674859 -284.96431576694158 0 0 0 0 -145.97537853344693 -68.795854650625188 0 -68.795854650625188 -306.72199707807886 0 0 0 0 256.54065953358077 -93.280944542473662 0 -93.280944542473662 -818.62880083410346 0 0 0 0 29.382114532461856 -88.723296075659164 0 -88.723296075659164 -527.45012203503575 0 0 0 0 2.7669373453827575 -367.44325327335901 0 -367.44325327335901 -406.60253710025108 0 0 0 0 -59.172059584088856 -300.7663171410104 0 -300.7663171410104 -230.88741229796869 0 0 0 0 448.06299265811685 -286.47327005335137 0 -286.47327005335137 -109.67908357604392 0 0 0 0 700.47527864625226 -187.07360379381885 0 -187.07360379381885 -298.40705559265916 0 0 0 0 322.64646872249432 -14.234395563911676 0 -14.234395563911676 -737.77879093942465 0 0 0 0 412.21440299315145 -144.18062919585645 0 -144.18062919585645 -631.85688240356103 0 0 0 0 195.50452913565096 -110.78913485112571 0 -110.78913485112571 -508.16099016851877 0 0 0 0 294.27825156302424 -242.91969476204031 0 -242.91969476204031 -432.33827602371275 0 0 0 0 190.14962523280883 3.0837547596254353 0 3.0837547596254353 -164.94318024490349 0 0 0 0 317.40278374715126 -162.41810071827967 0 -162.41810071827967 25.859525722795297 0 0 0 0 503.50367472833022 -150.41889896596331 0 -150.41889896596331 104.76431787328329 0 0 0 0 472.64897720777662 -28.528376740396197 0 -28.528376740396197 -127.30019147606924 0 0 0 0 436.61437305620166 -248.29331828963291 0 -248.29331828963291 218.90531342370377 0 0 0 0 383.1023857514956 -144.24088795167336 0 -144.24088795167336 207.37406721050047 0 0 0 0 434.15946319754585 -225.20422209382923 0 -225.20422209382923 31.854193090915942 0 0 0 0 656.22101442648636 -530.9142759739093 0 -530.9142759739093 302.54089295246013 0 0 0 0 794.46586851147003 -636.41849328274839 0 -636.41849328274839 220.32845414689655 0 0 0 0 30.817819659620739 -16.528334124523418 0 -16.528334124523418 -11.685485633614709 0 0 0 0 150.99897422012873 -41.524076914245597 0 -41.524076914245597 26.352116309668418 0 0 0 0 -425.39545130473562 -285.59588734874706 0 -285.59588734874706 1800.5291936581561 0 0 0 0 -47.444717738108011 37.793060925923783 0 37.793060925923783 -366.62220987639739 0 0 0 0 115.55254682114173 -166.94957711507641 0 -166.94957711507641 605.8147888347612 0 0 0 0 108.69616171554662 -465.37951009317476 0 -465.37951009317476 -943.61803569798576 0 0 0 0 12.261184419675146 -9.2098697188562557 0 -9.2098697188562557 2.3012958776662025 0 0 0 0 670.1194675960578 22.01230352379207 0 22.01230352379207 -1793.4157451977117 0 0 0 0 -279.54532588805887 -49.166428451148022 0 -49.166428451148022 130.04530811328732 0 0 0 0 1402.4910412929021 -3495.4532586443383 0 -3495.4532586443383 8081.0529820046468 0 0 0 0 5.6068363062347544 -9.3164557382553532 0 -9.3164557382553532 0.61593007571993219 0 0 0 0 -5.0074561769921502 -0.54629633432023894 0 -0.54629633432023894 -1.1979409181460952 0 0 0 0 49.939554409938864 -57.074665644340712 0 -57.074665644340712 -1487.1711490073867 0 0 0 0 866.35348730185069 -883.77305781542236 0 -883.77305781542236 -1340.819136764203 0 0 0 0 926.96299215371255 -1950.6345208243329 0 -1950.6345208243329 1896.0777830269944 0 0 0 0 850.66383511136519 -1464.3617157237713 0 -1464.3617157237713 -207.24428968323582 0 0 0 0 -388.63107068336103 -693.08722458448938 0 -693.08722458448938 6257.9086205533531 0 0 0 0 -121.37899838577141 -559.79784596374884 0 -559.79784596374884 -1145.9090534878487 0 0 0 0 -170.62749336683191 -336.38742925551924 0 -336.38742925551924 -756.08348934744208 0 0 0 0 -206.67486961028771 -553.20309766371793 0 -553.20309766371793 -647.90293509158073 0 0 0 0 -150.59314086518134 -322.69704610812551 0 -322.69704610812551 -642.31903740126143 0 0 0 0 -197.9379240229282 -447.20700038135419 0 -447.20700038135419 -672.63768739259831 0 0 0 0 -211.62559672519274 -422.46496606625806 0 -422.46496606625806 -644.38399091913743 0 0 0 0 -178.99145931040403 -347.86252503473952 0 -347.86252503473952 -588.81359373990654 0 0 0 0 -24.156126461472013 -208.51275147793967 0 -208.51275147793967 -574.13379862502188 0 0 0 0 -125.39303063196712 -373.21496653257236 0 -373.21496653257236 -838.06499313411041 0 0 0 0 4.7887845807999838 69.137396620613799 0 69.137396620613799 -814.89173347409815 0 0 0 0 10.128224668616895 -181.49029870691811 0 -181.49029870691811 -629.96852339327597 0 0 0 0 -28.91484788696107 -133.41073404272902 0 -133.41073404272902 -314.67625380001118 0 0 0 0 -130.15629238843394 -378.44856297330807 0 -378.44856297330807 -603.98333408918188 0 0 0 0 -29.861399615794653 -272.75320799193651 0 -272.75320799193651 -580.4135701541104 0 0 0 0 -73.084143532003509 -301.42319206762659 0 -301.42319206762659 -415.36829117530579 0 0 0 0 44.987754295405466 -142.28773258459114 0 -142.28773258459114 -452.82541815253944 0 0 0 0 17.274894043715904 -35.052004104878506 0 -35.052004104878506 -118.3488123722891 0 0 0 0 -8.1136634463595669 -8.9434607362948881 0 -8.9434607362948881 5.3728779346911182 0 0 0 0 -18.54428986235871 -60.946003929124345 0 -60.946003929124345 -291.35290474945759 0 0 0 0 33.798757690819912 37.207825742061686 0 37.207825742061686 -339.52836225588408 0 0 0 0 50.990099443952204 121.52248026663983 0 121.52248026663983 251.36347339388885 0 0 0 0 125.49481916899094 -62.58821357252782 0 -62.58821357252782 581.32572200305412 0 0 0 0 21.139948789548612 -20.683938233164078 0 -20.683938233164078 -9.0866306688272154 0 0 0 0 10.012425346679549 -7.413480566992928 0 -7.413480566992928 -9.6543207659215966 0 0 0 0 24.193080421187915 61.309682682549465 0 61.309682682549465 -33.338082608934201 0 0 0 0 -188.93600353770307 -72.470148102861003 0 -72.470148102861003 998.07243113176264 0 0 0 0 639.73461098723055 -66.853052518565164 0 -66.853052518565164 -70.616150976125937 0 0 0 0 310.79670992986939 -65.314792716169904 0 -65.314792716169904 -109.60598656623279 0 0 0 0 102.43294116057223 -80.725616561497191 0 -80.725616561497191 -37.15712632461873 0 0 0 0 489.99295381043339 -286.31455903906181 0 -286.31455903906181 -587.24710657305877 0 0 0 0 66.793882292902708 134.22787407493877 0 134.22787407493877 -1313.7148029818272 0 0 0 0 -297.90793692789157 -1050.1970915667293 0 -1050.1970915667293 -837.78961764172163 0 0 0 0 -372.94728447604575 -602.77381697324893 0 -602.77381697324893 899.17581852973399 0 0 0 0 395.28773879302753 -514.69100373473952 0 -514.69100373473952 878.20500663747953 0 0 0 0 404.66137181728845 -705.68748094284024 0 -705.68748094284024 114.00012774315292 0 0 0 0 -119.85320869879797 -616.83493844258533 0 -616.83493844258533 216.92566682894267 0 0 0 0 660.20414176338818 -834.65924230498558 0 -834.65924230498558 272.34156897404159 0 0 0 0 514.36521675769472 -376.69071378874287 0 -376.69071378874287 236.19132918764751 0 0 0 0 16.278870828828076 -91.876368707391975 0 -91.876368707391975 58.512222568846028 0 0 0 0 -30.035062492035252 -31.504487172641902 0 -31.504487172641902 -28.212411244254117 0 0 0 0 546.00405242366105 -928.25760388214235 0 -928.25760388214235 872.61193769078727 0 0 0 0 518.97211562898883 -520.08805147122393 0 -520.08805147122393 393.03604330008238 0 0 0 0 534.2742860352846 -591.5265774269983 0 -591.5265774269983 438.93245355225372 0 0 0 0 565.22738274432777 -532.70877575118539 0 -532.70877575118539 288.65302051295475 0 0 0 0 517.56241906584182 -441.88103645513615 0 -441.88103645513615 51.967018348754209 0 0 0 0 521.97833056045056 -186.80045497873516 0 -186.80045497873516 28.127883048926378 0 0 0 0 312.23496426729616 -48.003265100155659 0 -48.003265100155659 79.964471951123414 0 0 0 0 498.02109261564328 -117.29081170081554 0 -117.29081170081554 -166.71652882491162 0 0 0 0 438.76160050464387 -105.1936435479065 0 -105.1936435479065 74.179160050469363 0 0 0 0 422.14478521379351 -250.99453671553692 0 -250.99453671553692 177.46379925869996 0 0 0 0 453.99999012286571 -331.25938546619409 0 -331.25938546619409 353.92254933366712 0 0 0 0 265.46243308283738 -52.49391387695232 0 -52.49391387695232 144.29466017692175 0 0 0 0 317.99949424361694 -141.3859173158844 0 -141.3859173158844 585.60743422595442 0 0 0 0 408.0100262745691 -342.98924972880195 0 -342.98924972880195 106.31147295402843 0 0 0 0 746.90498498818488 -562.87165137425291 0 -562.87165137425291 9.1769174516582552 0 0 0 0 17.760219164760201 -647.4904979630528 0 -647.4904979630528 888.06806263648105 0 0 0 0 -242.62511122475553 -26.379366202428173 0 -26.379366202428173 59.732284392739075 0 0 0 0 -7.8413729232740526 -9.330381032751319 0 -9.330381032751319 6.199282303962967 0 0 0 0 -49.291335904737934 -17.807151876993885 0 -17.807151876993885 96.730510146493543 0 0 0 0 -22.141710322162453 -18.045541141187286 0 -18.045541141187286 1.309358201341805 0 0 0 0 997.92055768034925 -663.90154836849456 0 -663.90154836849456 381.60958675194343 0 0 0 0 484.11115215133759 -674.84410834461505 0 -674.84410834461505 826.4352580381933 0 0 0 0 385.8250043902226 -368.4674700084297 0 -368.4674700084297 392.93575466056427 0 0 0 0 -25.329389356794195 -33.398350361955835 0 -33.398350361955835 -25.843486487831314 0 0 0 0 606.07518912715022 -529.50447868234642 0 -529.50447868234642 344.266123747233 0 0 0 0 -83.776396285000374 -112.58926274847772 0 -112.58926274847772 54.551818717797687 0 0 0 0 15.853723292726158 -60.613747864207895 0 -60.613747864207895 9.198964901389445 0 0 0 0 -22.227786121351528 -90.252424141210966 0 -90.252424141210966 62.58653088099507 0 0 0 0 -73.495571973167671 -89.51973261381886 0 -89.51973261381886 79.102048830330205 0 0 0 0 -8.106093711831889 -13.462087398629649 0 -13.462087398629649 40.796790843175216 0 0 0 0 -148.40869859038503 -460.22264502118003 0 -460.22264502118003 279.27606626208876 0 0 0 0 -0.54534037693520077 -427.96376562392766 0 -427.96376562392766 97.859031980167401 0 0 0 0 -673.19416489513242 -654.17756373418342 0 -654.17756373418342 22.478732227452383 0 0 0 0 1.369780374749098 -638.73405627667717 0 -638.73405627667717 -61.104004647854708 0 0 0 0 -1249.5236635407782 246.50014868548078 0 246.50014868548078 33.675888064018181 0 0 0 0 -185.73906034279207 -108.73735594953723 0 -108.73735594953723 129.77071887047714 0 0 0 0 -8.7271856679377606 -4.6548520478497295 0 -4.6548520478497295 -1.6620100355264746 0 0 0 0 33.064799317489815 -615.54646967736949 0 -615.54646967736949 -291.10895135740429 0 0 0 0 -871.66497647987853 -826.56441163719046 0 -826.56441163719046 462.96405063828843 0 0 0 0 -594.45501129187505 898.78292067774282 0 898.78292067774282 1409.7643372858802 0 0 0 0 -852.32906734668904 -1191.7422386987605 0 -1191.7422386987605 -49.683413376997123 0 0 0 0 431.04153136294917 -309.35643540551973 0 -309.35643540551973 -1353.6652683081884 0 0 0 0 455.04780685067817 -607.46790206397441 0 -607.46790206397441 -395.89083497803949 0 0 0 0 -60.043756735438478 -45.189292190601968 0 -45.189292190601968 1.1611332234630964 0 0 0 0 -4590.9151757014333 1415.1325270194211 0 1415.1325270194211 1545.2872380702065 0 0 0 0 -60.197005570893339 -61.858486188096848 0 -61.858486188096848 44.630005135701907 0 0 0 0 -60.671028368844418 -93.90595886149822 0 -93.90595886149822 27.699469457777013 0 0 0 0 -4265.814237790677 -2277.8961602199324 0 -2277.8961602199324 959.47576601463516 0 0 0 0 -3791.080817507609 -54.642778261695867 0 -54.642778261695867 547.85808378314323 0 0 0 0 18.663855404854758 -14.186188149393132 0 -14.186188149393132 -47.378386159304135 0 0 0 0 2668.2251213584968 -1487.4942535116897 0 -1487.4942535116897 -1354.4813312924816 0 0 0 0 -120.90272031945642 -4442.4712706885439 0 -4442.4712706885439 -1157.482116350533 0 0 0 0 -785.69182504259516 -581.41559233149019 0 -581.41559233149019 -167.20224814421454 0 0 0 0 1165.2802258887677 -525.00496249605567 0 -525.00496249605567 -537.99957237266062 0 0 0 0 -1665.5626735282567 -1104.4895441993108 0 -1104.4895441993108 116.77884277087287 0 0 0 0 -1316.9424433236127 -1827.7215593246801 0 -1827.7215593246801 -736.89082958670224 0 0 0 0 -686.40709743357729 -805.00507323863712 0 -805.00507323863712 -326.2109437723775 0 0 0 0 -1591.2997424544301 -1164.8161462550488 0 -1164.8161462550488 94.451078950478404 0 0 0 0 -272.87181344046257 189.60800423569162 0 189.60800423569162 -133.32388743082993 0 0 0 0 62.681017460854491 209.43569815037336 0 209.43569815037336 -225.17024829953152 0 0 0 0 69.803761036135256 208.4064213771635 0 208.4064213771635 -774.64980118895255 0 0 0 0 18.712448477424914 -52.288618439968559 0 -52.288618439968559 -896.93075817283534 0 0 0 0 15.714479116824805 -54.931299117724848 0 -54.931299117724848 -92.429815470939502 0 0 0 0 133.75831974466564 -422.39156268298757 0 -422.39156268298757 -249.97397209528299 0 0 0 0 31.690867252215838 2.5946584623407887 0 2.5946584623407887 -42.967224514976856 0 0 0 0 44.398467444233574 -26.87422680828341 0 -26.87422680828341 -20.081115344271375 0 0 0 0 57.023810207741917 3.114727574185963 0 3.114727574185963 -57.944579450762831 0 0 0 0 48.340208012159565 -132.14679042929492 0 -132.14679042929492 -154.05496425476849 0 0 0 0 52.853235237424087 -99.463645322379307 0 -99.463645322379307 -277.26665583888825 0 0 0 0 -1.5454187298018951 -32.496614113188116 0 -32.496614113188116 -90.701190603918803 0 0 0 0 -79.582186235318659 81.514781471247261 0 81.514781471247261 -28.496003940341325 0 0 0 0 42.144516598963662 7.3534805069699019 0 7.3534805069699019 -22.373239395584079 0 0 0 0 27.185905047517736 -134.6032862060747 0 -134.6032862060747 21.140963951474987 0 0 0 0 4.3940840968300563 -5.1617199009474604 0 -5.1617199009474604 -3.4599234154674292 0 0 0 0 -7.3801821422621288 -82.367661052154745 0 -82.367661052154745 204.75976014527259 0 0 0 0 32.923313421444618 -340.22221327174702 0 -340.22221327174702 640.807865222494 0 0 0 0 20.820087651466395 -36.193171905091177 0 -36.193171905091177 -54.066416724141845 0 0 0 0 357.75484314565256 -189.58592795907316 0 -189.58592795907316 -99.650125079017016 0 0 0 0 14.631159677056075 -16.449412145308202 0 -16.449412145308202 -46.224443454113327 0 0 0 0 -352.19373709468346 -147.48979934584713 0 -147.48979934584713 607.11387423777342 0 0 0 0 217.79044555567089 5.8094501366504119 0 5.8094501366504119 -18.17988542256353 0 0 0 0 83.383994989737403 -723.91269531440048 0 -723.91269531440048 -77.624406687464216 0 0 0 0 205.4665832433675 -710.85350467634635 0 -710.85350467634635 -134.03848732564165 0 0 0 0 -30.477144953301547 -103.60242789474108 0 -103.60242789474108 -51.312116709710764 0 0 0 0 -471.1495949512755 -478.42147291151196 0 -478.42147291151196 -297.23878503402375 0 0 0 0 -569.85846664226847 -731.50624539670389 0 -731.50624539670389 -245.90512346769992 0 0 0 0 -3.1886102071489404 -34.803506329684694 0 -34.803506329684694 -0.078426805941504085 0 0 0 0 -708.33393378795517 -348.71914716689753 0 -348.71914716689753 -241.86823331752385 0 0 0 0 69.312339871627046 -257.63402671696531 0 -257.63402671696531 -950.43607712907396 0 0 0 0 -293.50957806645602 -1057.5460793336206 0 -1057.5460793336206 -1108.1963473804899 0 0 0 0 -120.84656459174585 -494.83107069294783 0 -494.83107069294783 -496.91508783306199 0 0 0 0 -20.672443339804886 35.057400870064157 0 35.057400870064157 14.855988816496392 0 0 0 0 -27.830055019789143 -185.19074856788939 0 -185.19074856788939 -87.607982231478672 0 0 0 0 16.171663831825299 -21.69437107722166 0 -21.69437107722166 23.545121254357539 0 0 0 0 34.007230544440972 -15.351197177849826 0 -15.351197177849826 -54.38261124449491 0 0 0 0 -103.60159247158299 -113.67271866717238 0 -113.67271866717238 80.659837506682379 0 0 0 0 110.62309136684053 -176.0911171637199 0 -176.0911171637199 132.99492226567236 0 0 0 0 225.51021923695225 3.7609793093943154 0 3.7609793093943154 -34.422889951223624 0 0 0 0 -7.1013483380811522 -133.17297619694 0 -133.17297619694 -145.03175799607561 0 0 0 0 -35.856944542054407 -3.8202557625681948 0 -3.8202557625681948 -34.849506458180258 0 0 0 0 -30.518514756462537 -6.6796686180241522 0 -6.6796686180241522 -59.645111272115173 0 0 0 0 -85.727739808222395 18.308906807782478 0 18.308906807782478 -16.257725502655376 0 0 0 0 -2.1999922115646768 47.316509737313027 0 47.316509737313027 -15.659119659510907 0 0 0 0 -4.3241900022549089 -33.270551918249112 0 -33.270551918249112 -13.856168114922184 0 0 0 0 -214.68905409922809 18.315067374378486 0 18.315067374378486 62.798568247788353 0 0 0 0 -136.71835634211311 -222.38446803089755 0 -222.38446803089755 -406.1575694041212 0 0 0 0 -3788.8716084055341 -1050.5117072380854 0 -1050.5117072380854 16.788944587460719 0 0 0 0 -4.3985351249661235 -9.875652292168013 0 -9.875652292168013 -15.678274307388648 0 0 0 0 8.1957065559836337 -11.078680564056413 0 -11.078680564056413 -110.56540279444016 0 0 0 0 -1694.3205494849826 -787.99547936396993 0 -787.99547936396993 -666.67583003672189 0 0 0 0 -2721.9184907591844 -1776.0663536702486 0 -1776.0663536702486 -1289.3635425641132 0 0 0 0 -1672.0264395374979 -577.5646640754785 0 -577.5646640754785 -451.35896386420063 0 0 0 0 -600.77355699220789 -765.77694380890171 0 -765.77694380890171 -1361.1632728373952 0 0 0 0 -1595.9248314057186 -944.48188098582614 0 -944.48188098582614 -655.41981256154395 0 0 0 0 -3066.21505669615 -1168.6488875119103 0 -1168.6488875119103 -505.6088080283007 0 0 0 0 -1901.2373881867097 -415.96810767439456 0 -415.96810767439456 -325.96679859756841 0 0 0 0 -1508.5418172136306 -538.72090748174469 0 -538.72090748174469 279.86347991187358 0 0 0 0 -2258.5918862000399 -680.11211090955476 0 -680.11211090955476 -147.08216924301814 0 0 0 0 -2749.4767132145789 8.9770901113224681 0 8.9770901113224681 -350.00698302971432 0 0 0 0 -1546.8910007822851 -709.45168272888259 0 -709.45168272888259 -468.90319029342936 0 0 0 0 -1855.2558163250069 -272.28326753836154 0 -272.28326753836154 -385.28425846196478 0 0 0 0 -42.182738614352729 -35.355720496786248 0 -35.355720496786248 -19.409651044151374 0 0 0 0 -108.65139188672765 -40.636065465147112 0 -40.636065465147112 15.188586706135538 0 0 0 0 -89.934288515578373 -55.249968615684338 0 -55.249968615684338 58.532604384272418 0 0 0 0 -3279.7690883914111 -168.3119168895646 0 -168.3119168895646 88.940824556717416 0 0 0 0 -15.898349549914926 -88.775686548205243 0 -88.775686548205243 -83.693630596078819 0 0 0 0 81.196743098786101 -97.824475479828834 0 -97.824475479828834 -618.56484909850451 0 0 0 0 249.47026451700367 -277.08662400346475 0 -277.08662400346475 -427.62564412445499 0 0 0 0 -535.76910804992076 -501.29001530575624 0 -501.29001530575624 -422.84163740875874 0 0 0 0 752.72571847353538 -552.09118069288525 0 -552.09118069288525 -929.61697279041255 0 0 0 0 -651.30516348475066 -17.886851150291477 0 -17.886851150291477 -201.30784850884083 0 0 0 0 -1.6184143701466382 -154.49956214115718 0 -154.49956214115718 -101.11781623506249 0 0 0 0 199.74852313782321 -60.92657421869535 0 -60.92657421869535 -127.82529519293894 0 0 0 0 81.70385087482282 42.247577715717853 0 42.247577715717853 -176.97192760979306 0 0 0 0 -15.534101602895419 -87.910266994835439 0 -87.910266994835439 -64.035333329465303 0 0 0 0 -98.612298611915321 -295.665470510663 0 -295.665470510663 -189.8443113991234 0 0 0 0 -1094.5261830708187 -794.62900329809054 0 -794.62900329809054 171.81773041562155 0 0 0 0 -2311.0885294356849 579.2635475938805 0 579.2635475938805 204.95839612352574 0 0 0 0 -1379.9062577445729 539.8464520128955 0 539.8464520128955 63.412000941403676 0 0 0 0 -4.9257803833666003 -29.390290368031145 0 -29.390290368031145 -15.970630474911228 0 0 0 0 -305.11710621448583 -1264.1643873948706 0 -1264.1643873948706 -2510.526813736069 0 0 0 0 -792.67958633432863 -816.23437336072675 0 -816.23437336072675 -992.88461755440221 0 0 0 0 -6.9448880535179711 -48.780970554933248 0 -48.780970554933248 -40.699859956481106 0 0 0 0 2.3262035859789876 -33.809679053012132 0 -33.809679053012132 -36.019489149289797 0 0 0 0 -4.3686402755556628 -87.600435789994663 0 -87.600435789994663 -43.748773298008018 0 0 0 0 20.80545553099364 -32.626284576923354 0 -32.626284576923354 -48.430499096156382 0 0 0 0 55.847264347901501 -17.245279040192806 0 -17.245279040192806 -21.344332934514316 0 0 0 0 -8.1927133743202489 -5.5441369373577061 0 -5.5441369373577061 26.230190912045828 0 0 0 0 -73.097558555225987 -23.360700881611365 0 -23.360700881611365 12.499726919886598 0 0 0 0 -1647.7528221362591 -436.90758705404369 0 -436.90758705404369 154.64721692075545 0 0 0 0 -1906.5239407420158 -579.68490249721799 0 -579.68490249721799 185.89430792730127 0 0 0 0 -1603.5323529884481 -708.6174407272083 0 -708.6174407272083 451.65225892110902 0 0 0 0 -2356.2133038921456 774.56187489068179 0 774.56187489068179 -488.7452998216304 0 0 0 0 -1289.5831450832775 -1636.3996606527107 0 -1636.3996606527107 -674.44946966546559 0 0 0 0 -104.49443743667507 -732.04323695505809 0 -732.04323695505809 -354.4987497273687 0 0 0 0 -1733.5186670154471 -803.67595424279807 0 -803.67595424279807 385.03693496175401 0 0 0 0 -3175.6317666499235 -731.60322533472208 0 -731.60322533472208 468.91669490760978 0 0 0 0 -157.79244552657474 174.11809524349883 0 174.11809524349883 500.52571402339527 0 0 0 0 -85.949671664446157 -7.8387246457934623 0 -7.8387246457934623 55.785977562575482 0 0 0 0 -34.307084112521373 -15.732208767264524 0 -15.732208767264524 19.283870030220839 0 0 0 0 1756.6250962284284 1099.1483087348458 0 1099.1483087348458 162.77417232932567 0 0 0 0 -123.50340181041975 -61.696296820944553 0 -61.696296820944553 -8.8579215349327569 0 0 0 0 718.60845313088794 188.9215286668059 0 188.9215286668059 -210.50130631940556 0 0 0 0 39.841901271720417 -125.63425421979082 0 -125.63425421979082 -275.79091122837417 0 0 0 0 -910.62168369845313 -375.23738281606484 0 -375.23738281606484 1.204535470722476 0 0 0 0 -729.35285706497962 -748.63437726043958 0 -748.63437726043958 -423.11657210258272 0 0 0 0 -299.87622036610264 -227.38991025502037 0 -227.38991025502037 -471.71356036329144 0 0 0 0 -503.57983849011362 257.62859325586669 0 257.62859325586669 403.70546039440524 0 0 0 0 -15.589494799845852 -248.92438093907003 0 -248.92438093907003 193.69905557544735 0 0 0 0 -102.27341432867848 -6.3963136823022921 0 -6.3963136823022921 32.381420072186373 0 0 0 0 -123.01721388824808 -74.218933839371402 0 -74.218933839371402 36.340131122233288 0 0 0 0 -130.58652312302729 -67.775122959894361 0 -67.775122959894361 41.474997197910852 0 0 0 0 -31.241972125281194 -17.22926167113971 0 -17.22926167113971 10.328763446834891 0 0 0 0 -159.23786596831633 -25.764826360104053 0 -25.764826360104053 -11.577827797344071 0 0 0 0 -21.087112856212002 20.218994102791456 0 20.218994102791456 18.955277988130259 0 0 0 0 -197.12557971343631 -117.58479410031759 0 -117.58479410031759 113.41024532998563 0 0 0 0 -102.24416643055156 -261.80342704820941 0 -261.80342704820941 326.86725890386151 0 0 0 0 -160.34050034181564 -66.500129170583932 0 -66.500129170583932 43.818566347836168 0 0 0 0 -47.53943170781713 -125.63301840470194 0 -125.63301840470194 -20.148406826901919 0 0 0 0 -139.37656413984951 -78.646801728475111 0 -78.646801728475111 43.633548892943736 0 0 0 0 1.1217325819984367 -0.8810297349208156 0 -0.8810297349208156 1.9642109021014278 0 0 0 0 -119.98085771960905 -54.792558693292449 0 -54.792558693292449 42.784619528164853 0 0 0 0 39.048834318906302 -35.88086595272307 0 -35.88086595272307 -161.5621697288625 0 0 0 0 -115.69032081268597 -35.68456343225489 0 -35.68456343225489 -47.963119638010539 0 0 0 0 -58.493627089410438 -174.03120691615095 0 -174.03120691615095 -357.18284843880247 0 0 0 0 -1208.5682721834746 71.936630251066163 0 71.936630251066163 -579.02432910754396 0 0 0 0 53.968073235751945 -589.98050723272081 0 -589.98050723272081 -806.78005900835433 0 0 0 0 -1700.1874488617177 -1586.06484292196 0 -1586.06484292196 -964.35903245791269 0 0 0 0 -1859.5874144856352 -1497.619922776561 0 -1497.619922776561 -546.47566797721322 0 0 0 0 -10.67801560955786 -4.4593083294494136 0 -4.4593083294494136 -14.834382965112052 0 0 0 0 -947.88503705395851 -911.1825673358253 0 -911.1825673358253 -261.28668198143623 0 0 0 0 -1159.9282391683319 -624.98320707870289 0 -624.98320707870289 -640.13855477468678 0 0 0 0 -1201.8884897692224 -1306.5733545428729 0 -1306.5733545428729 -1424.0218965659078 0 0 0 0 -936.49482441350119 -398.84259347987427 0 -398.84259347987427 352.90993124329862 0 0 0 0 -1067.6723311201931 -1556.2007158607066 0 -1556.2007158607066 310.47121162990879 0 0 0 0 -2065.388665439561 -127.3020561373969 0 -127.3020561373969 -48.370375200496596 0 0 0 0 -1580.4150023434195 -1972.9224813212231 0 -1972.9224813212231 -229.79532125225182 0 0 0 0 -27.637967841772706 2.6384841379235127 0 2.6384841379235127 -12.203546433465153 0 0 0 0 -329.1275236842921 -1810.9035238209017 0 -1810.9035238209017 -2195.2719076204862 0 0 0 0 -116.47112518914219 101.03164959725495 0 101.03164959725495 -54.463063606061041 0 0 0 0 1866.7490036946256 246.99822306539863 0 246.99822306539863 -837.44822425778329 0 0 0 0 -6.4788521770190215 -17.316874075002573 0 -17.316874075002573 3.1485581364189841 0 0 0 0 -68.140679841891597 -54.092531556414016 0 -54.092531556414016 -20.251779183819039 0 0 0 0 -3000.1001511605937 -1047.1015679159134 0 -1047.1015679159134 -1664.7524336560055 0 0 0 0 -1106.9573152732628 -2402.3469168313168 0 -2402.3469168313168 -895.37569280403113 0 0 0 0 -1467.1648434231465 -2146.266973742393 0 -2146.266973742393 875.93459567341051 0 0 0 0 -5.677946506155422 -187.17639758008045 0 -187.17639758008045 67.990370631981932 0 0 0 0 -350.13974063025671 185.23899261186216 0 185.23899261186216 -82.296430201662588 0 0 0 0 -103.88082487075008 -74.370985527216362 0 -74.370985527216362 -124.6698998107131 0 0 0 0 -222.18952684939723 -24.641689776004569 0 -24.641689776004569 -143.33499889929317 0 0 0 0 -747.76861080326489 235.90948406999632 0 235.90948406999632 -17.082582509330678 0 0 0 0 -1468.3157829001721 -224.69235597160787 0 -224.69235597160787 400.24716460591935 0 0 0 0 -696.77862057535094 -405.23545588580964 0 -405.23545588580964 442.04462664019866 0 0 0 0 -380.74355372908758 -35.190486772360146 0 -35.190486772360146 -14.830240579905876 0 0 0 0 -421.82162064602016 -192.12788686063459 0 -192.12788686063459 46.829681276043857 0 0 0 0 -677.32515485447948 -382.0777069780911 0 -382.0777069780911 595.65074826960472 0 0 0 0 -658.20121289771305 -58.87544336669788 0 -58.87544336669788 292.67121886695804 0 0 0 0 -175.05223575875789 -216.92781103152009 0 -216.92781103152009 500.40147528867783 0 0 0 0 -668.46728558224277 -674.24007998983097 0 -674.24007998983097 21.030175940898516 0 0 0 0 -605.15944788319757 -386.48971258952224 0 -386.48971258952224 223.57667892843983 0 0 0 0 -1569.8547413143096 -333.39255277338088 0 -333.39255277338088 265.28065412041724 0 0 0 0 -601.52579946813057 114.99825713746486 0 114.99825713746486 -44.029104477100191 0 0 0 0 -893.35699003186892 -1035.4572206108119 0 -1035.4572206108119 -402.03771428704204 0 0 0 0 -325.30391878049704 -543.29931252437746 0 -543.29931252437746 0.88385577129702142 0 0 0 0 -350.79324399598408 -460.65990662611966 0 -460.65990662611966 -235.6561124167124 0 0 0 0 -420.91079809461371 -309.35205340559514 0 -309.35205340559514 4.4826500720882905 0 0 0 0 -695.05230592931912 -458.59822109976824 0 -458.59822109976824 330.89425105313785 0 0 0 0 -572.98962599565857 -508.00768189437167 0 -508.00768189437167 296.45446864137921 0 0 0 0 -649.99610666875378 -587.22951441724672 0 -587.22951441724672 538.84725867571524 0 0 0 0 -794.23728470267815 -364.45040471528876 0 -364.45040471528876 310.23657870899297 0 0 0 0 -453.56354185342207 -462.79816778575469 0 -462.79816778575469 319.61316197075962 0 0 0 0 -408.94405648046813 -415.50960561282659 0 -415.50960561282659 338.07116577347597 0 0 0 0 108.18934329185868 -190.68568592972281 0 -190.68568592972281 176.81609471475713 0 0 0 0 -144.11865602427861 -235.34437270761191 0 -235.34437270761191 194.15439384017827 0 0 0 0 329.61080555838998 -103.49121322051815 0 -103.49121322051815 30.212663821017486 0 0 0 0 -23.428807704538485 -53.172031457070858 0 -53.172031457070858 -38.646849808322742 0 0 0 0 -170.20415218430571 -200.74022045430956 0 -200.74022045430956 217.8274835789789 0 0 0 0 -181.89110079329112 -176.33521608835008 0 -176.33521608835008 169.83672511001714 0 0 0 0 21.115139214627561 -208.05128923011262 0 -208.05128923011262 -51.087722226737242 0 0 0 0 -23.53109852238012 -50.918616092210129 0 -50.918616092210129 -31.538640273732362 0 0 0 0 -230.74226790005923 -145.39067941234862 0 -145.39067941234862 -35.109903262633452 0 0 0 0 225.21099528933701 -99.695917466070568 0 -99.695917466070568 -9.2695241579676804 0 0 0 0 -110.78781276510563 -117.68342405643853 0 -117.68342405643853 94.877458161216055 0 0 0 0 -377.43619643506827 -58.105904928466771 0 -58.105904928466771 32.957971875046496 0 0 0 0 -210.65359404271294 -10.926245951074634 0 -10.926245951074634 -66.656475487441639 0 0 0 0 -131.98859019114752 -170.2995672396155 0 -170.2995672396155 -26.895858557305473 0 0 0 0 -181.55948128199088 -98.465786027783906 0 -98.465786027783906 -116.36640754064865 0 0 0 0 -27.841328703798354 23.274448426156596 0 23.274448426156596 98.262520170973858 0 0 0 0 -117.3371066468535 -21.132883779115218 0 -21.132883779115218 -26.561754698866231 0 0 0 0 -113.2489184516744 -43.957808508200287 0 -43.957808508200287 46.609004089259543 0 0 0 0 21.476938845298719 -45.600831980489602 0 -45.600831980489602 -105.21421665596426 0 0 0 0 40.348006516229361 -15.945802025162266 0 -15.945802025162266 -108.81323926070672 0 0 0 0 52.752605982299428 -54.24891039205977 0 -54.24891039205977 -268.12623949334011 0 0 0 0 -114.36261716269655 -137.15532651229296 0 -137.15532651229296 -195.32946974001243 0 0 0 0 -157.83514907729113 -19.48888546679882 0 -19.48888546679882 -48.920857145491027 0 0 0 0 -382.46882873537834 -227.60245440736617 0 -227.60245440736617 -203.95972040673223 0 0 0 0 -28.913726867176592 -146.2713381115791 0 -146.2713381115791 -111.08891957883316 0 0 0 0 -27.226534190944818 -53.685410284303316 0 -53.685410284303316 -45.278799083865493 0 0 0 0 192.78426825933542 -119.05172600201823 0 -119.05172600201823 -191.10697668158537 0 0 0 0 -615.19752119495024 -74.696799374153755 0 -74.696799374153755 118.03065896915359 0 0 0 0 -142.62467080185888 -218.29469296929346 0 -218.29469296929346 134.21400983471631 0 0 0 0 -21.59812378193601 -258.69749517630225 0 -258.69749517630225 -37.613626166797076 0 0 0 0 16.527098478255198 1.1157960062779466 0 1.1157960062779466 -3.2500598217457899 0 0 0 0 192.38455585189513 -9.1514653774083854 0 -9.1514653774083854 -148.28119900707679 0 0 0 0 73.732215239899233 56.956449266304844 0 56.956449266304844 25.099847514386056 0 0 0 0 97.915806480639731 -114.24185962594493 0 -114.24185962594493 -225.00137566038757 0 0 0 0 50.745379074127413 -67.438088446622714 0 -67.438088446622714 -182.22556939988863 0 0 0 0 -79.937492832366843 -54.935253357274632 0 -54.935253357274632 -111.90093874086597 0 0 0 0 62.93615200027125 89.790351800214921 0 89.790351800214921 -45.946992038893882 0 0 0 0 -80.98107847184292 -7.5751035310786392 0 -7.5751035310786392 30.445357356018576 0 0 0 0 12.813432317198021 -1902.0196120792079 0 -1902.0196120792079 -1822.7131832866071 0 0 0 0 -2538.8431431574281 -1136.7535893357999 0 -1136.7535893357999 -940.03346192739787 0 0 0 0 6.7460607997162469 9.4149909915864214 0 9.4149909915864214 -8.9810671127125943 0 0 0 0 91.170552375057014 -153.29846803243709 0 -153.29846803243709 -83.187469249765854 0 0 0 0 84.672847314617684 -72.078404621960999 0 -72.078404621960999 -189.94732338213362 0 0 0 0 -77.219295086483356 -101.8105467017712 0 -101.8105467017712 -2.3605923198501557 0 0 0 0 -128.81134271502697 103.09596515560759 0 103.09596515560759 -156.00840525095555 0 0 0 0 331.27555464746547 -321.79146651624433 0 -321.79146651624433 -130.11363301008714 0 0 0 0 -127.35607651907776 66.385693966989493 0 66.385693966989493 -65.845901066651322 0 0 0 0 -54.127508766599931 0.4547483774513239 0 0.4547483774513239 -176.97313258535723 0 0 0 0 2.2162210635142401 -79.136600570913288 0 -79.136600570913288 -72.549575505778193 0 0 0 0 -51.590589332205127 -15.015278922165635 0 -15.015278922165635 -299.94457409996539 0 0 0 0 130.31391920524766 -129.76090060246133 0 -129.76090060246133 106.72260777278279 0 0 0 0 81.913700248079238 -81.745652971016796 0 -81.745652971016796 -18.577669769326221 0 0 0 0 -33.643240822526082 -32.784685379596539 0 -32.784685379596539 19.711802846837706 0 0 0 0 -1975.6423012844753 44.292338054427091 0 44.292338054427091 -544.01412580365286 0 0 0 0 75.353527318919078 -279.02565758069977 0 -279.02565758069977 -35.321915749256732 0 0 0 0 -927.57647179742344 -305.26285025776451 0 -305.26285025776451 -554.07200813691452 0 0 0 0 -2601.4506401780527 -71.865118111691118 0 -71.865118111691118 -49.512275703877094 0 0 0 0 -1664.7429785713321 -188.33082849269704 0 -188.33082849269704 -528.20478326690682 0 0 0 0 -2287.9505315914284 169.51470819963288 0 169.51470819963288 -350.15958761569345 0 0 0 0 13.104062683115615 -10.290171209340542 0 -10.290171209340542 -56.948049337963916 0 0 0 0 -1794.9803952117218 -198.20195004186098 0 -198.20195004186098 -353.10977502562673 0 0 0 0 -1898.0919432457013 -535.62494143568438 0 -535.62494143568438 -250.08142994124501 0 0 0 0 -1232.6454652793473 -621.73503377995439 0 -621.73503377995439 -425.13383041484485 0 0 0 0 -2738.7510682462307 -662.43863107090829 0 -662.43863107090829 85.226942746929126 0 0 0 0 -1464.5077552173752 -735.42276715298431 0 -735.42276715298431 -208.43349665431742 0 0 0 0 -1478.8493011751561 -851.28562737266429 0 -851.28562737266429 -230.63007162007852 0 0 0 0 -533.95934550501988 -705.45424260230538 0 -705.45424260230538 -241.64204671009065 0 0 0 0 -991.50425318814814 -642.95765949286215 0 -642.95765949286215 -137.45744460610149 0 0 0 0 -1031.985953028081 -847.77890847150047 0 -847.77890847150047 -202.81505202129483 0 0 0 0 -1181.758689800743 -887.0861731605255 0 -887.0861731605255 -316.05016380569214 0 0 0 0 -1007.5604894617572 -790.37293332365516 0 -790.37293332365516 -360.17367260004539 0 0 0 0 -1020.0933065140853 -808.68586238947682 0 -808.68586238947682 -399.7088916894063 0 0 0 0 -1089.1064395795693 -878.83082769331031 0 -878.83082769331031 -531.70404468794732 0 0 0 0 -1057.8359016915783 -959.520916736863 0 -959.520916736863 -367.66971454403483 0 0 0 0 -280.32913487446785 -760.57862238212738 0 -760.57862238212738 -915.52391770544637 0 0 0 0 -1607.8308298547927 -941.80233156388931 0 -941.80233156388931 -375.16671625748859 0 0 0 0 -1441.0367712620646 -570.18304179956613 0 -570.18304179956613 -396.81102858607483 0 0 0 0 -1041.3066974057438 -948.86375293266519 0 -948.86375293266519 -375.1756461825571 0 0 0 0 -1140.0665479727322 -579.58326358430713 0 -579.58326358430713 -397.54419054981554 0 0 0 0 -1327.7568869575625 -736.52371733927794 0 -736.52371733927794 -397.70171100109292 0 0 0 0 -211.58819306189253 -366.63165058907543 0 -366.63165058907543 -446.42246662954312 0 0 0 0 -307.3681493693548 -353.31646516087767 0 -353.31646516087767 -306.29578457091702 0 0 0 0 -146.67426783659903 1.5725313255252331 0 1.5725313255252331 -242.22451336497761 0 0 0 0 186.08164888533065 -136.96093674497388 0 -136.96093674497388 -192.46442985874091 0 0 0 0 111.27693631130387 -197.79825379890099 0 -197.79825379890099 -105.58567312558444 0 0 0 0 10.466278016458091 -59.246268859636984 0 -59.246268859636984 -151.41911065366003 0 0 0 0 -352.16534965843312 -231.14895152501776 0 -231.14895152501776 211.35603309702492 0 0 0 0 337.76547815965023 -216.07423056490552 0 -216.07423056490552 -230.24316982138043 0 0 0 0 257.46193365165527 -116.94251742252163 0 -116.94251742252163 -227.33308464082802 0 0 0 0 -655.9134541527601 -326.07720440802041 0 -326.07720440802041 -88.389420299638005 0 0 0 0 -333.64668247006193 -357.06063576881206 0 -357.06063576881206 -339.41607566150924 0 0 0 0 -347.91986722857109 -661.05139341380345 0 -661.05139341380345 -146.89820928116751 0 0 0 0 -448.65440371102886 -677.06838364852956 0 -677.06838364852956 -59.923467098036781 0 0 0 0 -286.79456286455388 -387.19359901362077 0 -387.19359901362077 -286.76255344269703 0 0 0 0 -666.17375229854952 -815.37527820637297 0 -815.37527820637297 -478.11847402386047 0 0 0 0 -501.86353024081473 71.396215190882003 0 71.396215190882003 -16.150550650811056 0 0 0 0 -111.80140368247383 -103.37794214954528 0 -103.37794214954528 7.0883689813469886 0 0 0 0 -583.86401459765329 -532.40061557240551 0 -532.40061557240551 128.71696436705906 0 0 0 0 -297.14664794572309 64.256739370937339 0 64.256739370937339 -172.13768894888926 0 0 0 0 -269.40364802590921 -164.67568916128948 0 -164.67568916128948 -240.97554898042654 0 0 0 0 -246.16912845158367 -71.071789137080486 0 -71.071789137080486 -22.439718689201982 0 0 0 0 -6.6032513223942999 -5.6285981869232842 0 -5.6285981869232842 0.90227788720714841 0 0 0 0 -206.2747451144387 591.34033649850608 0 591.34033649850608 192.76862719899509 0 0 0 0 -90.484382083333912 -89.959274705555799 0 -89.959274705555799 -1.7845473452034639 0 0 0 0 -111.20957211352652 68.58921669535448 0 68.58921669535448 119.96047455963708 0 0 0 0 -269.58164896770268 -145.10504498266459 0 -145.10504498266459 265.83622569769068 0 0 0 0 -156.79757577479177 27.073175405948405 0 27.073175405948405 82.159497780878155 0 0 0 0 -73.642755165463313 66.54709496914802 0 66.54709496914802 85.048306224623957 0 0 0 0 -110.52967065083953 -10.222181866735234 0 -10.222181866735234 182.49944065839372 0 0 0 0 43.816157045104774 -108.75849900792127 0 -108.75849900792127 201.06714723481628 0 0 0 0 27.462756850101869 78.390461834660528 0 78.390461834660528 234.77089379441531 0 0 0 0 -39.390394933929201 -57.445279589561324 0 -57.445279589561324 -19.807491557861113 0 0 0 0 -63.520950098376488 22.703300142808075 0 22.703300142808075 195.00665684479827 0 0 0 0 19.48836912176921 -117.11526946697086 0 -117.11526946697086 -93.390530460586888 0 0 0 0 -94.177881891213474 -155.30881676239551 0 -155.30881676239551 71.532772016791569 0 0 0 0 145.18104068968387 -5.0261889660614543 0 -5.0261889660614543 116.62207218217372 0 0 0 0 270.44883911813668 249.16704341354307 0 249.16704341354307 645.66157940382914 0 0 0 0 -63.668423539384094 38.142605067227123 0 38.142605067227123 625.80653597196942 0 0 0 0 -220.67887688004703 -2.1598245504392253 0 -2.1598245504392253 512.32555827477699 0 0 0 0 -498.95461161241838 -630.34797002787309 0 -630.34797002787309 449.99597716126664 0 0 0 0 -380.2906047801589 136.55718724458438 0 136.55718724458438 1811.2780207013257 0 0 0 0 -294.51704072966459 -820.96803134313018 0 -820.96803134313018 -667.07463496034325 0 0 0 0 -207.46512765050284 -189.2754426431602 0 -189.2754426431602 -194.76200909974432 0 0 0 0 -275.40564618426288 -429.51482723269964 0 -429.51482723269964 -71.139743100146006 0 0 0 0 -127.67238512543554 -424.8992668067076 0 -424.8992668067076 -830.0188329411103 0 0 0 0 -242.89615095430054 -567.21414972374077 0 -567.21414972374077 -288.94814298485289 0 0 0 0 -125.70538030732132 -340.88491753552216 0 -340.88491753552216 -255.43976172684779 0 0 0 0 -149.21774284017738 -387.0318984667465 0 -387.0318984667465 -60.313088931610764 0 0 0 0 -23.551365813618759 -62.879508542318945 0 -62.879508542318945 121.88340741427783 0 0 0 0 -161.30673025746364 -339.99203210493033 0 -339.99203210493033 -145.53658938734225 0 0 0 0 -13.216272981451766 -143.34754246876764 0 -143.34754246876764 4.188373763277923 0 0 0 0 -34.461334121588152 -158.31395025528582 0 -158.31395025528582 -122.82275835218661 0 0 0 0 0.75926344684557989 -225.57663170552951 0 -225.57663170552951 155.91656981916094 0 0 0 0 66.769490448728902 134.37753505965702 0 134.37753505965702 537.92013071668407 0 0 0 0 163.63755378390488 -169.97739133113464 0 -169.97739133113464 899.15034253676095 0 0 0 0 224.90661508422636 -133.4865858225794 0 -133.4865858225794 81.375513696904818 0 0 0 0 -24.909039530379232 -302.98370520729804 0 -302.98370520729804 472.65398347292285 0 0 0 0 -74.446344657779264 -380.47110258543648 0 -380.47110258543648 37.154001622999203 0 0 0 0 62.656956532868207 -450.07141095964289 0 -450.07141095964289 83.507041194636258 0 0 0 0 -122.0016514591116 -102.73336109755837 0 -102.73336109755837 221.99240575376098 0 0 0 0 -449.02956492989324 -292.28478015807923 0 -292.28478015807923 70.242983035132056 0 0 0 0 674.28765028815542 323.34994266839567 0 323.34994266839567 539.22688102124744 0 0 0 0 -16.330543875134936 -6.8085135961152901 0 -6.8085135961152901 3.8095561072442372 0 0 0 0 -65.689035455681733 394.37694589717557 0 394.37694589717557 1569.3525924642563 0 0 0 0 -141.71908888836333 -416.6558835145479 0 -416.6558835145479 -796.07073941605813 0 0 0 0 -106.21060869468783 -250.72837820954919 0 -250.72837820954919 -361.29804802390572 0 0 0 0 -213.84435669546656 -951.37767991450528 0 -951.37767991450528 -1795.2262425971458 0 0 0 0 -5.1971963249959003 1.1675983893792505 0 1.1675983893792505 -0.40110782609427176 0 0 0 0 -805.55700999350302 -937.45408099717542 0 -937.45408099717542 -751.25677303900738 0 0 0 0 -256.21071919088718 -394.95427299086441 0 -394.95427299086441 -1090.9484732834935 0 0 0 0 -279.50325167789561 -396.88101553761499 0 -396.88101553761499 -558.1247894775297 0 0 0 0 -351.65215395050473 -238.74532077119875 0 -238.74532077119875 -530.99320398263717 0 0 0 0 -497.13414766902497 -518.31594349599345 0 -518.31594349599345 -385.21041316311312 0 0 0 0 -314.84175528235937 -264.11354418376686 0 -264.11354418376686 -173.89362708848421 0 0 0 0 28.478074630380149 -19.375290638534949 0 -19.375290638534949 1.8620455321336209 0 0 0 0 -49.414073462539818 -179.54230700557673 0 -179.54230700557673 -334.13551226348318 0 0 0 0 -336.91831098058901 -53.091968916713085 0 -53.091968916713085 814.60587412624591 0 0 0 0 -243.56471913833229 -272.04526739993344 0 -272.04526739993344 -353.5147500693638 0 0 0 0 -271.99046059101238 -417.1416648634131 0 -417.1416648634131 -483.19846065672755 0 0 0 0 -127.4533307604579 -456.68586835214228 0 -456.68586835214228 -563.28597743307091 0 0 0 0 -208.49325856243377 -528.27089404712387 0 -528.27089404712387 -381.68609270025627 0 0 0 0 -257.92765514201892 -496.46673304025353 0 -496.46673304025353 -395.95258129618014 0 0 0 0 -305.85167600741261 -795.55682913586861 0 -795.55682913586861 11.509444707888179 0 0 0 0 -56.35825056223257 -488.62399963112694 0 -488.62399963112694 -575.72174601606457 0 0 0 0 99.522983383474639 -741.79641074846222 0 -741.79641074846222 -396.20969215711148 0 0 0 0 9.2566044493101458 -3.9397863897273737 0 -3.9397863897273737 3.3889111136820418 0 0 0 0 121.84469773988531 -53.786741485553648 0 -53.786741485553648 303.93820072689414 0 0 0 0 307.77783253151574 208.64976677797313 0 208.64976677797313 -159.88429199039092 0 0 0 0 764.66532598159392 109.77908259505057 0 109.77908259505057 -282.13342593036032 0 0 0 0 607.12251831417962 376.1860209203769 0 376.1860209203769 -225.91929221406463 0 0 0 0 442.92880102249546 -40.127317575954294 0 -40.127317575954294 -353.74133753750357 0 0 0 0 -315.14010288674035 -815.28208205279589 0 -815.28208205279589 40.076753165660193 0 0 0 0 -1035.4238199321844 -465.61584420374857 0 -465.61584420374857 -338.72819615448975 0 0 0 0 -316.60976787340769 -393.9894262697162 0 -393.9894262697162 -645.98503127609729 0 0 0 0 -132.30392943750485 -949.36945611077681 0 -949.36945611077681 -1166.4610923611617 0 0 0 0 -306.71539585615392 -91.802074933286349 0 -91.802074933286349 -473.21752366732835 0 0 0 0 13.936521597855062 -20.243822209664643 0 -20.243822209664643 13.159066910403638 0 0 0 0 -811.22192953339254 -447.365572286928 0 -447.365572286928 -337.26314116270805 0 0 0 0 -211.92490083201847 -433.46608499392823 0 -433.46608499392823 215.94988007094071 0 0 0 0 -117.41218152770307 -497.20053120822558 0 -497.20053120822558 -378.68720181910976 0 0 0 0 -322.29076524955599 -104.42384850606504 0 -104.42384850606504 263.39364901819499 0 0 0 0 -222.45710457953101 296.88865764749062 0 296.88865764749062 1287.038980379657 0 0 0 0 38.778471124551288 -263.68450015688632 0 -263.68450015688632 -396.18775282362185 0 0 0 0 88.77798939729837 667.95390623640196 0 667.95390623640196 -898.88340371254162 0 0 0 0 137.34237333497731 -82.684942803614831 0 -82.684942803614831 -539.24539984827425 0 0 0 0 95.001395438572217 136.38998998108036 0 136.38998998108036 -973.00970430005691 0 0 0 0 -323.19328379022772 553.67550441716594 0 553.67550441716594 -804.77340672851642 0 0 0 0 -337.59680037881481 -456.98959852946427 0 -456.98959852946427 -605.5184226837373 0 0 0 0 129.47865294761868 -398.91186003315488 0 -398.91186003315488 152.32874054127024 0 0 0 0 350.06161402130965 -169.66575578758784 0 -169.66575578758784 -496.09038656387565 0 0 0 0 190.55795146149467 -878.83648432572954 0 -878.83648432572954 1055.3390267185296 0 0 0 0 178.68929025385296 -418.22193183565105 0 -418.22193183565105 297.82782149119885 0 0 0 0 120.3678483243566 -608.37536499837006 0 -608.37536499837006 87.439500022635912 0 0 0 0 305.41026632486319 -753.46385468104927 0 -753.46385468104927 491.72119241562905 0 0 0 0 614.42718513868749 -833.17945683188736 0 -833.17945683188736 466.9918036794661 0 0 0 0 373.64850472094258 -93.859603915512707 0 -93.859603915512707 1008.8063346356503 0 0 0 0 54.673507148958379 68.349727829611311 0 68.349727829611311 -205.4235012789577 0 0 0 0 251.66736480101827 -301.43070144914054 0 -301.43070144914054 -214.50290090835188 0 0 0 0 121.00979877120699 -726.72522889493121 0 -726.72522889493121 247.34462887048721 0 0 0 0 -801.50286485103425 -436.72981161002826 0 -436.72981161002826 276.71709705155808 0 0 0 0 -537.28139551547065 -153.9679510849528 0 -153.9679510849528 539.88635117092053 0 0 0 0 -1623.3731110947847 633.16061473899754 0 633.16061473899754 308.4448573559348 0 0 0 0 -792.30940509945503 -579.59199714111674 0 -579.59199714111674 -609.50337280146778 0 0 0 0 -2162.1306366834324 -1386.9807697358556 0 -1386.9807697358556 -1238.6845231444167 0 0 0 0 -1656.5942559478572 -645.65484967165685 0 -645.65484967165685 -504.62574591692828 0 0 0 0 -218.25496138783637 -762.41634881978098 0 -762.41634881978098 -652.19550439492741 0 0 0 0 -2623.9103249487307 431.35109877500327 0 431.35109877500327 -2051.0987222556796 0 0 0 0 -3040.5102513623715 -321.73755768349656 0 -321.73755768349656 34.965255228395108 0 0 0 0 -2564.1716079158032 1251.6277913327776 0 1251.6277913327776 114.67025816263049 0 0 0 0 -10.037755822621875 -5.2897235881371785 0 -5.2897235881371785 3.5647327276931833 0 0 0 0 495.30183967361518 -572.50789998784239 0 -572.50789998784239 -585.68906388310279 0 0 0 0 -161.0334019078 -553.05998529518547 0 -553.05998529518547 -570.7992945511578 0 0 0 0 -938.74969479834544 -1365.3553446870283 0 -1365.3553446870283 -881.3290616556842 0 0 0 0 -1403.8553525595926 -855.53085217998887 0 -855.53085217998887 -119.16981229708472 0 0 0 0 -1841.7642832710699 -1081.1477201813614 0 -1081.1477201813614 25.366399164398899 0 0 0 0 -143.75094746796822 -609.77679791491755 0 -609.77679791491755 -521.13699711980007 0 0 0 0 -9.4719069121858865 -8.9458138266005562 0 -8.9458138266005562 -9.5950136749291914 0 0 0 0 47.343569212171133 197.5884175200481 0 197.5884175200481 -1914.0530878347708 0 0 0 0 -2455.6621946363666 -296.67451204543431 0 -296.67451204543431 317.13857897066191 0 0 0 0 -63.358782845345559 -165.2338107034011 0 -165.2338107034011 -1425.0102317192068 0 0 0 0 -776.38953214796493 -854.60989375399367 0 -854.60989375399367 -2327.257462899528 0 0 0 0 -73.881838502929895 -110.65899545614593 0 -110.65899545614593 -1669.1294865451637 0 0 0 0 -1792.5762596823624 -28.090721815635334 0 -28.090721815635334 36.828187651670305 0 0 0 0 193.89766981982393 668.8892392061025 0 668.8892392061025 -1242.6825150785598 0 0 0 0 -381.82147016578529 115.51643785943816 0 115.51643785943816 42.230624508190886 0 0 0 0 -707.61288018527557 -546.16257427669916 0 -546.16257427669916 -95.804108504889882 0 0 0 0 -376.94212794548366 -661.63866168141431 0 -661.63866168141431 -91.090365614902112 0 0 0 0 -217.49948665285774 -373.33327182246285 0 -373.33327182246285 -35.405085069447523 0 0 0 0 -100.11174945400853 -191.52486191055141 0 -191.52486191055141 -34.571636212109297 0 0 0 0 -2.9182011038938072 -8.6236172512872145 0 -8.6236172512872145 -45.744185510107854 0 0 0 0 -24.590371331266994 -43.065852047384524 0 -43.065852047384524 -23.014298101274505 0 0 0 0 86.271214227308519 -83.411569468487869 0 -83.411569468487869 -38.219972740444064 0 0 0 0 -274.52770499052713 66.869430288568765 0 66.869430288568765 71.821577179485757 0 0 0 0 111.50705775900133 -505.54571250731351 0 -505.54571250731351 -324.16149891178065 0 0 0 0 -18.397340388937835 -22.390115340053143 0 -22.390115340053143 -28.823116588464387 0 0 0 0 -0.010084765922982797 -1.7761802039727996 0 -1.7761802039727996 -12.247135593436298 0 0 0 0 107.58528334695802 46.314468299104192 0 46.314468299104192 -280.32619907421758 0 0 0 0 10.024681360431714 450.82499961417125 0 450.82499961417125 -1095.3319056727014 0 0 0 0 -116.79761042573227 -52.558090903658012 0 -52.558090903658012 115.64043030907487 0 0 0 0 -2.7222612781847602 -30.723873894823896 0 -30.723873894823896 -2.4124724399122499 0 0 0 0 -50.760629060067004 -171.63493733239011 0 -171.63493733239011 165.76990908369044 0 0 0 0 61.637390432209941 -208.00007154561899 0 -208.00007154561899 111.51127866847673 0 0 0 0 -8.8593221046746748 -71.687314019681409 0 -71.687314019681409 10.435895902429774 0 0 0 0 -52.925874136650236 -41.548188420405495 0 -41.548188420405495 55.273311296703469 0 0 0 0 208.21339297865234 -264.86138847726875 0 -264.86138847726875 771.14348327381595 0 0 0 0 -192.22032165995915 11.511481218440167 0 11.511481218440167 136.89678466970872 0 0 0 0 -1.3637909451390442 -86.530170478914442 0 -86.530170478914442 57.763827840943122 0 0 0 0 12.667473548166356 -29.281059994572061 0 -29.281059994572061 5.4206389883969521 0 0 0 0 -8.4018642458540853 -62.360661139562581 0 -62.360661139562581 -8.7511409297840146 0 0 0 0 -362.63675790195703 -112.96366980819312 0 -112.96366980819312 646.12609065514698 0 0 0 0 -131.31891870472464 -202.77688760851015 0 -202.77688760851015 -153.57461381939424 0 0 0 0 -360.7179941276554 48.300588571408298 0 48.300588571408298 -294.34770244131505 0 0 0 0 11.380999203305691 88.439178152460954 0 88.439178152460954 -145.01408553755027 0 0 0 0 3.2217180373059477 -9.7207677031587139 0 -9.7207677031587139 -17.405683717813247 0 0 0 0 35.460633815574568 -6.8051744430367762 0 -6.8051744430367762 -54.399426128265674 0 0 0 0 46.814776222920045 -70.746957010647748 0 -70.746957010647748 50.567801849538228 0 0 0 0 -5.0865310296554185 -118.34994356538311 0 -118.34994356538311 185.03738948099945 0 0 0 0 53.683987856318709 -185.74637279950548 0 -185.74637279950548 82.364664226377499 0 0 0 0 409.50414477323648 -162.08600234224286 0 -162.08600234224286 -214.16636783799663 0 0 0 0 56.804843714635354 -150.65183351970336 0 -150.65183351970336 111.08651867992307 0 0 0 0 1.9232626354823026 -9.6575339153436346 0 -9.6575339153436346 17.0767970123471 0 0 0 0 53.54002257362373 -120.8332374772732 0 -120.8332374772732 18.997965309828487 0 0 0 0 169.51088924773467 -511.67510485488128 0 -511.67510485488128 571.63913153832618 0 0 0 0 76.250605062639806 -129.3282725779427 0 -129.3282725779427 46.070987119455822 0 0 0 0 -639.92783742863685 238.44408232289425 0 238.44408232289425 460.11563254603243 0 0 0 0 536.40345724849612 -520.96790356703059 0 -520.96790356703059 102.89390988011291 0 0 0 0 766.98466545873089 -378.38576434249626 0 -378.38576434249626 -344.836955207953 0 0 0 0 254.63278256740887 -214.07493355774204 0 -214.07493355774204 -183.00826283710194 0 0 0 0 761.51572844636394 -319.7058098008165 0 -319.7058098008165 -298.45591473589593 0 0 0 0 -155.97208635293646 -231.98355750420706 0 -231.98355750420706 -222.15870055413689 0 0 0 0 -159.48547892404895 -237.80664284299291 0 -237.80664284299291 -228.00552056590459 0 0 0 0 -12.590125714366366 -15.225135790483705 0 -15.225135790483705 8.3830721548617966 0 0 0 0 -104.31154238067393 -10.837289667862933 0 -10.837289667862933 -0.14895184203851386 0 0 0 0 976.33115159916633 -254.59564990663966 0 -254.59564990663966 -351.04441702998702 0 0 0 0 -14.232071826860192 -3.4259974776204984 0 -3.4259974776204984 18.331820820725486 0 0 0 0 -146.5732069805963 0.32606792743899859 0 0.32606792743899859 148.34567101656819 0 0 0 0 163.13886103017649 -650.17903087022569 0 -650.17903087022569 420.05458704120974 0 0 0 0 -1542.6349350599048 444.28150441508842 0 444.28150441508842 1547.1357750487532 0 0 0 0 -594.43280571640935 -520.99819583940007 0 -520.99819583940007 6.5911806404938034 0 0 0 0 -369.52209396561375 -594.07396181495642 0 -594.07396181495642 155.35032217272783 0 0 0 0 -624.62796472248738 -448.44387998017919 0 -448.44387998017919 245.15323583627469 0 0 0 0 -727.26609155064216 -417.49615626047671 0 -417.49615626047671 466.01808255459764 0 0 0 0 -361.40187595892348 -662.97790925248955 0 -662.97790925248955 405.93528487946605 0 0 0 0 -617.00774398502836 -430.44406381297904 0 -430.44406381297904 255.62485013744299 0 0 0 0 -852.2088458037033 -223.47211174098084 0 -223.47211174098084 302.46967524944921 0 0 0 0 -140.08849900704809 -211.39914393013169 0 -211.39914393013169 -133.92632171007426 0 0 0 0 203.23525734771647 207.8013803422001 0 207.8013803422001 325.42647257111776 0 0 0 0 -566.02127224503784 -285.79039567325162 0 -285.79039567325162 -108.02011422698706 0 0 0 0 -156.33703876298387 142.69759425878146 0 142.69759425878146 145.62321250089371 0 0 0 0 -762.89098637273128 -132.16945032430976 0 -132.16945032430976 242.01306859849137 0 0 0 0 12.541327856740672 -36.950905966293988 0 -36.950905966293988 -6.9214129652902727 0 0 0 0 48.787468381458893 -61.288279540654912 0 -61.288279540654912 148.75881759669574 0 0 0 0 48.336896785350262 -186.04639617764335 0 -186.04639617764335 -18.704994284192153 0 0 0 0 9.0610534883950251 -65.943682258720713 0 -65.943682258720713 33.979796510226322 0 0 0 0 -113.10027215704031 -151.11599751951599 0 -151.11599751951599 -12.604638852746575 0 0 0 0 -187.19909622950581 -210.31940157499139 0 -210.31940157499139 79.217974749335553 0 0 0 0 -103.6467361091054 -154.25259577354882 0 -154.25259577354882 -40.232954973704182 0 0 0 0 -96.335557177633746 -133.51107133737969 0 -133.51107133737969 85.538735997986805 0 0 0 0 -85.807030240670429 -234.43948522516075 0 -234.43948522516075 -13.683974212312023 0 0 0 0 -291.61757198290434 144.73399969650018 0 144.73399969650018 744.63943650639339 0 0 0 0 -57.485449187306386 -26.547981988664617 0 -26.547981988664617 109.20362758056532 0 0 0 0 -109.49711279099574 -150.55838518950623 0 -150.55838518950623 -39.668687057812349 0 0 0 0 27.202500739057996 -29.889796695170929 0 -29.889796695170929 47.145612656470306 0 0 0 0 -134.6123365520034 -123.85285937685694 0 -123.85285937685694 7.3733789031830383 0 0 0 0 -131.60622761555715 -117.55543146259151 0 -117.55543146259151 -34.349444861200027 0 0 0 0 -185.92118895309977 -64.979113942390541 0 -64.979113942390541 -84.976998729223851 0 0 0 0 -460.53734620352043 -147.24640516082218 0 -147.24640516082218 -429.46343148388405 0 0 0 0 -682.35016895520675 -387.2371998744311 0 -387.2371998744311 19.151619725998899 0 0 0 0 135.11539153030026 -194.90258611483296 0 -194.90258611483296 29.931570593556899 0 0 0 0 88.253888523962814 -154.49574510903767 0 -154.49574510903767 26.216496516295592 0 0 0 0 118.18446924754971 -158.10588683582137 0 -158.10588683582137 -0.85410040823626332 0 0 0 0 95.51345176405448 -155.52334878645888 0 -155.52334878645888 25.929725212656194 0 0 0 0 73.557513477862813 -146.37730998988263 0 -146.37730998988263 50.316867022353108 0 0 0 0 96.365939855881152 -162.32957345079103 0 -162.32957345079103 63.538823941184091 0 0 0 0 78.115531199990073 -188.32078526604164 0 -188.32078526604164 29.218152912035293 0 0 0 0 27.405609148438089 -166.21798121121537 0 -166.21798121121537 66.759174650695059 0 0 0 0 44.416973705985583 -196.36210862302687 0 -196.36210862302687 70.456762145797256 0 0 0 0 34.796569566160485 -92.222340100822578 0 -92.222340100822578 74.84607637113254 0 0 0 0 40.573868488325388 -202.17242930544307 0 -202.17242930544307 72.386764820679673 0 0 0 0 56.975374245084822 -202.04596677954032 0 -202.04596677954032 53.952561822312418 0 0 0 0 70.427834516507573 -183.85168878543482 0 -183.85168878543482 69.939711507788161 0 0 0 0 24.051514020120806 -48.437612311298949 0 -48.437612311298949 46.87655016380706 0 0 0 0 36.063011670456035 -189.63543666378246 0 -189.63543666378246 51.54264044611773 0 0 0 0 -69.708530525851529 -149.56009707738122 0 -149.56009707738122 63.993700652372354 0 0 0 0 31.969215469027404 -194.92288810703758 0 -194.92288810703758 57.735064887645422 0 0 0 0 -87.158997559337877 -211.25868909696874 0 -211.25868909696874 70.868365400187031 0 0 0 0 -32.144268863543402 -164.31627314636717 0 -164.31627314636717 51.899670176255313 0 0 0 0 17.626546910272737 -199.69169327326381 0 -199.69169327326381 38.931488302914659 0 0 0 0 12.006892273329868 -204.870175853398 0 -204.870175853398 152.61741030238045 0 0 0 0 66.660780942838755 -228.66961525207444 0 -228.66961525207444 41.704717719665496 0 0 0 0 156.96145424217684 -255.30723741648399 0 -255.30723741648399 49.551771920290776 0 0 0 0 190.70678211849736 -178.39727826008311 0 -178.39727826008311 1.8178621140541509 0 0 0 0 650.21637052521692 -153.9471208408504 0 -153.9471208408504 4.9362094588432228 0 0 0 0 115.61824715920375 -131.68904184977873 0 -131.68904184977873 5.3858844267264203 0 0 0 0 137.97798989909279 -90.220820348275083 0 -90.220820348275083 4.2755920280251303 0 0 0 0 -339.41719310890767 -122.55761854176308 0 -122.55761854176308 241.37477797338943 0 0 0 0 45.335543201319638 -96.112044350544835 0 -96.112044350544835 91.284890328550546 0 0 0 0 93.040729822969297 -131.13072380456288 0 -131.13072380456288 16.764754092349904 0 0 0 0 -12.887026481097564 -70.704485990205285 0 -70.704485990205285 17.74535443772038 0 0 0 0 -29.662096760228451 -138.56222062071174 0 -138.56222062071174 52.055276610990404 0 0 0 0 -30.955099223414436 -136.41685442921153 0 -136.41685442921153 56.960203325696057 0 0 0 0 33.361414903309196 -114.69891178217949 0 -114.69891178217949 21.644601536128903 0 0 0 0 74.823153289500624 -139.91080593775405 0 -139.91080593775405 28.331240349070868 0 0 0 0 35.453503820374848 -106.71170298948891 0 -106.71170298948891 93.514658158093141 0 0 0 0 152.06273198968847 -221.57983398038778 0 -221.57983398038778 58.038332383270244 0 0 0 0 -115.50045296096505 -134.38652982291751 0 -134.38652982291751 72.627615523037093 0 0 0 0 25.278629252494341 -25.766170423694859 0 -25.766170423694859 17.95769041188575 0 0 0 0 -45.61396803970274 -209.01052405071096 0 -209.01052405071096 59.849097382582841 0 0 0 0 -100.70351620451402 -200.60243370497483 0 -200.60243370497483 147.92320897793616 0 0 0 0 -166.97252483711054 -177.59338817322714 0 -177.59338817322714 296.41707291721923 0 0 0 0 251.82028927932697 -212.02149046565319 0 -212.02149046565319 -73.375932974842726 0 0 0 0 332.25143556981129 -1.2955838864581892 0 -1.2955838864581892 304.07692868878075 0 0 0 0 446.43664958594309 -112.27942932864244 0 -112.27942932864244 145.87817354379604 0 0 0 0 7.7619124026230679 -8.1478940404007716 0 -8.1478940404007716 -32.088264382542633 0 0 0 0 371.88307567514858 -474.86226854363122 0 -474.86226854363122 -196.0571732356766 0 0 0 0 47.200413472557557 -236.56079997614142 0 -236.56079997614142 150.8016426336012 0 0 0 0 326.6002900953099 -437.76798872801737 0 -437.76798872801737 257.50073651288403 0 0 0 0 18.240129702309787 -308.91078006917087 0 -308.91078006917087 151.91269023434211 0 0 0 0 -204.84893082629151 -139.87872021190879 0 -139.87872021190879 137.46225060486177 0 0 0 0 -222.2906366342504 -285.53308181178727 0 -285.53308181178727 258.54595432161295 0 0 0 0 -75.700759030733025 -435.45182272834063 0 -435.45182272834063 303.7037538200675 0 0 0 0 5.1282115725844051 -275.39854285047477 0 -275.39854285047477 80.12425240156881 0 0 0 0 72.110261291469214 -142.4843777924325 0 -142.4843777924325 29.206516566233404 0 0 0 0 -32.975351901113754 -239.66392800154426 0 -239.66392800154426 55.051490631456545 0 0 0 0 58.815566266249022 -111.05132873966281 0 -111.05132873966281 15.370222080034006 0 0 0 0 42.831783966626972 -127.94127597448096 0 -127.94127597448096 64.618049947432155 0 0 0 0 80.172755061794305 -154.85811210601423 0 -154.85811210601423 112.15686086138521 0 0 0 0 302.38006766536455 -62.695931362066403 0 -62.695931362066403 -231.76798525975755 0 0 0 0 51.238853543100163 -108.62226757014625 0 -108.62226757014625 14.41014045207462 0 0 0 0 51.64531125297799 -115.20956036469761 0 -115.20956036469761 57.320642561127897 0 0 0 0 68.63317888576421 -202.03449372386785 0 -202.03449372386785 71.834668378591232 0 0 0 0 128.95303056805278 -151.48273289720828 0 -151.48273289720828 142.70944650282763 0 0 0 0 8.1302451526664186 -68.763938078501923 0 -68.763938078501923 -40.948095014339657 0 0 0 0 69.430550162982399 -250.60911195102926 0 -250.60911195102926 195.60781423147273 0 0 0 0 7.1699834973624093 -127.91267502744904 0 -127.91267502744904 8.7732804760780709 0 0 0 0 -44.43945098099357 -21.679749619650465 0 -21.679749619650465 -18.94770489091934 0 0 0 0 65.883145352563588 -176.99691030322538 0 -176.99691030322538 -86.049478170424663 0 0 0 0 20.01054962220951 -117.01736399953734 0 -117.01736399953734 -43.280475863182801 0 0 0 0 62.576890346454519 -89.088652761405555 0 -89.088652761405555 54.398767951027281 0 0 0 0 49.379046765272506 -95.396556839648838 0 -95.396556839648838 17.454250971615238 0 0 0 0 36.812458177228109 -96.492982559632765 0 -96.492982559632765 93.216068221212481 0 0 0 0 -305.26817760211998 -181.23043584835432 0 -181.23043584835432 291.38243473783223 0 0 0 0 47.914984868257307 -147.0300815274768 0 -147.0300815274768 8.3782235903295259 0 0 0 0 48.714935497090551 -89.451186088877122 0 -89.451186088877122 24.590667810332221 0 0 0 0 -15.431651336681966 -66.185834298171613 0 -66.185834298171613 32.466494563680769 0 0 0 0 43.269158669791068 -134.30435659498471 0 -134.30435659498471 59.358616199793687 0 0 0 0 23.137293741994654 -239.71510322901122 0 -239.71510322901122 169.3708629570101 0 0 0 0 58.444199961842969 -156.47734806185872 0 -156.47734806185872 100.19522676063207 0 0 0 0 40.832944859138934 -142.37255565543484 0 -142.37255565543484 12.809708770755735 0 0 0 0 17.225208492585807 -358.21142055258679 0 -358.21142055258679 279.8728987551076 0 0 0 0 109.34601822053082 -204.92022524471395 0 -204.92022524471395 211.52996247804003 0 0 0 0 -80.438968823727919 -195.43899876034629 0 -195.43899876034629 244.35207193413953 0 0 0 0 -8.8241641415515915 -140.43230955510808 0 -140.43230955510808 56.210158419300569 0 0 0 0 -188.45861274094204 -127.74889786015046 0 -127.74889786015046 209.52568922868159 0 0 0 0 19.753962087677792 -146.643378081013 0 -146.643378081013 53.360349892900558 0 0 0 0 33.894790519028902 -144.24802930117585 0 -144.24802930117585 52.657608529392746 0 0 0 0 73.856981057673693 -136.58039190877753 0 -136.58039190877753 41.918863156926818 0 0 0 0 32.089796634929371 -126.25021952747556 0 -126.25021952747556 40.201807085046312 0 0 0 0 -79.841341027058661 -131.22963181759405 0 -131.22963181759405 57.290014403581154 0 0 0 0 -82.089581962687504 -92.718770853687673 0 -92.718770853687673 197.50546225339036 0 0 0 0 -19.27796293535863 -121.95018471574495 0 -121.95018471574495 92.90969308069603 0 0 0 0 -96.481865635607392 -103.06796327268239 0 -103.06796327268239 40.829756967530216 0 0 0 0 31.393679129163502 -151.99666324366262 0 -151.99666324366262 66.837452360967291 0 0 0 0 43.246066046897113 -175.68756670987986 0 -175.68756670987986 71.666790663127884 0 0 0 0 -9.1772576525598453 -146.41969170938012 0 -146.41969170938012 103.04810929849376 0 0 0 0 156.09463936887914 -107.21014076453866 0 -107.21014076453866 140.29256916100712 0 0 0 0 45.269594935065641 -86.079290754222328 0 -86.079290754222328 84.902519365959236 0 0 0 0 263.2971802996035 -252.83285884367979 0 -252.83285884367979 71.4823604181056 0 0 0 0 89.040070955059491 -365.58558878756958 0 -365.58558878756958 131.68933909937186 0 0 0 0 11.350529397812267 -28.467609130715331 0 -28.467609130715331 -15.368360481467541 0 0 0 0 -155.82938470970112 -172.64794737418015 0 -172.64794737418015 -20.113018753745564 0 0 0 0 -13.760157510427234 -94.080938764809616 0 -94.080938764809616 79.138472868362442 0 0 0 0 -81.404629304852278 -179.79861869799788 0 -179.79861869799788 61.716373775561806 0 0 0 0 -11.924174885583852 42.565518824218088 0 42.565518824218088 0.70021464634919539 0 0 0 0 -267.91112047772731 58.749370697765698 0 58.749370697765698 -0.23690295845153742 0 0 0 0 -25.344322138542339 4.0353013334861316 0 4.0353013334861316 135.24297296889563 0 0 0 0 94.499644221737981 -484.70406191048096 0 -484.70406191048096 462.65555847938595 0 0 0 0 -5.3864253661003829 -5.3177107096686314 0 -5.3177107096686314 14.73130352619529 0 0 0 0 -19.313515571167045 -65.148665958666555 0 -65.148665958666555 -8.6508920290326774 0 0 0 0 -18.506915864629264 -133.38874357663371 0 -133.38874357663371 2.8965359094961514 0 0 0 0 -36.980075031533488 -106.56000247510019 0 -106.56000247510019 37.858607911141007 0 0 0 0 61.403440010057238 -127.57884230740456 0 -127.57884230740456 -224.22084255111258 0 0 0 0 7.1939463608133281 -10.465227503848482 0 -10.465227503848482 -11.166825541138955 0 0 0 0 -101.38756302953698 -95.433897544498905 0 -95.433897544498905 -28.948689889541129 0 0 0 0 51.17203773977235 -285.12582835764624 0 -285.12582835764624 -29.788364145600497 0 0 0 0 -23.101280329598922 -63.626928224600363 0 -63.626928224600363 -56.25695024005671 0 0 0 0 76.221189299983962 -70.506410354792024 0 -70.506410354792024 452.85259204678914 0 0 0 0 -252.30541123081457 -121.31116043360635 0 -121.31116043360635 807.3015520748886 0 0 0 0 -28.762833337015763 -96.648815835298592 0 -96.648815835298592 1059.8049483403593 0 0 0 0 142.28313761221943 -136.07488856365671 0 -136.07488856365671 -587.52893081204093 0 0 0 0 -17.434198991839366 -150.82958531528129 0 -150.82958531528129 -191.79999932409135 0 0 0 0 2.6176834825020308 -1.0957571353706896 0 -1.0957571353706896 1.2069403334069957 0 0 0 0 -48.907848879229277 23.568774036422838 0 23.568774036422838 -299.71050254345755 0 0 0 0 -33.421354817590327 -131.92487953381351 0 -131.92487953381351 -147.08304991707701 0 0 0 0 15.771364215906942 -98.74874768522568 0 -98.74874768522568 -168.78909655290772 0 0 0 0 147.80234934575856 -225.13335568411276 0 -225.13335568411276 4.6873686008621007 0 0 0 0 -43.322214118263219 -162.28136047330918 0 -162.28136047330918 405.50423249736741 0 0 0 0 0.45627944895747419 -6.6881066511096208 0 -6.6881066511096208 31.400699723181486 0 0 0 0 40.613715387665707 -159.79036958084203 0 -159.79036958084203 -43.906583255671791 0 0 0 0 -12.805403096256782 -78.303194449290672 0 -78.303194449290672 -30.275265930265142 0 0 0 0 61.547107381687965 -148.80522611154811 0 -148.80522611154811 161.99470648164424 0 0 0 0 28.470318053804476 -237.8751393756163 0 -237.8751393756163 8.5660986384355056 0 0 0 0 38.912560547185421 -180.80510289227186 0 -180.80510289227186 105.95557630897565 0 0 0 0 -68.114038809049816 -170.92375021923181 0 -170.92375021923181 122.35713813016991 0 0 0 0 25.223059354534726 -115.97670823707051 0 -115.97670823707051 99.516863643017487 0 0 0 0 -20.623810817716731 -133.26972360770924 0 -133.26972360770924 78.810945038887439 0 0 0 0 -17.306583962880723 -141.84413503048472 0 -141.84413503048472 66.485187560378108 0 0 0 0 -14.512259363038126 -78.696042787572196 0 -78.696042787572196 -24.364071946100452 0 0 0 0 -68.393018440932039 -233.43352951001751 0 -233.43352951001751 122.78572440291464 0 0 0 0 3.5634138232303059 -99.874536391454626 0 -99.874536391454626 138.35984924138199 0 0 0 0 -32.617245571371313 -151.07056905119862 0 -151.07056905119862 63.149985304022266 0 0 0 0 -858.83816316704542 -75.786381485195307 0 -75.786381485195307 319.97987260390437 0 0 0 0 -98.303106195880389 -78.212673404194589 0 -78.212673404194589 45.109415924572104 0 0 0 0 -29.965821412738933 -168.73170887242804 0 -168.73170887242804 109.73983970900736 0 0 0 0 342.7985436408344 -552.25179398221371 0 -552.25179398221371 -518.25453385905712 0 0 0 0 55.737563993136348 -150.85328015164913 0 -150.85328015164913 69.086537468654655 0 0 0 0 68.603114046338305 -280.46311806459835 0 -280.46311806459835 -200.94565210581186 0 0 0 0 129.62019687230955 -153.60884332263382 0 -153.60884332263382 118.95210737533637 0 0 0 0 -404.57387216225106 -594.32796620721274 0 -594.32796620721274 172.71859622771899 0 0 0 0 62.555771570972865 -204.27950317680279 0 -204.27950317680279 -124.72478615511318 0 0 0 0 73.46116622725458 -239.38937598235589 0 -239.38937598235589 -32.503036963042177 0 0 0 0 -144.31603789672954 -239.36147035665635 0 -239.36147035665635 122.32719591466048 0 0 0 0 -46.380781812316854 -198.99763350688045 0 -198.99763350688045 105.21629528082303 0 0 0 0 50.531559641633379 -136.07595081665022 0 -136.07595081665022 45.98076183445189 0 0 0 0 0.58380814509182244 -34.85812033816083 0 -34.85812033816083 61.643253514055218 0 0 0 0 -24.863808767768205 -42.660297557071317 0 -42.660297557071317 -5.3139099883774179 0 0 0 0 43.819291465733841 80.366718319444772 0 80.366718319444772 5.7996849113551434 0 0 0 0 208.24820472252031 -173.80675664380396 0 -173.80675664380396 -495.6707084340851 0 0 0 0 -29.599621099761862 -217.38385135183125 0 -217.38385135183125 90.4963611537014 0 0 0 0 98.348318604912492 -129.5947591225995 0 -129.5947591225995 113.16324213708026 0 0 0 0 32.616564045177739 -139.91063281335079 0 -139.91063281335079 51.995432138497414 0 0 0 0 105.21583854818891 -93.589029340615525 0 -93.589029340615525 -405.43879469387321 0 0 0 0 13.297088323430216 -122.25812700568031 0 -122.25812700568031 265.02445487374098 0 0 0 0 11.000889974032475 -14.442399486155693 0 -14.442399486155693 22.413044121604202 0 0 0 0 -125.26520215988421 -286.69204014360002 0 -286.69204014360002 -71.646284701731929 0 0 0 0 -302.31113337515853 -334.13999745513865 0 -334.13999745513865 -65.00083957491006 0 0 0 0 -258.5524036936331 -390.40543619104574 0 -390.40543619104574 543.22268206935405 0 0 0 0 -203.28674392983521 -152.97378193359327 0 -152.97378193359327 167.90443740963383 0 0 0 0 -284.2584876427718 -246.31395862649606 0 -246.31395862649606 874.92843387611356 0 0 0 0 2.5934699163719586 -5.8061003225925845 0 -5.8061003225925845 7.8837445569683382 0 0 0 0 934.08220788887411 -42.969524439035013 0 -42.969524439035013 -6.7953959028236568 0 0 0 0 170.98711799799639 -630.16104403111967 0 -630.16104403111967 599.95766266782448 0 0 0 0 49.587879839578818 -497.07791672901658 0 -497.07791672901658 1030.6944203372368 0 0 0 0 57.396700258577766 -338.57197972158974 0 -338.57197972158974 173.94904343623057 0 0 0 0 235.60145497997291 214.83732199371298 0 214.83732199371298 -375.78094214379962 0 0 0 0 -444.90894212460262 -635.96718992088427 0 -635.96718992088427 325.44669911888195 0 0 0 0 232.08825096856162 -76.453192929438956 0 -76.453192929438956 -677.96922843282664 0 0 0 0 251.61074674129486 10.202309455078648 0 10.202309455078648 -324.23155999560549 0 0 0 0 57.743394977587741 -73.857024894765345 0 -73.857024894765345 -347.87456684168137 0 0 0 0 40.001707517920295 -118.58518898149487 0 -118.58518898149487 13.63210269121555 0 0 0 0 14.668080478448246 -350.14795749836821 0 -350.14795749836821 -374.4084612482693 0 0 0 0 -27.56173920526544 -123.38190744685426 0 -123.38190744685426 139.14530198407738 0 0 0 0 42.955382381572633 -86.974003962309709 0 -86.974003962309709 26.108394289688377 0 0 0 0 258.64030112892215 -441.50280021462459 0 -441.50280021462459 -173.38278637611438 0 0 0 0 534.04408694372978 97.63351623064591 0 97.63351623064591 -873.1795714245236 0 0 0 0 11.202003398648117 -25.282325255373884 0 -25.282325255373884 23.021514942721296 0 0 0 0 -2.3380389147826293 -67.980549697417757 0 -67.980549697417757 -53.291576114050201 0 0 0 0 56.287787678651512 -219.44510135991732 0 -219.44510135991732 -297.40477403823752 0 0 0 0 56.566346127646199 -151.12953320398566 0 -151.12953320398566 105.81678604489326 0 0 0 0 47.774760446137208 -74.355092773177148 0 -74.355092773177148 11.857111993216058 0 0 0 0 20.418860391597264 -71.337209410165087 0 -71.337209410165087 -40.537924309217487 0 0 0 0 47.042752325892764 -103.79910738662686 0 -103.79910738662686 -32.602597675494302 0 0 0 0 103.3810733955761 -166.83314776149746 0 -166.83314776149746 214.17625370361066 0 0 0 0 29.013012603250502 -39.264374396746803 0 -39.264374396746803 -18.919839812895674 0 0 0 0 82.780281985295005 -217.79234512847324 0 -217.79234512847324 129.6866063227917 0 0 0 0 197.76241482904879 -253.3909091697642 0 -253.3909091697642 19.774974039137305 0 0 0 0 -5.2623459092508398 -49.956779432452734 0 -49.956779432452734 80.957635111268075 0 0 0 0 48.6629951661875 -185.5513367047096 0 -185.5513367047096 11.06895113327656 0 0 0 0 -80.504894056080957 -417.89912081148213 0 -417.89912081148213 -342.18392892480188 0 0 0 0 -115.26622829666303 -176.5859477204649 0 -176.5859477204649 -256.25087919410726 0 0 0 0 15.273928337352118 -187.5046613524828 0 -187.5046613524828 -144.10007736634998 0 0 0 0 -102.49824751806591 -335.3710007371501 0 -335.3710007371501 -127.57489208833431 0 0 0 0 95.842765803633256 -254.95603533844456 0 -254.95603533844456 -100.27358467798331 0 0 0 0 -21.771364855623688 -229.87951542007067 0 -229.87951542007067 -2.5143970778153744 0 0 0 0 95.698451751185644 -236.71507983509335 0 -236.71507983509335 -21.914898006696603 0 0 0 0 -15.851571681778296 -241.141701470915 0 -241.141701470915 -54.368327135595109 0 0 0 0 -194.24776563521664 -264.04466850178869 0 -264.04466850178869 184.21619234421814 0 0 0 0 -91.365519852231955 -274.93595504143377 0 -274.93595504143377 -55.740245407243492 0 0 0 0 -203.63345485040918 -361.43160860283388 0 -361.43160860283388 174.48793333119693 0 0 0 0 113.31024330096261 -268.60724532583117 0 -268.60724532583117 -8.5531976708953152 0 0 0 0 143.65349863398296 -419.46284921497136 0 -419.46284921497136 -119.00938288347606 0 0 0 0 252.55468734063902 -17.93343417834808 0 -17.93343417834808 -408.91767203932977 0 0 0 0 250.06051163218217 -173.18675924077979 0 -173.18675924077979 -272.35925688402858 0 0 0 0 165.90765457764428 -174.25069763921601 0 -174.25069763921601 -42.882030267908704 0 0 0 0 156.61284360015998 -75.753929173471988 0 -75.753929173471988 -356.65880105292308 0 0 0 0 -22.086078159111736 -42.600080109506614 0 -42.600080109506614 -79.023820617862128 0 0 0 0 638.07166548068926 -852.91153298416612 0 -852.91153298416612 66.726986153185862 0 0 0 0 382.15422395824862 -105.3423189328505 0 -105.3423189328505 424.21171670142212 0 0 0 0 400.46171200426761 -85.179861942011485 0 -85.179861942011485 -671.76050599350856 0 0 0 0 379.56271915315301 -325.57721913282148 0 -325.57721913282148 -82.354865912195237 0 0 0 0 46.467944650910795 -91.847735467948951 0 -91.847735467948951 -36.408074083854444 0 0 0 0 506.30926482849463 -690.79230099031702 0 -690.79230099031702 225.65848939862008 0 0 0 0 517.15716728393454 -435.26699051965261 0 -435.26699051965261 108.2918549863025 0 0 0 0 442.47786285844631 -336.48777279673232 0 -336.48777279673232 511.03118584073673 0 0 0 0 -22.548465910028057 -41.514453463950872 0 -41.514453463950872 -61.62195454084798 0 0 0 0 -10.872307916986756 238.71104660951823 0 238.71104660951823 -827.60492001970124 0 0 0 0 -259.70596202640445 648.50153984130884 0 648.50153984130884 -1310.5179185593443 0 0 0 0 8.8926757572878046 -10.051386937639165 0 -10.051386937639165 -16.607113746122351 0 0 0 0 250.15490508955554 -430.63996721342846 0 -430.63996721342846 855.63700090841303 0 0 0 0 -14.005007383720482 -4.1254770876391049 0 -4.1254770876391049 13.789604735888531 0 0 0 0 5.2513019382604398 -106.41836852152483 0 -106.41836852152483 -1061.3292881851703 0 0 0 0 -169.34057825471973 -207.52889026294724 0 -207.52889026294724 -345.78470010930141 0 0 0 0 65.085711009458464 278.65814083970326 0 278.65814083970326 -1035.7214986241306 0 0 0 0 -119.92661272821715 -92.702086072880775 0 -92.702086072880775 -392.67488464528287 0 0 0 0 207.2779132900323 3.5889070469493163 0 3.5889070469493163 -406.34370526846033 0 0 0 0 -0.071954624054512806 -3.8091254303372963 0 -3.8091254303372963 -3.0690205698208501 0 0 0 0 1629.3624422175362 436.03121368164511 0 436.03121368164511 -138.95148901241191 0 0 0 0 30.393077655971865 -878.77375610766467 0 -878.77375610766467 1693.1152899024528 0 0 0 0 -297.1597783362522 -1366.9166357164031 0 -1366.9166357164031 1591.1696365128591 0 0 0 0 1188.0206322613249 -1727.3616038271693 0 -1727.3616038271693 394.02284211617371 0 0 0 0 681.06495363108115 -417.30470291367237 0 -417.30470291367237 -444.89467725326904 0 0 0 0 719.89893531000416 -94.135899421351496 0 -94.135899421351496 -728.48336048390775 0 0 0 0 455.00071311696956 -1003.0935147094206 0 -1003.0935147094206 -312.77140245180999 0 0 0 0 343.90047660525306 -564.02737097814679 0 -564.02737097814679 -163.12480203958694 0 0 0 0 -213.70691650311346 -647.99484328979452 0 -647.99484328979452 289.86727180462185 0 0 0 0 -42.907638327262248 -516.46557108814523 0 -516.46557108814523 306.52675711479969 0 0 0 0 -284.43991563125746 -599.92906265423517 0 -599.92906265423517 481.41948007101746 0 0 0 0 -412.97703261998686 -516.30081473389873 0 -516.30081473389873 462.39688213069167 0 0 0 0 -574.03507683826319 -657.62600401933014 0 -657.62600401933014 642.06615836358742 0 0 0 0 19.553710695174232 -1024.6870393867084 0 -1024.6870393867084 715.35839879396372 0 0 0 0 -713.54459419599152 -71.250561506312806 0 -71.250561506312806 336.99704024772564 0 0 0 0 -351.54345134425967 -582.74566199454057 0 -582.74566199454057 423.73769712704234 0 0 0 0 -257.92288176181137 -343.78478180186812 0 -343.78478180186812 -230.8238979480011 0 0 0 0 -240.28466844153263 -424.43120318150523 0 -424.43120318150523 130.65452227526112 0 0 0 0 1092.6703960454033 146.4060815081757 0 146.4060815081757 139.18134858095436 0 0 0 0 1178.1082517318555 -665.20464475651374 0 -665.20464475651374 198.77208072828944 0 0 0 0 627.62320540418295 -349.02861229370683 0 -349.02861229370683 494.198757279657 0 0 0 0 1955.2084236221781 -1286.3729055376552 0 -1286.3729055376552 799.7205120788567 0 0 0 0 7.0782768481598453 -12.003058341802671 0 -12.003058341802671 23.916180842660509 0 0 0 0 -1056.5374180731742 -538.80320638992998 0 -538.80320638992998 896.10819015052039 0 0 0 0 3040.8843028474657 8.2561038477069815 0 8.2561038477069815 53.269357962170034 0 0 0 0 248.48884131754312 -231.47362597960819 0 -231.47362597960819 202.38665785742342 0 0 0 0 248.65473907144042 -218.4690740068545 0 -218.4690740068545 299.83462556021186 0 0 0 0 147.25360051995085 71.744977924092382 0 71.744977924092382 739.11768169855532 0 0 0 0 88.619977116752125 -188.99525296744832 0 -188.99525296744832 359.13591531254133 0 0 0 0 739.52705434822565 -255.20349568401798 0 -255.20349568401798 342.15986899211566 0 0 0 0 230.77772572105823 -472.12808198999846 0 -472.12808198999846 406.39505243685562 0 0 0 0 -243.20259494933998 -359.78100578941667 0 -359.78100578941667 396.62187190236 0 0 0 0 -226.66468773055385 -483.5280915616022 0 -483.5280915616022 576.34031447956659 0 0 0 0 -226.40951500074334 -479.79958034721619 0 -479.79958034721619 453.56171349654323 0 0 0 0 -322.32594361451629 -509.74051754139145 0 -509.74051754139145 507.01887688209172 0 0 0 0 -192.11347503329307 -528.39349640551882 0 -528.39349640551882 404.99624172619224 0 0 0 0 -357.2992371436012 -483.3579507329041 0 -483.3579507329041 393.83880169416079 0 0 0 0 -315.90240410921251 -571.45176014280878 0 -571.45176014280878 202.8136071596382 0 0 0 0 -217.40154869834078 -584.12224728128422 0 -584.12224728128422 -337.3942838576113 0 0 0 0 -265.12212585801171 -584.9193285730089 0 -584.9193285730089 163.5751936538727 0 0 0 0 -502.8576826767021 -929.69851827471939 0 -929.69851827471939 -335.64719513828459 0 0 0 0 -709.17769290755678 -631.13035196936835 0 -631.13035196936835 506.69042711050133 0 0 0 0 -422.46843840512702 -321.21114457170916 0 -321.21114457170916 503.08392105918028 0 0 0 0 -382.96729675776442 -609.57937233290431 0 -609.57937233290431 176.83184421133046 0 0 0 0 -64.900013661984417 -52.969408278464357 0 -52.969408278464357 218.86153687062324 0 0 0 0 -74.37331691064901 -321.78344900319644 0 -321.78344900319644 386.34375125505176 0 0 0 0 583.23203430666035 140.71803281188841 0 140.71803281188841 259.33266202685627 0 0 0 0 -779.27473037041295 506.64495046063564 0 506.64495046063564 824.77954031758418 0 0 0 0 716.33691128242208 -977.43802907782447 0 -977.43802907782447 -144.57637088786942 0 0 0 0 -726.02272826623812 -529.69327593479829 0 -529.69327593479829 380.8069030482111 0 0 0 0 444.57634969465289 -326.28479910310489 0 -326.28479910310489 -74.778002967017528 0 0 0 0 623.96348253240922 -675.76576824081621 0 -675.76576824081621 -300.05423385839822 0 0 0 0 -250.02204177234671 -743.78411057541234 0 -743.78411057541234 -191.17644112669018 0 0 0 0 -217.69535541344521 -316.93657491914928 0 -316.93657491914928 -182.85800787049902 0 0 0 0 1216.1862272065919 1496.5394331210337 0 1496.5394331210337 -119.64865423216543 0 0 0 0 7.115542290806161 -6.6885147693745921 0 -6.6885147693745921 8.1678831572597801 0 0 0 0 -2190.5853745116619 -1770.2108898433362 0 -1770.2108898433362 -529.90850007851259 0 0 0 0 -888.8666271398979 901.70733794031912 0 901.70733794031912 -2199.4737727518223 0 0 0 0 -1762.6213071514812 -1595.2025387311323 0 -1595.2025387311323 -124.8309276712389 0 0 0 0 -3332.2971726211399 221.7707810092943 0 221.7707810092943 185.00877047675749 0 0 0 0 -188.14353941544869 -687.96115122402261 0 -687.96115122402261 -632.57677059437265 0 0 0 0 -1476.1002565515519 -813.99794892552745 0 -813.99794892552745 -80.611347440892132 0 0 0 0 -1368.3909312099568 181.54852462925919 0 181.54852462925919 -172.72072037064936 0 0 0 0 3.5949045366218257 2.9888557849839117 0 2.9888557849839117 -7.5190355171001784 0 0 0 0 -8.1321312177307306 -10.633059912075325 0 -10.633059912075325 -17.104235979253815 0 0 0 0 -318.42786583232737 272.16526921182185 0 272.16526921182185 773.45485099167126 0 0 0 0 79.81212133691588 -1083.5736842132137 0 -1083.5736842132137 -1524.2342150715122 0 0 0 0 -217.31793882852071 -1220.9098730019832 0 -1220.9098730019832 -1581.1833113452158 0 0 0 0 -22.957629909389652 -692.50357496195647 0 -692.50357496195647 -401.13832433152129 0 0 0 0 102.36571184558852 -487.86567376919993 0 -487.86567376919993 -328.18374640137108 0 0 0 0 -36.440344950380677 -651.15636718135465 0 -651.15636718135465 -481.66666610674292 0 0 0 0 832.3322038851984 -307.09210997708215 0 -307.09210997708215 -391.78129716365947 0 0 0 0 606.97857025568374 -431.64759880037309 0 -431.64759880037309 -411.41346814222197 0 0 0 0 -43.736868637912266 -201.89554068549478 0 -201.89554068549478 -8.9713814624992665 0 0 0 0 24.793229156304733 -325.47721219405867 0 -325.47721219405867 338.14210416105925 0 0 0 0 476.67317971606462 105.13195256849212 0 105.13195256849212 133.59666116463632 0 0 0 0 -7.6650934801928372 -10.765832796541602 0 -10.765832796541602 -5.7461550283039458 0 0 0 0 -17.29887731535834 -45.465977530933031 0 -45.465977530933031 -75.04770979848891 0 0 0 0 -89.351668694464024 82.217719332715205 0 82.217719332715205 338.06197847469593 0 0 0 0 321.5901576606484 -473.3436789968182 0 -473.3436789968182 -1.9382949587889016 0 0 0 0 -186.83526541380706 -67.845211421292333 0 -67.845211421292333 -77.328458118689014 0 0 0 0 -245.50180664438085 0.53459162674334948 0 0.53459162674334948 -49.654336536332266 0 0 0 0 -186.68753588328389 -48.752049379478194 0 -48.752049379478194 -88.10503245817381 0 0 0 0 -285.92301719528041 -84.1789106936194 0 -84.1789106936194 -52.949437653973291 0 0 0 0 -372.4235305265247 -16.328525265154894 0 -16.328525265154894 -27.962972634966718 0 0 0 0 -453.81543521891217 -181.1834944387756 0 -181.1834944387756 -12.581986542238155 0 0 0 0 -525.84853187664703 68.618412067517056 0 68.618412067517056 -53.322557636449346 0 0 0 0 -23.282170596313208 -32.160206777556922 0 -32.160206777556922 -44.055645949856114 0 0 0 0 -769.33522553834337 30.946875990586705 0 30.946875990586705 -51.408197051365278 0 0 0 0 36.103379561027396 -316.10033036289678 0 -316.10033036289678 -821.41407666295709 0 0 0 0 -699.72032980111544 -100.05829044385973 0 -100.05829044385973 -61.824997135510785 0 0 0 0 -681.46860811837905 -530.77844856934826 0 -530.77844856934826 11.280487592273857 0 0 0 0 -844.95800761207647 -121.5554614513494 0 -121.5554614513494 -0.12921630404161988 0 0 0 0 -431.05644294358353 -216.33877455068068 0 -216.33877455068068 35.941247687849682 0 0 0 0 -643.65364839683389 -217.51663794701108 0 -217.51663794701108 40.936991901064175 0 0 0 0 -497.00355716366175 -297.17186960126492 0 -297.17186960126492 -5.6457193513779202 0 0 0 0 -267.09419189643813 -433.54390759893431 0 -433.54390759893431 -71.37450214380442 0 0 0 0 -376.42592438781867 -393.9955001029266 0 -393.9955001029266 -85.679479223923408 0 0 0 0 -554.8804499631442 -461.75410494946846 0 -461.75410494946846 -51.568629748093372 0 0 0 0 -219.37011721758608 -482.72883298659872 0 -482.72883298659872 -109.98949444957543 0 0 0 0 597.85471553070965 9.2785849195479386 0 9.2785849195479386 117.86438026048563 0 0 0 0 847.59995705149777 -178.23801496796659 0 -178.23801496796659 -66.965017580789208 0 0 0 0 555.57375643516934 -531.33360240053662 0 -531.33360240053662 -63.593671916380117 0 0 0 0 1023.1525694583906 53.090815763716819 0 53.090815763716819 25.838811360707041 0 0 0 0 19.070082609936136 -37.125312519962222 0 -37.125312519962222 64.073116875298211 0 0 0 0 -583.2422209826982 -479.73080481351462 0 -479.73080481351462 -179.78729240843313 0 0 0 0 -158.61112006459371 -198.7898635129668 0 -198.7898635129668 -163.11253962658884 0 0 0 0 -55.033201837533852 -247.45405973409288 0 -247.45405973409288 -190.18460148283884 0 0 0 0 31.270766051902569 -55.060269365972317 0 -55.060269365972317 101.43228581918368 0 0 0 0 507.41654150225804 -12.470152174066243 0 -12.470152174066243 68.92590602114069 0 0 0 0 -564.52013258203078 -347.61769529155208 0 -347.61769529155208 144.97055000753244 0 0 0 0 -90.09157740986484 -61.709628747629722 0 -61.709628747629722 -38.807999183525681 0 0 0 0 269.61826280187233 -320.75483886183065 0 -320.75483886183065 -131.58785728694784 0 0 0 0 15.920461534552999 -81.742911234467897 0 -81.742911234467897 131.33913506841196 0 0 0 0 254.5271931172465 -137.61053333900418 0 -137.61053333900418 71.511506247839861 0 0 0 0 234.24015823533045 -123.5965363175419 0 -123.5965363175419 63.806386597985693 0 0 0 0 499.37133812440152 -299.83313555341738 0 -299.83313555341738 -94.509020261733895 0 0 0 0 424.87747155153193 -83.282366240458941 0 -83.282366240458941 73.776094366476173 0 0 0 0 403.5634490356606 -307.3770811952345 0 -307.3770811952345 -7.1577144802140538 0 0 0 0 114.32029831353429 -411.46223727824145 0 -411.46223727824145 -27.601314038947748 0 0 0 0 62.5183325489852 -599.1784615897941 0 -599.1784615897941 -58.956816069534398 0 0 0 0 12.180736096488545 -562.37542233744171 0 -562.37542233744171 -20.009087618484045 0 0 0 0 71.33902461748221 -495.90906516990071 0 -495.90906516990071 -58.233228641865509 0 0 0 0 246.24010876820103 -580.84127164584424 0 -580.84127164584424 -77.961394292346085 0 0 0 0 313.17403698872658 -429.1542943076056 0 -429.1542943076056 -45.553912398054308 0 0 0 0 170.20295281458675 -687.31602974235466 0 -687.31602974235466 -194.97725727275247 0 0 0 0 -225.13304216950928 -294.33479939058088 0 -294.33479939058088 -0.24006764017940441 0 0 0 0 203.20170154028892 -647.97758027444434 0 -647.97758027444434 239.37215002985613 0 0 0 0 522.04789350506326 -276.64311377076228 0 -276.64311377076228 -0.8691842781026935 0 0 0 0 -11.597315314939294 1.5833693638891475 0 1.5833693638891475 1.4319594303015464 0 0 0 0 -3.4161832329173194 -0.13147147526410663 0 -0.13147147526410663 0.16290703887463565 0 0 0 0 -314.68679763570981 -980.30868145401837 0 -980.30868145401837 -835.47777489806322 0 0 0 0 -310.17602607302979 -500.74284551261007 0 -500.74284551261007 -27.095484059667797 0 0 0 0 -168.41416312138608 -111.39964900546693 0 -111.39964900546693 642.00587942486163 0 0 0 0 -324.80319057918678 -326.45948075508568 0 -326.45948075508568 5.8990668563092186 0 0 0 0 -21.259872061862552 -237.38637338754597 0 -237.38637338754597 -173.47338599124487 0 0 0 0 -122.827191704906 -562.95077854308147 0 -562.95077854308147 -208.40810874786985 0 0 0 0 -77.58773421105434 -462.11505677047171 0 -462.11505677047171 -131.97768400367931 0 0 0 0 -2.5253724818685441 -627.81039609392246 0 -627.81039609392246 -148.11996235512197 0 0 0 0 -281.11586831620662 -462.7109005353559 0 -462.7109005353559 -228.37140129276486 0 0 0 0 -265.93518012655841 -671.2991658460196 0 -671.2991658460196 -268.59771514796012 0 0 0 0 -953.64537483835011 -902.33448881363074 0 -902.33448881363074 -659.95925276371418 0 0 0 0 -699.98709543948644 -522.5697844791066 0 -522.5697844791066 -264.86237734849237 0 0 0 0 -879.10968555718136 -374.05103962876092 0 -374.05103962876092 -413.72327651764317 0 0 0 0 -293.49982526648091 -307.4133002226481 0 -307.4133002226481 -343.08392947718653 0 0 0 0 -452.26092108989542 -671.34111797552396 0 -671.34111797552396 -361.12424340838334 0 0 0 0 -1604.1935104115983 -473.51145855072537 0 -473.51145855072537 -235.27993261285155 0 0 0 0 -1676.6418067458872 -641.03872117409628 0 -641.03872117409628 -136.73973483857844 0 0 0 0 -0.92865308287447235 -10.419948449024389 0 -10.419948449024389 -1.0820070515428029 0 0 0 0 -3614.6227631986694 -792.16489267602446 0 -792.16489267602446 13.815640211865684 0 0 0 0 -731.53568099539552 -729.09109044740035 0 -729.09109044740035 -448.85245005402612 0 0 0 0 -1428.759309048015 -1259.8937529412869 0 -1259.8937529412869 -741.95925458917554 0 0 0 0 -666.21947969758367 -732.09519132739752 0 -732.09519132739752 -504.80451567910495 0 0 0 0 -552.09885686694179 -489.70238563371822 0 -489.70238563371822 -310.91977507140837 0 0 0 0 -898.9888083414935 -908.83019337807036 0 -908.83019337807036 -541.73296952150122 0 0 0 0 -634.29042151654721 -601.60326881686342 0 -601.60326881686342 -313.35575399760273 0 0 0 0 -710.96798685907015 -428.54860469296 0 -428.54860469296 -197.40487468006904 0 0 0 0 -369.5980111459503 -229.93475910174311 0 -229.93475910174311 -285.93586736409816 0 0 0 0 -239.46115789818577 -346.2847030605044 0 -346.2847030605044 -350.8220944050845 0 0 0 0 -149.56790319825814 -336.17387832561508 0 -336.17387832561508 -285.39208852597949 0 0 0 0 -189.72717545206979 -35.128264032340667 0 -35.128264032340667 141.57193398744857 0 0 0 0 -873.72676136127848 -787.69312375363825 0 -787.69312375363825 35.531984338595066 0 0 0 0 -250.36036304669688 717.61772712266793 0 717.61772712266793 -722.15039276442258 0 0 0 0 -362.56037888296123 -267.77431615054957 0 -267.77431615054957 -53.22644756740192 0 0 0 0 -305.15878988918848 559.31365751279372 0 559.31365751279372 343.69684322654211 0 0 0 0 -14.865357572424841 1.8755985784986819 0 1.8755985784986819 1.8141301783418982 0 0 0 0 -167.63499631392187 -21.810112038394436 0 -21.810112038394436 -51.822581363860252 0 0 0 0 -378.81205438260804 -275.14151758999651 0 -275.14151758999651 -222.42612200816802 0 0 0 0 25.73335596259858 -335.48032577686536 0 -335.48032577686536 -441.72047849799856 0 0 0 0 -7.9822960677167032 0.54126010298210758 0 0.54126010298210758 2.2816602106114487 0 0 0 0 -26.035238638258306 -399.03109064012824 0 -399.03109064012824 184.62422052353213 0 0 0 0 365.74056824878789 -494.35217150874814 0 -494.35217150874814 -171.80064656109607 0 0 0 0 -2.2012832971231546 377.77604232738668 0 377.77604232738668 406.64895669091493 0 0 0 0 -149.91977758453868 -62.071963521913858 0 -62.071963521913858 480.28803089031135 0 0 0 0 -18.029914087077231 -7.7565829327364924 0 -7.7565829327364924 9.1969673226527107 0 0 0 0 523.67706028366229 -58.896642272804456 0 -58.896642272804456 -202.18578742297541 0 0 0 0 -257.58038767738617 -437.7567696369515 0 -437.7567696369515 -247.99160161960754 0 0 0 0 -543.97158598377428 413.44310974897962 0 413.44310974897962 78.408145483612316 0 0 0 0 -1461.9952325978666 -98.218522747898533 0 -98.218522747898533 67.403642132281675 0 0 0 0 -488.64841386550688 -482.98046146489651 0 -482.98046146489651 -754.91726182977436 0 0 0 0 -173.50932894594735 -83.488300417884602 0 -83.488300417884602 -377.70453681137224 0 0 0 0 -553.05728090259072 -646.94281344956835 0 -646.94281344956835 -609.47176493264851 0 0 0 0 -716.50700993864302 -719.89200002304824 0 -719.89200002304824 -577.06084309703874 0 0 0 0 -499.35386235979968 -526.01554533749731 0 -526.01554533749731 -415.48597976127348 0 0 0 0 -365.71304802654777 -413.70831418980379 0 -413.70831418980379 -434.83235418415279 0 0 0 0 -590.72904750288581 -531.72199749961874 0 -531.72199749961874 -337.1180729859916 0 0 0 0 -419.84695364389336 -478.65352072761016 0 -478.65352072761016 -388.60769430773507 0 0 0 0 -19.119633414148609 7.8506376143819239 0 7.8506376143819239 -2.2269148016223284 0 0 0 0 -387.82366650833865 -302.7549851384756 0 -302.7549851384756 -384.6851339814566 0 0 0 0 31.693727477104403 -332.2257162778551 0 -332.2257162778551 -135.99523170519387 0 0 0 0 -739.47586709005463 -562.18985055076996 0 -562.18985055076996 -634.95989798501978 0 0 0 0 -383.51768675813219 -512.57096967958933 0 -512.57096967958933 -683.99673403448833 0 0 0 0 276.16476382019755 388.27384566640831 0 388.27384566640831 945.52853384509217 0 0 0 0 -5.8330548790554531 1.8882499867550564 0 1.8882499867550564 -1.1537856000420277 0 0 0 0 -132.52157015555713 -107.51331372070126 0 -107.51331372070126 739.53250336713973 0 0 0 0 -70.460703371401905 352.93495851475291 0 352.93495851475291 735.33721773439902 0 0 0 0 -200.2935636996699 115.08662820043537 0 115.08662820043537 1345.3911848393909 0 0 0 0 180.1312750140205 262.84272370494 0 262.84272370494 217.71439461990667 0 0 0 0 73.992597311531426 -138.52136767966294 0 -138.52136767966294 769.52454146074888 0 0 0 0 277.12904414709192 269.58514842803561 0 269.58514842803561 1332.4876304248069 0 0 0 0 -27.972615640224831 -3.9116556271216467 0 -3.9116556271216467 5.8410423049966287 0 0 0 0 -42.612244650430512 -90.107434912424651 0 -90.107434912424651 50.760896414969466 0 0 0 0 -247.58526525278285 184.68736095579152 0 184.68736095579152 1650.3774593260023 0 0 0 0 -899.02531595235632 957.92175275305635 0 957.92175275305635 213.49958104242978 0 0 0 0 232.98675107414601 467.4010880003043 0 467.4010880003043 81.454217383889045 0 0 0 0 147.32827907976025 200.1778901053367 0 200.1778901053367 628.83154696636484 0 0 0 0 101.29873605744797 -222.34771789452134 0 -222.34771789452134 1857.6355389966775 0 0 0 0 651.72698471599142 -342.9435125948803 0 -342.9435125948803 -84.425730972841848 0 0 0 0 255.43621909446665 -683.14693432044442 0 -683.14693432044442 1603.2249824921601 0 0 0 0 -1026.9412424344046 -449.33748104859842 0 -449.33748104859842 -145.640154120847 0 0 0 0 -56.858106647283421 628.2461500680165 0 628.2461500680165 2072.0879369676841 0 0 0 0 5.1112081765356834 -5.943223635821397 0 -5.943223635821397 1.6242796584957517 0 0 0 0 -3.2385054629849037 -1653.6902922259906 0 -1653.6902922259906 -891.71536674306844 0 0 0 0 -7.4202920867007265 -1.9684024937944287 0 -1.9684024937944287 6.1378992947260809 0 0 0 0 -344.75662087404635 -961.54634681116659 0 -961.54634681116659 -2420.4191152806306 0 0 0 0 142.72255457662686 -225.35916823761363 0 -225.35916823761363 -1582.003068143822 0 0 0 0 -17.510421980622795 -12.4578501604027 0 -12.4578501604027 8.1319440946545285 0 0 0 0 -851.81142400749377 -520.83968442491096 0 -520.83968442491096 -174.90252063599473 0 0 0 0 247.7554972677874 -1060.97853863978 0 -1060.97853863978 -152.30935723449511 0 0 0 0 133.9944225694162 -365.12765358066736 0 -365.12765358066736 611.57879162210156 0 0 0 0 -1305.1527043954557 -94.52111386062461 0 -94.52111386062461 2023.4769446727223 0 0 0 0 -887.17876218078891 -226.46347083590445 0 -226.46347083590445 780.05924015049459 0 0 0 0 -1085.0209713733348 1038.8582136398181 0 1038.8582136398181 -281.70199698881333 0 0 0 0 -1236.3021514879365 -9.5071852369001135 0 -9.5071852369001135 688.31832103203487 0 0 0 0 -1997.8814876780962 177.158708173798 0 177.158708173798 729.66738348073704 0 0 0 0 378.56031910800084 351.94879459631557 0 351.94879459631557 -1898.9400316241226 0 0 0 0 -12.345297099792276 -6.1825885090516053 0 -6.1825885090516053 -2.8358321213452058 0 0 0 0 -381.56061085452529 -302.31759142068768 0 -302.31759142068768 476.95004469224659 0 0 0 0 -177.86617996504356 562.88615951900647 0 562.88615951900647 928.17751189915725 0 0 0 0 628.0586773911491 -1047.1319918979207 0 -1047.1319918979207 589.42297499939741 0 0 0 0 -25.536068003991772 -23.776249677473366 0 -23.776249677473366 -12.107869461910099 0 0 0 0 -290.5965295501228 -1229.0219502989785 0 -1229.0219502989785 2071.2734562946353 0 0 0 0 -31.076002907368434 -36.788399422035859 0 -36.788399422035859 -26.380670250689334 0 0 0 0 383.93990358890733 -76.707124610642495 0 -76.707124610642495 -945.31367510903146 0 0 0 0 -90.224888026339613 296.97597971909954 0 296.97597971909954 -1078.6369727614801 0 0 0 0 -89.116714410323766 193.10890136934904 0 193.10890136934904 -1124.3208927780361 0 0 0 0 -271.47746905799431 -189.92235735799477 0 -189.92235735799477 57.09243148079986 0 0 0 0 -11.157575411600988 -6.1007478039691847 0 -6.1007478039691847 -2.5966116085143938 0 0 0 0 -51.760616101295454 40.627391170281044 0 40.627391170281044 256.80430431857894 0 0 0 0 332.13294398608559 286.68032350469366 0 286.68032350469366 -1482.4222687683323 0 0 0 0 -117.03770239153528 -6.8399785910205537 0 -6.8399785910205537 650.96421216717863 0 0 0 0 -227.28826267425393 117.458298538093 0 117.458298538093 992.09846509512863 0 0 0 0 392.37329048168613 -594.99899584418745 0 -594.99899584418745 648.99293233191202 0 0 0 0 108.30187049446249 -215.18724625969844 0 -215.18724625969844 162.47165622890316 0 0 0 0 -597.62645954159962 -386.26150736777345 0 -386.26150736777345 26.470949616850703 0 0 0 0 188.3005279229983 -219.96451226749195 0 -219.96451226749195 -32.262866422861407 0 0 0 0 -507.10547665023478 -775.10052023953904 0 -775.10052023953904 14.505393432329583 0 0 0 0 -12.145621470681704 -3.9563894812625904 0 -3.9563894812625904 -0.48012399855755916 0 0 0 0 -1442.039672852783 48.342267188962978 0 48.342267188962978 758.57952651900996 0 0 0 0 -309.99172435193032 -780.86936648002302 0 -780.86936648002302 -132.04947859802633 0 0 0 0 -21.061385566039405 -8.7458241772625271 0 -8.7458241772625271 -2.342559883551516 0 0 0 0 -220.87813250469117 -215.84316023359497 0 -215.84316023359497 604.3559290477715 0 0 0 0 
</DataArray>
<DataArray type="Float64" Name="cross_section_updated" format="ascii">
1 1 1 1 0.0095708594313600945 1 1 0.01153604707706514 1 1 0.0029907502016666421 1 1 0.010091096776053 0.01032386584349828 0.012497975908522405 1 1 1 1 0.014253692467481184 0.017652844232646694 1 0.010036505047184931 1 1 1 1 1 1 1 1 1 1 0.0046397640817212385 1 1 1 0.006343255339841522 1 1 1 0.011174700064538461 1 1 1 1 1 0.0076134000642658212 1 1 0.010000638365290346 0.0099996414375646617 1 0.0098115217809759403 1 1 1 1 1 1 0.010163687060058844 1 1 1 1 0.010160697192007309 1 1 1 1 1 1 0.011016785156163236 1 1 1 1 0.010455367405593115 1 1 1 1 1 1 1 1 1 1 1 1 1 1 1 1 1 1 1 1 1 0.011238346184318217 1 1 1 0.010232024923783299 1 1 1 1 1 1 1 1 1 1 1 1 1 1 1 1 1 0.0098013234370978378 1 1 1 1 1 1 1 1 1 1 0.023859524661732995 1 1 1 1 1 0.020885149206881136 1 1 0.010005729714313231 1 1 1 1 1 1 1 1 1 0.012025705725729825 0.011768057254574079 1 1 1 1 1 1 1 0.010722862423139964 1 1 1 1 1 1 1 1 1 1 1 1 1 1 1 1 1 1 1 1 1 1 0.0091485722561057276 1 1 1 1 1 1 1 1 1 1 1 1 1 1 1 1 1 1 1 1 0.010222546759571689 1 1 1 1 1 0.013158718574863403 1 1 1 0.012489839290750626 1 1 1 0.0099711453561186145 1 1 0.016659861542276777 1 1 0.009631639810487036 0.010115774492524474 1 1 1 1 1 1 1 1 0.0098925374104420413 1 1 1 0.009462403856384867 1 1 1 0.0086841041530944726 1 1 0.010085479120221758 1 1 1 1 1 1 1 1 1 1 1 1 1 1 1 1 0.0087206058872753983 1 1 0.013619249666852577 1 1 1 1 1 0.010981849800205473 1 1 0.010979670586787782 1 1 0.0077665326157471334 1 1 1 1 1 1 0.0084716697126278745 1 1 1 0.0091671051738946713 1 1 1 1 1 1 1 0.0062497187432549312 1 1 1 1 1 1 1 1 1 0.0098119204552034531 0.0082150712011453617 1 1 0.02136866384077616 1 1 1 0.021483683333856578 1 1 1 1 1 0.0097661879533779694 1 0.0041931937885306761 1 1 1 1 1 0.0097052312098762084 1 1 0.016626229146078107 1 1 0.012970072838036577 0.0083907656118370755 0.010024232208515262 1 1 1 1 1 1 1 0.019080746658462291 1 1 1 1 1 1 1 1 1 0.009923676672565461 1 1 1 1 1 0.0097800737330083209 1 1 1 1 1 1 1 1 0.021956095223166348 1 1 1 0.020985606029274143 1 1 1 1 1 1 1 0.009596643010832448 1 0.010127972013540688 1 1 1 0.0087119281765230261 1 1 1 1 1 1 1 1 1 0.023085323217476056 1 1 0.010426526548386862 0.022955127002724965 0.0065872594413135463 1 1 1 1 0.0086298287504894891 0.022010452810781324 1 1 1 1 1 1 1 0.021641422775965674 0.022867959813376235 1 1 1 1 1 1 1 0.018532249510053965 0.023196117195013077 1 0.023743216816979801 0.0081729868012005435 1 1 1 0.0070852657436638756 1 1 1 1 0.0070468829611895697 1 1 1 1 1 0.010095889830963774 1 1 1 1 1 1 1 0.023491179321197628 0.023743444229855519 1 1 0.0085146884633969105 1 0.010085518343941884 1 1 0.010985931310050656 1 1 1 1 1 1 1 1 0.0099209795558505287 1 0.010070029410194595 1 1 1 0.015321301164975411 0.0069578848079279026 1 0.0095956034002315505 1 0.019326669451547783 1 0.021059477994232759 1 1 0.014856117798795128 0.010225196710350826 1 1 0.01037398969440392 1 1 1 0.0096318309803712712 1 1 1 1 1 1 1 1 1 1 1 1 1 1 1 1 0.0086966515204598693 1 0.0073315026654727916 1 1 1 1 0.0059422847916820315 1 1 1 1 1 1 1 1 1 1 1 0.023148850460102274 0.010062233511684227 1 1 1 1 1 1 1 1 1 0.023019334585386624 1 1 1 1 1 1 1 1 1 1 1 1 1 1 1 1 1 0.013937290574988917 1 1 0.0094049749677768274 1 0.0099999007256225403 1 1 1 1 1 1 0.01110015379422731 0.0097713352849119611 1 1 1 1 1 0.0098583920005171216 0.014463780362459565 1 1 1 1 1 1 1 0.011451009374258719 1 1 1 1 1 1 1 0.010106922716826026 1 0.0070514517763652362 1 1 1 1 0.0091103446088078577 1 1 1 1 0.0098450437927835796 1 1 0.0077465736521734954 1 1 0.013586480286398528 1 1 1 1 1 1 1 1 1 0.011443872702025987 1 1 1 1 1 1 1 1 0.009840636917922127 1 0.010035403687897779 1 0.013332876771501773 1 1 1 1 1 1 1 1 1 1 1 1 1 0.011698185855694841 1 0.010471830176118302 0.010289151151374867 1 1 1 1 1 1 1 1 1 1 1 1 0.010705392316981331 1 1 1 0.010698384945911119 1 1 1 1 1 1 1 1 1 1 1 1 1 1 1 1 1 1 1 1 1 1 1 1 1 1 1 1 1 1 0.013181726440974699 1 0.010282883891724631 0.013289632831614308 1 1 1 1 1 0.016829739348126919 1 1 1 1 1 1 1 1 1 1 1 0.014950356485180375 1 1 1 0.011842594105064518 1 1 1 1 0.013020015808581576 1 1 1 1 0.011149151077825938 1 1 1 1 1 1 1 1 1 1 1 1 1 1 0.01021615469417946 1 1 1 1 1 1 1 1 1 1 1 0.011778735385385007 1 0.024862374933105238 1 1 1 1 1 1 1 1 1 1 1 0.010083758283888959 1 1 1 0.01035842986003848 1 1 1 1 1 1 1 1 1 1 1 1 1 1 1 0.026859002018166964 1 1 1 1 1 1 1 1 1 1 1 1 1 1 1 1 1 1 0.0065999631030521713 1 1 1 1 1 1 1 1 1 0.010479648365539676 0.0086897280237894017 1 1 1 1 0.010366746427268467 1 0.014730648593712717 0.011214154399675158 1 1 1 1 0.0051478378103649424 1 0.0017597448019449468 1 1 0.0098835064675025629 1 1 1 1 1 1 1 1 0.011370408379494285 1 1 0.031896264065114338 1 0.032794988626673183 1 0.029964473942572789 1 1 1 1 1 1 0.013421264834385271 0.01763766691531108 1 1 1 1 1 1 1 0.010452912543089681 1 1 1 1 1 0.014958408245649306 1 0.015888711761934113 1 1 1 1 0.016607322198248071 0.015265445564509317 1 1 1 1 1 0.01667328341763126 1 1 1 1 1 1 1 0.0096074570779342422 1 1 1 1 1 1 1 1 1 0.0092041502179799495 1 1 1 1 1 0.0093934002107752233 1 1 1 1 1 1 1 1 1 1 1 1 1 1 1 1 1 1 1 1 1 1 1 1 1 1 1 1 1 1 1 1 0.0088530786879003568 1 1 0.0092130532644861991 1 0.010201369166971196 0.0068275733497097264 1 0.012092359508040051 1 1 1 1 1 1 1 1 1 1 1 1 1 1 1 1 1 1 1 1 1 1 1 1 1 1 1 0.0096871172712462844 1 1 1 1 1 1 1 1 1 1 1 1 1 1 1 1 1 1 1 0.013943047033461789 0.011067573441715911 1 1 1 1 1 1 1 1 1 1 1 1 1 0.0084602994624145174 0.0095227493591734363 1 1 1 1 1 1 1 1 1 1 1 1 1 1 1 1 1 1 1 1 1 1 1 1 1 1 1 1 1 1 1 1 1 1 1 1 1 1 1 1 1 1 1 1 1 1 1 1 1 1 1 1 1 1 1 1 1 1 1 1 1 1 1 1 1 1 1 1 1 1 1 1 1 1 1 1 1 0.0070878556455431264 1 0.008481840293362599 1 1 1 1 1 1 1 1 1 1 1 1 1 1 1 1 1 1 1 1 1 1 1 1 1 1 1 -2.8477163786788662e-09 1 1 1 0.0088827753815243476 1 0.00023037642236658704 1 1 1 1 1 1 1 1 1 1 1 1 1 1 0.0082237012521642547 1 1 0.0097967070707295229 1 1 1 1 1 1 1 1 1 1 1 1 1 1 1 1 1 1 1 1 1 0.0044103677256554785 1 1 1 0.0056124442471302202 1 1 1 1 1 1 1 1 1 1 1 1 1 1 1 1 0.012748778188268889 0.011012992354157893 1 1 1 1 1 1 1 1 1 1 1 1 1 1 1 1 1 0.009649225815914958 1 1 0.0089059403890792976 1 1 1 1 1 1 1 1 1 1 1 1 1 1 1 1 1 0.0092433592698297901 1 1 1 1 1 1 1 1 1 1 1 0.0085000738429941367 1 1 1 1 1 1 0.010756837683771845 1 0.010291524506736899 1 1 1 1 1 0.0098629493722255795 1 1 1 1 1 1 1 1 1 1 1 0.0094244775990426008 1 1 1 1 1 1 1 0.010547120348190744 1 1 1 1 1 0.010606982409989711 0.0083704217001559014 0.0088107528798092652 1 1 1 0.011233552579783609 1 1 1 1 1 1 1 1 1 1 1 1 1 1 1 1 1 1 1 1 1 1 1 1 1 1 0.0081815348782057346 1 1 1 1 0.0049011061016167312 1 1 1 1 1 1 0.0098638298915444469 1 1 1 1 1 1 1 0.010593532654889944 1 1 1 1 1 1 1 1 1 1 1 1 1 1 0.017174579845350001 0.022485406192856792 1 0.011780023183320627 1 1 1 1 1 1 1 1 1 0.010534498249561899 1 1 0.02041995816442321 1 0.0113598104165954 1 0.010397629086124033 1 1 1 1 1 1 1 0.016430241274918156 1 1 1 1 1 1 1 1 1 1 1 1 1 1 1 1 1 1 1 1 1 1 1 1 1 1 1 1 1 1 1 1 1 1 1 1 1 1 1 0.017939020506143013 1 0.0098487299863132885 1 1 1 1 1 1 1 1 1 1 1 1 1 1 1 1 1 1 1 1 1 1 1 1 1 0.019854662791527537 1 1 1 1 1 1 1 1 1 1 1 1 1 1 0.0099557269385399088 1 1 1 1 1 1 1 1 1 1 1 0.019178269163179266 1 1 0.010750104265697752 1 1 1 1 1 1 1 1 1 1 1 1 1 1 1 1 1 1 1 1 1 1 1 1 1 1 1 1 1 1 1 1 1 1 1 1 1 1 1 1 1 1 1 1 1 1 0.0084327126400420491 1 1 0.010065360038797105 1 1 1 1 1 1 1 1 1 1 1 1 1 1 1 1 1 1 1 1 1 1 1 1 1 1 1 0.014791281130940271 1 1 0.01220443736757475 1 1 1 1 1 1 1 1 1 1 1 1 1 1 1 1 1 1 1 1 0.014051906150683288 1 1 1 1 1 1 1 1 1 1 1 1 1 1 1 1 1 1 1 1 1 1 1 1 1 1 1 1 1 1 1 1 1 1 1 1 1 1 1 1 1 1 1 1 1 1 1 1 1 1 1 1 1 1 1 1 1 1 1 1 1 1 1 1 1 1 1 1 1 0.0035635221606489069 1 1 1 1 1 1 1 1 0.010625839528608079 1 -1.8753888095246474e-09 1 1 1 1 1 1 1 1 1 1 1 1 0.0099037890393478423 1 1 1 1 1 1 1 1 1 1 0.01642899027279477 1 0.01522878256703423 1 1 0.023349214841886384 1 1 0.014592847541117608 1 0.019984547991547492 0.020482141660364959 1 1 0.012215622668073255 1 1 1 1 0.0097915382341687441 1 1 1 1 1 1 1 0.025524001258987961 1 0.0091789988751384381 1 1 1 1 0.021372301767523531 1 1 1 1 0.0097220762697961451 1 1 0.01867336501353857 1 1 1 1 0.022548194227502809 1 1 1 1 1 1 0.025461374620927194 1 1 1 1 1 1 1 0.022817977191154293 0.022198856122275568 0.01683708708978884 1 1 1 0.011030313716587211 1 1 1 1 0.010254547802309662 1 1 1 1 1 1 1 1 1 1 1 1 1 1 1 1 1 0.0093844305181036425 1 1 0.0096454809111338018 1 1 1 1 1 1 1 1 1 1 1 1 1 1 0.0099351212236962333 1 1 1 0.0099681386060203221 1 1 0.010033017382324096 1 1 1 1 0.010260963914000658 1 1 0.0054422702307828502 1 0.024891464945139982 1 0.010173791531646624 1 1 0.0070538877204494657 0.022786611735792203 0.020451190749744129 1 1 1 1 1 1 1 1 0.0079193944317521858 1 0.030903469593063431 1 1 1 1 1 1 1 0.028854339635145217 1 1 1 1 1 0.0092553104802632208 1 1 1 1 1 1 1 1 1 1 1 1 1 1 1 1 1 1 1 1 1 1 1 1 1 1 1 1 1 1 1 1 1 1 1 1 1 1 1 1 1 1 0.010217097671263917 1 1 0.0096881998502232943 0.010241330547887255 0.011092366741546178 1 1 1 1 1 1 1 1 1 1 1 1 1 1 1 1 1 1 1 1 1 1 1 1 1 1 1 0.0072363903841451624 1 0.012041712037128189 0.0099801209052457675 1 1 1 1 1 1 1 1 0.0099915080892697423 1 0.009904169184846448 1 1 1 1 1 1 1 1 1 1 1 1 1 1 1 1 1 1 1 1 1 1 1 1 1 1 1 1 1 1 1 1 0.010119698969556171 1 1 0.0093850951296461857 1 1 1 1 1 1 1 1 1 1 1 1 1 1 1 0.011363001060810011 1 1 1 1 1 1 1 1 1 1 1 0.010516964123928921 1 1 1 1 1 1 1 1 1 0.009913155497558071 1 1 1 1 1 1 1 1 1 1 1 1 1 1 1 1 1 1 1 1 1 1 1 1 1 1 1 1 1 1 1 1 1 1 1 1 1 1 1 1 0.0097389496069698149 1 1 1 1 1 0.010178507603410996 0.010091638002030397 1 1 1 1 1 1 1 1 1 1 1 1 1 0.0093694517458208157 1 1 1 1 1 1 1 0.012704602018779286 1 1 1 1 0.015470092502057964 1 1 0.019389993571966337 1 1 1 1 1 0.0093705291743320131 1 1 1 1 1 1 0.0062213094009110972 0.0098571086391786075 1 1 1 1 1 1 1 1 1 1 1 1 1 1 1 1 1 0.0088169867758080694 1 1 1 1 1 1 1 1 1 1 1 1 1 1 1 1 0.010151765497233452 1 1 1 1 1 0.0090364013724044505 1 0.011335674236492298 1 1 1 1 1 1 1 1 1 1 1 1 1 1 1 1 1 1 1 1 1 1 0.011628857867343443 1 1 1 1 1 1 0.010497559763967903 1 1 0.0095896315154268604 1 1 1 1 1 1 1 1 1 1 1 1 1 1 1 1 1 1 1 1 1 1 1 1 1 1 1 1 1 1 1 1 1 1 1 1 1 1 1 1 1 1 0.0089466176225234187 1 1 1 1 1 1 1 1 1 1 1 0.009922771331786066 1 1 1 1 1 1 1 1 1 1 1 1 1 1 1 1 1 1 1 1 1 1 1 1 1 0.015426985833292786 0.0073078417286690373 1 1 1 0.0090614528431298552 1 1 1 1 1 0.0090655395301973609 1 1 0.012861939660941499 0.0096826032697125922 1 1 1 1 1 1 1 1 1 1 1 1 1 1 1 1 1 1 1 1 1 1 1 1 1 1 1 1 0.011815623208659587 1 0.013241521590809796 1 0.010112572236574358 1 1 0.01135598066104998 1 1 1 1 0.010428474251163326 1 1 1 0.010141270256546098 1 1 1 1 1 1 1 1 1 1 0.0098109942957390721 1 1 1 1 1 1 1 1 1 1 1 1 1 1 1 1 1 1 1 1 1 1 0.0098434149554150231 1 1 1 1 1 1 1 1 1 1 1 1 1 0.0099206436236289695 1 1 1 1 1 1 1 1 1 1 1 1 1 1 1 1 1 1 1 1 1 1 1 0.0099323095420962917 1 1 1 0.0089323564019308313 1 1 1 0.011543748302269945 0.0090796019443556836 1 1 1 1 0.010418770329763939 1 1 0.010197320683046629 1 1 1 1 1 1 1 1 1 1 1 1 1 1 1 1 1 1 0.0090685320397045979 1 1 1 1 1 1 1 1 1 1 1 1 1 1 1 0.01010803653686497 1 1 1 1 1 1 1 1 1 1 1 1 1 1 1 0.011888590877144476 1 1 1 1 1 1 1 1 1 1 1 1 1 1 1 1 1 1 1 1 1 1 1 1 1 1 0.01019846008903471 1 1 1 1 1 0.010090593791962296 1 1 1 1 1 1 1 1 1 0.0098759643961182295 0.011526422467128573 1 0.0092719482505041351 1 0.010021609107318599 1 1 1 1 1 0.015333948970487739 1 1 1 1 0.011285138044899459 1 1 0.0096524006311791057 0.0089535007137972848 1 1 1 1 1 1 1 1 0.010233664873268706 0.012770985933919218 1 1 0.013126507275586822 1 0.012249404810385639 0.014032182534871221 1 1 1 1 1 0.013070499342326096 1 1 1 1 1 0.010352661170156761 1 1 0.012981543577159194 1 1 1 1 0.010143226144625081 1 1 1 1 1 1 1 1 1 1 1 0.0096899583933639996 1 1 1 1 0.0092294929918598015 1 1 1 0.010015164808488408 1 1 1 1 1 1 1 1 1 1 1 0.0097184880245183361 1 1 1 1 0.009258022623014138 1 1 1 1 1 1 1 1 1 1 0.013345249216623452 1 0.011226549855064438 1 1 1 1 1 1 0.010164648567651764 1 1 1 1 1 0.014647832211423673 1 1 1 0.01092138936545501 1 1 1 1 0.010532819494407493 1 1 1 1 1 1 1 1 1 1 1 1 1 0.0099252944054457268 1 1 1 1 1 1 1 1 1 1 1 1 0.012583579652234812 1 1 1 1 1 1 0.010868111578436979 1 0.0092866109013026842 1 1 1 1 1 1 1 1 1 1 1 1 1 1 1 1 1 0.017320758685235794 1 1 1 1 0.017020258827498663 0.018300457692577335 0.0091058715383258697 1 1 1 1 1 1 1 1 1 1 1 1 1 1 0.010123298798516485 1 1 1 1 0.0097056509658004497 1 1 0.0099107756614943143 1 0.01156011099503202 1 1 1 1 1 1 0.010448015125648054 1 1 1 1 1 1 1 1 1 0.0097452242409195172 1 1 0.0095856880423468016 1 1 0.010330893511971216 1 1 1 1 1 1 0.010454192310487685 1 1 1 1 1 0.010792370651016119 1 1 1 1 1 1 1 1 1 1 1 1 0.0097657582068729903 1 1 1 1 1 1 1 1 1 1 1 1 0.010436644283946299 1 1 1 1 1 1 1 1 1 1 0.0098107322455360593 1 1 1 1 0.010340141979593341 1 1 0.0096586046516129107 1 1 1 0.010530345595645217 1 0.009549582722154018 1 1 1 1 1 1 1 1 1 1 1 1 1 1 1 1 1 1 1 1 1 1 1 1 1 1 1 1 1 1 1 1 1 1 1 1 1 1 0.010133123611427715 0.010013780178483702 1 1 1 1 1 1 1 1 1 0.0083246441903459915 0.010665339634494307 1 1 1 1 1 0.010090982874506268 0.010449429169566593 1 1 0.01064940145597161 0.0090574107449722299 1 1 1 1 1 1 0.0092880909460628554 1 1 1 1 1 1 1 1 1 1 1 1 1 1 1 1 1 1 1 1 1 1 0.010355726367069822 1 1 1 1 1 1 1 0.0092797301599505198 0.0097309126462547385 1 1 1 1 1 1 1 1 1 1 1 1 1 1 1 1 1 1 1 1 1 1 1 1 1 1 1 1 1 1 1 0.010089144954917355 1 0.0098257018828270017 1 1 1 1 1 1 1 1 1 1 1 1 1 1 1 1 1 1 1 1 1 1 1 1 1 0.009788706705056216 1 1 0.010342149352601776 1 0.0097286971246263523 0.010595983296892431 1 1 1 1 1 1 1 1 1 1 1 1 1 1 1 1 1 1 1 1 1 1 1 1 1 1 1 1 1 1 1 1 1 1 1 1 1 1 1 1 1 1 1 1 1 1 1 1 1 1 1 1 1 1 1 1 1 1 1 1 0.01011662939128611 1 1 1 1 1 1 1 1 1 1 1 1 1 1 1 1 1 1 1 1 0.0099543434061435676 1 1 1 1 1 1 1 1 1 1 0.020777182351411128 1 1 1 1 1 1 0.011938167265706637 1 0.015083161908003392 1 1 1 0.010195932597362609 5.8834647570504828e-10 0.01977355143783336 1 1 1 1 1 1 0.014468185525322502 1 0.017715569339044029 1 1 1 1 1 1 1 1 1 1 1 1 1 1 1 1 1 1 1 0.018142899094017687 1 1 1 1 0.0099903218702422896 0.0070801112544289849 1 1 -4.7974522019919585e-09 1 1 1 0.011263210036219072 0.016916979502963315 1 1 1 1 0.012657101161958638 0.023173309555695302 1 1 1 1 1 1 0.025667921778613111 1 1 1 1 1 1 1 1 1 1 2.0964417311516992e-09 1 0.0022644513874372409 1 1 1 1 1 1 1 1 1 0.0060882160901488281 1 1 1 1 1 1 1 1 1 1 1 1 1 1 1 1 1 0.019889124146251463 1 1 1 1 1 1 1 1 1 1 1 0.018997576769297857 1 1 1 1 0.019594655529549365 1 1 1 1 0.017278661371057203 1 1 1 0.011486080850739155 1 1 0.017046894354302445 1 1 1 0.0095360888555004394 1 1 1 0.0098954451480695038 1 1 1 1 1 1 1 1 0.0090348603371078681 1 1 1 1 0.010781033844589789 1 1 1 1 1 1 1 1 1 0.011423309552371017 1 1 1 1 1 0.011915241843184848 1 1 1 0.019767217750800224 0.0093944554756907814 1 1 1 1 1 1 1 1 1 0.0098562544360331419 1 1 1 1 1 0.004266212533889889 1 1 0.0098344749316974581 1 1 1 0.009349778893823376 1 1 0.010687947670705369 1 1 1 1 1 0.0030387647510202696 0.0075486684162801923 1 1 1 1 1 1 1 1 1 1 1 0.011708937195736284 1 1 1 1 1 0.0062797182750566668 1 1 1 1 1 0.00959500482978113 0.009446517235626976 1 1 1 1 0.0048599848467749604 1 1 1 0.0047628647338973963 1 1 1 1 1 1 1 1 1 0.0085153795885707789 1 1 1 0.0098331621763201611 0.006410699681123358 1 1 1 1 1 1 1 1 1 0.010922568765765715 1 1 1 1 1 1 1 1 0.012710598156320752 1 1 1 1 1 1 1 1 1 1 1 1 1 1 1 1 1 1 1 1 1 1 1 1 1 1 1 1 1 0.010764873833429833 1 1 1 1 1 0.0099540721410462281 1 1 0.0095091491629994765 0.010101497431684467 1 1 1 1 1 1 1 1 1 1 1 1 1 1 1 1 1 1 1 1 1 2.4521901696716863e-09 1 1 1 0.012338296456423155 1 1 1 1 0.010908601247159033 1 1 1 1 1 1 1 1 1 1 1 1 1 1 1 0.010649204382214256 1 0.0038544673093760737 1 1 1 1 1 1 1 1 0.010207956058590012 1 0.0097581458080494565 1 0.0076856680936432178 1 0.010016828740090571 1 1 1 1 1 1 1 -2.1567438598935063e-09 1 1 1 1 0.0088167905788111289 0.0078818019125222183 1 1 1 1 1 1 1 1 1 1 1 0.0080240053796234757 1 1 1 1 1 1 1 1 1 1 1 0.0097197191240055644 1 1 1 0.010191845084418893 1 1 1 1 1 1 1 1 1 1 1 1 1 1 1 1 1 1 1 1 1 1 1 1 1 1 1 0.0088322045143711531 1 0.011425651338012828 1 1 0.010448302833175965 1 1 1 1 1 1 1 0.0098496894463304466 1 1 0.0087108633332391126 1 0.0092168653310999837 1 0.010354965430023975 1 1 0.0092547918473184984 1 0.010518486622729924 1 1 1 0.009688151159483481 1 1 1 1 1 1 1 1 1 0.0083623978424105655 1 1 1 0.0093385358555137642 1 0.0070863852712233352 1 1 1 1 0.0088157417425279109 1 1 1 1 1 1 1 1 1 0.0084097451344948698 1 1 1 1 1 1 1 1 0.0093479846069981845 1 1 1 1 1 1 1 1 1 1 1 1 1 1 1 1 1 1 1 1 1 1 1 1 1 -2.2073091236751718e-09 0.009098820737394854 1 1 4.9887465686238031e-09 1 1 1 1 1 1 1 0.00040387044001978858 1 1 0.00023319851972102013 1 1 1 1 1 1 1 1 1 1 1 1 1 1 1 1 1 -6.8026811579635638e-09 1 1 1 1 1 1 1 1 1 1 1 1 1 1 1 1 1 1 1 1 1 1 1 1 1 1 1 1 1 1 1 0.0056098419513056427 0.0095213921001584059 1 1 1 1 0.0084174008084497501 1 1 1 1 1 1 1 1 1 0.0021069660665130018 1 1 1 1 1 -4.493528986404538e-10 1 0.014226869845538032 1 1 0.0016057191937473569 1 1 1 1 1 1 1 0.008308460268321223 1 1 1 1 1 1.1112920292322137e-08 1 1 1 1 1 1 1 1 1 0.010709698842066477 1 1 1 1 1 1 0.012434888485916656 1 1 1 1 1 1 1 0.011946850690854792 1 1 1 1 1 1 1 1 1 1 1 1 1 0.013330557350386366 1 1 1 1 1 1 0.012801579377093406 1 1 1 1 1 0.017470248470577925 1 1 0.020939179130760245 1 0.0051475335746302767 1 1 1 1 1 0.0049067215464823725 1 1 1 1 1 1 1 0.0083316256317801166 1 1 1 0.0099538743251087192 1 0.0051976662126682407 1 1 0.010914256426277497 1 1 1 1 1 1 1 1 1 1 1 1 1 1 1 0.013254049597502926 1 0.012386335651636875 1 1 1 1 1 1 1 1 1 1 0.0089269814360025956 1 1 1 1 1 1 1 1 1 0.011384708531357861 1 1 1 1 1 0.0081268537790016165 1 1 1 0.0075625821349034547 1 1 1 0.013680276765534877 1 1 1 1 1 1 1 0.0099842025663315417 1 1 1 0.0050902092699910209 1 1 1 0.0070268313868809412 1 1 1 1 1 0.0082067900254665302 1 1 1 1 0.004378877440913094 1 1 1 0.00048892938953855325 1 1 1 1 1 1 1 1 0.0025020250528532198 1 1 1 1 1 1 1 1 1 -8.2513774077308533e-09 1 1 1 1 1 0.021114745494137818 1 1 1 1 1 1 1 1 1 1 1 1 1 1 1 1 1 1 1 1 1 1 1 1 1 0.019171243935402274 1 1 1 1 1 1 1 1 0.008382069864076757 1 1 1 1 1 1 1 1 0.0083657821214686914 1 1 1 1 1 1 1 1 0.0057760677824727144 1 1 1 0.0041822164403529111 1 1 0.022778019960979161 1 0.014088075624945276 0.0032968991626467214 1 0.018180549221891815 1 1 0.0099193119392722868 1 1 1 1 1 1 1 1 1 0.0081647628710539762 1 1 1 1 0.0077806832914650917 1 1 0.010286838190085655 1 0.010079449202506079 1 1 1 1 1 1 1 1 1 1 1 1 1 1 1 1 1 1 1 1 1 1 1 1 1 1 1 1 1 1 1 1 1 1 1 1 1 1 1 1 1 1 1 1 1 1 1 1 1 1 1 1 1 1 1 1 1 1 1 1 1 0.0079875459473913377 1 1 1 1 1 1 1 1 1 1 1 1 1 1 1 1 1 1 1 1 1 1 1 1 0.0041640130175739573 0.00075172189092216624 1 0.023887405361145746 1 1 1 1 0.019405555485718498 1 1 1 1 1 0.0088742625418052837 1 1 1 0.015153777336505275 1 1 1 1 1 0.012000489307530681 1 1 1 1 1 1 1 1 0.010317819545095933 1 1 1 1 1 1 1 1 1 1 1 1 1 1 1 1 1 1 1 1 1 1 1 0.0099341104673888944 1 1 1 1 1 1 1 1 1 1 1 1 1 1 1 1 0.010103449305434333 1 1 1 1 1 1 1 0.0099120938510840438 1 1 1 1 1 1 1 1 1 1 1 1 1 1 1 0.0076162005714577666 1 1 1 1 1 1 0.017663601969158463 1 1 0.017858259862010652 1 0.0034779769242617338 0.0098205356520716207 1 1 1 1 1 0.0066392790534295512 1 0.012839314934003927 1 1 1 1 1 1 1 1 1 0.010169338838045446 1 1 1 0.010924918316779393 1 0.0065747018137922667 1 1 0.013865102917175263 1 1 0.0040300034470163882 1 1 -1.3086997249778243e-09 1 1 1 0.0015481056088649534 1 1 0.008829013251975007 1 1 0.020977400773488045 0.0099168460689140897 1 1 1 1 0.0084751841524529255 1 1 1 1 1 1 1 1 1 1 1 1 1 1 1 0.0076863610532928034 1 1 1 0.0036080891055237495 1 1 -1.9910071319086857e-09 1 1 1 1 -5.8839851307251889e-10 1 1 1 1 1 1 0.0020510850627531857 1 1 1 1 1 1 0.006853800459478504 1 1 1 1 1 1 1 1 1 0.012737106069132878 1 1 1 1 1 1 1 1 1 1 1 1 0.0095683908388518243 1 1 1 1 1 0.0099482495234309506 0.0041212377450280061 1 1 1 1 0.0035495198311768089 0.007325636228292895 1 1 0.012791146865038365 1 1 0.014130127327178265 1 0.0032779480177850522 1 0.021447983417771599 1 1 1 0.0088159440644184003 0.020480223107174726 1 1 1 1 1 1 1 1 0.00024710174429704718 1 1 0.027760100852365511 1 1 1 1 1 1 1 1 0.02366970702802889 1 1 1 1 1 1 1 1 1 1 1 1 1 1 1 1 1 1 1 1 1 1 1 1 1 1 1 1 1 1 1 1 1 1 1 1 1 0.0081559671041661688 0.010133012495533051 1 1 0.0029891320112265668 1 1 1 0.0085736512787479794 0.00999632799359855 1 -2.0695580076057762e-09 1 1 1 1 1 0.014708035551372721 1 1 0.0094270622514625868 1 1 1 1 1 1 1 0.01739459480774759 1 1 1 0.0083042288080528454 0.012421246806965477 1 1 1 1 1 1 1 1 1 1 1 0.010975605471343465 1 1 1 1 1 1 1 1 1 1 1 1 1 1 1 0.011113697166005652 1 1 1 1 1 1 1 1 1 1 1 1 1 1 1 1 0.01034259098634488 0.0085453924310486592 1 1 0.017602467762058642 1 1 0.0097536263427957723 1 1 1 1 0.011533106636980168 1 1 1 1 0.0096982968149932069 0.0082144610559811773 1 1 1 1 0.016597128080385513 1 1 1 1 0.013313541879307549 5.4088624889431745e-05 1 1 1 1 1 0.0099852493150682665 2.4876689250219464e-11 1 1 1 0.0077341683109282827 1 0.003879544838163794 0.007495188366369171 1 0.010406254308037981 0.0045018447377041526 1 -3.0900990559759589e-09 1 1 1 1 0.010016956379268256 1 1 1 1 1 1 1 1 1 -5.7124855019907717e-10 0.0067395889463055178 0.015402085161932463 -1.2556115869255535e-11 1 1 1 1 1 1 1 0.010492743578732755 1 1 1 1 1 1 1 1 1 1 0.0088424942482608557 1 1 1 1 1 1 -5.1225817684907859e-10 1 1 -6.9803142085933523e-10 1 1 1 1 1 1 1 1 0.011067085729075036 1 1 1 1 1 0.0097439691559683822 1 0.0090990617682105753 1 1 1 1 1 1 1 1 1 1 1 1 1 1 1 1 1 1 1 1 1 1 1 1 1 1 1 1 1 1 1 1 1 1 1 1 1 1 1 0.0099788196106773627 1 0.0099369882340295812 1 0.01002053818755062 1 1 1 0.0039052935559292269 1 0.012774967524063756 0.013256620948817389 1 1 0.001602229718010207 1 0.0046040823170908473 0.0061706570100260628 0.0041103601536021731 1 1 1 1 1 1 1 1 1 1 0.0071682839935988639 1 1 0.0099952840490428879 1 0.0097818093982359813 1 1 0.0099998512418315519 1 0.0045489895941001404 0.0083545785718308896 1 1 0.0062335884785346858 1 1 1 1 0.004555514513216629 1 1 0.0083848341363533217 0.012588176239204739 1 1 1 1 1 1 1 1 1 1 1 1 1 1 1 1 0.011072934519613477 0.0074553594889666484 1 1 1 0.010219707185119156 1 1 0.013072823310866066 1 1 0.010120029026528605 1 1 1 0.010127643209496735 1 1 1 1 1 1 1 1 1 1 0.0099179911998042315 1 1 1 1 1 0.0098858931215976831 1 1 1 1 1 1 1 0.010176290377250015 1 1 1 1 1 1 1 1 1 1 1 1 1 1 1 1 0.0084918528647051593 1 1 1 1 1 1 1 1 1 1 1 1 0.0097913615389042009 1 1 1 1 1 1 1 1 1 1 1 1 1 1 1 1 1 1 1 0.010401549998974585 1 1 1 1 1 1 0.013011298214319022 1 1 1 1 1 0.010311294271739702 1 1 1 1 1 1 1 1 1 1 1 1 1 1 1 1 1 1 1 1 0.0060150145817268047 0.0039888563100746871 1 1 1 1 1 1 1 1 0.00806074168517186 1 1 1 1 1 1 1 1 0.0021189806058736615 1 1 1 1 1 0.010891679867876709 1 1 1 1 1 1 1 1 1 1 1 1 1 1 1 0.0043870023444408796 0.0091855120368749196 1 1 1 1 1 1 1 0.011397391307361639 1 1 1 1 1 1 1 1 1 1 1 1 1 1 -3.4913962190102898e-09 1 1 1 1 1 0.0098889655726693854 1 1 1 1 0.011132329677633706 1 0.0043108690623070087 1 0.0096572820078714774 1 0.0046976414786247533 0.011019598617537938 1 0.0097967080968533841 1 1 0.011660582436605166 1 1 1 1 1 1 1 1 0.0099990441890733181 1 1 1 1 0.008233857983036998 0.0095952264029301858 1 0.0072164777740578376 0.0098336774727158342 1 1 1 0.0099953562174081006 0.0040857318208287266 1 0.0069100446200834817 1 0.010331895388278568 1 1 1 0.0099965540563709977 1 1 1 0.0090177822331317988 1 0.012093689522544752 1 1 1 0.0042562954513127756 1 1 1 1 1 0.009610804536307381 0.0086525456625222066 1 1 1 0.010740398855182019 1 1 1 1 1 1 1 0.01314700444077152 1 1 0.0071989988664701412 0.012357440808061289 1 0.0096519706649722016 1 0.013473349028899068 1 1 1 0.017163733027615431 1 0.004073320977995086 1 1 0.0077310600944093463 1 1 0.010890901715298067 0.0070413678477537003 0.010112305470889088 1 0.0099842331893511028 1 1 1 0.010009902973051193 0.0023595970627026935 1 1 1 1 1 1 1 1 0.0099389109885174038 1 1 1 0.0088311411034108934 1 0.0065816837283172811 1 0.010519065923421991 1 0.0037808115974208769 0.006211608232194625 1 1 1 0.0099426125247127281 1 0.0038800255241085227 0.0068186564798965732 1 1 1 1 1 1 1 1 1 1 -1.2476886850076863e-09 0.010322462768396622 1 1 0.0017969544172316693 1 1 1 1 1 1 1 1 1 1 0.017143796693602421 1 1 1 0.010022000078880712 1 1 1 1 1 1 1 1 0.0022748217193549192 1 1 1 1 1 1 1 9.93747098498865e-11 1 1 1 1 1 1.0715885540024672e-09 1 1 1 1 1 1 1 1 1 1 1 1 1 1 1 0.010031286128299025 1 1 0.00072211510244861443 0.0049891561797211163 0.0090967825604356123 0.0041098842974304373 1 0.011331574677448445 1 1 0.012668324290760974 1 1 1 1 0.0081243296248652199 1 1 1 0.012845133881433249 1 1 1 1 1 1 1 1 0.031990090099808216 1 0.030584406137764499 1 1 0.013723211821547128 1 1 1 0.010382018373233002 1 1 1 0.025869812453434303 1 1 0.011472087914104517 1 1 1 0.011191344915977007 1 1 1 1 1 1 1 1 1 1 1 1 1 1 0.015086545618129022 1 1 0.0058587982144830963 1 1 0.015736916686476352 1 1 0.0120592774667395 1 1 1 1 1 1 0.017191363974623571 1 0.015947727257491613 1 1 1 1 1 1 0.0098582673713665907 1 1 1 0.014813737558773736 1 0.015500138235999873 1 0.012062424284391559 0.020701941479397197 1 1 1 1 1 1 1 0.014608855498312045 1 -8.7195712195758945e-10 1 0.0044238343161828054 1 0.0073034689797213323 1 0.011951658657499781 1 1 0.014198990724632416 1 1 1 0.0069895611884452109 1 1 1 1 1 1 1 1 0.01826133390819256 1 1 1 1 1 1 1 1 0.009837803627261733 1 1 0.010289804089699879 1 1 1 1 1 1 0.0074510542123744829 1 1 1 1 0.010223712319277366 1 1 1 1 1 0.010110012069942467 1 0.010037226032997879 1 1 1 1 1 1 0.014389046022631359 1 1 1 1 0.0033657901580459197 1 1 1 0.010042632229531305 0.0074412493014295311 1 0.0066634465967490911 1 1 1 1 1 1 1 1 1 1 1 1 0.016044775494609857 1 1 1 0.020101602110169127 1 1 0.0091530122806165442 1 1 1 0.0017033858507222678 1 1 1 0.003376137194300504 1 1 1 1 0.0016847752027815202 1 1 1 1 1 1 1 1 1 1 1 1 1 0.0093166637086057966 1 0.007828143947723968 1 0.010191127311042082 1 0.0029319420423096001 1 1 1 1 0.014041764514537869 1 1 1 1 1 0.017935073257461215 1 1 1 1 1 0.01400141654966626 0.0030642914259045688 1 1 0.014729694192546935 1 1 1 1 1 1 0.010466260269878732 1 0.0097536518599341867 1 1 1 1 1 1 1 0.011310305361235276 1 0.015286443349482457 1 1 1 1 0.0099258508422907666 1 1 1 1 0.015931821522187042 1 0.0085143292637250949 1 0.0098710303923028909 1 1 1 1 1 1 1 1 0.0030023056937904511 1 1 1 1 1 1 1 1 1 1 1 1 1 1 0.011328831855484002 0.0099947633735220209 1 1 0.0061615602674601234 1 1 0.0098669311252424455 1 1 0.017232771841856821 0.0087403160973040586 1 0.01544096063578938 1 1 1 0.0041543493851274177 0.015834565335753469 1 1 0.013906681211103063 1 0.010390499076958595 1 1 1 0.0087329882888886184 1 1 1 0.0079429506581199308 1 1 1 1 1 1 1 1 0.0092817806778982669 1 1 1 1 1 1 1 1 0.017824655753654522 1 1 1 1 1 1 1 0.017395336014399423 1 1 0.008125411880062626 1 1 1 1 1 0.0097322188187303326 1 1 1 0.011422386968591415 1 1 1 1 1 1 0.0097593041781653452 1 1 1 1 1 1 0.0099672230301818474 1 1 0.0093670476378358482 1 0.012535123014137627 1 1 1 1 1 1 0.0026733938739924162 1 1 1 0.0023824290707931406 1 1 1 1 1 1 1 1 0.0031666886636856073 1 1 1 1 1 1 0.012519689322643097 1 1 1 0.010209676310717127 0.010008584870637128 1 0.012646211555979977 0.0099981206074789969 0.0091477821806153145 1 0.011809876476255407 1 1 1 1 0.010552033464157472 0.0098199300573223458 0.010363003117766813 1 1 1 1 0.010904723076303855 1 1 1 1 1 0.010243625969374297 1 1 1 1 1 0.0095955868692558666 1 1 1 1 1 1 0.0044531314237721623 1 1 1 1 0.0094530452262474203 0.0014742055938093065 1 1 1 1 1 1 1 1 1 0.0068146639838259498 1 1 1 0.0088269170024838639 1 1 1 1 1 0.0080851146021360468 0.010114985447644399 1 0.0040809101372623405 1 1 0.012429610388813938 1 1 1 1 1 1 1 1 1 0.0094635101104776562 0.008483490400004217 1 1 1 1 1 1 1 1 1 1 1 0.0088464446763252443 0.015155208285756616 1 0.0053625829919502323 1 1 1 1 1 1 1 0.009290127280662171 1 1 1 0.018843540331645911 1 1 1 0.014846908455401561 1 1 1 1 1 1 1 0.0087569154032186448 1.7961172306402151e-10 1 1 1 0.0096070588180094466 1 0.0015813909858194922 1 1 1 1 1 1 1 1 1 1 1 1 1 1 1 1 1 1 1 1 1 1 1 1 0.010282539324173352 1 1 1 1 1 1 1 1 1 1 1 1 1 1 1 0.012684255422470776 1 1 1 1 1 1 1 1 0.0083227956360328106 1 1 1 1 1 1 0.010240522234956079 1 0.0034872874809957662 1 1 1 0.0098800749961270376 0.010725257266793603 1 1 1 0.010469775208336285 1 1 1 0.01017318674481551 1 1 1 0.008901723695232993 1 1 1 1 1 1 1 0.0074558986768728241 1 1 1 1 0.0073004719069021205 1 1 1 1 1 1 1 0.0077160271133959908 1 1 1 1 1 0.010699545957562381 1 1 1 0.0099476355293937543 0.010685421063584898 1 1 1 1 1 1 1 1 1 1 1 1 1 1 1 1 1 0.010003408292462478 1 1 0.010122612830087009 1 1 0.0077992113409230471 0.0069903977867322928 1 1 1 1 1 1 1 1 1 1 1 1 1 1 1 0.0098719454413851732 1 1 1 0.0098537588722012355 1 1 1 1 1 1 1 1 1 1 1 1 1 1 1 1 1 0.0083318827695656392 0.0081427877029211088 1 1 1 1 1 1 1 1 1 0.010249863758130981 1 0.010081710153594324 1 1 1 1 1 1 1 1 0.0018696314518548453 0.013219006214645992 1 1 1 0.0014355187916052017 1 1 1 1 1 1 1 1 1 1 1 1 0.0066276442850049652 1 1 1 1 1 1 2.4676328007865178e-09 1 1 1 1 1 0.0095683603416069352 1 1 1 0.00017905907115422148 1 1 1 1 0.0020710695064412622 0.0070143647102630519 1 1 1 1 1 1 1 1 1 1 0.009179584680564512 1 0.0046243078997160111 1 1 1 1 1 0.0089596743320257133 1 1 1 1 1 1 1 1 1 1 1 1 1 1 1 1 1 1 0.0012244934981472558 1 1 1 1 0.0098608522275932808 1 1 1 1 1 1 1 1.5861614695300563e-09 1 1 1 1 1 1 1 1 1 0.022569334564004492 1 1 1 1 0.019056942355781044 -2.5794882670820973e-09 1 1 1 1 1 0.0054389222090550611 -2.6865945778817291e-09 1 1 1 1 1 1 1 1 0.011024302233299116 1 1 1 0.012830133967888534 7.6051710415359075e-10 1 1 1 1 1 1 1 1 1 1 1 1 1 1 1 1 1 1 1 1 1 1 1 1 1 1 1 1 1 1 1 1.7914779139316384e-09 1 1 1 1 1.7804582357061616e-09 1 1 1 0.013512930663700422 0.020970336583524679 1 1 1 1 1 1 0.011027957991474739 0.020642261701510969 1 1 1 1 1 1 0.010288589375856118 1 0.0023035478171797193 0.011910465465478878 1 1 1 0.013837373133846255 1 1 -1.1320105339218678e-09 1 0.019185366511045646 1 0.011906492017309867 1 1 1 1 0.017352568780447112 1 1 1 1 0.021021882895626641 1 1 1 1 1 1 1 1 1 1 1 1 1 1 1 1 1 1 1 1 1 1 1 1 1 1 1 1 0.0097125780831274228 1 1 1 1 1 1 1 1 1 1 1 1 1 0.02449393402693073 1 1 1 1 1 1 1 1 1 1 1 1 1 1 1 1 1 0.019210529341300006 0.018161584891724071 1 1 1 1 1 0.0091506131584326994 0.010252091928408919 1 0.003104611671908012 1 1 0.0049680501578749231 0.010003701260575773 1 0.014850446792571392 1 1 1 1 0.009970072669784058 1 1 1 0.014740545738506746 1 0.0077756604793976225 0.012800800873178196 1 1 1 1 1 1 1 1 1 0.0099651800709023436 0.013912776334910133 0.0040634295912926055 0.0083890019574301908 0.0068815530719546075 1 1 1 1 1 1 1 1 1 1 1 1 1 1 1 1 1 1 1 1 1 1 1 1 1 0.01087166347403597 1 1 1 1 1 0.0087247386910613012 0.0098079944811447044 1 1 1 1 1 1 1 1 0.0017777314466508997 1 0.0014850483405959951 1 1 1 1 1 1 0.0035135633068991701 1 1 0.0095748616043946286 1 0.00097091950301129992 1 1 1 0.012904384830673764 1 1 1 0.011522790467445365 1 1 1 1 1 1 1 1 1 0.0071910682281633095 1 0.0093636197851178424 1 1 0.01190505464590063 1 1 1 1 0.0093289465121922325 1 1 1 1 1 1 1 1 1 0.0070880515346003689 1 0.002911340546036284 0.010910489681914937 1 0.010000850880573585 1 1 1 1 1 0.011075155675876518 1 0.01384595705269538 0.011289666546463857 1 1 1 1 1 0.010373002625877467 1 1 1 1 1 1 1 1 1 1 1 1 1 1 1 1 1 1 1 1 1 1 1 1 1 1 1 1 1 1 1 0.010036572501242347 1 1 1 1 1 1 1 0.010485262893181461 1 1 1 1 0.0099119096678621996 1 1 1 1 1 1 1 1 1 1 1 1 0.010124388598891747 1 1 1 1 1 1 1 1 1 0.0083625384080668053 1 0.010376513513606987 1 1 0.008730928733382208 1 1 1 0.010047305761061408 1 1 1 1 1 1 1 1 1 1 1 1 1 1 0.0091753380157297698 1 1 1 0.0096996736626031518 1 1 1 1 0.0098411441860401516 1 1 1 1 1 1 1 1 1 1 1 1 1 1 1 1 1 1 1 1 1 1 0.009407098219427236 1 1 1 1 1 1 1 1 1 0.0088161111568020659 0.011726808664815415 1 1 1 1 0.016363873291476268 1 1 1 0.0099310128504137285 0.0088090183444848383 1 0.015677341963432394 1 1 1 1 0.018869306520555754 1 1 1 0.013556822702158439 1 1 1 1 1 1 1 1 1 1 1 1 1 1 0.0082321805288749703 1 0.01046942763236681 0.015704355460252218 1 1 0.019234968481750915 1 0.011486384605937261 1 1 1 1 1 1 1 1 1 1 1 0.010455043278887325 1 0.011290767115417979 1 1 1 1 1 1 1 1 1 1 1 1 0.018216806784047947 1 1 1 1 0.017329404076381671 1 1 1 1 1 1 1 1 0.016226745027214114 1 0.01527318972867087 1 1 0.0066589846874775087 0.0054679556517328448 1 1 1 1 0.0075002211364029597 0.010452305827392117 0.0071035301288662964 1 1 1 0.010159945377245936 1 1 1 1 1 1 0.0056450322650645479 1 1 0.0098257390861688082 1 1 1 1 1 1 1 1 1 1 0.0094799358674340292 1 0.0060620310867498875 1 1 0.019652452488550375 1 1 0.01298238571195188 1 1 1 1 1 1 1 1 1 0.0079715066941510142 1 0.010470622364290876 1 1 1 0.009334392820473613 1 1 1 1 1 1 1 1 1 1 0.011224331610235115 1 1 1 1 1 1 1 1 1 1 1 1 1 1 1 0.0095948736661695191 1 1 0.010012985039050043 1 1 1 1 1 1 1 1 0.012822706340783738 1 1 0.017725704152575121 1 0.010145041580611565 1 1 1 0.0099327368205615225 1 1 1 1 1 1 1 1 1 1 1 1 1 1 1 1 0.012889047774479185 1 1 1 1 1 1 1 0.0098819499131002145 1 1 1 0.0022348892175507243 1 1 1 1 1 1 1 1 0.0073439463914006381 1 1 1 1 1 1 1 1 1 1 1 1 1 1 1 1 1 1 1 1 1 1 1 1 1 1 1 1 1 1 1 1 1 1 1 1 1 1 1 1 1 1 1 1 1 1 1 1 1 1 1 1 1 1 1 1 1 1 1 1 1 1 1 1 1 0.0095210525017263153 1 1 1 1 1 1 1 0.008752917019334415 1 1 1 1 1 0.00836284992198226 1 1 1 1 1 1 1 1 1 1 1 1 1 1 1 1 1 0.015791178551752723 1 0.013828946118863449 1 1 1 0.019071248985502713 1 1 0.011881987698126704 1 1 1 0.0080341974178685105 1 0.019999743010345385 0.0096747199248134741 0.022042174488150573 1 1 1 1 0.017636007554366416 1 0.0082847397622217225 1 1 0.014868956658309382 1 1 1 1 1 0.011633312418796282 1 1 1 1 1 1 1 1 1 1 1 1 1 1 1 1 1 1 0.01229432130406722 1 1 1 1 1 1 0.016578610040072397 1 1 1 1 1 1 1 1 1 1 0.0092531267539808365 1 1 0.001194728852372158 1 1 1 0.012284320446002923 1 1 0.0099187936157738247 1 0.0099666316512544394 1 0.017326425530476981 1 1 0.0060460911794129098 0.014099727574229573 1 1 1 1 1 1 1 1 1 0.0090616714250827402 1 1 1 1 1 1 1 1 0.0033028686226662454 1 1 0.0146166745795879 1 1 0.012307512635847853 1 1 0.0082956157522320086 0.010471272817471289 1 1 1 0.0066942689994410817 1 0.010459279236656412 0.0084973717755900055 1 1 -1.1987292408699446e-09 0.0029909234881204533 1 1 0.0040636954684494589 1 -9.3201509704377017e-10 1 1 1 -3.4277043391151008e-09 1 1 0.006695051625198345 1 0.011490139471717009 1 1 0.010269169642379585 1 1 1 1 1 1 1 1 1 1 -6.1617583778372786e-10 1 1 1 1 1 1 1 1 1 1 1 1 1 1 1 1 1 1 1 1 0.010594079787151996 1 1 0.010325547839551683 1 1 1 1 1 1 1 1 1 1 1 1 1 1 1 1 1 1 0.0089917424896553133 1 1 1 1 0.007034454139136774 1 1 1 1 1 1 0.0111572483446916 0.029058860012333234 1 1 1 1 1 1 1 1 1 1 1 1 1 1 1 1 1 1 0.010828770332251953 1 1 1 0.010092151257340011 1 1 1 0.010396413405246739 1 1 1 0.009974294574709764 1 1 1 0.020367072636374946 1 1 1 1 1 1 0.0024451454151379476 1 1 1 1 1 1 1 1 1 1 1 1 1 1 1 1 1 1 1 1 1 1 1 1 1 0.011915461047221295 0.0012115195538526663 1 1 1 1 1.563114547520339e-09 1 0.017211052876897753 1 0.015393239565058899 1 0.01881893743078783 1 1 1 1 1 1 1 0.0045250946507160508 1 1 1 1 1 1 1 8.5529712132159652e-09 1 1 1 1 1 1 0.00023764897124492479 1 1 1 1 1 1 1 1 1 1 1 1.769654520145103e-09 0.010558240260415998 1 1 1 1 1 0.0058754691767174405 1 1 1 1 1 1 1 1 1 1 1 1 1 1 1 1 1 1 1 1 1 0.012407278944288027 0.011750241869912192 1 1 1 0.011184811551009512 0.01129459923175382 0.010582385774945906 1 1 1 1 1 1 1 0.010420718517240683 1 1 1 1 1 1 1 1 1 1 1 1 1 1 1 1 1 1 1 1 1 1 1 1 1 1 1 1 1 1 1 1 1 1 1 1 0.0079940705953698843 1 1 1 1 1 1 1 1 1 1 1 1 1 1 0.018163869015964181 1 0.017456941976906344 1 1 1 1 1 1 1 1 0.0082829730884790079 1 1 0.026286699846106348 0.0043464815590951791 1 1 1 1 1 0.020694692288613606 0.013057015483107861 1 1 1 1 1 1 1 1 1 1 1 1 1 0.017827656488227536 1 1 0.015389887712607622 1 0.016518524391285073 1 0.015508538352347473 1 1 1 1 1 1 1 1 1 1 1 1 1 1 1 0.0085263963022274569 1 1 1 1 1 1 1 0.0087525555057272816 0.0098295133348006575 0.01592972259183624 1 1 0.0049710169594184631 1 0.010069653139844422 1 1 1 0.007137704843571839 1 0.0010298185997817608 1 0.017170777401175771 1 0.017588663493568534 1 0.018408974809369729 1 1 1 1 1 1 1 0.0011592653768981095 1 0.010113208658033739 1 1 1 0.00058172544878878907 1 1 1 1 1 5.2084449947420453e-10 1 1 0.011458341684681791 1 1 0.011139941441394848 1 1 1 0.0012310449076327959 1 1 1 1 1 1 1 1 1 0.010659684434123996 1 1 1 1 1 1 0.0077539240835902204 1 1 1 1 1 0.0069385854891845997 1 1 1 1 1 1 0.017646065880260089 1 1 0.010635404791028384 1 1 1 1 1 1 1 1 1 1 1 1 1 1 1 1 0.009385436550216196 1 1 1 1 1 1 1 1 1 1 1 1 1 1 1 1 1 1 1 1 1 1 1 1 1 0.010546250053873406 1 0.010302616219229316 1 1 1 1 1 1 1 1 0.010243912134698122 1 1 1 1 0.0086018348084025836 1 1 1 1 1 1 1 1 1 1 1 1 0.009531195158682372 1 1 1 1 1 1 1 1 0.010491648821401217 1 1 1 1 1 1 1 1 1 1 1 1 1 1 1 1 1 1 1 1 1 1 1 1 1 0.0090354204281676911 1 1 1 1 1 1 1 1 1 1 1 1 1 1 1 1 1 1 1 0.011067786360034478 1 1 1 1 0.0017571097045322656 1 1 -6.8049473625486634e-09 1 0.01400073307310884 0.0078959650402346607 1 1 1 0.011189865675410049 1 0.01140517869412511 1 1 0.0072618056091490919 0.011575385861075323 1 1 1 1 0.010744751242976027 1 1 0.0072006853187054909 1 1 1 1 1 1 1 0.0097538192720399014 1 1 1 1 6.8907698297371311e-10 1 1 1 1 1 0.0064813055050923565 1 1 0.0076011138367384976 1 1 1 0.009316645833828803 1 1 1 1 0.0065945329947391315 1 1 1 1 1 0.0015411193594302708 1 1 1 1 0.00017006977916178556 1 1 1 1 1 1 1 1 1 0.0065343746316406607 1 1 1 1 0.00991206345440937 1 1 1 1 1 0.0087690674117904474 0.0040630150530475279 1 0.0099997957850008964 1 1 0.0081313442206377082 1 0.0022875331031174811 1 0.0097113492608563098 1 1 0.0059805202362822156 0.0088253495539965116 1 1 1 1 1 0.0079384113092774225 1 1 1 0.0086529357181794053 1 1 1 1 1 0.0099920808058997432 1 1 1 0.0094450595113059199 1 0.01042070786534683 1 0.009570615830232769 1 0.0062700947550133751 0.0098584494373131215 1 1 1 0.010001879414418664 1 1 1 0.0095011510127300455 0.010150376870321547 1 0.011427691238060141 1 1 1 0.009993939573669848 0.011290751914937169 1 0.010003822653135867 1 0.0092140541209283638 1 1 1 0.0094955772588391253 1 1 1 1 0.0097984146659320856 1 1 1 1 1 1 1 0.010050634952381086 1 0.0099980063136042643 1 0.010004534812326223 1 1 1 0.0093237087258539811 1 0.0038129421685436198 1 1 1 0.0090164454052628976 0.0094267251392168225 1 1 0.0097747403015835434 1 1 1 1 1 1 1 1 1 1 1 1 1 1 0.0057388205429957807 1 0.0099841954412325639 0.010979074989165241 0.0096997497807253478 0.012069933555620506 1 1 1 1 1 1 1 1 1 1 0.010784079413515307 1 1 1 1 1 1 1 1 1 1 1 1 1 1 1 1 1 1 1 1 1 1 1 1 1 1 1 1 1 1 1 1 1 1 1 1 1 1 1 1 1 1 1 1 1 1 1 1 1 1 0.0090811656592653476 1 1 1 1 1 0.012433741355636074 1 1 1 1 1 1 1 1 1 0.0058647593348174591 1 1 1 1 1 1 1 1 1 0.0069267156142400858 1 1 1 0.010004369462277368 0.0072468227235097538 1 1 1 1 1 1 1 1 1 1 1 1 1 1 1 1 1 1 1 1 1 0.015441862993245049 1 1 1 1 1 1 1 1 1 1 1 1 1 1 1 1 1 1 1 1 1 1 1 1 1 1 1 1 1 1 0.0099843475709055357 1 1 0.013666097568493012 1 0.0044859365278279162 0.004606329459352642 1 1 0.010762172124441839 0.0019607141363066141 0.017052035422161736 1 1 1 0.0099322476881780683 0.0010639082631233266 1 1 1 1 1 0.0073986522704527352 1 1 1 0.0099604519414488585 1 0.013241818052791017 1 1 1 1 1 1 0.0035615909777631776 1 1 0.0181563886743773 1 1 1 1 1 1 1 1 0.012037890384444659 1 1 1 0.01283048186033816 1 1 1 1 1 1 1 1 1 1 1 1 0.0023304685722549522 1 1 1 1 1 1 1 1 1 1 1 1 1 1 1 1 1 1 1 1 1 1 1 1 1 1 1 1 0.010409022221297217 1 1 1 1 1 1 1 0.010315941582840382 1 1 0.010132847685737807 1 0.011205985599964469 1 1 1 1 1 1 1 1 0.0088048389615656367 1 1 0.010291268767188042 1 1 1 1 1 1 1 1 1 1 1 1 1 1 1 1 1 1 1 1 1 1 1 1 0.016351131980497237 0.009485464133512804 0.0002633785874617961 1 1 1 1 1 0.010743494481490708 1 1 1 1 1 0.0027973208017368807 1 1 1 1 0.00038292506970224321 0.0019828285566444795 1 1 1 1 1 1 0.0097669167254735081 0.0075944254800289698 1 1 0.0099475927349570101 1 1 1 1 1 1 1 1 1 1 1 2.3456064868199178e-10 1 1 1 1 1 1 1 1 1 1 1 1 0.0061866165989506137 1 1 1 1 0.0069049571271999448 1 0.0088793254193251202 1 1 1 1 1 1 1 1 1 1 1 1 1 1 1 1 1 1 0.0096738941626302415 1 0.0060212463351924563 1 1 1 1 1 1 1 1 1 0.0021279247680278095 1 1 1 1 0.0047368430999675196 0.012558523114127383 1 0.013179453781057122 1 1 1 1 1 1 1 1 1 1 1 1 1 1 1 1 1 1 1 1 1 1 1 1 1 1 1 0.0097765461301407217 0.012591749832407448 1 1 1 1 0.0068472312027587218 0.0077857495664556686 1 0.010473393767584958 1 0.011325717809071968 1 1 1 1 1 1 1 1 1 1 1 1 0.010900237099344325 1 1 1 1 0.010536201906303166 1 1 0.0099823869175460073 1 1 1 1 1 1 1 1 1 1 1 1 1 1 1 1 1 1 1 1 1 1 0.0074961820751783051 1 1 1 1 1 1 1 1 1 1 1 0.0086168566558531626 1 1 1 1 1 1 1 1 1 1 1 1 1 1 1 1 1 1 1 1 1 0.0093229933785450789 1 1 0.0097685419889036243 0.0081208551649266866 1 1 0.0099725893258783074 1 0.0019169737385976368 1 1 1 0.0080902056409173709 1 1 1 1 1 1 1 1 1 0.0089782922024042033 1 1 1 0.0062093117653709562 1 1 1 1 1 1 1 1 1 1 1 1 1 1 1 1 1 0.011166521143285216 1 1 1 1 1 1 0.014010723961130025 1 1 1 1 1 0.010061941078019242 1 1 1 1 1 1 1 1 1 1 1 0.0094502340922194058 1 0.0092389786466093148 1 1 1 1 1 1 1 1 1 1 1 1 1 1 1 1 0.00077724241715388179 1 1 1 1 1 1 1 0.00552237517089787 1 1 1 1 1 0.0082668170572578158 1 1 1 0.0086732069335329429 1 1 1 1 1 0.00029524945131040314 1 1 1 1 1 5.2137857399492393e-10 1 1 1 -1.6369791286385826e-09 1 0.0094311516992751435 -4.5833685978491356e-10 1 0.0083834499626570351 1 1 1 1 1 1 1 1 1 -8.1963750370173116e-10 1 1 1 1 1 1 0.0092984936766168091 1 1 0.015364982277566379 1 0.0022896650032777415 1 0.013694463386831598 1 1 1 1 1 1 1 1 1 0.0058365076349834316 1 1 1 1 1 1 0.0054831948236128553 1 1 1 1 1 1 1 1 1 1 1 1 1 1 1 1 0.0096265156693430692 1 1 0.010051930287661277 1 1 1 1 1 1 0.010031416623444304 1 1 1 1 1 1 1 1 1 1 1 1 0.012415302266206026 0.0032464793238926627 1 0.0051086640799930423 1 1 1 1 1 1 0.010098571334335171 1 1 1 0.010129869326904607 1 1 1 1 1 0.010510562608058847 1 1 1 0.011503194514909054 1 1 1 1 1 1 1 1 1 1 1 1 1 1 1 1 1 1 1 1 1 1 1 1 1 0.010017952252077827 1 1 1 0.009987494647891863 1 -2.5280706798802566e-09 1 1 1 1 1 1 1 1 1 1 1 1 1 1 1 1 1 1 1 1 1 1 0.0098771457367878707 1 1 1 0.0089094073212068955 1 1 1 1 1 0.0098233194328051568 1 0.0067743811008701693 1 1 1 1 0.010304304056279898 1 1 1 1 1 1 1 1 1 1 -3.4176827444498681e-09 1 0.011427405726084534 1 1 1 -2.3753746955512689e-09 0.0026040093375676449 1 1 1 1 1 1 0.0085021730593331825 1 1 1 1 0.0039312213440989355 1 1 0.0073307715469617691 1 0.0049213949572362026 1 0.00050755881170858053 1 1 0.0066950587465322772 1 1 1 1 1 1 1 1 1 1 1 0.010866529612197452 1 1 1 1 1 1 1 1 0.0042514604681097162 1 1 1 1 1 1 1 1 1 1 1 0.0080750417381378441 1 1 1 1 1 1 0.010762745971096353 1 0.0096065247205316048 1 0.0015573719361686097 1 1 0.0097769787094365637 1 1 1 1 1 1 1 1 1 1 1 1 1 1 0.0055467213888531902 1 0.01058534260867834 1 1 1 1 1 1 1 1 1 1 1 1 0.020641892266205698 1 0.024349446535134801 1 1 1 1 1 1 0.0026741737154075129 1 1 0.010000315578689876 1 1 0.004096952045607196 1 0.0034433852077427815 1 1 0.0019807778575302859 1 1 1 1 0.0049196262592676385 1 1 1 1 1 1 1 1 1 0.010560318702318675 1 0.0088220136892535814 1 1 1 1 1 1 1 1 1 1 1 1 1 1 1 1 1 1 1 1 1 1 1 1 1 1 1 0.017259883405847727 1 1 0.012709225136432696 1 1 1 1 1 1 1 1 1 1 1 1 1 1 0.0066558337271210646 1 1 0.0102587245478858 1 1 1 1 0.0072214955330854244 1 1 1 1 1 1 0.0087999551522099408 1 1 1 1 0.0095654443780995874 1 0.0088612976360507023 1 0.0092226387846468874 1 1 1 1 1 1 1 1 1 1 1 1 0.0071683360008668803 1 1 1 1 1 1 1 1 1 1 1 1 1 1 1 1 1 0.0083314589123680959 1 1 1 1 1 1 1 1 1 1 1 1 1 1 1 1 1 1 1 1 1 1 1 1 1 0.0099372201834251259 1 0.0085813016223074967 1 0.0095527261116808634 1 1 1 1 1 0.004145053705701611 1 1 1 1 1 1 -3.1762214663944022e-09 1 1 1 1 1 0.0083122670067878827 1 1 1 1 1 -5.1437376892560227e-09 1 1 1 0.011186479882553731 1 1 1 1 1 1 1 1 0.0099797821942219297 1 1 0.0034549506162999677 1 1 1 1 1 0.010175342430360702 0.0091088201277212261 1 1 1 1 0.0097133585386313046 1.3914976740303509e-09 1 1 1 1 0.001854930490487558 1 1 1 1 1 0.020037918906595453 1 1 1 1 1 1 0.01611626975466831 1 1 1 1 1 1 1 1 0.010847374491048202 1 1 1 1 1 1 0.0089575053976466354 1 1 1 1 1 1 1 1 1 1 1 1 0.012445086697356701 1 1 1 1 1 1 1 1 1 0.011689871024090123 1 1 1 1 1 1 1 1 1 1 1 1 1 1 1 1 1 1 1 1 1 1 1 1 1 1 1 1 1 1 1 1 1 1 1 1 1 1 1 1 1 1 1 1 1 1 1 1 1 1 1 1 1 1 1 1 1 1 1 1 1 0.010111596057300255 1 1 1 1 1 1 1 1 1 1 1 1 1 1 1 1 1 0.010543340171090314 1 1 1 1 1 1 1 1 1 1 1 1 1 1 1 1 1 1 0.0097073162708343763 1 1 1 1 1 1 1 1 1 1 1 1 1 1 1 1 1 1 1 1 1 1 1 1 1 1 1 1 0.00027476912794817399 1 1 1 1 1 1 1 1 1 1 1 1 1 1 1 1 0.021563334231570412 1 1 1 1 1 1 1 0.017965500223983681 1 1 1 1 1 1 1 1 0.011496384391111829 1 1 1 1 1 0.012903961160226449 1 1 1 1 1 1 1 1 1 0.01088073656372893 1 1 1 1 1 1 1 1 1 0.0096834852014688853 1 1 1 1 1 1 1 1 1 1 1 1 1 1 0.0086668665576919417 1 0.0060854468908580883 1 1 1 1 1 1 0.0027519387171828884 1 1 0.0050413176932982869 1 1 1 0.012487424422023483 1 1 0.024307086604186227 1 1 1 1 0.0097769001130388195 1 1 1 1 0.00060415977748648833 1 1 1 1 1 1 0.010896845749073715 1 1 1 1 1 0.0076116878746797581 0.010100252413094646 1 1 1 1 1 1 1 1 1 1 1 1 1 1 1 1 1 1 0.010599557472955101 1 1 1 1 1 1 1 1 1 0.00098748872589530384 1 1 0.011130235417103368 1 1 1 1 1 1 1 0.003455445251553833 1 1 1 1 1 1 1 1 1 1 1 0.010509369502666161 1 1 1 1 1 1 0.010871692417782859 1 1 1 1 1 1 1 0.013031394902600919 1 1 1 9.0664531235122581e-05 1 -9.3966135740475298e-10 1 1 1 1 1 1 1 1 1 1 1 1 1 1 1 1 1 1 1 0.0087646465837171172 1 1 1 0.0068320926493222259 1 1 1 1 1 0.0062432046286498635 1 1 1 1 1 1 1 1 1 1 1 1 1 1 1 1 0.012220130172346336 1 1 1 1 1 0.012282596061969254 0.012067262246742004 1 1 1 1 1 1 1 1 1 1 1 1 1 1 1 1 1 1 1 1 0.010043515913049417 1 1 1 1 1 1 1 1 1 1 1 1 0.0050134750968164644 1 1 1 1 1 0.0096064506854259477 0.0099229526223899092 0.0073011523006623474 1 0.004734683752499462 0.01065747527122974 1 1 1 1 1 1 1 0.0098241835738840169 0.0098126747521610786 1 1 1 1 0.0099723819597632157 1 1 1 1 0.0097264320870348864 1 1 1 1 0.010021369131203939 1 1 1 1 1 1 1 1 1 1 1 1 0.010060634809405474 1 1 1 1 0.0099631230731190897 1 1 0.0099460041767630222 1 1 1 1 1 1 1 1 1 1 1 1 1 1 1 0.010784908601425282 1 1 0.010980357826179059 1 1 1 0.0086440749130535302 0.013171868298965168 1 1 1 0.0095646540562522864 1 1 1 1 1 1 0.010419726772289056 1 1 1 1 1 1 1 1 1 1 1 1 0.0097188718028812168 1 1 1 1 1 1 1 1 1 1 1 1 1 1 1 1 1 1 1 1 1 1 1 1 1 1 1 0.012280309927693585 1 1 1 1 1 0.010832566395802781 1 1 1 0.010207970419352168 0.0095194182688312021 1 1 1 1 1 1 1 1 1 1 1 1 1 1 1 1 1 1 1 1 1 1 0.0087495201647503212 1 1 1 1 0.010131905421567396 0.01063942766862036 1 1 1 1 1 1 1 1 1 1 1 1 1 1 1 0.0040599111473553703 1 1 1 1 1 1 1 1 1 1 1 1 1 1 1 1 1 0.010629355791716324 1 0.0068819122184054088 1 1 1 0.0042689946362845302 1 1 1 1 1 0.014093207711307809 1 1 1 1 1 1 0.0089293976170467873 1 1 1 1 1 1 0.0017984101860962047 1 0.012433921087689703 1 1 1 0.0054581068869200295 1 1 1 1 1 1 1 1 1 1 1 1 1 1 0.0094396418246428249 0.015352514339898662 1 1 1 1 1 0.012521581237514685 1 0.010012039773146261 1 1 0.0088499148827902233 1 0.010275005785209436 1 1 1 1 -5.5177611611723076e-09 1 1 0.012885352444523691 1 1 1 1 1 1 0.013765456371077796 1 1 1 1 1 1 1 1 1 1 1 1 1 0.0086152865499287586 1 1 1 1 1 1 1 1 1 1 1 1 1 0.0037642442394152653 1 1 1 8.3733978084588045e-10 1 1 1 1 1 1 1 1 0.0019646315778312842 1 1 1 1 0.0083316846928119317 1 1 0.0050307939243088347 0.0071668119892016602 1 1 0.014621545051780413 0.012693841952295793 1 1 1 1 1 1 1 1 1 1 0.0060447256180094153 0.012163947615321226 1 1 1 1 1 1 1 1 1 0.0040864275525502869 1 1 0.011304284663443971 1 0.0099939885098907083 1 1 1 1 1 0.01021130657879534 1 1 1 1 1 1 1 1 0.00918381069057609 1 1 1 1 1 1 1 0.0074286137675033323 1 1 1 0.0099758131878242978 4.2048533648031405e-09 1 1 1 1 1 1 1 1 1 1 1 1 1 1 1 1 1 1 1 1 1 1 1 1 1 1 1 1 1 1 1 1 0.0026749916030888547 1 1 1 0.0039055963690485442 1 1 1 1 1 1 1 1 1 1 1 1 1 1 1 1 1 0.0025674727481553514 1 1 1 1 0.010025466441213021 1 1 1 1 1 1 1 1 1 0.0098130840170104917 1 1 7.1440341334426741e-05 1 1 1 1 1 1 1 0.021674203688472643 0.010067893624584608 1 1 1 1 1 1 0.0090803774098116019 1 1 1 1 1 1 1 1 1 1 1 1 1 1 1 1 1 1 1 1 1 1 1 1 1 1 1 1 1 1 1 1 1 1 1 1 -2.4787001062787084e-09 1 1 1 1 0.0095880463175079013 1 1 1 1 1 1 1 1 1 1 1 1 1 1 1 1 1 1 1 1 1 1 1 1 1 1 1 1 1 1 1 1 1 1 1 1 1 1 1 1 0.0086906216529328076 1 1 1 1 0.0094540919302874768 1 1 1 1 1 1 0.013854840852783608 1 1 1 1 1 1 1 1 1 1 0.01112242939876016 1 1 1 1 1 1 1 1 1 1 0.013185561588297423 1 1 1 1 1 1 1 1 1 1 1 1 1 1 1 1 1 1 1 1 1 1 1 1 1 1 1 1 1 1 1 1 0.0094955113792909666 1 1 1 1 1 1 0.0081977142962433355 1 1 1 1 1 1 1 1 1 1 1 1 1 0.003567812480368757 1 1 1 0.0053513434137150307 0.008981927224449059 1 1 1 0.0069277260990103888 1 1 0.011837029558899745 1 1 1 1 0.012325192425928645 1 1 1 1 1 0.010339696065031746 0.0099299783911219186 1 0.0091732851966765117 1 1 1 0.010279577771238946 0.015025045735939269 1 1 1 1 1 1 1 1 1 0.0093792691695066474 1 1 0.0085680850976807554 1 1 1 1 1 1 1 1 1 1 1 1 1 1 1 0.010036564092660481 1 0.011769621723078823 0.01464278516521994 1 1 1 1 1 1 0.014872617765889128 1 0.016620360224329174 1 1 1 1 1 1 1 1 1 1 1 1 1 1 0.024607667206061039 1 1 1 0.018287450582403823 1 1 1 1 1 1 1 1 1 1 1 1 1 1 0.023713983633458412 1 1 1 1 1 1 0.024393292827673295 1 1 0.0096506315417104714 1 1 1 1 1 1 0.010202978135815955 1 1 1 1 1 1 1 1 1 1 0.015579014404702532 1 1 1 0.014828065337349313 1 1 1 0.0019418593926931269 1 1 1 1 1 0.024721225550527082 1 1 1 1 0.018097897371951485 0.005720846268425131 1 1 1 0.013695933310107072 1 1 1 1 1 1 1 1 1 1 0.01278683575244826 0.0077429209773938537 1 1 0.00017283435321538421 0.02699450834588283 1 0.024732611152531413 1 1 0.010104028630188834 1 1 1 1 1 1 1 0.0097871160159128667 0.0086517050948119404 1 1 1 0.010809056317869256 1 1 4.3991176465474346e-09 1 1 1 1 1 0.010271258259342818 1 1 1 1 1 0.010028026774854124 0.026319539703395865 0.00024310676794762204 1 1 1 1 0.0259925248192708 1 1 0.00035593215406738016 1 0.024344026729295483 1 1 0.00032864897123673423 1 1 0.021206889895348593 1 0.037125721035228744 1 1 1 1 1 0.0200755113078359 0.0099711266556558077 1 1 1 1 1 0.017405745105666285 1 1 0.013015582308316016 1 1 1 1 1 0.011059375604268194 1 1 1 1 1 1 1 1 1 1 1 1 0.017456081037577044 1 1 0.0091221368611368887 -5.2962232273412457e-09 1 0.0028072839123668269 0.017402999967456829 1 0.021573882550055341 1 0.014740252101960054 1 1 0.010021364267491277 0.031616712513933859 1 1 1 1 1 1 1 1 1 1 1 1 1 1 1 1 1 0.00010933054767041026 1 1 1 1 1 1 1 1 0.0012840885236983426 1 1 0.0099746566326072202 1 0.0099361178552967444 1 1 1 1 1 0.0097085964412608108 1 1 1 1 1 1 1 1 1 1 1 1 1 1 1 1 1 1 1 1 1 1 0.012985325149160405 1 1 1 1 1 1 1 1 1 1 1 1 1 1 1 1 1 1 1 1 1 1 1 1 1 1 1 1 1 1 1 1 0.01142830319561056 1 1 1 1 1 1 1 0.0095437970284169577 0.0076075038797607684 1 1 1 1 1 1 1 1 1 1 1 0.0087518932400101092 -2.2884384456856033e-09 1 1 1 1 1 1 1 1 1 0.0033931997555078884 1 1 1 1 1 1 1 1 1 1 1 1 1 1 1 1 0.018339716414210682 1 1 1 0.02296275916769178 1 1 1 1 0.027166984071666671 1 1 1 1 1 1 1 1 1 1 1 1 1 1 1 0.0090422042234413122 0.0097636559887165977 1 1 1 1 1 1 1 1 1 1 1 1 1 1 1 1 1 0.0098573715560802098 1 1 1 1 1 1 1 1 1 1 1 1 1 1 1 1 0.0087852818246689848 1 1 1 0.0099867435563267982 1 1 1 1 0.0094513896250491541 1 1 1 1 1 1 1 1 1 1 1 1 0.0078400698743906483 1 1 1 1 1 0.0093731876054834601 1 1 1 1 1 1 0.007180138047682097 1 1 1 1 1 1 1 1 1 1 0.010946665820559386 1 0.0092462014513526383 1 1 0.0089662720386783773 1 1 1 1 1 1 1 1 1 0.0084825872797093908 1 1 1 0.0061016057414767962 1 0.0046331132177670868 1 1 1 1 0.0085901476595591063 1 1 1 1 1 1 1 1 1 0.0086684277482894419 1 1 0.0075499789665877271 1 
</DataArray>
</CellData>
</Piece>
</UnstructuredGrid>
</VTKFile>
