<?xml version="1.0"?>
<VTKFile type="UnstructuredGrid" version="0.1" byte_order="LittleEndian">
<UnstructuredGrid>
<Piece NumberOfPoints="30957" NumberOfCells="10847">
<Points>
<DataArray type="Float64" NumberOfComponents="3" format="ascii">
-0.5 -0.5 0 -0.47120411738687817 -0.46389436250812971 0 -0.5 -0.43325734090004919 0 -0.5 -0.5 0 -0.46177944143722638 -0.5 0 -0.47120411738687817 -0.46389436250812971 0 -0.46177944143722638 -0.5 0 -0.44050651558103499 -0.47948761799458511 0 -0.47120411738687817 -0.46389436250812971 0 -0.45149654745744422 -0.43840233748464441 0 -0.47120411738687817 -0.46389436250812971 0 -0.46954456837491049 -0.42604858596389189 0 -0.45149654745744422 -0.43840233748464441 0 -0.4453150137602524 -0.45857218635572561 0 -0.43493249183805671 -0.44556966440005252 0 -0.44050651558103499 -0.47948761799458511 0 -0.4453150137602524 -0.45857218635572561 0 -0.4278319662168889 -0.46381336530289891 0 -0.44050651558103499 -0.47948761799458511 0 -0.4453150137602524 -0.45857218635572561 0 -0.47120411738687817 -0.46389436250812971 0 -0.45149654745744422 -0.43840233748464441 0 -0.4453150137602524 -0.45857218635572561 0 -0.47120411738687817 -0.46389436250812971 0 -0.47120411738687817 -0.46389436250812971 0 -0.5 -0.43325734090004919 0 -0.46954456837491049 -0.42604858596389189 0 -0.5 -0.43325734090004919 0 -0.47563538822490697 -0.41015817923674608 0 -0.48539331281604148 -0.39697119748621679 0 -0.5 -0.43325734090004919 0 -0.50000000000000444 -0.39051894366396339 0 -0.48539331281604148 -0.39697119748621679 0 -0.47563538822490697 -0.41015817923674608 0 -0.46954456837491049 -0.42604858596389189 0 -0.4619895481942633 -0.41107813452837799 0 -0.5 -0.43325734090004919 0 -0.47563538822490697 -0.41015817923674608 0 -0.46954456837491049 -0.42604858596389189 0 -0.50000000000000444 -0.39051894366396339 0 -0.48402855742399947 -0.3794190986461683 0 -0.48580530174085379 -0.36314921555540491 0 -0.50000000000000444 -0.39051894366396339 0 -0.48402855742399947 -0.3794190986461683 0 -0.50000000000000444 -0.39051894366396339 0 -0.48539331281604148 -0.39697119748621679 0 -0.48402855742399947 -0.3794190986461683 0 -0.47563538822490697 -0.41015817923674608 0 -0.47429419340057288 -0.39385245732894941 0 -0.46435106755713562 -0.39908871881395941 0 -0.47563538822490697 -0.41015817923674608 0 -0.48539331281604148 -0.39697119748621679 0 -0.47429419340057288 -0.39385245732894941 0 -0.48539331281604148 -0.39697119748621679 0 -0.47429419340057288 -0.39385245732894941 0 -0.47699880945166562 -0.38264522555729508 0 -0.47699880945166562 -0.38264522555729508 0 -0.46695218096338992 -0.38602373059370892 0 -0.46860430608728992 -0.36831925362837331 0 -0.48539331281604148 -0.39697119748621679 0 -0.47699880945166562 -0.38264522555729508 0 -0.48402855742399947 -0.3794190986461683 0 -0.48539331281604148 -0.39697119748621679 0 -0.47699880945166562 -0.38264522555729508 0 -0.47429419340057288 -0.39385245732894941 0 -0.47699880945166562 -0.38264522555729508 0 -0.46695218096338992 -0.38602373059370892 0 -0.47699880945166562 -0.38264522555729508 0 -0.46860430608728992 -0.36831925362837331 0 -0.47699880945166562 -0.38264522555729508 0 -0.48402855742399947 -0.3794190986461683 0 -0.46860430608728992 -0.36831925362837331 0 -0.45895008840711038 -0.37899996272486602 0 -0.46695218096338992 -0.38602373059370892 0 -0.46860430608728992 -0.36831925362837331 0 -0.45895008840711038 -0.37899996272486602 0 -0.45509873572632148 -0.3906280966051478 0 -0.44708215082180353 -0.38141274682380227 0 -0.45895008840711038 -0.37899996272486602 0 -0.46695218096338992 -0.38602373059370892 0 -0.45509873572632148 -0.3906280966051478 0 -0.45509873572632148 -0.3906280966051478 0 -0.46435106755713562 -0.39908871881395941 0 -0.44941999832388368 -0.40282973196011979 0 -0.47429419340057288 -0.39385245732894941 0 -0.46695218096338992 -0.38602373059370892 0 -0.46435106755713562 -0.39908871881395941 0 -0.46695218096338992 -0.38602373059370892 0 -0.45509873572632148 -0.3906280966051478 0 -0.46435106755713562 -0.39908871881395941 0 -0.46435106755713562 -0.39908871881395941 0 -0.44941999832388368 -0.40282973196011979 0 -0.4619895481942633 -0.41107813452837799 0 -0.44941999832388368 -0.40282973196011979 0 -0.43576489374223909 -0.40959267010010342 0 -0.43524500729050258 -0.39805954013448858 0 -0.44941999832388368 -0.40282973196011979 0 -0.44455255681338252 -0.39203513629979042 0 -0.43524500729050258 -0.39805954013448858 0 -0.45509873572632148 -0.3906280966051478 0 -0.44941999832388368 -0.40282973196011979 0 -0.44455255681338252 -0.39203513629979042 0 -0.45509873572632148 -0.3906280966051478 0 -0.44455255681338252 -0.39203513629979042 0 -0.44708215082180353 -0.38141274682380227 0 -0.44455255681338252 -0.39203513629979042 0 -0.44708215082180353 -0.38141274682380227 0 -0.43192883359269207 -0.3836277700427263 0 -0.44708215082180353 -0.38141274682380227 0 -0.43192883359269207 -0.3836277700427263 0 -0.44116542271728693 -0.37238627884632453 0 -0.45895008840711038 -0.37899996272486602 0 -0.44708215082180353 -0.38141274682380227 0 -0.45109544622768433 -0.36939150625119282 0 -0.45149654745744422 -0.43840233748464441 0 -0.46954456837491049 -0.42604858596389189 0 -0.45099671849047979 -0.41726545666717257 0 -0.46954456837491049 -0.42604858596389189 0 -0.4619895481942633 -0.41107813452837799 0 -0.45099671849047979 -0.41726545666717257 0 -0.47563538822490697 -0.41015817923674608 0 -0.46435106755713562 -0.39908871881395941 0 -0.4619895481942633 -0.41107813452837799 0 -0.44941999832388368 -0.40282973196011979 0 -0.4619895481942633 -0.41107813452837799 0 -0.45099671849047979 -0.41726545666717257 0 -0.44941999832388368 -0.40282973196011979 0 -0.45099671849047979 -0.41726545666717257 0 -0.43576489374223909 -0.40959267010010342 0 -0.45099671849047979 -0.41726545666717257 0 -0.44137699127042912 -0.42157624685835932 0 -0.43576489374223909 -0.40959267010010342 0 -0.45149654745744422 -0.43840233748464441 0 -0.44137699127042912 -0.42157624685835932 0 -0.42724980539155338 -0.42104452318151703 0 -0.45149654745744422 -0.43840233748464441 0 -0.42724980539155338 -0.42104452318151703 0 -0.45149654745744422 -0.43840233748464441 0 -0.45099671849047979 -0.41726545666717257 0 -0.44137699127042912 -0.42157624685835932 0 -0.45149654745744422 -0.43840233748464441 0 -0.42724980539155338 -0.42104452318151703 0 -0.43493249183805671 -0.44556966440005252 0 -0.42724980539155338 -0.42104452318151703 0 -0.43493249183805671 -0.44556966440005252 0 -0.41987266082354152 -0.43788670605155328 0 -0.44137699127042912 -0.42157624685835932 0 -0.43576489374223909 -0.40959267010010342 0 -0.42724980539155338 -0.42104452318151703 0 -0.43576489374223909 -0.40959267010010342 0 -0.42226149214261299 -0.40824650230207649 0 -0.42724980539155338 -0.42104452318151703 0 -0.42724980539155338 -0.42104452318151703 0 -0.41616810128903081 -0.4198767747784925 0 -0.40300306332566282 -0.40368670887838948 0 -0.42724980539155338 -0.42104452318151703 0 -0.40300306332566282 -0.40368670887838948 0 -0.42226149214261299 -0.40824650230207649 0 -0.42724980539155338 -0.42104452318151703 0 -0.40300306332566282 -0.40368670887838948 0 -0.41616810128903081 -0.4198767747784925 0 -0.40173542240972437 -0.44090696573003518 0 -0.42724980539155338 -0.42104452318151703 0 -0.41616810128903081 -0.4198767747784925 0 -0.41987266082354152 -0.43788670605155328 0 -0.41616810128903081 -0.4198767747784925 0 -0.40173542240972437 -0.44090696573003518 0 -0.41987266082354152 -0.43788670605155328 0 -0.43192883359269207 -0.3836277700427263 0 -0.43116454123529607 -0.36800039632657078 0 -0.41939774089595178 -0.37336154924530862 0 -0.43192883359269207 -0.3836277700427263 0 -0.42302820611099679 -0.39866210704829602 0 -0.41188955365135821 -0.38606679421346468 0 -0.43192883359269207 -0.3836277700427263 0 -0.43524500729050258 -0.39805954013448858 0 -0.42302820611099679 -0.39866210704829602 0 -0.44455255681338252 -0.39203513629979042 0 -0.43192883359269207 -0.3836277700427263 0 -0.43524500729050258 -0.39805954013448858 0 -0.43576489374223909 -0.40959267010010342 0 -0.43524500729050258 -0.39805954013448858 0 -0.42302820611099679 -0.39866210704829602 0 -0.43576489374223909 -0.40959267010010342 0 -0.42226149214261299 -0.40824650230207649 0 -0.42302820611099679 -0.39866210704829602 0 -0.42302820611099679 -0.39866210704829602 0 -0.41188955365135821 -0.38606679421346468 0 -0.40300306332566282 -0.40368670887838948 0 -0.42226149214261299 -0.40824650230207649 0 -0.42302820611099679 -0.39866210704829602 0 -0.40300306332566282 -0.40368670887838948 0 -0.41188955365135821 -0.38606679421346468 0 -0.41939774089595178 -0.37336154924530862 0 -0.40364922704091771 -0.36776129256775397 0 -0.43192883359269207 -0.3836277700427263 0 -0.41188955365135821 -0.38606679421346468 0 -0.41939774089595178 -0.37336154924530862 0 -0.41188955365135821 -0.38606679421346468 0 -0.39587469151253563 -0.38233190464131589 0 -0.40364922704091771 -0.36776129256775397 0 -0.39587469151253563 -0.38233190464131589 0 -0.40300306332566282 -0.40368670887838948 0 -0.37875632125977199 -0.38632889457526193 0 -0.40300306332566282 -0.40368670887838948 0 -0.37875632125977199 -0.38632889457526193 0 -0.41188955365135821 -0.38606679421346468 0 -0.39587469151253563 -0.38233190464131589 0 -0.40300306332566282 -0.40368670887838948 0 -0.40300306332566282 -0.40368670887838948 0 -0.37875632125977199 -0.38632889457526193 0 -0.38091960801568392 -0.40885003952666221 0 -0.39587469151253563 -0.38233190464131589 0 -0.37875632125977199 -0.38632889457526193 0 -0.3820752922849675 -0.3678158329717095 0 -0.39673592147291981 -0.41989049426782382 0 -0.38313730077258279 -0.42720141671048539 0 -0.40173542240972437 -0.44090696573003518 0 -0.41616810128903081 -0.4198767747784925 0 -0.39673592147291981 -0.41989049426782382 0 -0.40173542240972437 -0.44090696573003518 0 -0.40300306332566282 -0.40368670887838948 0 -0.39673592147291981 -0.41989049426782382 0 -0.38091960801568392 -0.40885003952666221 0 -0.41616810128903081 -0.4198767747784925 0 -0.40300306332566282 -0.40368670887838948 0 -0.39673592147291981 -0.41989049426782382 0 -0.39673592147291981 -0.41989049426782382 0 -0.38091960801568392 -0.40885003952666221 0 -0.38313730077258279 -0.42720141671048539 0 -0.38091960801568392 -0.40885003952666221 0 -0.38313730077258279 -0.42720141671048539 0 -0.36625347498949451 -0.42319202998444422 0 -0.38313730077258279 -0.42720141671048539 0 -0.37677810925995658 -0.44256459333301112 0 -0.36625347498949451 -0.42319202998444422 0 -0.38313730077258279 -0.42720141671048539 0 -0.37677810925995658 -0.44256459333301112 0 -0.40173542240972437 -0.44090696573003518 0 -0.37677810925995658 -0.44256459333301112 0 -0.3873027435304181 -0.46193715668157809 0 -0.37677810925995658 -0.44256459333301112 0 -0.40173542240972437 -0.44090696573003518 0 -0.3873027435304181 -0.46193715668157809 0 -0.40173542240972437 -0.44090696573003518 0 -0.3873027435304181 -0.46193715668157809 0 -0.40173542240972437 -0.44090696573003518 0 -0.3873027435304181 -0.46193715668157809 0 -0.40842325917804739 -0.46183777422202699 0 -0.3873027435304181 -0.46193715668157809 0 -0.39764204396300512 -0.48096857834078899 0 -0.40842325917804739 -0.46183777422202699 0 -0.37677810925995658 -0.44256459333301112 0 -0.3873027435304181 -0.46193715668157809 0 -0.36193809871805238 -0.46299370356289737 0 -0.3873027435304181 -0.46193715668157809 0 -0.37227888040636309 -0.48382877590008161 0 -0.3873027435304181 -0.46193715668157809 0 -0.38642751517657992 -0.48705281073661127 0 -0.39764204396300512 -0.48096857834078899 0 -0.3873027435304181 -0.46193715668157809 0 -0.38642751517657992 -0.48705281073661127 0 -0.37227888040636309 -0.48382877590008161 0 -0.38642751517657992 -0.48705281073661127 0 -0.37935757360935579 -0.5 0 -0.37227888040636309 -0.48382877590008161 0 -0.38642751517657992 -0.48705281073661127 0 -0.39764204396300512 -0.48096857834078899 0 -0.40798134439559158 -0.5 0 -0.38642751517657992 -0.48705281073661127 0 -0.37935757360935579 -0.5 0 -0.40798134439559158 -0.5 0 -0.39764204396300512 -0.48096857834078899 0 -0.40798134439559158 -0.5 0 -0.3873027435304181 -0.46193715668157809 0 -0.39764204396300512 -0.48096857834078899 0 -0.46177944143722638 -0.5 0 -0.44050651558103499 -0.47948761799458511 0 -0.40798134439559158 -0.5 0 -0.44050651558103499 -0.47948761799458511 0 -0.41700142579967892 -0.47801996157801879 0 -0.40798134439559158 -0.5 0 -0.39764204396300512 -0.48096857834078899 0 -0.41700142579967892 -0.47801996157801879 0 -0.40842325917804739 -0.46183777422202699 0 -0.39764204396300512 -0.48096857834078899 0 -0.41700142579967892 -0.47801996157801879 0 -0.40798134439559158 -0.5 0 -0.44050651558103499 -0.47948761799458511 0 -0.41700142579967892 -0.47801996157801879 0 -0.4278319662168889 -0.46381336530289891 0 -0.4453150137602524 -0.45857218635572561 0 -0.4278319662168889 -0.46381336530289891 0 -0.43493249183805671 -0.44556966440005252 0 -0.4278319662168889 -0.46381336530289891 0 -0.43493249183805671 -0.44556966440005252 0 -0.41987266082354152 -0.43788670605155328 0 -0.40173542240972437 -0.44090696573003518 0 -0.41987266082354152 -0.43788670605155328 0 -0.40842325917804739 -0.46183777422202699 0 -0.4278319662168889 -0.46381336530289891 0 -0.41987266082354152 -0.43788670605155328 0 -0.40842325917804739 -0.46183777422202699 0 -0.41700142579967892 -0.47801996157801879 0 -0.4278319662168889 -0.46381336530289891 0 -0.40842325917804739 -0.46183777422202699 0 -0.44077913706085309 -0.25265964186792861 0 -0.45612331121252081 -0.27788360740256551 0 -0.45254283284491892 -0.25745065792541988 0 -0.44077913706085309 -0.25265964186792861 0 -0.45612331121252081 -0.27788360740256551 0 -0.45254283284491892 -0.25745065792541988 0 -0.44077913706085309 -0.25265964186792861 0 -0.44497996325768502 -0.24954655088257049 0 -0.45254283284491892 -0.25745065792541988 0 -0.45322302897513811 -0.24734791131453041 0 -0.44497996325768502 -0.24954655088257049 0 -0.44077913706085309 -0.25265964186792861 0 -0.44497996325768502 -0.24954655088257049 0 -0.45612331121252081 -0.27788360740256551 0 -0.43882338453168113 -0.28850742779142868 0 -0.43645971168415809 -0.27424673614852652 0 -0.44077913706085309 -0.25265964186792861 0 -0.45612331121252081 -0.27788360740256551 0 -0.43645971168415809 -0.27424673614852652 0 -0.45612331121252081 -0.27788360740256551 0 -0.46096875426170469 -0.26211891087197781 0 -0.48003238733747972 -0.26911505035583683 0 -0.45254283284491892 -0.25745065792541988 0 -0.45612331121252081 -0.27788360740256551 0 -0.46096875426170469 -0.26211891087197781 0 -0.45254283284491892 -0.25745065792541988 0 -0.46096875426170469 -0.26211891087197781 0 -0.45843439111128348 -0.25461759505590392 0 -0.45254283284491892 -0.25745065792541988 0 -0.45843439111128348 -0.25461759505590392 0 -0.45322302897513811 -0.24734791131453041 0 -0.45843439111128348 -0.25461759505590392 0 -0.46580549045884612 -0.25070533186041938 0 -0.45322302897513811 -0.24734791131453041 0 -0.46096875426170469 -0.26211891087197781 0 -0.45843439111128348 -0.25461759505590392 0 -0.46580549045884612 -0.25070533186041938 0 -0.46580549045884612 -0.25070533186041938 0 -0.47927821206045718 -0.2549957909490197 0 -0.48003238733747972 -0.26911505035583683 0 -0.46580549045884612 -0.25070533186041938 0 -0.47927821206045718 -0.2549957909490197 0 -0.47463435663203962 -0.24749806294815899 0 -0.46580549045884612 -0.25070533186041938 0 -0.48003238733747972 -0.26911505035583683 0 -0.46096875426170469 -0.26211891087197781 0 -0.46580549045884612 -0.25070533186041938 0 -0.48003238733747972 -0.26911505035583683 0 -0.49929810055980212 -0.26613309173812583 0 -0.48603407074230492 -0.2425748151412834 0 -0.47927821206045718 -0.2549957909490197 0 -0.49929810055980212 -0.26613309173812583 0 -0.48003238733747972 -0.26911505035583683 0 -0.47927821206045718 -0.2549957909490197 0 -0.49929810055980212 -0.26613309173812583 0 -0.48603407074230492 -0.2425748151412834 0 -0.49929810055980212 -0.26613309173812583 0 -0.48144451711655539 -0.29004452082875759 0 -0.49929810055980212 -0.26613309173812583 0 -0.48003238733747972 -0.26911505035583683 0 -0.48144451711655539 -0.29004452082875759 0 -0.45612331121252081 -0.27788360740256551 0 -0.48003238733747972 -0.26911505035583683 0 -0.48144451711655539 -0.29004452082875759 0 -0.49929810055980212 -0.26613309173812583 0 -0.48144451711655539 -0.29004452082875759 0 -0.5 -0.29521254615250803 0 -0.48144451711655539 -0.29004452082875759 0 -0.5 -0.29521254615250803 0 -0.48380988455595642 -0.31043158027912382 0 -0.5 -0.29521254615250803 0 -0.48380988455595642 -0.31043158027912382 0 -0.5 -0.32304535521229488 0 -0.48144451711655539 -0.29004452082875759 0 -0.46275912454725587 -0.29500694529285432 0 -0.46359093367330811 -0.3139559499193888 0 -0.48144451711655539 -0.29004452082875759 0 -0.48380988455595642 -0.31043158027912382 0 -0.46359093367330811 -0.3139559499193888 0 -0.48144451711655539 -0.29004452082875759 0 -0.46359093367330811 -0.3139559499193888 0 -0.44987773618663901 -0.29814370302070509 0 -0.45130439720702259 -0.31254490980091548 0 -0.46359093367330811 -0.3139559499193888 0 -0.46275912454725587 -0.29500694529285432 0 -0.44987773618663901 -0.29814370302070509 0 -0.46359093367330811 -0.3139559499193888 0 -0.45612331121252081 -0.27788360740256551 0 -0.48144451711655539 -0.29004452082875759 0 -0.46275912454725587 -0.29500694529285432 0 -0.45612331121252081 -0.27788360740256551 0 -0.46275912454725587 -0.29500694529285432 0 -0.44987773618663901 -0.29814370302070509 0 -0.45612331121252081 -0.27788360740256551 0 -0.43882338453168113 -0.28850742779142868 0 -0.44987773618663901 -0.29814370302070509 0 -0.43882338453168113 -0.28850742779142868 0 -0.44987773618663901 -0.29814370302070509 0 -0.42913880764573542 -0.30096784541595201 0 -0.44987773618663901 -0.29814370302070509 0 -0.43727656521463809 -0.31485565764689322 0 -0.42913880764573542 -0.30096784541595201 0 -0.44987773618663901 -0.29814370302070509 0 -0.45130439720702259 -0.31254490980091548 0 -0.43727656521463809 -0.31485565764689322 0 -0.44771914550552089 -0.33267685630738708 0 -0.43727656521463809 -0.31485565764689322 0 -0.44771914550552089 -0.33267685630738708 0 -0.43519952492786168 -0.32898838636999128 0 -0.43727656521463809 -0.31485565764689322 0 -0.45130439720702259 -0.31254490980091548 0 -0.45818437680976293 -0.32686315985528741 0 -0.43727656521463809 -0.31485565764689322 0 -0.45818437680976293 -0.32686315985528741 0 -0.43727656521463809 -0.31485565764689322 0 -0.44771914550552089 -0.33267685630738708 0 -0.45818437680976293 -0.32686315985528741 0 -0.43727656521463809 -0.31485565764689322 0 -0.44771914550552089 -0.33267685630738708 0 -0.43873988283882659 -0.34682774247704479 0 -0.43519952492786168 -0.32898838636999128 0 -0.44771914550552089 -0.33267685630738708 0 -0.45816172579640541 -0.35049805496788028 0 -0.45818437680976293 -0.32686315985528741 0 -0.47909218840488682 -0.33887066206368271 0 -0.46731001982951509 -0.34438503114708691 0 -0.44771914550552089 -0.33267685630738708 0 -0.45788059059228298 -0.33865317103466408 0 -0.45818437680976293 -0.32686315985528741 0 -0.45818437680976293 -0.32686315985528741 0 -0.47909218840488682 -0.33887066206368271 0 -0.45788059059228298 -0.33865317103466408 0 -0.45818437680976293 -0.32686315985528741 0 -0.46731001982951509 -0.34438503114708691 0 -0.44771914550552089 -0.33267685630738708 0 -0.45788059059228298 -0.33865317103466408 0 -0.45816172579640541 -0.35049805496788028 0 -0.45818437680976293 -0.32686315985528741 0 -0.46359093367330811 -0.3139559499193888 0 -0.47693547668878278 -0.32263334146595551 0 -0.45130439720702259 -0.31254490980091548 0 -0.45818437680976293 -0.32686315985528741 0 -0.46359093367330811 -0.3139559499193888 0 -0.48380988455595642 -0.31043158027912382 0 -0.46359093367330811 -0.3139559499193888 0 -0.47693547668878278 -0.32263334146595551 0 -0.48380988455595642 -0.31043158027912382 0 -0.47693547668878278 -0.32263334146595551 0 -0.5 -0.32304535521229488 0 -0.5 -0.32304535521229488 0 -0.47909218840488682 -0.33887066206368271 0 -0.50000000000000866 -0.35087816427208168 0 -0.47693547668878278 -0.32263334146595551 0 -0.5 -0.32304535521229488 0 -0.47909218840488682 -0.33887066206368271 0 -0.45818437680976293 -0.32686315985528741 0 -0.47693547668878278 -0.32263334146595551 0 -0.47909218840488682 -0.33887066206368271 0 -0.47909218840488682 -0.33887066206368271 0 -0.47219266949247601 -0.35297211889482383 0 -0.46731001982951509 -0.34438503114708691 0 -0.50000000000000444 -0.39051894366396339 0 -0.50000000000000866 -0.35087816427208168 0 -0.48580530174085379 -0.36314921555540491 0 -0.47909218840488682 -0.33887066206368271 0 -0.47219266949247601 -0.35297211889482383 0 -0.48580530174085379 -0.36314921555540491 0 -0.47909218840488682 -0.33887066206368271 0 -0.50000000000000866 -0.35087816427208168 0 -0.48580530174085379 -0.36314921555540491 0 -0.47909218840488682 -0.33887066206368271 0 -0.50000000000000866 -0.35087816427208168 0 -0.47219266949247601 -0.35297211889482383 0 -0.48580530174085379 -0.36314921555540491 0 -0.46860430608728992 -0.36831925362837331 0 -0.48402855742399947 -0.3794190986461683 0 -0.48580530174085379 -0.36314921555540491 0 -0.46860430608728992 -0.36831925362837331 0 -0.48402855742399947 -0.3794190986461683 0 -0.46860430608728992 -0.36831925362837331 0 -0.45895008840711038 -0.37899996272486602 0 -0.46860430608728992 -0.36831925362837331 0 -0.45109544622768433 -0.36939150625119282 0 -0.46860430608728992 -0.36831925362837331 0 -0.44848211558947898 -0.3538386029265348 0 -0.46860430608728992 -0.36831925362837331 0 -0.45816172579640541 -0.35049805496788028 0 -0.46860430608728992 -0.36831925362837331 0 -0.44848211558947898 -0.3538386029265348 0 -0.45109544622768433 -0.36939150625119282 0 -0.47219266949247601 -0.35297211889482383 0 -0.46860430608728992 -0.36831925362837331 0 -0.45816172579640541 -0.35049805496788028 0 -0.46860430608728992 -0.36831925362837331 0 -0.45816172579640541 -0.35049805496788028 0 -0.44848211558947898 -0.3538386029265348 0 -0.47219266949247601 -0.35297211889482383 0 -0.46731001982951509 -0.34438503114708691 0 -0.45816172579640541 -0.35049805496788028 0 -0.45788059059228298 -0.33865317103466408 0 -0.46731001982951509 -0.34438503114708691 0 -0.45816172579640541 -0.35049805496788028 0 -0.44771914550552089 -0.33267685630738708 0 -0.44848211558947898 -0.3538386029265348 0 -0.43873988283882659 -0.34682774247704479 0 -0.44848211558947898 -0.3538386029265348 0 -0.43873988283882659 -0.34682774247704479 0 -0.43209539125017887 -0.35518823900547591 0 -0.44771914550552089 -0.33267685630738708 0 -0.45816172579640541 -0.35049805496788028 0 -0.44848211558947898 -0.3538386029265348 0 -0.44848211558947898 -0.3538386029265348 0 -0.44090290868457371 -0.36360259097856568 0 -0.43209539125017887 -0.35518823900547591 0 -0.44848211558947898 -0.3538386029265348 0 -0.43873988283882659 -0.34682774247704479 0 -0.44090290868457371 -0.36360259097856568 0 -0.44116542271728693 -0.37238627884632453 0 -0.45109544622768433 -0.36939150625119282 0 -0.44090290868457371 -0.36360259097856568 0 -0.44116542271728693 -0.37238627884632453 0 -0.43116454123529607 -0.36800039632657078 0 -0.44708215082180353 -0.38141274682380227 0 -0.44116542271728693 -0.37238627884632453 0 -0.45109544622768433 -0.36939150625119282 0 -0.44848211558947898 -0.3538386029265348 0 -0.44090290868457371 -0.36360259097856568 0 -0.45109544622768433 -0.36939150625119282 0 -0.43192883359269207 -0.3836277700427263 0 -0.44116542271728693 -0.37238627884632453 0 -0.43116454123529607 -0.36800039632657078 0 -0.43116454123529607 -0.36800039632657078 0 -0.42149695027109318 -0.35983594984102463 0 -0.41939774089595178 -0.37336154924530862 0 -0.43116454123529607 -0.36800039632657078 0 -0.43209539125017887 -0.35518823900547591 0 -0.42149695027109318 -0.35983594984102463 0 -0.44090290868457371 -0.36360259097856568 0 -0.43116454123529607 -0.36800039632657078 0 -0.43209539125017887 -0.35518823900547591 0 -0.43873988283882659 -0.34682774247704479 0 -0.43209539125017887 -0.35518823900547591 0 -0.42835992509166798 -0.3393579522246965 0 -0.43209539125017887 -0.35518823900547591 0 -0.42047915378981948 -0.34933771376272499 0 -0.42835992509166798 -0.3393579522246965 0 -0.43209539125017887 -0.35518823900547591 0 -0.42047915378981948 -0.34933771376272499 0 -0.42149695027109318 -0.35983594984102463 0 -0.42047915378981948 -0.34933771376272499 0 -0.40989885864124631 -0.35286424290517993 0 -0.42149695027109318 -0.35983594984102463 0 -0.42047915378981948 -0.34933771376272499 0 -0.40989885864124631 -0.35286424290517993 0 -0.41054464369491123 -0.3394421848372482 0 -0.40989885864124631 -0.35286424290517993 0 -0.42149695027109318 -0.35983594984102463 0 -0.40364922704091771 -0.36776129256775397 0 -0.42149695027109318 -0.35983594984102463 0 -0.41939774089595178 -0.37336154924530862 0 -0.40364922704091771 -0.36776129256775397 0 -0.39587469151253563 -0.38233190464131589 0 -0.40364922704091771 -0.36776129256775397 0 -0.3820752922849675 -0.3678158329717095 0 -0.40364922704091771 -0.36776129256775397 0 -0.3820752922849675 -0.3678158329717095 0 -0.39031461098071518 -0.3478952990933179 0 -0.3820752922849675 -0.3678158329717095 0 -0.39031461098071518 -0.3478952990933179 0 -0.3674057803758316 -0.35431276726727462 0 -0.39031461098071518 -0.3478952990933179 0 -0.36847567111510288 -0.33571524633050481 0 -0.3674057803758316 -0.35431276726727462 0 -0.40989885864124631 -0.35286424290517993 0 -0.40364922704091771 -0.36776129256775397 0 -0.39031461098071518 -0.3478952990933179 0 -0.40989885864124631 -0.35286424290517993 0 -0.39031461098071518 -0.3478952990933179 0 -0.41054464369491123 -0.3394421848372482 0 -0.39031461098071518 -0.3478952990933179 0 -0.39630885667722399 -0.32459829434942922 0 -0.41054464369491123 -0.3394421848372482 0 -0.39031461098071518 -0.3478952990933179 0 -0.39630885667722399 -0.32459829434942922 0 -0.36847567111510288 -0.33571524633050481 0 -0.39630885667722399 -0.32459829434942922 0 -0.3815222965011868 -0.3061784207106088 0 -0.36847567111510288 -0.33571524633050481 0 -0.39630885667722399 -0.32459829434942922 0 -0.41672315280914168 -0.32261123196378722 0 -0.40657096931944681 -0.29722121949232511 0 -0.42047915378981948 -0.34933771376272499 0 -0.41054464369491123 -0.3394421848372482 0 -0.42835992509166798 -0.3393579522246965 0 -0.39630885667722399 -0.32459829434942922 0 -0.41672315280914168 -0.32261123196378722 0 -0.41054464369491123 -0.3394421848372482 0 -0.41672315280914168 -0.32261123196378722 0 -0.41054464369491123 -0.3394421848372482 0 -0.42835992509166798 -0.3393579522246965 0 -0.43519952492786168 -0.32898838636999128 0 -0.42835992509166798 -0.3393579522246965 0 -0.42735033789202498 -0.32306088432137692 0 -0.41672315280914168 -0.32261123196378722 0 -0.42835992509166798 -0.3393579522246965 0 -0.42735033789202498 -0.32306088432137692 0 -0.43873988283882659 -0.34682774247704479 0 -0.43519952492786168 -0.32898838636999128 0 -0.42835992509166798 -0.3393579522246965 0 -0.43873988283882659 -0.34682774247704479 0 -0.43519952492786168 -0.32898838636999128 0 -0.43873988283882659 -0.34682774247704479 0 -0.42835992509166798 -0.3393579522246965 0 -0.43519952492786168 -0.32898838636999128 0 -0.42735033789202498 -0.32306088432137692 0 -0.4314144922789096 -0.31148902822222319 0 -0.43519952492786168 -0.32898838636999128 0 -0.43727656521463809 -0.31485565764689322 0 -0.4314144922789096 -0.31148902822222319 0 -0.43519952492786168 -0.32898838636999128 0 -0.4314144922789096 -0.31148902822222319 0 -0.43727656521463809 -0.31485565764689322 0 -0.4314144922789096 -0.31148902822222319 0 -0.41672315280914168 -0.32261123196378722 0 -0.42735033789202498 -0.32306088432137692 0 -0.4314144922789096 -0.31148902822222319 0 -0.42913880764573542 -0.30096784541595201 0 -0.4314144922789096 -0.31148902822222319 0 -0.41842823709146337 -0.29795200579321518 0 -0.42913880764573542 -0.30096784541595201 0 -0.4314144922789096 -0.31148902822222319 0 -0.43727656521463809 -0.31485565764689322 0 -0.42913880764573542 -0.30096784541595201 0 -0.4314144922789096 -0.31148902822222319 0 -0.43727656521463809 -0.31485565764689322 0 -0.42913880764573542 -0.30096784541595201 0 -0.42913880764573542 -0.30096784541595201 0 -0.42544014953176962 -0.28386782303690888 0 -0.42103269551054961 -0.2871340389522884 0 -0.43882338453168113 -0.28850742779142868 0 -0.42913880764573542 -0.30096784541595201 0 -0.42544014953176962 -0.28386782303690888 0 -0.42913880764573542 -0.30096784541595201 0 -0.42544014953176962 -0.28386782303690888 0 -0.43882338453168113 -0.28850742779142868 0 -0.42544014953176962 -0.28386782303690888 0 -0.43645971168415809 -0.27424673614852652 0 -0.42913880764573542 -0.30096784541595201 0 -0.42103269551054961 -0.2871340389522884 0 -0.42913880764573542 -0.30096784541595201 0 -0.42103269551054961 -0.2871340389522884 0 -0.41842823709146337 -0.29795200579321518 0 -0.42103269551054961 -0.2871340389522884 0 -0.40887654302698861 -0.28917864423361178 0 -0.41292658337536492 -0.27330023248862412 0 -0.42103269551054961 -0.2871340389522884 0 -0.41392110551077649 -0.29280210634692189 0 -0.40887654302698861 -0.28917864423361178 0 -0.42103269551054961 -0.2871340389522884 0 -0.41392110551077649 -0.29280210634692189 0 -0.41842823709146337 -0.29795200579321518 0 -0.42544014953176962 -0.28386782303690888 0 -0.42103269551054961 -0.2871340389522884 0 -0.41292658337536492 -0.27330023248862412 0 -0.41392110551077649 -0.29280210634692189 0 -0.40657096931944681 -0.29722121949232511 0 -0.41842823709146337 -0.29795200579321518 0 -0.41392110551077649 -0.29280210634692189 0 -0.40887654302698861 -0.28917864423361178 0 -0.40657096931944681 -0.29722121949232511 0 -0.4314144922789096 -0.31148902822222319 0 -0.40657096931944681 -0.29722121949232511 0 -0.41842823709146337 -0.29795200579321518 0 -0.4314144922789096 -0.31148902822222319 0 -0.40657096931944681 -0.29722121949232511 0 -0.41672315280914168 -0.32261123196378722 0 -0.4314144922789096 -0.31148902822222319 0 -0.40657096931944681 -0.29722121949232511 0 -0.40657096931944681 -0.29722121949232511 0 -0.3815222965011868 -0.3061784207106088 0 -0.39196594840155541 -0.2888334539852831 0 -0.39630885667722399 -0.32459829434942922 0 -0.40657096931944681 -0.29722121949232511 0 -0.3815222965011868 -0.3061784207106088 0 -0.40657096931944681 -0.29722121949232511 0 -0.3815222965011868 -0.3061784207106088 0 -0.3815222965011868 -0.3061784207106088 0 -0.39196594840155541 -0.2888334539852831 0 -0.37421978604223999 -0.30198453795708519 0 -0.37519020746514631 -0.2897347421023504 0 -0.39196594840155541 -0.2888334539852831 0 -0.37155383280592058 -0.27711063345107811 0 -0.39196594840155541 -0.2888334539852831 0 -0.37421978604223999 -0.30198453795708519 0 -0.37519020746514631 -0.2897347421023504 0 -0.39196594840155541 -0.2888334539852831 0 -0.37421978604223999 -0.30198453795708519 0 -0.39196594840155541 -0.2888334539852831 0 -0.37155383280592058 -0.27711063345107811 0 -0.40887654302698861 -0.28917864423361178 0 -0.39196594840155541 -0.2888334539852831 0 -0.41292658337536492 -0.27330023248862412 0 -0.40887654302698861 -0.28917864423361178 0 -0.40657096931944681 -0.29722121949232511 0 -0.39196594840155541 -0.2888334539852831 0 -0.40657096931944681 -0.29722121949232511 0 -0.39196594840155541 -0.2888334539852831 0 -0.39196594840155541 -0.2888334539852831 0 -0.41292658337536492 -0.27330023248862412 0 -0.39508072165669811 -0.27112772764147941 0 -0.40190870609421009 -0.25449723798200929 0 -0.41292658337536492 -0.27330023248862412 0 -0.39196594840155541 -0.2888334539852831 0 -0.39508072165669811 -0.27112772764147941 0 -0.41292658337536492 -0.27330023248862412 0 -0.39196594840155541 -0.2888334539852831 0 -0.39508072165669811 -0.27112772764147941 0 -0.37155383280592058 -0.27711063345107811 0 -0.38447573308900712 -0.25606062661185608 0 -0.37155383280592058 -0.27711063345107811 0 -0.39508072165669811 -0.27112772764147941 0 -0.38447573308900712 -0.25606062661185608 0 -0.37155383280592058 -0.27711063345107811 0 -0.39508072165669811 -0.27112772764147941 0 -0.38447573308900712 -0.25606062661185608 0 -0.40190870609421009 -0.25449723798200929 0 -0.40190870609421009 -0.25449723798200929 0 -0.41292658337536492 -0.27330023248862412 0 -0.42174149141780232 -0.26676780065786609 0 -0.41603051253650869 -0.24036420679564921 0 -0.40190870609421009 -0.25449723798200929 0 -0.41292658337536492 -0.27330023248862412 0 -0.42174149141780232 -0.26676780065786609 0 -0.40190870609421009 -0.25449723798200929 0 -0.42174149141780232 -0.26676780065786609 0 -0.41603051253650869 -0.24036420679564921 0 -0.42174149141780232 -0.26676780065786609 0 -0.42228007360992031 -0.24400999108587701 0 -0.41603051253650869 -0.24036420679564921 0 -0.42544014953176962 -0.28386782303690888 0 -0.41292658337536492 -0.27330023248862412 0 -0.42174149141780232 -0.26676780065786609 0 -0.42103269551054961 -0.2871340389522884 0 -0.41292658337536492 -0.27330023248862412 0 -0.41292658337536492 -0.27330023248862412 0 -0.42174149141780232 -0.26676780065786609 0 -0.42544014953176962 -0.28386782303690888 0 -0.42174149141780232 -0.26676780065786609 0 -0.42544014953176962 -0.28386782303690888 0 -0.42174149141780232 -0.26676780065786609 0 -0.43645971168415809 -0.27424673614852652 0 -0.44077913706085309 -0.25265964186792861 0 -0.42174149141780232 -0.26676780065786609 0 -0.42228007360992031 -0.24400999108587701 0 -0.44077913706085309 -0.25265964186792861 0 -0.42174149141780232 -0.26676780065786609 0 -0.43645971168415809 -0.27424673614852652 0 -0.44077913706085309 -0.25265964186792861 0 -0.42174149141780232 -0.26676780065786609 0 -0.31803993511846312 -0.25967572995143129 0 -0.33168645956306869 -0.2542145225846455 0 -0.31562540891235408 -0.24499054903389081 0 -0.31803993511846312 -0.25967572995143129 0 -0.32888667720152343 -0.26699904156269139 0 -0.33168645956306869 -0.2542145225846455 0 -0.31803993511846312 -0.25967572995143129 0 -0.31562540891235408 -0.24499054903389081 0 -0.31652186189938131 -0.2751994866164803 0 -0.32888667720152343 -0.26699904156269139 0 -0.33522342486164158 -0.28703977490364802 0 -0.31803993511846312 -0.25967572995143129 0 -0.31652186189938131 -0.2751994866164803 0 -0.32888667720152343 -0.26699904156269139 0 -0.34177193512956522 -0.27192699050181929 0 -0.35222939904599659 -0.28090836327352331 0 -0.33522342486164158 -0.28703977490364802 0 -0.32888667720152343 -0.26699904156269139 0 -0.34177193512956522 -0.27192699050181929 0 -0.33522342486164158 -0.28703977490364802 0 -0.32888667720152343 -0.26699904156269139 0 -0.34177193512956522 -0.27192699050181929 0 -0.34020817440802109 -0.25910860293133958 0 -0.32888667720152343 -0.26699904156269139 0 -0.34020817440802109 -0.25910860293133958 0 -0.33168645956306869 -0.2542145225846455 0 -0.34020817440802109 -0.25910860293133958 0 -0.33168645956306869 -0.2542145225846455 0 -0.34616816808376821 -0.25207713586638669 0 -0.34020817440802109 -0.25910860293133958 0 -0.33168645956306869 -0.2542145225846455 0 -0.34616816808376821 -0.25207713586638669 0 -0.36611326166637581 -0.25914119021803478 0 -0.35162014618449461 -0.26566257801786192 0 -0.34020817440802109 -0.25910860293133958 0 -0.34616816808376821 -0.25207713586638669 0 -0.35162014618449461 -0.26566257801786192 0 -0.34020817440802109 -0.25910860293133958 0 -0.35162014618449461 -0.26566257801786192 0 -0.34177193512956522 -0.27192699050181929 0 -0.34020817440802109 -0.25910860293133958 0 -0.35162014618449461 -0.26566257801786192 0 -0.38447573308900712 -0.25606062661185608 0 -0.36611326166637581 -0.25914119021803478 0 -0.37155383280592058 -0.27711063345107811 0 -0.38447573308900712 -0.25606062661185608 0 -0.36611326166637581 -0.25914119021803478 0 -0.3689443854345229 -0.2416094576424957 0 -0.34616816808376821 -0.25207713586638669 0 -0.36611326166637581 -0.25914119021803478 0 -0.3689443854345229 -0.2416094576424957 0 -0.37155383280592058 -0.27711063345107811 0 -0.35162014618449461 -0.26566257801786192 0 -0.36611326166637581 -0.25914119021803478 0 -0.37155383280592058 -0.27711063345107811 0 -0.35162014618449461 -0.26566257801786192 0 -0.37155383280592058 -0.27711063345107811 0 -0.35222939904599659 -0.28090836327352331 0 -0.35162014618449461 -0.26566257801786192 0 -0.34177193512956522 -0.27192699050181929 0 -0.35222939904599659 -0.28090836327352331 0 -0.35162014618449461 -0.26566257801786192 0 -0.35222939904599659 -0.28090836327352331 0 -0.35018579268348821 -0.29269985975077772 0 -0.33522342486164158 -0.28703977490364802 0 -0.35018579268348821 -0.29269985975077772 0 -0.36302126261086992 -0.29101034301595452 0 -0.35448869241583503 -0.30491005258084058 0 -0.35222939904599659 -0.28090836327352331 0 -0.35018579268348821 -0.29269985975077772 0 -0.36302126261086992 -0.29101034301595452 0 -0.37155383280592058 -0.27711063345107811 0 -0.35222939904599659 -0.28090836327352331 0 -0.36302126261086992 -0.29101034301595452 0 -0.37519020746514631 -0.2897347421023504 0 -0.36302126261086992 -0.29101034301595452 0 -0.37421978604223999 -0.30198453795708519 0 -0.37155383280592058 -0.27711063345107811 0 -0.36302126261086992 -0.29101034301595452 0 -0.37519020746514631 -0.2897347421023504 0 -0.37155383280592058 -0.27711063345107811 0 -0.36302126261086992 -0.29101034301595452 0 -0.3815222965011868 -0.3061784207106088 0 -0.37421978604223999 -0.30198453795708519 0 -0.35647362368292551 -0.31513562192888839 0 -0.3815222965011868 -0.3061784207106088 0 -0.35647362368292551 -0.31513562192888839 0 -0.37421978604223999 -0.30198453795708519 0 -0.36261342056614299 -0.30266928201647758 0 -0.35647362368292551 -0.31513562192888839 0 -0.37421978604223999 -0.30198453795708519 0 -0.35647362368292551 -0.31513562192888839 0 -0.36302126261086992 -0.29101034301595452 0 -0.37421978604223999 -0.30198453795708519 0 -0.36261342056614299 -0.30266928201647758 0 -0.36302126261086992 -0.29101034301595452 0 -0.36261342056614299 -0.30266928201647758 0 -0.35448869241583503 -0.30491005258084058 0 -0.36261342056614299 -0.30266928201647758 0 -0.35448869241583503 -0.30491005258084058 0 -0.35647362368292551 -0.31513562192888839 0 -0.36302126261086992 -0.29101034301595452 0 -0.35448869241583503 -0.30491005258084058 0 -0.35018579268348821 -0.29269985975077772 0 -0.35448869241583503 -0.30491005258084058 0 -0.34523020116376169 -0.30219835379638188 0 -0.35018579268348821 -0.29269985975077772 0 -0.34523020116376169 -0.30219835379638188 0 -0.33685609896084701 -0.29835876048197701 0 -0.35448869241583503 -0.30491005258084058 0 -0.34523020116376169 -0.30219835379638188 0 -0.34290452782341763 -0.31147249320449277 0 -0.35448869241583503 -0.30491005258084058 0 -0.34290452782341763 -0.31147249320449277 0 -0.35647362368292551 -0.31513562192888839 0 -0.34290452782341763 -0.31147249320449277 0 -0.33755731020895119 -0.3071704844296278 0 -0.33218947240844732 -0.31373925634397082 0 -0.34523020116376169 -0.30219835379638188 0 -0.34290452782341763 -0.31147249320449277 0 -0.33755731020895119 -0.3071704844296278 0 -0.33755731020895119 -0.3071704844296278 0 -0.3251838649394303 -0.30170250333060677 0 -0.33218947240844732 -0.31373925634397082 0 -0.33755731020895119 -0.3071704844296278 0 -0.33685609896084701 -0.29835876048197701 0 -0.3251838649394303 -0.30170250333060677 0 -0.34523020116376169 -0.30219835379638188 0 -0.33755731020895119 -0.3071704844296278 0 -0.33685609896084701 -0.29835876048197701 0 -0.35018579268348821 -0.29269985975077772 0 -0.33685609896084701 -0.29835876048197701 0 -0.33522342486164158 -0.28703977490364802 0 -0.33685609896084701 -0.29835876048197701 0 -0.33522342486164158 -0.28703977490364802 0 -0.3251838649394303 -0.30170250333060677 0 -0.31652186189938131 -0.2751994866164803 0 -0.33522342486164158 -0.28703977490364802 0 -0.30969674907461958 -0.2905046491542147 0 -0.33522342486164158 -0.28703977490364802 0 -0.30969674907461958 -0.2905046491542147 0 -0.33522342486164158 -0.28703977490364802 0 -0.3251838649394303 -0.30170250333060677 0 -0.30969674907461958 -0.2905046491542147 0 -0.3251838649394303 -0.30170250333060677 0 -0.31010346064399802 -0.30965750136676851 0 -0.30969674907461958 -0.2905046491542147 0 -0.3251838649394303 -0.30170250333060677 0 -0.3235480844900458 -0.31664333723931171 0 -0.31010346064399802 -0.30965750136676851 0 -0.3251838649394303 -0.30170250333060677 0 -0.3235480844900458 -0.31664333723931171 0 -0.33218947240844732 -0.31373925634397082 0 -0.3235480844900458 -0.31664333723931171 0 -0.30253784560385288 -0.3263193614595804 0 -0.3235480844900458 -0.31664333723931171 0 -0.33141794402905728 -0.32409532873446623 0 -0.30636226437518921 -0.33305503554004412 0 -0.33356093664229047 -0.33211544354834233 0 -0.3106482496016556 -0.34909526516779632 0 -0.33141794402905728 -0.32409532873446623 0 -0.30636226437518921 -0.33305503554004412 0 -0.33356093664229047 -0.33211544354834233 0 -0.32620062508587838 -0.34446121026634979 0 -0.3106482496016556 -0.34909526516779632 0 -0.33356093664229047 -0.33211544354834233 0 -0.31306193025997042 -0.34485467583731211 0 -0.3106482496016556 -0.34909526516779632 0 -0.33356093664229047 -0.33211544354834233 0 -0.33141794402905728 -0.32409532873446623 0 -0.30636226437518921 -0.33305503554004412 0 -0.33356093664229047 -0.33211544354834233 0 -0.31306193025997042 -0.34485467583731211 0 -0.30636226437518921 -0.33305503554004412 0 -0.33356093664229047 -0.33211544354834233 0 -0.33763564291620701 -0.34226337400461992 0 -0.34928622875643561 -0.33414626866166519 0 -0.33356093664229047 -0.33211544354834233 0 -0.33763564291620701 -0.34226337400461992 0 -0.32620062508587838 -0.34446121026634979 0 -0.34290452782341763 -0.31147249320449277 0 -0.33141794402905728 -0.32409532873446623 0 -0.35647362368292551 -0.31513562192888839 0 -0.33356093664229047 -0.33211544354834233 0 -0.33141794402905728 -0.32409532873446623 0 -0.35647362368292551 -0.31513562192888839 0 -0.3235480844900458 -0.31664333723931171 0 -0.33141794402905728 -0.32409532873446623 0 -0.33218947240844732 -0.31373925634397082 0 -0.34290452782341763 -0.31147249320449277 0 -0.33141794402905728 -0.32409532873446623 0 -0.33218947240844732 -0.31373925634397082 0 -0.33141794402905728 -0.32409532873446623 0 -0.35647362368292551 -0.31513562192888839 0 -0.33356093664229047 -0.33211544354834233 0 -0.35647362368292551 -0.31513562192888839 0 -0.33356093664229047 -0.33211544354834233 0 -0.35647362368292551 -0.31513562192888839 0 -0.34928622875643561 -0.33414626866166519 0 -0.3815222965011868 -0.3061784207106088 0 -0.35647362368292551 -0.31513562192888839 0 -0.36847567111510288 -0.33571524633050481 0 -0.36847567111510288 -0.33571524633050481 0 -0.34928622875643561 -0.33414626866166519 0 -0.35028526942565191 -0.34550165749597039 0 -0.35647362368292551 -0.31513562192888839 0 -0.36847567111510288 -0.33571524633050481 0 -0.34928622875643561 -0.33414626866166519 0 -0.33763564291620701 -0.34226337400461992 0 -0.34928622875643561 -0.33414626866166519 0 -0.35028526942565191 -0.34550165749597039 0 -0.35028526942565191 -0.34550165749597039 0 -0.35037250575456841 -0.35925821120771012 0 -0.3674057803758316 -0.35431276726727462 0 -0.35028526942565191 -0.34550165749597039 0 -0.35037250575456841 -0.35925821120771012 0 -0.33875781747911798 -0.3533318196943751 0 -0.36847567111510288 -0.33571524633050481 0 -0.35028526942565191 -0.34550165749597039 0 -0.3674057803758316 -0.35431276726727462 0 -0.37875632125977199 -0.38632889457526193 0 -0.3820752922849675 -0.3678158329717095 0 -0.3629113326939839 -0.36969035650443449 0 -0.3820752922849675 -0.3678158329717095 0 -0.3674057803758316 -0.35431276726727462 0 -0.3629113326939839 -0.36969035650443449 0 -0.35037250575456841 -0.35925821120771012 0 -0.3674057803758316 -0.35431276726727462 0 -0.3629113326939839 -0.36969035650443449 0 -0.35037250575456841 -0.35925821120771012 0 -0.3629113326939839 -0.36969035650443449 0 -0.3461291987001372 -0.37448117324536973 0 -0.35037250575456841 -0.35925821120771012 0 -0.3461291987001372 -0.37448117324536973 0 -0.33796724245384863 -0.36492868687154412 0 -0.3461291987001372 -0.37448117324536973 0 -0.33796724245384863 -0.36492868687154412 0 -0.33119890305053701 -0.37825038600564609 0 -0.32917143593005188 -0.36784731534726661 0 -0.33796724245384863 -0.36492868687154412 0 -0.33119890305053701 -0.37825038600564609 0 -0.32851977194374782 -0.3601833696124348 0 -0.33796724245384863 -0.36492868687154412 0 -0.33875781747911798 -0.3533318196943751 0 -0.32917143593005188 -0.36784731534726661 0 -0.32851977194374782 -0.3601833696124348 0 -0.33796724245384863 -0.36492868687154412 0 -0.35037250575456841 -0.35925821120771012 0 -0.33796724245384863 -0.36492868687154412 0 -0.33875781747911798 -0.3533318196943751 0 -0.33763564291620701 -0.34226337400461992 0 -0.35028526942565191 -0.34550165749597039 0 -0.33875781747911798 -0.3533318196943751 0 -0.33763564291620701 -0.34226337400461992 0 -0.32865434733449128 -0.34948014432588592 0 -0.32620062508587838 -0.34446121026634979 0 -0.33763564291620701 -0.34226337400461992 0 -0.33875781747911798 -0.3533318196943751 0 -0.32865434733449128 -0.34948014432588592 0 -0.32851977194374782 -0.3601833696124348 0 -0.33875781747911798 -0.3533318196943751 0 -0.32865434733449128 -0.34948014432588592 0 -0.32851977194374782 -0.3601833696124348 0 -0.32865434733449128 -0.34948014432588592 0 -0.31867204309686697 -0.35628376129599598 0 -0.32865434733449128 -0.34948014432588592 0 -0.32050394893474748 -0.34935182428510481 0 -0.31867204309686697 -0.35628376129599598 0 -0.32865434733449128 -0.34948014432588592 0 -0.32620062508587838 -0.34446121026634979 0 -0.32050394893474748 -0.34935182428510481 0 -0.32620062508587838 -0.34446121026634979 0 -0.32050394893474748 -0.34935182428510481 0 -0.3106482496016556 -0.34909526516779632 0 -0.32050394893474748 -0.34935182428510481 0 -0.31506977346847992 -0.35261648727909228 0 -0.3106482496016556 -0.34909526516779632 0 -0.31867204309686697 -0.35628376129599598 0 -0.31506977346847992 -0.35261648727909228 0 -0.31025144213004269 -0.35482510323103927 0 -0.32050394893474748 -0.34935182428510481 0 -0.31867204309686697 -0.35628376129599598 0 -0.31506977346847992 -0.35261648727909228 0 -0.31867204309686697 -0.35628376129599598 0 -0.31899982627207418 -0.3680268188994415 0 -0.30761629201443408 -0.36174070935228497 0 -0.31899982627207418 -0.3680268188994415 0 -0.30911659972448208 -0.37201305749019442 0 -0.31550328286099782 -0.38264194987580402 0 -0.32917143593005188 -0.36784731534726661 0 -0.31899982627207418 -0.3680268188994415 0 -0.33119890305053701 -0.37825038600564609 0 -0.32851977194374782 -0.3601833696124348 0 -0.31867204309686697 -0.35628376129599598 0 -0.31899982627207418 -0.3680268188994415 0 -0.32917143593005188 -0.36784731534726661 0 -0.32851977194374782 -0.3601833696124348 0 -0.31899982627207418 -0.3680268188994415 0 -0.30075283020319138 -0.36946028498120909 0 -0.30761629201443408 -0.36174070935228497 0 -0.29332517249957879 -0.35981217284077921 0 -0.30075283020319138 -0.36946028498120909 0 -0.29306234812627258 -0.37430945168703711 0 -0.30170315455570712 -0.37899933539870301 0 -0.30075283020319138 -0.36946028498120909 0 -0.30911659972448208 -0.37201305749019442 0 -0.30170315455570712 -0.37899933539870301 0 -0.31899982627207418 -0.3680268188994415 0 -0.30911659972448208 -0.37201305749019442 0 -0.30761629201443408 -0.36174070935228497 0 -0.30075283020319138 -0.36946028498120909 0 -0.30911659972448208 -0.37201305749019442 0 -0.30761629201443408 -0.36174070935228497 0 -0.31867204309686697 -0.35628376129599598 0 -0.30761629201443408 -0.36174070935228497 0 -0.31025144213004269 -0.35482510323103927 0 -0.31506977346847992 -0.35261648727909228 0 -0.31025144213004269 -0.35482510323103927 0 -0.3106482496016556 -0.34909526516779632 0 -0.31025144213004269 -0.35482510323103927 0 -0.30553494964239819 -0.34858163732330072 0 -0.30310462481031891 -0.35458069028444228 0 -0.30761629201443408 -0.36174070935228497 0 -0.31025144213004269 -0.35482510323103927 0 -0.30310462481031891 -0.35458069028444228 0 -0.31306193025997042 -0.34485467583731211 0 -0.3106482496016556 -0.34909526516779632 0 -0.30772408106224147 -0.34353622448460303 0 -0.31025144213004269 -0.35482510323103927 0 -0.3106482496016556 -0.34909526516779632 0 -0.30553494964239819 -0.34858163732330072 0 -0.3106482496016556 -0.34909526516779632 0 -0.30553494964239819 -0.34858163732330072 0 -0.30772408106224147 -0.34353622448460303 0 -0.30553494964239819 -0.34858163732330072 0 -0.30332193352298559 -0.34128401185709217 0 -0.30772408106224147 -0.34353622448460303 0 -0.30553494964239819 -0.34858163732330072 0 -0.2990819231344623 -0.34741813888640127 0 -0.30332193352298559 -0.34128401185709217 0 -0.30553494964239819 -0.34858163732330072 0 -0.2990819231344623 -0.34741813888640127 0 -0.30310462481031891 -0.35458069028444228 0 -0.30761629201443408 -0.36174070935228497 0 -0.30310462481031891 -0.35458069028444228 0 -0.29332517249957879 -0.35981217284077921 0 -0.2990819231344623 -0.34741813888640127 0 -0.30310462481031891 -0.35458069028444228 0 -0.29332517249957879 -0.35981217284077921 0 -0.2990819231344623 -0.34741813888640127 0 -0.29332517249957879 -0.35981217284077921 0 -0.29078105867221882 -0.34105713756400702 0 -0.29332517249957879 -0.35981217284077921 0 -0.27605391944929608 -0.35671509769851473 0 -0.29078105867221882 -0.34105713756400702 0 -0.27605391944929608 -0.35671509769851473 0 -0.2772063837384251 -0.33798547529447459 0 -0.29078105867221882 -0.34105713756400702 0 -0.29332517249957879 -0.35981217284077921 0 -0.28134258969334541 -0.3745347651402855 0 -0.27605391944929608 -0.35671509769851473 0 -0.29332517249957879 -0.35981217284077921 0 -0.29306234812627258 -0.37430945168703711 0 -0.28134258969334541 -0.3745347651402855 0 -0.30075283020319138 -0.36946028498120909 0 -0.29332517249957879 -0.35981217284077921 0 -0.29306234812627258 -0.37430945168703711 0 -0.28134258969334541 -0.3745347651402855 0 -0.26305597490642357 -0.37173448296359252 0 -0.27605391944929608 -0.35671509769851473 0 -0.26305597490642357 -0.37173448296359252 0 -0.25187492187299759 -0.34965158912936961 0 -0.26305597490642357 -0.37173448296359252 0 -0.24684711317633279 -0.37927720619419059 0 -0.24916925417826569 -0.36453323253943959 0 -0.26305597490642357 -0.37173448296359252 0 -0.25187492187299759 -0.34965158912936961 0 -0.24916925417826569 -0.36453323253943959 0 -0.25187492187299759 -0.34965158912936961 0 -0.2772063837384251 -0.33798547529447459 0 -0.26305597490642357 -0.37173448296359252 0 -0.25187492187299759 -0.34965158912936961 0 -0.27605391944929608 -0.35671509769851473 0 -0.25187492187299759 -0.34965158912936961 0 -0.27605391944929608 -0.35671509769851473 0 -0.2772063837384251 -0.33798547529447459 0 -0.2772063837384251 -0.33798547529447459 0 -0.25758889306409138 -0.33263193730727669 0 -0.26528696181637301 -0.31826820169234749 0 -0.25187492187299759 -0.34965158912936961 0 -0.25758889306409138 -0.33263193730727669 0 -0.24426617702210471 -0.33462410430735418 0 -0.25187492187299759 -0.34965158912936961 0 -0.2772063837384251 -0.33798547529447459 0 -0.25758889306409138 -0.33263193730727669 0 -0.25758889306409138 -0.33263193730727669 0 -0.25085064765768822 -0.32073337649308842 0 -0.24426617702210471 -0.33462410430735418 0 -0.25085064765768822 -0.32073337649308842 0 -0.26528696181637301 -0.31826820169234749 0 -0.25045377421465592 -0.29854601967312189 0 -0.25758889306409138 -0.33263193730727669 0 -0.25085064765768822 -0.32073337649308842 0 -0.26528696181637301 -0.31826820169234749 0 -0.26528696181637301 -0.31826820169234749 0 -0.28348970791923761 -0.32024969355815908 0 -0.27906338899181232 -0.30853098691221098 0 -0.2772063837384251 -0.33798547529447459 0 -0.26528696181637301 -0.31826820169234749 0 -0.28348970791923761 -0.32024969355815908 0 -0.28348970791923761 -0.32024969355815908 0 -0.30253784560385288 -0.3263193614595804 0 -0.29335395944572512 -0.31014444243218148 0 -0.28348970791923761 -0.32024969355815908 0 -0.29335395944572512 -0.31014444243218148 0 -0.27906338899181232 -0.30853098691221098 0 -0.2772063837384251 -0.33798547529447459 0 -0.30253784560385288 -0.3263193614595804 0 -0.2772063837384251 -0.33798547529447459 0 -0.28348970791923761 -0.32024969355815908 0 -0.30253784560385288 -0.3263193614595804 0 -0.2772063837384251 -0.33798547529447459 0 -0.29078105867221882 -0.34105713756400702 0 -0.30253784560385288 -0.3263193614595804 0 -0.2990819231344623 -0.34741813888640127 0 -0.29078105867221882 -0.34105713756400702 0 -0.29842379965927363 -0.33919318344878641 0 -0.30293730207543601 -0.33427977414022791 0 -0.29842379965927363 -0.33919318344878641 0 -0.30253784560385288 -0.3263193614595804 0 -0.29078105867221882 -0.34105713756400702 0 -0.29842379965927363 -0.33919318344878641 0 -0.30253784560385288 -0.3263193614595804 0 -0.30293730207543601 -0.33427977414022791 0 -0.30636226437518921 -0.33305503554004412 0 -0.30253784560385288 -0.3263193614595804 0 -0.30293730207543601 -0.33427977414022791 0 -0.30636226437518921 -0.33305503554004412 0 -0.30636226437518921 -0.33305503554004412 0 -0.30253784560385288 -0.3263193614595804 0 -0.2990819231344623 -0.34741813888640127 0 -0.29842379965927363 -0.33919318344878641 0 -0.30332193352298559 -0.34128401185709217 0 -0.30293730207543601 -0.33427977414022791 0 -0.30332193352298559 -0.34128401185709217 0 -0.30636226437518921 -0.33305503554004412 0 -0.30293730207543601 -0.33427977414022791 0 -0.29842379965927363 -0.33919318344878641 0 -0.30332193352298559 -0.34128401185709217 0 -0.31306193025997042 -0.34485467583731211 0 -0.30772408106224147 -0.34353622448460303 0 -0.30636226437518921 -0.33305503554004412 0 -0.30332193352298559 -0.34128401185709217 0 -0.30772408106224147 -0.34353622448460303 0 -0.30636226437518921 -0.33305503554004412 0 -0.31306193025997042 -0.34485467583731211 0 -0.30636226437518921 -0.33305503554004412 0 -0.30253784560385288 -0.3263193614595804 0 -0.29335395944572512 -0.31014444243218148 0 -0.3235480844900458 -0.31664333723931171 0 -0.30636226437518921 -0.33305503554004412 0 -0.30253784560385288 -0.3263193614595804 0 -0.3235480844900458 -0.31664333723931171 0 -0.30253784560385288 -0.3263193614595804 0 -0.31010346064399802 -0.30965750136676851 0 -0.30253784560385288 -0.3263193614595804 0 -0.31010346064399802 -0.30965750136676851 0 -0.29335395944572512 -0.31014444243218148 0 -0.31010346064399802 -0.30965750136676851 0 -0.30969674907461958 -0.2905046491542147 0 -0.29335395944572512 -0.31014444243218148 0 -0.30969674907461958 -0.2905046491542147 0 -0.2841700732875978 -0.29396952340478238 0 -0.30969674907461958 -0.2905046491542147 0 -0.2841700732875978 -0.29396952340478238 0 -0.29676274527064489 -0.27047972728904113 0 -0.2841700732875978 -0.29396952340478238 0 -0.29335395944572512 -0.31014444243218148 0 -0.30969674907461958 -0.2905046491542147 0 -0.2841700732875978 -0.29396952340478238 0 -0.29335395944572512 -0.31014444243218148 0 -0.2841700732875978 -0.29396952340478238 0 -0.29335395944572512 -0.31014444243218148 0 -0.27906338899181232 -0.30853098691221098 0 -0.26528696181637301 -0.31826820169234749 0 -0.27906338899181232 -0.30853098691221098 0 -0.26731192375112628 -0.29625777153894789 0 -0.2841700732875978 -0.29396952340478238 0 -0.27906338899181232 -0.30853098691221098 0 -0.26731192375112628 -0.29625777153894789 0 -0.26528696181637301 -0.31826820169234749 0 -0.25045377421465592 -0.29854601967312189 0 -0.26731192375112628 -0.29625777153894789 0 -0.25045377421465592 -0.29854601967312189 0 -0.26731192375112628 -0.29625777153894789 0 -0.25045377421465592 -0.29854601967312189 0 -0.2601826827707801 -0.28370155148151111 0 -0.26731192375112628 -0.29625777153894789 0 -0.25045377421465592 -0.29854601967312189 0 -0.2601826827707801 -0.28370155148151111 0 -0.2601826827707801 -0.28370155148151111 0 -0.26891197574956371 -0.28470755062754172 0 -0.26250579529529772 -0.28026991950598668 0 -0.2601826827707801 -0.28370155148151111 0 -0.26891197574956371 -0.28470755062754172 0 -0.26731192375112628 -0.29625777153894789 0 -0.2601826827707801 -0.28370155148151111 0 -0.26250579529529772 -0.28026991950598668 0 -0.2841700732875978 -0.29396952340478238 0 -0.26731192375112628 -0.29625777153894789 0 -0.2841700732875978 -0.29396952340478238 0 -0.27005771819646629 -0.26911444604921708 0 -0.2841700732875978 -0.29396952340478238 0 -0.26891197574956371 -0.28470755062754172 0 -0.27005771819646629 -0.26911444604921708 0 -0.2841700732875978 -0.29396952340478238 0 -0.26891197574956371 -0.28470755062754172 0 -0.26731192375112628 -0.29625777153894789 0 -0.26891197574956371 -0.28470755062754172 0 -0.27005771819646629 -0.26911444604921708 0 -0.26250579529529772 -0.28026991950598668 0 -0.27005771819646629 -0.26911444604921708 0 -0.26250579529529772 -0.28026991950598668 0 -0.2601826827707801 -0.28370155148151111 0 -0.25168388931481372 -0.26752118516170359 0 -0.23830700692626269 -0.27997480961457749 0 -0.27005771819646629 -0.26911444604921708 0 -0.26250579529529772 -0.28026991950598668 0 -0.25168388931481372 -0.26752118516170359 0 -0.2601826827707801 -0.28370155148151111 0 -0.26250579529529772 -0.28026991950598668 0 -0.25168388931481372 -0.26752118516170359 0 -0.27005771819646629 -0.26911444604921708 0 -0.25741499207255808 -0.2468477206326791 0 -0.27005771819646629 -0.26911444604921708 0 -0.25168388931481372 -0.26752118516170359 0 -0.25741499207255808 -0.2468477206326791 0 -0.27005771819646629 -0.26911444604921708 0 -0.28161261259963222 -0.25100354534260161 0 -0.25741499207255808 -0.2468477206326791 0 -0.27005771819646629 -0.26911444604921708 0 -0.28161261259963222 -0.25100354534260161 0 -0.27005771819646629 -0.26911444604921708 0 -0.28161261259963222 -0.25100354534260161 0 -0.29676274527064489 -0.27047972728904113 0 -0.28161261259963222 -0.25100354534260161 0 -0.29676274527064489 -0.27047972728904113 0 -0.30213545205644998 -0.25474964514874388 0 -0.2841700732875978 -0.29396952340478238 0 -0.27005771819646629 -0.26911444604921708 0 -0.29676274527064489 -0.27047972728904113 0 -0.31652186189938131 -0.2751994866164803 0 -0.30969674907461958 -0.2905046491542147 0 -0.29676274527064489 -0.27047972728904113 0 -0.31803993511846312 -0.25967572995143129 0 -0.31652186189938131 -0.2751994866164803 0 -0.29676274527064489 -0.27047972728904113 0 -0.31803993511846312 -0.25967572995143129 0 -0.30213545205644998 -0.25474964514874388 0 -0.31562540891235408 -0.24499054903389081 0 -0.31803993511846312 -0.25967572995143129 0 -0.29676274527064489 -0.27047972728904113 0 -0.30213545205644998 -0.25474964514874388 0 -0.33889996704125608 -0.45100968878143533 0 -0.3191433478104248 -0.46044869594256538 0 -0.33982180563853709 -0.47717687036456002 0 -0.33889996704125608 -0.45100968878143533 0 -0.34890815674406539 -0.43544467183927837 0 -0.33495474209463749 -0.43410945337554052 0 -0.33889996704125608 -0.45100968878143533 0 -0.32208103028772089 -0.44055069070924718 0 -0.33495474209463749 -0.43410945337554052 0 -0.33889996704125608 -0.45100968878143533 0 -0.32208103028772089 -0.44055069070924718 0 -0.3191433478104248 -0.46044869594256538 0 -0.32208103028772089 -0.44055069070924718 0 -0.3191433478104248 -0.46044869594256538 0 -0.30429573946673122 -0.44693194339732012 0 -0.3191433478104248 -0.46044869594256538 0 -0.33982180563853709 -0.47717687036456002 0 -0.30994407380466671 -0.48096367657830458 0 -0.32211003203688432 -0.5 0 -0.33982180563853709 -0.47717687036456002 0 -0.30994407380466671 -0.48096367657830458 0 -0.32211003203688432 -0.5 0 -0.33982180563853709 -0.47717687036456002 0 -0.35073380282312 -0.5 0 -0.33982180563853709 -0.47717687036456002 0 -0.35646162636797829 -0.47880677922705511 0 -0.36193809871805238 -0.46299370356289737 0 -0.33982180563853709 -0.47717687036456002 0 -0.35646162636797829 -0.47880677922705511 0 -0.35073380282312 -0.5 0 -0.37935757360935579 -0.5 0 -0.35073380282312 -0.5 0 -0.37227888040636309 -0.48382877590008161 0 -0.35646162636797829 -0.47880677922705511 0 -0.35073380282312 -0.5 0 -0.37227888040636309 -0.48382877590008161 0 -0.3873027435304181 -0.46193715668157809 0 -0.37227888040636309 -0.48382877590008161 0 -0.36193809871805238 -0.46299370356289737 0 -0.35646162636797829 -0.47880677922705511 0 -0.37227888040636309 -0.48382877590008161 0 -0.36193809871805238 -0.46299370356289737 0 -0.33889996704125608 -0.45100968878143533 0 -0.33982180563853709 -0.47717687036456002 0 -0.36193809871805238 -0.46299370356289737 0 -0.33889996704125608 -0.45100968878143533 0 -0.36069966166688561 -0.44517828573988172 0 -0.34890815674406539 -0.43544467183927837 0 -0.33889996704125608 -0.45100968878143533 0 -0.36193809871805238 -0.46299370356289737 0 -0.36069966166688561 -0.44517828573988172 0 -0.37677810925995658 -0.44256459333301112 0 -0.36193809871805238 -0.46299370356289737 0 -0.36069966166688561 -0.44517828573988172 0 -0.37677810925995658 -0.44256459333301112 0 -0.36069966166688561 -0.44517828573988172 0 -0.36625347498949451 -0.42319202998444422 0 -0.37677810925995658 -0.44256459333301112 0 -0.36625347498949451 -0.42319202998444422 0 -0.38091960801568392 -0.40885003952666221 0 -0.36625347498949451 -0.42319202998444422 0 -0.35778496467277637 -0.40518009063534899 0 -0.35778496467277637 -0.40518009063534899 0 -0.33958935117646882 -0.40255541033840597 0 -0.34051666716748669 -0.41881886874097651 0 -0.36625347498949451 -0.42319202998444422 0 -0.35778496467277637 -0.40518009063534899 0 -0.34051666716748669 -0.41881886874097651 0 -0.36625347498949451 -0.42319202998444422 0 -0.34890815674406539 -0.43544467183927837 0 -0.34051666716748669 -0.41881886874097651 0 -0.36069966166688561 -0.44517828573988172 0 -0.36625347498949451 -0.42319202998444422 0 -0.34890815674406539 -0.43544467183927837 0 -0.37875632125977199 -0.38632889457526193 0 -0.3629113326939839 -0.36969035650443449 0 -0.35442623497930509 -0.38670369693343992 0 -0.37875632125977199 -0.38632889457526193 0 -0.38091960801568392 -0.40885003952666221 0 -0.35778496467277637 -0.40518009063534899 0 -0.37875632125977199 -0.38632889457526193 0 -0.35778496467277637 -0.40518009063534899 0 -0.35442623497930509 -0.38670369693343992 0 -0.35778496467277637 -0.40518009063534899 0 -0.35442623497930509 -0.38670369693343992 0 -0.33958935117646882 -0.40255541033840597 0 -0.35442623497930509 -0.38670369693343992 0 -0.33975895737228279 -0.38706964065583738 0 -0.33958935117646882 -0.40255541033840597 0 -0.3629113326939839 -0.36969035650443449 0 -0.3461291987001372 -0.37448117324536973 0 -0.35442623497930509 -0.38670369693343992 0 -0.3461291987001372 -0.37448117324536973 0 -0.35442623497930509 -0.38670369693343992 0 -0.33975895737228279 -0.38706964065583738 0 -0.3461291987001372 -0.37448117324536973 0 -0.33119890305053701 -0.37825038600564609 0 -0.33975895737228279 -0.38706964065583738 0 -0.33119890305053701 -0.37825038600564609 0 -0.33975895737228279 -0.38706964065583738 0 -0.32745109895496571 -0.39335753675632512 0 -0.33958935117646882 -0.40255541033840597 0 -0.32745109895496571 -0.39335753675632512 0 -0.32627588222667758 -0.40903954478872689 0 -0.33975895737228279 -0.38706964065583738 0 -0.33958935117646882 -0.40255541033840597 0 -0.32745109895496571 -0.39335753675632512 0 -0.31285101528263548 -0.39946987728041838 0 -0.32745109895496571 -0.39335753675632512 0 -0.31550328286099782 -0.38264194987580402 0 -0.31285101528263548 -0.39946987728041838 0 -0.32745109895496571 -0.39335753675632512 0 -0.32627588222667758 -0.40903954478872689 0 -0.33119890305053701 -0.37825038600564609 0 -0.32745109895496571 -0.39335753675632512 0 -0.31550328286099782 -0.38264194987580402 0 -0.31899982627207418 -0.3680268188994415 0 -0.33119890305053701 -0.37825038600564609 0 -0.31550328286099782 -0.38264194987580402 0 -0.33495474209463749 -0.43410945337554052 0 -0.34051666716748669 -0.41881886874097651 0 -0.32436788923265858 -0.42472334680676499 0 -0.34890815674406539 -0.43544467183927837 0 -0.33495474209463749 -0.43410945337554052 0 -0.34051666716748669 -0.41881886874097651 0 -0.33958935117646882 -0.40255541033840597 0 -0.34051666716748669 -0.41881886874097651 0 -0.32627588222667758 -0.40903954478872689 0 -0.34051666716748669 -0.41881886874097651 0 -0.32627588222667758 -0.40903954478872689 0 -0.32436788923265858 -0.42472334680676499 0 -0.32627588222667758 -0.40903954478872689 0 -0.31253532278913282 -0.41604226989513859 0 -0.32436788923265858 -0.42472334680676499 0 -0.31285101528263548 -0.39946987728041838 0 -0.32627588222667758 -0.40903954478872689 0 -0.31253532278913282 -0.41604226989513859 0 -0.32208103028772089 -0.44055069070924718 0 -0.33495474209463749 -0.43410945337554052 0 -0.32436788923265858 -0.42472334680676499 0 -0.32208103028772089 -0.44055069070924718 0 -0.32436788923265858 -0.42472334680676499 0 -0.31061995340971632 -0.43140181661236549 0 -0.31253532278913282 -0.41604226989513859 0 -0.32436788923265858 -0.42472334680676499 0 -0.31061995340971632 -0.43140181661236549 0 -0.31061995340971632 -0.43140181661236549 0 -0.30013696683383662 -0.42242130176484938 0 -0.29659913400670129 -0.43798316446626068 0 -0.31253532278913282 -0.41604226989513859 0 -0.31061995340971632 -0.43140181661236549 0 -0.30013696683383662 -0.42242130176484938 0 -0.31285101528263548 -0.39946987728041838 0 -0.31253532278913282 -0.41604226989513859 0 -0.30081354097488122 -0.41013213242711649 0 -0.31253532278913282 -0.41604226989513859 0 -0.30013696683383662 -0.42242130176484938 0 -0.30081354097488122 -0.41013213242711649 0 -0.30013696683383662 -0.42242130176484938 0 -0.30081354097488122 -0.41013213242711649 0 -0.28541808097327542 -0.41590027063203788 0 -0.30081354097488122 -0.41013213242711649 0 -0.28541808097327542 -0.41590027063203788 0 -0.29015995172556092 -0.40150957414298749 0 -0.30013696683383662 -0.42242130176484938 0 -0.28541808097327542 -0.41590027063203788 0 -0.29659913400670129 -0.43798316446626068 0 -0.28541808097327542 -0.41590027063203788 0 -0.29659913400670129 -0.43798316446626068 0 -0.28541808097327542 -0.41590027063203788 0 -0.28399505175834588 -0.43035655322377242 0 -0.29659913400670129 -0.43798316446626068 0 -0.31285101528263548 -0.39946987728041838 0 -0.31550328286099782 -0.38264194987580402 0 -0.30538871925305883 -0.38951680278272971 0 -0.30911659972448208 -0.37201305749019442 0 -0.31550328286099782 -0.38264194987580402 0 -0.30170315455570712 -0.37899933539870301 0 -0.31550328286099782 -0.38264194987580402 0 -0.30170315455570712 -0.37899933539870301 0 -0.30538871925305883 -0.38951680278272971 0 -0.30170315455570712 -0.37899933539870301 0 -0.30538871925305883 -0.38951680278272971 0 -0.29030682548857573 -0.38788730380011499 0 -0.30538871925305883 -0.38951680278272971 0 -0.29923528640382291 -0.39862618332058131 0 -0.29030682548857573 -0.38788730380011499 0 -0.31285101528263548 -0.39946987728041838 0 -0.30538871925305883 -0.38951680278272971 0 -0.29923528640382291 -0.39862618332058131 0 -0.31285101528263548 -0.39946987728041838 0 -0.30081354097488122 -0.41013213242711649 0 -0.29923528640382291 -0.39862618332058131 0 -0.29015995172556092 -0.40150957414298749 0 -0.29030682548857573 -0.38788730380011499 0 -0.2742370279398495 -0.3938173767978152 0 -0.28541808097327542 -0.41590027063203788 0 -0.29015995172556092 -0.40150957414298749 0 -0.2742370279398495 -0.3938173767978152 0 -0.30081354097488122 -0.41013213242711649 0 -0.29923528640382291 -0.39862618332058131 0 -0.29015995172556092 -0.40150957414298749 0 -0.29923528640382291 -0.39862618332058131 0 -0.29015995172556092 -0.40150957414298749 0 -0.29030682548857573 -0.38788730380011499 0 -0.28134258969334541 -0.3745347651402855 0 -0.29030682548857573 -0.38788730380011499 0 -0.2742370279398495 -0.3938173767978152 0 -0.29306234812627258 -0.37430945168703711 0 -0.28134258969334541 -0.3745347651402855 0 -0.29030682548857573 -0.38788730380011499 0 -0.29306234812627258 -0.37430945168703711 0 -0.30170315455570712 -0.37899933539870301 0 -0.29030682548857573 -0.38788730380011499 0 -0.28134258969334541 -0.3745347651402855 0 -0.26305597490642357 -0.37173448296359252 0 -0.2742370279398495 -0.3938173767978152 0 -0.26305597490642357 -0.37173448296359252 0 -0.2742370279398495 -0.3938173767978152 0 -0.26090947635534628 -0.38647633362851352 0 -0.26305597490642357 -0.37173448296359252 0 -0.2742370279398495 -0.3938173767978152 0 -0.28541808097327542 -0.41590027063203788 0 -0.2742370279398495 -0.3938173767978152 0 -0.27245310443561732 -0.40841601792395632 0 -0.28541808097327542 -0.41590027063203788 0 -0.2742370279398495 -0.3938173767978152 0 -0.2742370279398495 -0.3938173767978152 0 -0.2587952195953554 -0.40108476051777642 0 -0.27245310443561732 -0.40841601792395632 0 -0.2587952195953554 -0.40108476051777642 0 -0.24435131265401619 -0.39696644620035698 0 -0.24684711317633279 -0.37927720619419059 0 -0.2587952195953554 -0.40108476051777642 0 -0.25417867060223581 -0.41224085549472628 0 -0.24435131265401619 -0.39696644620035698 0 -0.2742370279398495 -0.3938173767978152 0 -0.2587952195953554 -0.40108476051777642 0 -0.26090947635534628 -0.38647633362851352 0 -0.2587952195953554 -0.40108476051777642 0 -0.24684711317633279 -0.37927720619419059 0 -0.2587952195953554 -0.40108476051777642 0 -0.26090947635534628 -0.38647633362851352 0 -0.24684711317633279 -0.37927720619419059 0 -0.26305597490642357 -0.37173448296359252 0 -0.26090947635534628 -0.38647633362851352 0 -0.24684711317633279 -0.37927720619419059 0 -0.27074332601437812 -0.42289231484136219 0 -0.28269143243340072 -0.44469986916494803 0 -0.28399505175834588 -0.43035655322377242 0 -0.27074332601437812 -0.42289231484136219 0 -0.28269143243340072 -0.44469986916494803 0 -0.27074332601437812 -0.42289231484136219 0 -0.26778451497855338 -0.43869030485464039 0 -0.28269143243340072 -0.44469986916494803 0 -0.28541808097327542 -0.41590027063203788 0 -0.28399505175834588 -0.43035655322377242 0 -0.27074332601437812 -0.42289231484136219 0 -0.2587952195953554 -0.40108476051777642 0 -0.27074332601437812 -0.42289231484136219 0 -0.27245310443561732 -0.40841601792395632 0 -0.28541808097327542 -0.41590027063203788 0 -0.27074332601437812 -0.42289231484136219 0 -0.27245310443561732 -0.40841601792395632 0 -0.27074332601437812 -0.42289231484136219 0 -0.25417867060223581 -0.41224085549472628 0 -0.25500435141488459 -0.42647358844258421 0 -0.2587952195953554 -0.40108476051777642 0 -0.27074332601437812 -0.42289231484136219 0 -0.2587952195953554 -0.40108476051777642 0 -0.27074332601437812 -0.42289231484136219 0 -0.25417867060223581 -0.41224085549472628 0 -0.25417867060223581 -0.41224085549472628 0 -0.25500435141488459 -0.42647358844258421 0 -0.24199914333254491 -0.41378716747155198 0 -0.25500435141488459 -0.42647358844258421 0 -0.25171631467813649 -0.43906976540733422 0 -0.26778451497855338 -0.43869030485464039 0 -0.27074332601437812 -0.42289231484136219 0 -0.25500435141488459 -0.42647358844258421 0 -0.26778451497855338 -0.43869030485464039 0 -0.25171631467813649 -0.43906976540733422 0 -0.26006893567813982 -0.4523677528345128 0 -0.26778451497855338 -0.43869030485464039 0 -0.26006893567813982 -0.4523677528345128 0 -0.27085340498660893 -0.46520383866708298 0 -0.24739523038518019 -0.46328584742407952 0 -0.26006893567813982 -0.4523677528345128 0 -0.27085340498660893 -0.46520383866708298 0 -0.28269143243340072 -0.44469986916494803 0 -0.26006893567813982 -0.4523677528345128 0 -0.26778451497855338 -0.43869030485464039 0 -0.28269143243340072 -0.44469986916494803 0 -0.28269143243340072 -0.44469986916494803 0 -0.29659913400670129 -0.43798316446626068 0 -0.30429573946673122 -0.44693194339732012 0 -0.28269143243340072 -0.44469986916494803 0 -0.29463953885242328 -0.46650742348853369 0 -0.30429573946673122 -0.44693194339732012 0 -0.28399505175834588 -0.43035655322377242 0 -0.28269143243340072 -0.44469986916494803 0 -0.29659913400670129 -0.43798316446626068 0 -0.28269143243340072 -0.44469986916494803 0 -0.29463953885242328 -0.46650742348853369 0 -0.27085340498660893 -0.46520383866708298 0 -0.28269143243340072 -0.44469986916494803 0 -0.29463953885242328 -0.46650742348853369 0 -0.3191433478104248 -0.46044869594256538 0 -0.29463953885242328 -0.46650742348853369 0 -0.30429573946673122 -0.44693194339732012 0 -0.32208103028772089 -0.44055069070924718 0 -0.31061995340971632 -0.43140181661236549 0 -0.30429573946673122 -0.44693194339732012 0 -0.31061995340971632 -0.43140181661236549 0 -0.29659913400670129 -0.43798316446626068 0 -0.30429573946673122 -0.44693194339732012 0 -0.32211003203688432 -0.5 0 -0.30994407380466671 -0.48096367657830458 0 -0.29348626125064847 -0.5 0 -0.3191433478104248 -0.46044869594256538 0 -0.29463953885242328 -0.46650742348853369 0 -0.30994407380466671 -0.48096367657830458 0 -0.27085340498660893 -0.46520383866708298 0 -0.29463953885242328 -0.46650742348853369 0 -0.28160644913557081 -0.48271431823447009 0 -0.29463953885242328 -0.46650742348853369 0 -0.30994407380466671 -0.48096367657830458 0 -0.28160644913557081 -0.48271431823447009 0 -0.30994407380466671 -0.48096367657830458 0 -0.28160644913557081 -0.48271431823447009 0 -0.29348626125064847 -0.5 0 -0.28160644913557081 -0.48271431823447009 0 -0.2537500930603574 -0.48290225359272387 0 -0.26486249046441268 -0.5 0 -0.28160644913557081 -0.48271431823447009 0 -0.29348626125064847 -0.5 0 -0.26486249046441268 -0.5 0 -0.27085340498660893 -0.46520383866708298 0 -0.28160644913557081 -0.48271431823447009 0 -0.2537500930603574 -0.48290225359272387 0 -0.27085340498660893 -0.46520383866708298 0 -0.2537500930603574 -0.48290225359272387 0 -0.24739523038518019 -0.46328584742407952 0 -0.2537500930603574 -0.48290225359272387 0 -0.26486249046441268 -0.5 0 -0.236238719678177 -0.5 0 -0.2537500930603574 -0.48290225359272387 0 -0.236238719678177 -0.5 0 -0.23528755691145581 -0.47703240510716421 0 -0.2537500930603574 -0.48290225359272387 0 -0.23528755691145581 -0.47703240510716421 0 -0.24739523038518019 -0.46328584742407952 0 -0.23528755691145581 -0.47703240510716421 0 -0.22552405869078671 -0.45898879620092092 0 -0.21597905223370059 -0.47841324099799382 0 -0.236238719678177 -0.5 0 -0.23528755691145581 -0.47703240510716421 0 -0.21597905223370059 -0.47841324099799382 0 -0.236238719678177 -0.5 0 -0.20761494889194129 -0.5 0 -0.21597905223370059 -0.47841324099799382 0 -0.25171631467813649 -0.43906976540733422 0 -0.26006893567813982 -0.4523677528345128 0 -0.23769405472741681 -0.44588064314432069 0 -0.25171631467813649 -0.43906976540733422 0 -0.23769405472741681 -0.44588064314432069 0 -0.2395712542483166 -0.42940029292832937 0 -0.23528755691145581 -0.47703240510716421 0 -0.24739523038518019 -0.46328584742407952 0 -0.22552405869078671 -0.45898879620092092 0 -0.23769405472741681 -0.44588064314432069 0 -0.24739523038518019 -0.46328584742407952 0 -0.22552405869078671 -0.45898879620092092 0 -0.26006893567813982 -0.4523677528345128 0 -0.23769405472741681 -0.44588064314432069 0 -0.24739523038518019 -0.46328584742407952 0 -0.23769405472741681 -0.44588064314432069 0 -0.21765572178242551 -0.44423421048160178 0 -0.22645387052371699 -0.43348283434768747 0 -0.23769405472741681 -0.44588064314432069 0 -0.22552405869078671 -0.45898879620092092 0 -0.21765572178242551 -0.44423421048160178 0 -0.21765572178242551 -0.44423421048160178 0 -0.20298872318819669 -0.45904457360745848 0 -0.19959551259025429 -0.43854116560985129 0 -0.22552405869078671 -0.45898879620092092 0 -0.20298872318819669 -0.45904457360745848 0 -0.21597905223370059 -0.47841324099799382 0 -0.22552405869078671 -0.45898879620092092 0 -0.21765572178242551 -0.44423421048160178 0 -0.20298872318819669 -0.45904457360745848 0 -0.20298872318819669 -0.45904457360745848 0 -0.18369785441371109 -0.4643977703554103 0 -0.1829407859216238 -0.44512625273237227 0 -0.20298872318819669 -0.45904457360745848 0 -0.1941144887403832 -0.48235527443954412 0 -0.18369785441371109 -0.4643977703554103 0 -0.20298872318819669 -0.45904457360745848 0 -0.19959551259025429 -0.43854116560985129 0 -0.1829407859216238 -0.44512625273237227 0 -0.20761494889194129 -0.5 0 -0.21597905223370059 -0.47841324099799382 0 -0.1941144887403832 -0.48235527443954412 0 -0.20298872318819669 -0.45904457360745848 0 -0.21597905223370059 -0.47841324099799382 0 -0.1941144887403832 -0.48235527443954412 0 -0.20761494889194129 -0.5 0 -0.1941144887403832 -0.48235527443954412 0 -0.1789911781057055 -0.5 0 -0.1941144887403832 -0.48235527443954412 0 -0.1789911781057055 -0.5 0 -0.16644976091561031 -0.47509896845030603 0 -0.1789911781057055 -0.5 0 -0.16644976091561031 -0.47509896845030603 0 -0.15036740731946971 -0.5 0 -0.1941144887403832 -0.48235527443954412 0 -0.16644976091561031 -0.47509896845030603 0 -0.18369785441371109 -0.4643977703554103 0 -0.18369785441371109 -0.4643977703554103 0 -0.1829407859216238 -0.44512625273237227 0 -0.16754727925037899 -0.45331648430343557 0 -0.16644976091561031 -0.47509896845030603 0 -0.18369785441371109 -0.4643977703554103 0 -0.16754727925037899 -0.45331648430343557 0 -0.16754727925037899 -0.45331648430343557 0 -0.14799287879877401 -0.4548819019678112 0 -0.16232780316483791 -0.4330095277386013 0 -0.1829407859216238 -0.44512625273237227 0 -0.16754727925037899 -0.45331648430343557 0 -0.16232780316483791 -0.4330095277386013 0 -0.16644976091561031 -0.47509896845030603 0 -0.16754727925037899 -0.45331648430343557 0 -0.14799287879877401 -0.4548819019678112 0 -0.14799287879877401 -0.4548819019678112 0 -0.16232780316483791 -0.4330095277386013 0 -0.14799287879877401 -0.4548819019678112 0 -0.13127005720907819 -0.43109628490700719 0 -0.16232780316483791 -0.4330095277386013 0 -0.14799287879877401 -0.4548819019678112 0 -0.1275588856758908 -0.45503704772575038 0 -0.13127005720907819 -0.43109628490700719 0 -0.1275588856758908 -0.45503704772575038 0 -0.1340485458086379 -0.47628554922756372 0 -0.1147096293411029 -0.46571286975442222 0 -0.14799287879877401 -0.4548819019678112 0 -0.1275588856758908 -0.45503704772575038 0 -0.1340485458086379 -0.47628554922756372 0 -0.16644976091561031 -0.47509896845030603 0 -0.1340485458086379 -0.47628554922756372 0 -0.15036740731946971 -0.5 0 -0.16644976091561031 -0.47509896845030603 0 -0.14799287879877401 -0.4548819019678112 0 -0.1340485458086379 -0.47628554922756372 0 -0.1340485458086379 -0.47628554922756372 0 -0.15036740731946971 -0.5 0 -0.121743636533234 -0.5 0 -0.14763499228501931 -0.40358541348166871 0 -0.1486346678872108 -0.38328351094907459 0 -0.16326575244030311 -0.3860933809749314 0 -0.14763499228501931 -0.40358541348166871 0 -0.1486346678872108 -0.38328351094907459 0 -0.13376914947380869 -0.38240564089922952 0 -0.1486346678872108 -0.38328351094907459 0 -0.13376914947380869 -0.38240564089922952 0 -0.1498687773497123 -0.36104960844046918 0 -0.1486346678872108 -0.38328351094907459 0 -0.16326575244030311 -0.3860933809749314 0 -0.1498687773497123 -0.36104960844046918 0 -0.14763499228501931 -0.40358541348166871 0 -0.13376914947380869 -0.38240564089922952 0 -0.117669521597904 -0.40376167335798901 0 -0.13376914947380869 -0.38240564089922952 0 -0.117669521597904 -0.40376167335798901 0 -0.14763499228501931 -0.40358541348166871 0 -0.13127005720907819 -0.43109628490700719 0 -0.117669521597904 -0.40376167335798901 0 -0.14763499228501931 -0.40358541348166871 0 -0.13127005720907819 -0.43109628490700719 0 -0.16232780316483791 -0.4330095277386013 0 -0.14763499228501931 -0.40358541348166871 0 -0.16232780316483791 -0.4330095277386013 0 -0.17666272753090029 -0.41113715350939029 0 -0.16232780316483791 -0.4330095277386013 0 -0.17666272753090029 -0.41113715350939029 0 -0.1829407859216238 -0.44512625273237227 0 -0.16232780316483791 -0.4330095277386013 0 -0.1841673466355235 -0.42516599005966671 0 -0.16232780316483791 -0.4330095277386013 0 -0.1841673466355235 -0.42516599005966671 0 -0.17666272753090029 -0.41113715350939029 0 -0.1841673466355235 -0.42516599005966671 0 -0.17666272753090029 -0.41113715350939029 0 -0.1948774637021517 -0.41020118363147812 0 -0.1841673466355235 -0.42516599005966671 0 -0.17666272753090029 -0.41113715350939029 0 -0.17666272753090029 -0.41113715350939029 0 -0.1925743714554638 -0.38685900444961252 0 -0.17666272753090029 -0.41113715350939029 0 -0.16326575244030311 -0.3860933809749314 0 -0.1925743714554638 -0.38685900444961252 0 -0.14763499228501931 -0.40358541348166871 0 -0.17666272753090029 -0.41113715350939029 0 -0.16326575244030311 -0.3860933809749314 0 -0.17666272753090029 -0.41113715350939029 0 -0.16326575244030311 -0.3860933809749314 0 -0.16326575244030311 -0.3860933809749314 0 -0.16423759391237089 -0.36691526723147527 0 -0.1774134451485132 -0.37295332569840411 0 -0.16326575244030311 -0.3860933809749314 0 -0.1925743714554638 -0.38685900444961252 0 -0.1774134451485132 -0.37295332569840411 0 -0.1925743714554638 -0.38685900444961252 0 -0.21106617832463209 -0.40034419956193118 0 -0.1948774637021517 -0.41020118363147812 0 -0.17666272753090029 -0.41113715350939029 0 -0.1925743714554638 -0.38685900444961252 0 -0.1948774637021517 -0.41020118363147812 0 -0.1925743714554638 -0.38685900444961252 0 -0.21106617832463209 -0.40034419956193118 0 -0.21937829079088189 -0.38135733981019948 0 -0.1925743714554638 -0.38685900444961252 0 -0.21937829079088189 -0.38135733981019948 0 -0.20848601538002581 -0.36258085538983381 0 -0.19959551259025429 -0.43854116560985129 0 -0.1829407859216238 -0.44512625273237227 0 -0.1841673466355235 -0.42516599005966671 0 -0.19959551259025429 -0.43854116560985129 0 -0.1841673466355235 -0.42516599005966671 0 -0.19978792743919399 -0.42386278921403991 0 -0.19978792743919399 -0.42386278921403991 0 -0.1948774637021517 -0.41020118363147812 0 -0.20761407511570451 -0.41607374110942091 0 -0.1841673466355235 -0.42516599005966671 0 -0.19978792743919399 -0.42386278921403991 0 -0.1948774637021517 -0.41020118363147812 0 -0.21106617832463209 -0.40034419956193118 0 -0.1948774637021517 -0.41020118363147812 0 -0.20761407511570451 -0.41607374110942091 0 -0.20761407511570451 -0.41607374110942091 0 -0.21268523915233631 -0.42933186565978249 0 -0.22455979081319999 -0.41770775875649818 0 -0.21106617832463209 -0.40034419956193118 0 -0.20761407511570451 -0.41607374110942091 0 -0.22455979081319999 -0.41770775875649818 0 -0.21765572178242551 -0.44423421048160178 0 -0.19959551259025429 -0.43854116560985129 0 -0.21268523915233631 -0.42933186565978249 0 -0.19978792743919399 -0.42386278921403991 0 -0.20761407511570451 -0.41607374110942091 0 -0.21268523915233631 -0.42933186565978249 0 -0.19959551259025429 -0.43854116560985129 0 -0.19978792743919399 -0.42386278921403991 0 -0.21268523915233631 -0.42933186565978249 0 -0.21268523915233631 -0.42933186565978249 0 -0.22645387052371699 -0.43348283434768747 0 -0.22455979081319999 -0.41770775875649818 0 -0.22645387052371699 -0.43348283434768747 0 -0.22455979081319999 -0.41770775875649818 0 -0.2395712542483166 -0.42940029292832937 0 -0.21765572178242551 -0.44423421048160178 0 -0.21268523915233631 -0.42933186565978249 0 -0.22645387052371699 -0.43348283434768747 0 -0.22455979081319999 -0.41770775875649818 0 -0.24199914333254491 -0.41378716747155198 0 -0.23008302452814561 -0.39983880230311658 0 -0.22455979081319999 -0.41770775875649818 0 -0.24199914333254491 -0.41378716747155198 0 -0.2395712542483166 -0.42940029292832937 0 -0.25417867060223581 -0.41224085549472628 0 -0.24199914333254491 -0.41378716747155198 0 -0.24435131265401619 -0.39696644620035698 0 -0.23769405472741681 -0.44588064314432069 0 -0.22645387052371699 -0.43348283434768747 0 -0.2395712542483166 -0.42940029292832937 0 -0.25500435141488459 -0.42647358844258421 0 -0.24199914333254491 -0.41378716747155198 0 -0.2395712542483166 -0.42940029292832937 0 -0.25500435141488459 -0.42647358844258421 0 -0.25171631467813649 -0.43906976540733422 0 -0.2395712542483166 -0.42940029292832937 0 -0.21937829079088189 -0.38135733981019948 0 -0.23524228652297771 -0.38553437579887029 0 -0.2351525813665889 -0.37203584290311609 0 -0.21937829079088189 -0.38135733981019948 0 -0.23008302452814561 -0.39983880230311658 0 -0.23524228652297771 -0.38553437579887029 0 -0.21106617832463209 -0.40034419956193118 0 -0.22455979081319999 -0.41770775875649818 0 -0.23008302452814561 -0.39983880230311658 0 -0.21106617832463209 -0.40034419956193118 0 -0.21937829079088189 -0.38135733981019948 0 -0.23008302452814561 -0.39983880230311658 0 -0.23008302452814561 -0.39983880230311658 0 -0.24435131265401619 -0.39696644620035698 0 -0.23524228652297771 -0.38553437579887029 0 -0.24199914333254491 -0.41378716747155198 0 -0.23008302452814561 -0.39983880230311658 0 -0.24435131265401619 -0.39696644620035698 0 -0.24435131265401619 -0.39696644620035698 0 -0.23524228652297771 -0.38553437579887029 0 -0.24684711317633279 -0.37927720619419059 0 -0.23524228652297771 -0.38553437579887029 0 -0.24684711317633279 -0.37927720619419059 0 -0.2351525813665889 -0.37203584290311609 0 -0.24684711317633279 -0.37927720619419059 0 -0.23489900675730879 -0.35746965187060559 0 -0.24684711317633279 -0.37927720619419059 0 -0.24916925417826569 -0.36453323253943959 0 -0.23489900675730879 -0.35746965187060559 0 -0.24684711317633279 -0.37927720619419059 0 -0.2351525813665889 -0.37203584290311609 0 -0.23489900675730879 -0.35746965187060559 0 -0.2351525813665889 -0.37203584290311609 0 -0.23177842966052509 -0.36391621969798171 0 -0.22443045105120421 -0.3676455406038881 0 -0.22443045105120421 -0.3676455406038881 0 -0.2326316794669985 -0.35851384341431702 0 -0.20848601538002581 -0.36258085538983381 0 -0.21937829079088189 -0.38135733981019948 0 -0.2351525813665889 -0.37203584290311609 0 -0.22443045105120421 -0.3676455406038881 0 -0.2351525813665889 -0.37203584290311609 0 -0.23177842966052509 -0.36391621969798171 0 -0.23489900675730879 -0.35746965187060559 0 -0.23177842966052509 -0.36391621969798171 0 -0.22443045105120421 -0.3676455406038881 0 -0.2326316794669985 -0.35851384341431702 0 -0.23177842966052509 -0.36391621969798171 0 -0.2326316794669985 -0.35851384341431702 0 -0.23489900675730879 -0.35746965187060559 0 -0.2326316794669985 -0.35851384341431702 0 -0.22439765930458769 -0.33830270633005471 0 -0.20848601538002581 -0.36258085538983381 0 -0.23489900675730879 -0.35746965187060559 0 -0.22439765930458769 -0.33830270633005471 0 -0.23918722283801711 -0.34535736982651988 0 -0.23489900675730879 -0.35746965187060559 0 -0.22439765930458769 -0.33830270633005471 0 -0.2326316794669985 -0.35851384341431702 0 -0.23489900675730879 -0.35746965187060559 0 -0.22439765930458769 -0.33830270633005471 0 -0.2326316794669985 -0.35851384341431702 0 -0.23489900675730879 -0.35746965187060559 0 -0.25187492187299759 -0.34965158912936961 0 -0.23489900675730879 -0.35746965187060559 0 -0.25187492187299759 -0.34965158912936961 0 -0.23918722283801711 -0.34535736982651988 0 -0.23489900675730879 -0.35746965187060559 0 -0.25187492187299759 -0.34965158912936961 0 -0.24916925417826569 -0.36453323253943959 0 -0.23489900675730879 -0.35746965187060559 0 -0.24426617702210471 -0.33462410430735418 0 -0.23665743217121341 -0.31959661948533802 0 -0.22439765930458769 -0.33830270633005471 0 -0.25187492187299759 -0.34965158912936961 0 -0.23918722283801711 -0.34535736982651988 0 -0.24426617702210471 -0.33462410430735418 0 -0.23918722283801711 -0.34535736982651988 0 -0.24426617702210471 -0.33462410430735418 0 -0.22439765930458769 -0.33830270633005471 0 -0.25187492187299759 -0.34965158912936961 0 -0.24426617702210471 -0.33462410430735418 0 -0.25085064765768822 -0.32073337649308842 0 -0.25045377421465592 -0.29854601967312189 0 -0.23665743217121341 -0.31959661948533802 0 -0.25085064765768822 -0.32073337649308842 0 -0.24426617702210471 -0.33462410430735418 0 -0.23665743217121341 -0.31959661948533802 0 -0.24426617702210471 -0.33462410430735418 0 -0.23665743217121341 -0.31959661948533802 0 -0.23665743217121341 -0.31959661948533802 0 -0.23589864074222441 -0.31809798509745468 0 -0.23665743217121341 -0.31959661948533802 0 -0.23589864074222441 -0.31809798509745468 0 -0.22439765930458769 -0.33830270633005471 0 -0.23589864074222441 -0.31809798509745468 0 -0.22439765930458769 -0.33830270633005471 0 -0.2127912109311432 -0.31711874256783051 0 -0.23665743217121341 -0.31959661948533802 0 -0.22439765930458769 -0.33830270633005471 0 -0.22439765930458769 -0.33830270633005471 0 -0.20705449191980421 -0.33403332566107408 0 -0.2127912109311432 -0.31711874256783051 0 -0.22439765930458769 -0.33830270633005471 0 -0.2127912109311432 -0.31711874256783051 0 -0.20705449191980421 -0.33403332566107408 0 -0.2127912109311432 -0.31711874256783051 0 -0.19598176242049839 -0.31255694350972463 0 -0.20705449191980421 -0.33403332566107408 0 -0.19598176242049839 -0.31255694350972463 0 -0.18092688492746761 -0.32131583804889952 0 -0.20705449191980421 -0.33403332566107408 0 -0.19119057616129759 -0.34223998411871048 0 -0.18092688492746761 -0.32131583804889952 0 -0.20705449191980421 -0.33403332566107408 0 -0.19119057616129759 -0.34223998411871048 0 -0.20848601538002581 -0.36258085538983381 0 -0.19119057616129759 -0.34223998411871048 0 -0.18998415287208709 -0.36078920192556008 0 -0.20848601538002581 -0.36258085538983381 0 -0.1925743714554638 -0.38685900444961252 0 -0.20848601538002581 -0.36258085538983381 0 -0.1925743714554638 -0.38685900444961252 0 -0.18998415287208709 -0.36078920192556008 0 -0.20848601538002581 -0.36258085538983381 0 -0.21937829079088189 -0.38135733981019948 0 -0.22443045105120421 -0.3676455406038881 0 -0.20848601538002581 -0.36258085538983381 0 -0.22439765930458769 -0.33830270633005471 0 -0.20705449191980421 -0.33403332566107408 0 -0.20848601538002581 -0.36258085538983381 0 -0.22439765930458769 -0.33830270633005471 0 -0.20848601538002581 -0.36258085538983381 0 -0.2223369626768916 -0.26340524764217688 0 -0.23592948902621311 -0.2477715507551034 0 -0.2215532654752311 -0.24133106905983459 0 -0.2223369626768916 -0.26340524764217688 0 -0.23679834765547991 -0.26494319929396648 0 -0.23592948902621311 -0.2477715507551034 0 -0.25168388931481372 -0.26752118516170359 0 -0.23592948902621311 -0.2477715507551034 0 -0.25741499207255808 -0.2468477206326791 0 -0.25168388931481372 -0.26752118516170359 0 -0.23679834765547991 -0.26494319929396648 0 -0.23592948902621311 -0.2477715507551034 0 -0.25168388931481372 -0.26752118516170359 0 -0.23679834765547991 -0.26494319929396648 0 -0.23830700692626269 -0.27997480961457749 0 -0.2223369626768916 -0.26340524764217688 0 -0.23830700692626269 -0.27997480961457749 0 -0.2154217922422037 -0.28225115606289991 0 -0.2223369626768916 -0.26340524764217688 0 -0.23679834765547991 -0.26494319929396648 0 -0.23830700692626269 -0.27997480961457749 0 -0.23830700692626269 -0.27997480961457749 0 -0.22852333204159059 -0.30152275761670611 0 -0.2154217922422037 -0.28225115606289991 0 -0.25045377421465592 -0.29854601967312189 0 -0.2601826827707801 -0.28370155148151111 0 -0.23830700692626269 -0.27997480961457749 0 -0.25045377421465592 -0.29854601967312189 0 -0.23830700692626269 -0.27997480961457749 0 -0.22852333204159059 -0.30152275761670611 0 -0.25045377421465592 -0.29854601967312189 0 -0.23665743217121341 -0.31959661948533802 0 -0.23589864074222441 -0.31809798509745468 0 -0.25045377421465592 -0.29854601967312189 0 -0.23589864074222441 -0.31809798509745468 0 -0.22852333204159059 -0.30152275761670611 0 -0.25045377421465592 -0.29854601967312189 0 -0.23665743217121341 -0.31959661948533802 0 -0.25045377421465592 -0.29854601967312189 0 -0.22852333204159059 -0.30152275761670611 0 -0.23589864074222441 -0.31809798509745468 0 -0.2127912109311432 -0.31711874256783051 0 -0.22852333204159059 -0.30152275761670611 0 -0.2127912109311432 -0.31711874256783051 0 -0.19598176242049839 -0.31255694350972463 0 -0.2011847625576991 -0.2959347788056062 0 -0.2127912109311432 -0.31711874256783051 0 -0.2011847625576991 -0.2959347788056062 0 -0.2127912109311432 -0.31711874256783051 0 -0.22852333204159059 -0.30152275761670611 0 -0.2011847625576991 -0.2959347788056062 0 -0.19598176242049839 -0.31255694350972463 0 -0.2011847625576991 -0.2959347788056062 0 -0.17755397369752429 -0.29610081000198102 0 -0.2011847625576991 -0.2959347788056062 0 -0.1925456435568299 -0.28141253501531249 0 -0.17755397369752429 -0.29610081000198102 0 -0.2011847625576991 -0.2959347788056062 0 -0.1925456435568299 -0.28141253501531249 0 -0.2154217922422037 -0.28225115606289991 0 -0.22852333204159059 -0.30152275761670611 0 -0.2011847625576991 -0.2959347788056062 0 -0.2154217922422037 -0.28225115606289991 0 -0.2223369626768916 -0.26340524764217688 0 -0.2154217922422037 -0.28225115606289991 0 -0.20045662512016379 -0.26614766917631688 0 -0.1925456435568299 -0.28141253501531249 0 -0.2154217922422037 -0.28225115606289991 0 -0.20045662512016379 -0.26614766917631688 0 -0.1925456435568299 -0.28141253501531249 0 -0.20045662512016379 -0.26614766917631688 0 -0.17775500553109469 -0.26879409258934228 0 -0.20045662512016379 -0.26614766917631688 0 -0.18821041320015461 -0.25321495835273289 0 -0.20427737249766981 -0.24797899690480421 0 -0.20045662512016379 -0.26614766917631688 0 -0.18821041320015461 -0.25321495835273289 0 -0.17775500553109469 -0.26879409258934228 0 -0.2223369626768916 -0.26340524764217688 0 -0.20427737249766981 -0.24797899690480421 0 -0.2215532654752311 -0.24133106905983459 0 -0.2223369626768916 -0.26340524764217688 0 -0.20045662512016379 -0.26614766917631688 0 -0.20427737249766981 -0.24797899690480421 0 -0.17775500553109469 -0.26879409258934228 0 -0.1549563994126926 -0.25638117026728369 0 -0.1711511126820103 -0.2454622828759119 0 -0.18821041320015461 -0.25321495835273289 0 -0.17775500553109469 -0.26879409258934228 0 -0.1711511126820103 -0.2454622828759119 0 -0.17775500553109469 -0.26879409258934228 0 -0.1608329437932019 -0.27742088269070159 0 -0.17755397369752429 -0.29610081000198102 0 -0.17775500553109469 -0.26879409258934228 0 -0.1608329437932019 -0.27742088269070159 0 -0.1549563994126926 -0.25638117026728369 0 -0.1608329437932019 -0.27742088269070159 0 -0.17755397369752429 -0.29610081000198102 0 -0.15160666793889821 -0.29410269447864268 0 -0.1925456435568299 -0.28141253501531249 0 -0.17775500553109469 -0.26879409258934228 0 -0.17755397369752429 -0.29610081000198102 0 -0.19598176242049839 -0.31255694350972463 0 -0.17755397369752429 -0.29610081000198102 0 -0.18092688492746761 -0.32131583804889952 0 -0.17755397369752429 -0.29610081000198102 0 -0.18092688492746761 -0.32131583804889952 0 -0.15820647411384761 -0.31612486714216748 0 -0.17755397369752429 -0.29610081000198102 0 -0.15160666793889821 -0.29410269447864268 0 -0.15820647411384761 -0.31612486714216748 0 -0.13793716205361531 -0.30677980464637677 0 -0.15160666793889821 -0.29410269447864268 0 -0.15820647411384761 -0.31612486714216748 0 -0.15160666793889821 -0.29410269447864268 0 -0.15820647411384761 -0.31612486714216748 0 -0.13793716205361531 -0.30677980464637677 0 -0.127923637138078 -0.28508341202542198 0 -0.1178436779573809 -0.30118316104085668 0 -0.13793716205361531 -0.30677980464637677 0 -0.12844019263109599 -0.32099186422587062 0 -0.1178436779573809 -0.30118316104085668 0 -0.13793716205361531 -0.30677980464637677 0 -0.127923637138078 -0.28508341202542198 0 -0.15160666793889821 -0.29410269447864268 0 -0.127923637138078 -0.28508341202542198 0 -0.15160666793889821 -0.29410269447864268 0 -0.1450068617639487 -0.27208052181511783 0 -0.15160666793889821 -0.29410269447864268 0 -0.1450068617639487 -0.27208052181511783 0 -0.1608329437932019 -0.27742088269070159 0 -0.1450068617639487 -0.27208052181511783 0 -0.1549563994126926 -0.25638117026728369 0 -0.1608329437932019 -0.27742088269070159 0 -0.15160666793889821 -0.29410269447864268 0 -0.1450068617639487 -0.27208052181511783 0 -0.127923637138078 -0.28508341202542198 0 -0.1450068617639487 -0.27208052181511783 0 -0.1237068476627313 -0.26448705861867527 0 -0.1237068476627313 -0.26448705861867527 0 -0.11808015724625499 -0.2469318776918972 0 -0.13696654556145929 -0.2465802172165627 0 -0.1450068617639487 -0.27208052181511783 0 -0.1237068476627313 -0.26448705861867527 0 -0.13696654556145929 -0.2465802172165627 0 -0.1450068617639487 -0.27208052181511783 0 -0.1549563994126926 -0.25638117026728369 0 -0.13696654556145929 -0.2465802172165627 0 -0.15643427386028219 -0.35234052785374242 0 -0.1714060864637465 -0.36016921246921701 0 -0.1648062802887971 -0.33814703980569222 0 -0.1714060864637465 -0.36016921246921701 0 -0.17885357167860319 -0.34698431648685962 0 -0.1648062802887971 -0.33814703980569222 0 -0.1714060864637465 -0.36016921246921701 0 -0.1648062802887971 -0.33814703980569222 0 -0.16326575244030311 -0.3860933809749314 0 -0.16423759391237089 -0.36691526723147527 0 -0.1498687773497123 -0.36104960844046918 0 -0.16326575244030311 -0.3860933809749314 0 -0.1498687773497123 -0.36104960844046918 0 -0.15643427386028219 -0.35234052785374242 0 -0.16423759391237089 -0.36691526723147527 0 -0.1714060864637465 -0.36016921246921701 0 -0.15643427386028219 -0.35234052785374242 0 -0.16423759391237089 -0.36691526723147527 0 -0.1498687773497123 -0.36104960844046918 0 -0.16423759391237089 -0.36691526723147527 0 -0.1714060864637465 -0.36016921246921701 0 -0.1774134451485132 -0.37295332569840411 0 -0.1925743714554638 -0.38685900444961252 0 -0.18998415287208709 -0.36078920192556008 0 -0.1774134451485132 -0.37295332569840411 0 -0.18998415287208709 -0.36078920192556008 0 -0.1714060864637465 -0.36016921246921701 0 -0.1774134451485132 -0.37295332569840411 0 -0.19119057616129759 -0.34223998411871048 0 -0.18998415287208709 -0.36078920192556008 0 -0.17885357167860319 -0.34698431648685962 0 -0.18998415287208709 -0.36078920192556008 0 -0.1714060864637465 -0.36016921246921701 0 -0.17885357167860319 -0.34698431648685962 0 -0.19119057616129759 -0.34223998411871048 0 -0.17885357167860319 -0.34698431648685962 0 -0.17688076260708741 -0.33357614411511782 0 -0.19119057616129759 -0.34223998411871048 0 -0.17688076260708741 -0.33357614411511782 0 -0.18092688492746761 -0.32131583804889952 0 -0.17885357167860319 -0.34698431648685962 0 -0.17688076260708741 -0.33357614411511782 0 -0.1648062802887971 -0.33814703980569222 0 -0.17688076260708741 -0.33357614411511782 0 -0.18092688492746761 -0.32131583804889952 0 -0.15820647411384761 -0.31612486714216748 0 -0.15820647411384761 -0.31612486714216748 0 -0.1648062802887971 -0.33814703980569222 0 -0.17688076260708741 -0.33357614411511782 0 -0.15820647411384761 -0.31612486714216748 0 -0.1648062802887971 -0.33814703980569222 0 -0.15820647411384761 -0.31612486714216748 0 -0.1648062802887971 -0.33814703980569222 0 -0.1509154437981278 -0.33671999184938728 0 -0.15643427386028219 -0.35234052785374242 0 -0.1648062802887971 -0.33814703980569222 0 -0.1509154437981278 -0.33671999184938728 0 -0.1509154437981278 -0.33671999184938728 0 -0.143602322542391 -0.3231928289653016 0 -0.13903670730481321 -0.34080056741088322 0 -0.1509154437981278 -0.33671999184938728 0 -0.13903670730481321 -0.34080056741088322 0 -0.1509154437981278 -0.33671999184938728 0 -0.13903670730481321 -0.34080056741088322 0 -0.14906380057823379 -0.34772767388862053 0 -0.13793716205361531 -0.30677980464637677 0 -0.15820647411384761 -0.31612486714216748 0 -0.143602322542391 -0.3231928289653016 0 -0.15820647411384761 -0.31612486714216748 0 -0.1509154437981278 -0.33671999184938728 0 -0.143602322542391 -0.3231928289653016 0 -0.13793716205361531 -0.30677980464637677 0 -0.143602322542391 -0.3231928289653016 0 -0.12844019263109599 -0.32099186422587062 0 -0.143602322542391 -0.3231928289653016 0 -0.12844019263109599 -0.32099186422587062 0 -0.13903670730481321 -0.34080056741088322 0 -0.12844019263109599 -0.32099186422587062 0 -0.13903670730481321 -0.34080056741088322 0 -0.1259096577359243 -0.3341235456274334 0 -0.12844019263109599 -0.32099186422587062 0 -0.13903670730481321 -0.34080056741088322 0 -0.13903670730481321 -0.34080056741088322 0 -0.1259096577359243 -0.3341235456274334 0 -0.1285656599401192 -0.34164394966096218 0 -0.13903670730481321 -0.34080056741088322 0 -0.13125072284716 -0.35812326904031339 0 -0.121857890254603 -0.35466205339155121 0 -0.13903670730481321 -0.34080056741088322 0 -0.1285656599401192 -0.34164394966096218 0 -0.113687377536278 -0.34950855210369852 0 -0.13903670730481321 -0.34080056741088322 0 -0.13125072284716 -0.35812326904031339 0 -0.1498687773497123 -0.36104960844046918 0 -0.13903670730481321 -0.34080056741088322 0 -0.113687377536278 -0.34950855210369852 0 -0.13903670730481321 -0.34080056741088322 0 -0.1498687773497123 -0.36104960844046918 0 -0.13903670730481321 -0.34080056741088322 0 -0.14906380057823379 -0.34772767388862053 0 -0.1498687773497123 -0.36104960844046918 0 -0.15643427386028219 -0.35234052785374242 0 -0.1498687773497123 -0.36104960844046918 0 -0.15643427386028219 -0.35234052785374242 0 -0.14906380057823379 -0.34772767388862053 0 -0.1498687773497123 -0.36104960844046918 0 -0.15643427386028219 -0.35234052785374242 0 -0.1509154437981278 -0.33671999184938728 0 -0.14906380057823379 -0.34772767388862053 0 -0.13376914947380869 -0.38240564089922952 0 -0.1498687773497123 -0.36104960844046918 0 -0.13125072284716 -0.35812326904031339 0 -0.1498687773497123 -0.36104960844046918 0 -0.12619815888375349 -0.37141732307028719 0 -0.13376914947380869 -0.38240564089922952 0 -0.1498687773497123 -0.36104960844046918 0 -0.12619815888375349 -0.37141732307028719 0 -0.13125072284716 -0.35812326904031339 0 -0.12619815888375349 -0.37141732307028719 0 -0.1185053701245844 -0.36337054499012222 0 -0.12619815888375349 -0.37141732307028719 0 -0.1185053701245844 -0.36337054499012222 0 -0.1112571933738904 -0.37385256917993742 0 -0.1185053701245844 -0.36337054499012222 0 -0.1091856426071347 -0.36553884580645168 0 -0.1110996167737615 -0.35811950586732888 0 -0.1185053701245844 -0.36337054499012222 0 -0.1112571933738904 -0.37385256917993742 0 -0.1091856426071347 -0.36553884580645168 0 -0.1112571933738904 -0.37385256917993742 0 -0.1018914545828679 -0.36962519423259399 0 -0.1091856426071347 -0.36553884580645168 0 -0.1091856426071347 -0.36553884580645168 0 -0.1031745781805691 -0.36272641476227602 0 -0.1110996167737615 -0.35811950586732888 0 -0.1031745781805691 -0.36272641476227602 0 -0.1010232255124225 -0.3589862885808997 0 -0.1110996167737615 -0.35811950586732888 0 -0.1018914545828679 -0.36962519423259399 0 -0.1091856426071347 -0.36553884580645168 0 -0.1031745781805691 -0.36272641476227602 0 -0.1018914545828679 -0.36962519423259399 0 -0.1031745781805691 -0.36272641476227602 0 -0.09650090408757786 -0.36412544740697828 0 -0.1010232255124225 -0.3589862885808997 0 -0.093338828728605786 -0.36122127454860292 0 -0.088338047767742928 -0.35821653679651411 0 -0.1031745781805691 -0.36272641476227602 0 -0.09650090408757786 -0.36412544740697828 0 -0.1010232255124225 -0.3589862885808997 0 -0.09650090408757786 -0.36412544740697828 0 -0.1010232255124225 -0.3589862885808997 0 -0.093338828728605786 -0.36122127454860292 0 -0.1018914545828679 -0.36962519423259399 0 -0.09373082316589082 -0.37181012148302339 0 -0.09809891488648112 -0.38186868850555888 0 -0.1018914545828679 -0.36962519423259399 0 -0.09650090408757786 -0.36412544740697828 0 -0.09373082316589082 -0.37181012148302339 0 -0.1068625311972481 -0.34891911451770657 0 -0.092984461200490004 -0.35044425859927908 0 -0.085159402454377101 -0.35619427937445097 0 -0.113687377536278 -0.34950855210369852 0 -0.088338047767742928 -0.35821653679651411 0 -0.1010232255124225 -0.3589862885808997 0 -0.113687377536278 -0.34950855210369852 0 -0.088338047767742928 -0.35821653679651411 0 -0.1068625311972481 -0.34891911451770657 0 -0.085159402454377101 -0.35619427937445097 0 -0.1068625311972481 -0.34891911451770657 0 -0.113687377536278 -0.34950855210369852 0 -0.088338047767742928 -0.35821653679651411 0 -0.098767574523660695 -0.34560505512341522 0 -0.1068625311972481 -0.34891911451770657 0 -0.092984461200490004 -0.35044425859927908 0 -0.098767574523660695 -0.34560505512341522 0 -0.092849285024924524 -0.34312482996851512 0 -0.092984461200490004 -0.35044425859927908 0 -0.1010232255124225 -0.3589862885808997 0 -0.113687377536278 -0.34950855210369852 0 -0.1110996167737615 -0.35811950586732888 0 -0.098767574523660695 -0.34560505512341522 0 -0.1068625311972481 -0.34891911451770657 0 -0.10237402067198011 -0.33993201740816031 0 -0.1285656599401192 -0.34164394966096218 0 -0.1068625311972481 -0.34891911451770657 0 -0.1285656599401192 -0.34164394966096218 0 -0.1068625311972481 -0.34891911451770657 0 -0.113687377536278 -0.34950855210369852 0 -0.13903670730481321 -0.34080056741088322 0 -0.113687377536278 -0.34950855210369852 0 -0.121857890254603 -0.35466205339155121 0 -0.113687377536278 -0.34950855210369852 0 -0.1110996167737615 -0.35811950586732888 0 -0.121857890254603 -0.35466205339155121 0 -0.1185053701245844 -0.36337054499012222 0 -0.1110996167737615 -0.35811950586732888 0 -0.121857890254603 -0.35466205339155121 0 -0.13125072284716 -0.35812326904031339 0 -0.1185053701245844 -0.36337054499012222 0 -0.121857890254603 -0.35466205339155121 0 -0.1259096577359243 -0.3341235456274334 0 -0.1285656599401192 -0.34164394966096218 0 -0.11576122316925019 -0.33945576154833912 0 -0.1285656599401192 -0.34164394966096218 0 -0.1068625311972481 -0.34891911451770657 0 -0.11576122316925019 -0.33945576154833912 0 -0.1259096577359243 -0.3341235456274334 0 -0.11576122316925019 -0.33945576154833912 0 -0.1177445056343427 -0.32772558529111179 0 -0.11576122316925019 -0.33945576154833912 0 -0.1177445056343427 -0.32772558529111179 0 -0.107334132842946 -0.33199394724837222 0 -0.1068625311972481 -0.34891911451770657 0 -0.11576122316925019 -0.33945576154833912 0 -0.1080829769703562 -0.34007521018064452 0 -0.11576122316925019 -0.33945576154833912 0 -0.1080829769703562 -0.34007521018064452 0 -0.107334132842946 -0.33199394724837222 0 -0.12844019263109599 -0.32099186422587062 0 -0.1129058796160243 -0.31733199835799231 0 -0.1178436779573809 -0.30118316104085668 0 -0.12844019263109599 -0.32099186422587062 0 -0.1177445056343427 -0.32772558529111179 0 -0.1129058796160243 -0.31733199835799231 0 -0.12844019263109599 -0.32099186422587062 0 -0.1259096577359243 -0.3341235456274334 0 -0.1177445056343427 -0.32772558529111179 0 -0.1177445056343427 -0.32772558529111179 0 -0.1129058796160243 -0.31733199835799231 0 -0.107334132842946 -0.33199394724837222 0 -0.1129058796160243 -0.31733199835799231 0 -0.098033938810181576 -0.32356527554347558 0 -0.1007327116538297 -0.30971028950999058 0 -0.1129058796160243 -0.31733199835799231 0 -0.098033938810181576 -0.32356527554347558 0 -0.107334132842946 -0.33199394724837222 0 -0.098033938810181576 -0.32356527554347558 0 -0.088652059634862834 -0.31807673913428941 0 -0.1007327116538297 -0.30971028950999058 0 -0.1080829769703562 -0.34007521018064452 0 -0.10237402067198011 -0.33993201740816031 0 -0.107334132842946 -0.33199394724837222 0 -0.1068625311972481 -0.34891911451770657 0 -0.1080829769703562 -0.34007521018064452 0 -0.10237402067198011 -0.33993201740816031 0 -0.10237402067198011 -0.33993201740816031 0 -0.107334132842946 -0.33199394724837222 0 -0.095655353961862893 -0.33418697996819052 0 -0.098033938810181576 -0.32356527554347558 0 -0.095655353961862893 -0.33418697996819052 0 -0.088029716814672906 -0.32874718885497112 0 -0.098033938810181576 -0.32356527554347558 0 -0.107334132842946 -0.33199394724837222 0 -0.095655353961862893 -0.33418697996819052 0 -0.098767574523660695 -0.34560505512341522 0 -0.10237402067198011 -0.33993201740816031 0 -0.092849285024924524 -0.34312482996851512 0 -0.10237402067198011 -0.33993201740816031 0 -0.095655353961862893 -0.33418697996819052 0 -0.092849285024924524 -0.34312482996851512 0 -0.095655353961862893 -0.33418697996819052 0 -0.092849285024924524 -0.34312482996851512 0 -0.085593994183176661 -0.33764873958371161 0 -0.092849285024924524 -0.34312482996851512 0 -0.085593994183176661 -0.33764873958371161 0 -0.08624520067800423 -0.34447318110950997 0 -0.095655353961862893 -0.33418697996819052 0 -0.088029716814672906 -0.32874718885497112 0 -0.085593994183176661 -0.33764873958371161 0 -0.088029716814672906 -0.32874718885497112 0 -0.085593994183176661 -0.33764873958371161 0 -0.076865282397925214 -0.33186621151016921 0 -0.085593994183176661 -0.33764873958371161 0 -0.075026114713044295 -0.34067685310217188 0 -0.076865282397925214 -0.33186621151016921 0 -0.081370738045411201 -0.34367153790127303 0 -0.085593994183176661 -0.33764873958371161 0 -0.075026114713044295 -0.34067685310217188 0 -0.081370738045411201 -0.34367153790127303 0 -0.085593994183176661 -0.33764873958371161 0 -0.08624520067800423 -0.34447318110950997 0 -0.098033938810181576 -0.32356527554347558 0 -0.088029716814672906 -0.32874718885497112 0 -0.088652059634862834 -0.31807673913428941 0 -0.088029716814672906 -0.32874718885497112 0 -0.088652059634862834 -0.31807673913428941 0 -0.080838327017069028 -0.32319167788270292 0 -0.088029716814672906 -0.32874718885497112 0 -0.080838327017069028 -0.32319167788270292 0 -0.076865282397925214 -0.33186621151016921 0 -0.088652059634862834 -0.31807673913428941 0 -0.078100819927504062 -0.31429069343154281 0 -0.086677571893623961 -0.30642113115476022 0 -0.088652059634862834 -0.31807673913428941 0 -0.080838327017069028 -0.32319167788270292 0 -0.078100819927504062 -0.31429069343154281 0 -0.078100819927504062 -0.31429069343154281 0 -0.072543756310380125 -0.32297755648254223 0 -0.066463753171253276 -0.31163794558230229 0 -0.080838327017069028 -0.32319167788270292 0 -0.078100819927504062 -0.31429069343154281 0 -0.072543756310380125 -0.32297755648254223 0 -0.080838327017069028 -0.32319167788270292 0 -0.072543756310380125 -0.32297755648254223 0 -0.076865282397925214 -0.33186621151016921 0 -0.072543756310380125 -0.32297755648254223 0 -0.065742280204007922 -0.33149802327949868 0 -0.06006222290448035 -0.32096046264570549 0 -0.072543756310380125 -0.32297755648254223 0 -0.066463753171253276 -0.31163794558230229 0 -0.06006222290448035 -0.32096046264570549 0 -0.071503704381946226 -0.33654813528754762 0 -0.075026114713044295 -0.34067685310217188 0 -0.076865282397925214 -0.33186621151016921 0 -0.071503704381946226 -0.33654813528754762 0 -0.075026114713044295 -0.34067685310217188 0 -0.068381140212807529 -0.34215145325835061 0 -0.075026114713044295 -0.34067685310217188 0 -0.068381140212807529 -0.34215145325835061 0 -0.072736270992194374 -0.34642657517974162 0 -0.072543756310380125 -0.32297755648254223 0 -0.076865282397925214 -0.33186621151016921 0 -0.065742280204007922 -0.33149802327949868 0 -0.071503704381946226 -0.33654813528754762 0 -0.076865282397925214 -0.33186621151016921 0 -0.065742280204007922 -0.33149802327949868 0 -0.071503704381946226 -0.33654813528754762 0 -0.065742280204007922 -0.33149802327949868 0 -0.068381140212807529 -0.34215145325835061 0 -0.065742280204007922 -0.33149802327949868 0 -0.068381140212807529 -0.34215145325835061 0 -0.058850610090334217 -0.34227708964461528 0 -0.068381140212807529 -0.34215145325835061 0 -0.067393526715338159 -0.3497393527455373 0 -0.058850610090334217 -0.34227708964461528 0 -0.063456273711506042 -0.36346944423119532 0 -0.078223194432675835 -0.35587933594317761 0 -0.085159402454377101 -0.35619427937445097 0 -0.068381140212807529 -0.34215145325835061 0 -0.067393526715338159 -0.3497393527455373 0 -0.072736270992194374 -0.34642657517974162 0 -0.067393526715338159 -0.3497393527455373 0 -0.072736270992194374 -0.34642657517974162 0 -0.074066200781286826 -0.35104720025366032 0 -0.072736270992194374 -0.34642657517974162 0 -0.074066200781286826 -0.35104720025366032 0 -0.077757195911873356 -0.3479113963905503 0 -0.074066200781286826 -0.35104720025366032 0 -0.077757195911873356 -0.3479113963905503 0 -0.079283281657694382 -0.35192827770904073 0 -0.075026114713044295 -0.34067685310217188 0 -0.072736270992194374 -0.34642657517974162 0 -0.077757195911873356 -0.3479113963905503 0 -0.081370738045411201 -0.34367153790127303 0 -0.075026114713044295 -0.34067685310217188 0 -0.077757195911873356 -0.3479113963905503 0 -0.074518079839290902 -0.35538001290972498 0 -0.063456273711506042 -0.36346944423119532 0 -0.078223194432675835 -0.35587933594317761 0 -0.074066200781286826 -0.35104720025366032 0 -0.074518079839290902 -0.35538001290972498 0 -0.079283281657694382 -0.35192827770904073 0 -0.074518079839290902 -0.35538001290972498 0 -0.079283281657694382 -0.35192827770904073 0 -0.078223194432675835 -0.35587933594317761 0 -0.074066200781286826 -0.35104720025366032 0 -0.074518079839290902 -0.35538001290972498 0 -0.070537106502188418 -0.35515861917650071 0 -0.067393526715338159 -0.3497393527455373 0 -0.074066200781286826 -0.35104720025366032 0 -0.070537106502188418 -0.35515861917650071 0 -0.070537106502188418 -0.35515861917650071 0 -0.064200617251401124 -0.3555332474848959 0 -0.063456273711506042 -0.36346944423119532 0 -0.074518079839290902 -0.35538001290972498 0 -0.070537106502188418 -0.35515861917650071 0 -0.063456273711506042 -0.36346944423119532 0 -0.067393526715338159 -0.3497393527455373 0 -0.070537106502188418 -0.35515861917650071 0 -0.064200617251401124 -0.3555332474848959 0 -0.067393526715338159 -0.3497393527455373 0 -0.064200617251401124 -0.3555332474848959 0 -0.0601668591538711 -0.35114995868961352 0 -0.063456273711506042 -0.36346944423119532 0 -0.062988717999207855 -0.36692452148932969 0 -0.085159402454377101 -0.35619427937445097 0 -0.063456273711506042 -0.36346944423119532 0 -0.085159402454377101 -0.35619427937445097 0 -0.062988717999207855 -0.36692452148932969 0 -0.077428061508280091 -0.367342392330816 0 -0.084054167019809028 -0.36271976208064532 0 -0.062988717999207855 -0.36692452148932969 0 -0.088338047767742928 -0.35821653679651411 0 -0.062988717999207855 -0.36692452148932969 0 -0.071526011972588746 -0.3715151644510708 0 -0.062598847692499904 -0.37739661857073742 0 -0.062988717999207855 -0.36692452148932969 0 -0.071526011972588746 -0.3715151644510708 0 -0.077428061508280091 -0.367342392330816 0 -0.071526011972588746 -0.3715151644510708 0 -0.077428061508280091 -0.367342392330816 0 -0.079131740822782085 -0.37266707297715063 0 -0.071526011972588746 -0.3715151644510708 0 -0.079131740822782085 -0.37266707297715063 0 -0.073757809905612745 -0.37687486480527532 0 -0.062988717999207855 -0.36692452148932969 0 -0.084054167019809028 -0.36271976208064532 0 -0.088338047767742928 -0.35821653679651411 0 -0.077428061508280091 -0.367342392330816 0 -0.084054167019809028 -0.36271976208064532 0 -0.08562926272781457 -0.36838383457190033 0 -0.062988717999207855 -0.36692452148932969 0 -0.088338047767742928 -0.35821653679651411 0 -0.085159402454377101 -0.35619427937445097 0 -0.077428061508280091 -0.367342392330816 0 -0.079131740822782085 -0.37266707297715063 0 -0.08562926272781457 -0.36838383457190033 0 -0.079131740822782085 -0.37266707297715063 0 -0.08562926272781457 -0.36838383457190033 0 -0.087025017306539443 -0.37745545772501632 0 -0.08562926272781457 -0.36838383457190033 0 -0.09373082316589082 -0.37181012148302339 0 -0.090305323244554439 -0.36403594836255221 0 -0.08562926272781457 -0.36838383457190033 0 -0.09373082316589082 -0.37181012148302339 0 -0.087025017306539443 -0.37745545772501632 0 -0.084054167019809028 -0.36271976208064532 0 -0.090305323244554439 -0.36403594836255221 0 -0.088338047767742928 -0.35821653679651411 0 -0.084054167019809028 -0.36271976208064532 0 -0.08562926272781457 -0.36838383457190033 0 -0.090305323244554439 -0.36403594836255221 0 -0.09650090408757786 -0.36412544740697828 0 -0.09373082316589082 -0.37181012148302339 0 -0.090305323244554439 -0.36403594836255221 0 -0.09650090408757786 -0.36412544740697828 0 -0.090305323244554439 -0.36403594836255221 0 -0.093338828728605786 -0.36122127454860292 0 -0.090305323244554439 -0.36403594836255221 0 -0.093338828728605786 -0.36122127454860292 0 -0.088338047767742928 -0.35821653679651411 0 -0.092984461200490004 -0.35044425859927908 0 -0.087337714780908779 -0.35105185921688609 0 -0.085159402454377101 -0.35619427937445097 0 -0.1068625311972481 -0.34891911451770657 0 -0.088338047767742928 -0.35821653679651411 0 -0.085159402454377101 -0.35619427937445097 0 -0.092849285024924524 -0.34312482996851512 0 -0.092984461200490004 -0.35044425859927908 0 -0.089035193423952233 -0.34767192913709011 0 -0.08624520067800423 -0.34447318110950997 0 -0.089035193423952233 -0.34767192913709011 0 -0.085759305435433628 -0.34926551679126011 0 -0.092849285024924524 -0.34312482996851512 0 -0.08624520067800423 -0.34447318110950997 0 -0.089035193423952233 -0.34767192913709011 0 -0.092984461200490004 -0.35044425859927908 0 -0.089035193423952233 -0.34767192913709011 0 -0.087337714780908779 -0.35105185921688609 0 -0.089035193423952233 -0.34767192913709011 0 -0.087337714780908779 -0.35105185921688609 0 -0.085759305435433628 -0.34926551679126011 0 -0.087337714780908779 -0.35105185921688609 0 -0.085759305435433628 -0.34926551679126011 0 -0.082921812403109502 -0.35251430864390981 0 -0.082222922355254371 -0.34829403642425733 0 -0.085759305435433628 -0.34926551679126011 0 -0.082921812403109502 -0.35251430864390981 0 -0.08624520067800423 -0.34447318110950997 0 -0.082222922355254371 -0.34829403642425733 0 -0.085759305435433628 -0.34926551679126011 0 -0.081370738045411201 -0.34367153790127303 0 -0.08624520067800423 -0.34447318110950997 0 -0.082222922355254371 -0.34829403642425733 0 -0.081370738045411201 -0.34367153790127303 0 -0.077757195911873356 -0.3479113963905503 0 -0.082222922355254371 -0.34829403642425733 0 -0.082222922355254371 -0.34829403642425733 0 -0.079283281657694382 -0.35192827770904073 0 -0.082921812403109502 -0.35251430864390981 0 -0.077757195911873356 -0.3479113963905503 0 -0.082222922355254371 -0.34829403642425733 0 -0.079283281657694382 -0.35192827770904073 0 -0.079283281657694382 -0.35192827770904073 0 -0.078223194432675835 -0.35587933594317761 0 -0.082921812403109502 -0.35251430864390981 0 -0.087337714780908779 -0.35105185921688609 0 -0.085159402454377101 -0.35619427937445097 0 -0.082921812403109502 -0.35251430864390981 0 -0.078223194432675835 -0.35587933594317761 0 -0.085159402454377101 -0.35619427937445097 0 -0.082921812403109502 -0.35251430864390981 0 -0.104587978076215 -0.25747443718160112 0 -0.083529437657296868 -0.25385245579954557 0 -0.10226620831189261 -0.2398666626675463 0 -0.104587978076215 -0.25747443718160112 0 -0.1237068476627313 -0.26448705861867527 0 -0.11808015724625499 -0.2469318776918972 0 -0.104587978076215 -0.25747443718160112 0 -0.1237068476627313 -0.26448705861867527 0 -0.1069883725642601 -0.27503877684514721 0 -0.127923637138078 -0.28508341202542198 0 -0.1237068476627313 -0.26448705861867527 0 -0.1069883725642601 -0.27503877684514721 0 -0.104587978076215 -0.25747443718160112 0 -0.1069883725642601 -0.27503877684514721 0 -0.087449230615363305 -0.27480792075198918 0 -0.1069883725642601 -0.27503877684514721 0 -0.1004027774688275 -0.29276454011451669 0 -0.087449230615363305 -0.27480792075198918 0 -0.127923637138078 -0.28508341202542198 0 -0.1069883725642601 -0.27503877684514721 0 -0.1004027774688275 -0.29276454011451669 0 -0.127923637138078 -0.28508341202542198 0 -0.1004027774688275 -0.29276454011451669 0 -0.1178436779573809 -0.30118316104085668 0 -0.12844019263109599 -0.32099186422587062 0 -0.1178436779573809 -0.30118316104085668 0 -0.1129058796160243 -0.31733199835799231 0 -0.1178436779573809 -0.30118316104085668 0 -0.1007327116538297 -0.30971028950999058 0 -0.1004027774688275 -0.29276454011451669 0 -0.1178436779573809 -0.30118316104085668 0 -0.1007327116538297 -0.30971028950999058 0 -0.1004027774688275 -0.29276454011451669 0 -0.1007327116538297 -0.30971028950999058 0 -0.086677571893623961 -0.30642113115476022 0 -0.1004027774688275 -0.29276454011451669 0 -0.086677571893623961 -0.30642113115476022 0 -0.082843703575994979 -0.29242152139165212 0 -0.088652059634862834 -0.31807673913428941 0 -0.1007327116538297 -0.30971028950999058 0 -0.086677571893623961 -0.30642113115476022 0 -0.086677571893623961 -0.30642113115476022 0 -0.073939879693765476 -0.30133443306181651 0 -0.082843703575994979 -0.29242152139165212 0 -0.078100819927504062 -0.31429069343154281 0 -0.086677571893623961 -0.30642113115476022 0 -0.073939879693765476 -0.30133443306181651 0 -0.078100819927504062 -0.31429069343154281 0 -0.066463753171253276 -0.31163794558230229 0 -0.073939879693765476 -0.30133443306181651 0 -0.066463753171253276 -0.31163794558230229 0 -0.073939879693765476 -0.30133443306181651 0 -0.060553751631969042 -0.298969841810725 0 -0.073939879693765476 -0.30133443306181651 0 -0.06899967796224761 -0.28426546499991701 0 -0.060553751631969042 -0.298969841810725 0 -0.073939879693765476 -0.30133443306181651 0 -0.06899967796224761 -0.28426546499991701 0 -0.082843703575994979 -0.29242152139165212 0 -0.1004027774688275 -0.29276454011451669 0 -0.082843703575994979 -0.29242152139165212 0 -0.087449230615363305 -0.27480792075198918 0 -0.06899967796224761 -0.28426546499991701 0 -0.082843703575994979 -0.29242152139165212 0 -0.087449230615363305 -0.27480792075198918 0 -0.06899967796224761 -0.28426546499991701 0 -0.087449230615363305 -0.27480792075198918 0 -0.064792667002701199 -0.26783824893154501 0 -0.064792667002701199 -0.26783824893154501 0 -0.065857606964651497 -0.25285372279474522 0 -0.083529437657296868 -0.25385245579954557 0 -0.064792667002701199 -0.26783824893154501 0 -0.083529437657296868 -0.25385245579954557 0 -0.104587978076215 -0.25747443718160112 0 -0.087449230615363305 -0.27480792075198918 0 -0.083529437657296868 -0.25385245579954557 0 -0.087449230615363305 -0.27480792075198918 0 -0.064792667002701199 -0.26783824893154501 0 -0.083529437657296868 -0.25385245579954557 0 -0.036848398950594899 -0.2553221433106021 0 -0.050762503913064652 -0.26257575801908078 0 -0.037970387231332572 -0.27250572099697801 0 -0.036848398950594899 -0.2553221433106021 0 -0.050762503913064652 -0.26257575801908078 0 -0.050179157051726118 -0.24768379108550251 0 -0.065857606964651497 -0.25285372279474522 0 -0.050762503913064652 -0.26257575801908078 0 -0.060304122168017268 -0.23674779300095111 0 -0.064792667002701199 -0.26783824893154501 0 -0.065857606964651497 -0.25285372279474522 0 -0.050762503913064652 -0.26257575801908078 0 -0.064792667002701199 -0.26783824893154501 0 -0.046055896348105557 -0.28182404206354428 0 -0.064792667002701199 -0.26783824893154501 0 -0.050762503913064652 -0.26257575801908078 0 -0.046055896348105557 -0.28182404206354428 0 -0.06899967796224761 -0.28426546499991701 0 -0.064792667002701199 -0.26783824893154501 0 -0.046055896348105557 -0.28182404206354428 0 -0.050762503913064652 -0.26257575801908078 0 -0.037970387231332572 -0.27250572099697801 0 -0.046055896348105557 -0.28182404206354428 0 -0.036848398950594899 -0.2553221433106021 0 -0.037970387231332572 -0.27250572099697801 0 -0.020349728214407701 -0.27752330097449263 0 -0.037970387231332572 -0.27250572099697801 0 -0.035288582854717837 -0.28957344148783781 0 -0.046055896348105557 -0.28182404206354428 0 -0.035288582854717837 -0.28957344148783781 0 -0.046055896348105557 -0.28182404206354428 0 -0.046601420286087603 -0.29757480950857301 0 -0.06899967796224761 -0.28426546499991701 0 -0.046055896348105557 -0.28182404206354428 0 -0.060553751631969042 -0.298969841810725 0 -0.046055896348105557 -0.28182404206354428 0 -0.060553751631969042 -0.298969841810725 0 -0.046601420286087603 -0.29757480950857301 0 -0.060553751631969042 -0.298969841810725 0 -0.052943766416933047 -0.30954668182822842 0 -0.046601420286087603 -0.29757480950857301 0 -0.066463753171253276 -0.31163794558230229 0 -0.060553751631969042 -0.298969841810725 0 -0.052943766416933047 -0.30954668182822842 0 -0.035288582854717837 -0.28957344148783781 0 -0.038075618495212599 -0.30664529288075798 0 -0.022463680912761231 -0.29821208857043091 0 -0.035288582854717837 -0.28957344148783781 0 -0.046601420286087603 -0.29757480950857301 0 -0.038075618495212599 -0.30664529288075798 0 -0.052943766416933047 -0.30954668182822842 0 -0.046601420286087603 -0.29757480950857301 0 -0.038075618495212599 -0.30664529288075798 0 -0.022463680912761231 -0.29821208857043091 0 -0.027283375278466322 -0.31874895819585969 0 -0.010878028330920241 -0.31527613423858081 0 -0.038075618495212599 -0.30664529288075798 0 -0.022463680912761231 -0.29821208857043091 0 -0.027283375278466322 -0.31874895819585969 0 -0.022463680912761231 -0.29821208857043091 0 -0.0038510574782205579 -0.2997244586383831 0 -0.010878028330920241 -0.31527613423858081 0 -0.0038510574782205579 -0.2997244586383831 0 -0.010878028330920241 -0.31527613423858081 0 0.0035157764707993179 -0.30776509704669819 0 -0.022463680912761231 -0.29821208857043091 0 -0.0038510574782205579 -0.2997244586383831 0 -0.020349728214407701 -0.27752330097449263 0 -0.0038510574782205579 -0.2997244586383831 0 -0.020349728214407701 -0.27752330097449263 0 0.00069600354279332824 -0.2758447591784694 0 -0.0038510574782205579 -0.2997244586383831 0 -0.020349728214407701 -0.27752330097449263 0 -0.035288582854717837 -0.28957344148783781 0 -0.022463680912761231 -0.29821208857043091 0 -0.020349728214407701 -0.27752330097449263 0 -0.037970387231332572 -0.27250572099697801 0 -0.035288582854717837 -0.28957344148783781 0 -0.020349728214407701 -0.27752330097449263 0 -0.036848398950594899 -0.2553221433106021 0 -0.020349728214407701 -0.27752330097449263 0 -0.020349728214407701 -0.27752330097449263 0 -0.01337552196006451 -0.25409280855202881 0 0.00069600354279332824 -0.2758447591784694 0 -0.01337552196006451 -0.25409280855202881 0 0.00069600354279332824 -0.2758447591784694 0 0.0049407412643659313 -0.25867424517361032 0 -0.01337552196006451 -0.25409280855202881 0 0.00069600354279332824 -0.2758447591784694 0 -0.01337552196006451 -0.25409280855202881 0 0.0049407412643659313 -0.25867424517361032 0 0.00030022057776212072 -0.24629662869332139 0 -0.036848398950594899 -0.2553221433106021 0 -0.020349728214407701 -0.27752330097449263 0 -0.01337552196006451 -0.25409280855202881 0 -0.031461439422729928 -0.35225511747148602 0 -0.050301446229713102 -0.36023597743977398 0 -0.049141767769004731 -0.34818466074682591 0 -0.031461439422729928 -0.35225511747148602 0 -0.049141767769004731 -0.34818466074682591 0 -0.037185115597177673 -0.33503843258435517 0 -0.031461439422729928 -0.35225511747148602 0 -0.041753144968634602 -0.37074460908793871 0 -0.031461439422729928 -0.35225511747148602 0 -0.041753144968634602 -0.37074460908793871 0 -0.050301446229713102 -0.36023597743977398 0 -0.063456273711506042 -0.36346944423119532 0 -0.041753144968634602 -0.37074460908793871 0 -0.062988717999207855 -0.36692452148932969 0 -0.041753144968634602 -0.37074460908793871 0 -0.062598847692499904 -0.37739661857073742 0 -0.063456273711506042 -0.36346944423119532 0 -0.041753144968634602 -0.37074460908793871 0 -0.050301446229713102 -0.36023597743977398 0 -0.063456273711506042 -0.36346944423119532 0 -0.062988717999207855 -0.36692452148932969 0 -0.041753144968634602 -0.37074460908793871 0 -0.063456273711506042 -0.36346944423119532 0 -0.050301446229713102 -0.36023597743977398 0 -0.058929763908222438 -0.35751521908330602 0 -0.058929763908222438 -0.35751521908330602 0 -0.049141767769004731 -0.34818466074682591 0 -0.0601668591538711 -0.35114995868961352 0 -0.064200617251401124 -0.3555332474848959 0 -0.063456273711506042 -0.36346944423119532 0 -0.058929763908222438 -0.35751521908330602 0 -0.064200617251401124 -0.3555332474848959 0 -0.058929763908222438 -0.35751521908330602 0 -0.0601668591538711 -0.35114995868961352 0 -0.050301446229713102 -0.36023597743977398 0 -0.058929763908222438 -0.35751521908330602 0 -0.049141767769004731 -0.34818466074682591 0 -0.049141767769004731 -0.34818466074682591 0 -0.0601668591538711 -0.35114995868961352 0 -0.058850610090334217 -0.34227708964461528 0 -0.067393526715338159 -0.3497393527455373 0 -0.0601668591538711 -0.35114995868961352 0 -0.058850610090334217 -0.34227708964461528 0 -0.065742280204007922 -0.33149802327949868 0 -0.058850610090334217 -0.34227708964461528 0 -0.05664315048212086 -0.32966330142235578 0 -0.058850610090334217 -0.34227708964461528 0 -0.05664315048212086 -0.32966330142235578 0 -0.0493996275795546 -0.33500242410796049 0 -0.05664315048212086 -0.32966330142235578 0 -0.0493996275795546 -0.33500242410796049 0 -0.045788168422185367 -0.32213830977171309 0 -0.049141767769004731 -0.34818466074682591 0 -0.058850610090334217 -0.34227708964461528 0 -0.0493996275795546 -0.33500242410796049 0 -0.066463753171253276 -0.31163794558230229 0 -0.052943766416933047 -0.30954668182822842 0 -0.06006222290448035 -0.32096046264570549 0 -0.065742280204007922 -0.33149802327949868 0 -0.05664315048212086 -0.32966330142235578 0 -0.06006222290448035 -0.32096046264570549 0 -0.05664315048212086 -0.32966330142235578 0 -0.06006222290448035 -0.32096046264570549 0 -0.045788168422185367 -0.32213830977171309 0 -0.052943766416933047 -0.30954668182822842 0 -0.06006222290448035 -0.32096046264570549 0 -0.045788168422185367 -0.32213830977171309 0 -0.038075618495212599 -0.30664529288075798 0 -0.045788168422185367 -0.32213830977171309 0 -0.027283375278466322 -0.31874895819585969 0 -0.045788168422185367 -0.32213830977171309 0 -0.037185115597177673 -0.33503843258435517 0 -0.027283375278466322 -0.31874895819585969 0 -0.052943766416933047 -0.30954668182822842 0 -0.038075618495212599 -0.30664529288075798 0 -0.045788168422185367 -0.32213830977171309 0 -0.049141767769004731 -0.34818466074682591 0 -0.0493996275795546 -0.33500242410796049 0 -0.037185115597177673 -0.33503843258435517 0 -0.0493996275795546 -0.33500242410796049 0 -0.045788168422185367 -0.32213830977171309 0 -0.037185115597177673 -0.33503843258435517 0 -0.031461439422729928 -0.35225511747148602 0 -0.037185115597177673 -0.33503843258435517 0 -0.02116973387682507 -0.33376562585503339 0 -0.037185115597177673 -0.33503843258435517 0 -0.02116973387682507 -0.33376562585503339 0 -0.027283375278466322 -0.31874895819585969 0 -0.031461439422729928 -0.35225511747148602 0 -0.02116973387682507 -0.33376562585503339 0 -0.02116973387682507 -0.33376562585503339 0 -0.027283375278466322 -0.31874895819585969 0 -0.010878028330920241 -0.31527613423858081 0 -0.02116973387682507 -0.33376562585503339 0 -0.010878028330920241 -0.31527613423858081 0 -0.010878028330920241 -0.31527613423858081 0 -0.0057683781166291059 -0.33491740435489159 0 0.0020100022948757179 -0.32433636602676391 0 -0.02116973387682507 -0.33376562585503339 0 -0.010878028330920241 -0.31527613423858081 0 -0.0057683781166291059 -0.33491740435489159 0 -0.010878028330920241 -0.31527613423858081 0 0.0020100022948757179 -0.32433636602676391 0 0.0035157764707993179 -0.30776509704669819 0 -0.0057683781166291059 -0.33491740435489159 0 -0.0074167715464010572 -0.35345822621748818 0 0.0111485868661024 -0.33716895756166398 0 -0.02116973387682507 -0.33376562585503339 0 -0.0057683781166291059 -0.33491740435489159 0 -0.0074167715464010572 -0.35345822621748818 0 -0.031461439422729928 -0.35225511747148602 0 -0.02116973387682507 -0.33376562585503339 0 -0.0074167715464010572 -0.35345822621748818 0 -0.031461439422729928 -0.35225511747148602 0 -0.0074167715464010572 -0.35345822621748818 0 -0.016182503267495291 -0.37931621348989208 0 -0.031461439422729928 -0.35225511747148602 0 -0.041753144968634602 -0.37074460908793871 0 -0.016182503267495291 -0.37931621348989208 0 -0.0074167715464010572 -0.35345822621748818 0 -0.016182503267495291 -0.37931621348989208 0 0.003309102918704366 -0.37262758108984068 0 -0.016182503267495291 -0.37931621348989208 0 0.0093881384336444995 -0.38788781789184462 0 0.0001548961855554003 -0.40425103983522143 0 -0.016182503267495291 -0.37931621348989208 0 -0.034900795561575458 -0.39420945261642493 0 -0.019050460664629461 -0.41231842672472518 0 -0.016182503267495291 -0.37931621348989208 0 0.0093881384336444995 -0.38788781789184462 0 -0.016182503267495291 -0.37931621348989208 0 0.0093881384336444995 -0.38788781789184462 0 0.003309102918704366 -0.37262758108984068 0 -0.016182503267495291 -0.37931621348989208 0 -0.019050460664629461 -0.41231842672472518 0 0.0001548961855554003 -0.40425103983522143 0 -0.041753144968634602 -0.37074460908793871 0 -0.016182503267495291 -0.37931621348989208 0 -0.034900795561575458 -0.39420945261642493 0 -0.041753144968634602 -0.37074460908793871 0 -0.016182503267495291 -0.37931621348989208 0 -0.041753144968634602 -0.37074460908793871 0 -0.034900795561575458 -0.39420945261642493 0 -0.054093898303567589 -0.39291530317835999 0 -0.034900795561575458 -0.39420945261642493 0 -0.054093898303567589 -0.39291530317835999 0 -0.043423970603550348 -0.41575271060120828 0 -0.054093898303567589 -0.39291530317835999 0 -0.066434651638500347 -0.41508599726878131 0 -0.041753144968634602 -0.37074460908793871 0 -0.054093898303567589 -0.39291530317835999 0 -0.062598847692499904 -0.37739661857073742 0 -0.041753144968634602 -0.37074460908793871 0 -0.054093898303567589 -0.39291530317835999 0 -0.0592050482887286 -0.43724862561442102 0 -0.043423970603550348 -0.41575271060120828 0 -0.066434651638500347 -0.41508599726878131 0 -0.054093898303567589 -0.39291530317835999 0 -0.043423970603550348 -0.41575271060120828 0 -0.066434651638500347 -0.41508599726878131 0 -0.034900795561575458 -0.39420945261642493 0 -0.043423970603550348 -0.41575271060120828 0 -0.019050460664629461 -0.41231842672472518 0 -0.0592050482887286 -0.43724862561442102 0 -0.043423970603550348 -0.41575271060120828 0 -0.029940962632043398 -0.44157836874350842 0 -0.019050460664629461 -0.41231842672472518 0 -0.0027692131281891888 -0.43342354364163282 0 -0.029940962632043398 -0.44157836874350842 0 -0.043423970603550348 -0.41575271060120828 0 -0.019050460664629461 -0.41231842672472518 0 -0.029940962632043398 -0.44157836874350842 0 -0.019050460664629461 -0.41231842672472518 0 -0.0027692131281891888 -0.43342354364163282 0 0.0001548961855554003 -0.40425103983522143 0 -0.0027692131281891888 -0.43342354364163282 0 -0.013412257425639749 -0.45577403748516582 0 0.007382801424827435 -0.4580761117798875 0 -0.0027692131281891888 -0.43342354364163282 0 -0.013412257425639749 -0.45577403748516582 0 -0.029940962632043398 -0.44157836874350842 0 -0.013412257425639749 -0.45577403748516582 0 -0.012960156365352761 -0.47869733803054187 0 0.007382801424827435 -0.4580761117798875 0 -0.013412257425639749 -0.45577403748516582 0 -0.028773756427440841 -0.4670948252302583 0 -0.012960156365352761 -0.47869733803054187 0 -0.013412257425639749 -0.45577403748516582 0 -0.028773756427440841 -0.4670948252302583 0 -0.029940962632043398 -0.44157836874350842 0 -0.0072485533882910569 -0.5 0 -0.012960156365352761 -0.47869733803054187 0 0.0028652109536792029 -0.48687931248582872 0 -0.028773756427440841 -0.4670948252302583 0 -0.012960156365352761 -0.47869733803054187 0 -0.040622524934169027 -0.48272476237275508 0 -0.012960156365352761 -0.47869733803054187 0 -0.040622524934169027 -0.48272476237275508 0 -0.012960156365352761 -0.47869733803054187 0 -0.035872324174526793 -0.5 0 -0.040622524934169027 -0.48272476237275508 0 -0.0072485533882910569 -0.5 0 -0.012960156365352761 -0.47869733803054187 0 -0.035872324174526793 -0.5 0 -0.028773756427440841 -0.4670948252302583 0 -0.040622524934169027 -0.48272476237275508 0 -0.046989275041331609 -0.45982274630938391 0 -0.040622524934169027 -0.48272476237275508 0 -0.056316832862168952 -0.47428236653284372 0 -0.046989275041331609 -0.45982274630938391 0 -0.040622524934169027 -0.48272476237275508 0 -0.056316832862168952 -0.47428236653284372 0 -0.068284893502985222 -0.48675218671496823 0 -0.035872324174526793 -0.5 0 -0.040622524934169027 -0.48272476237275508 0 -0.064496094960762473 -0.5 0 -0.040622524934169027 -0.48272476237275508 0 -0.068284893502985222 -0.48675218671496823 0 -0.040622524934169027 -0.48272476237275508 0 -0.064496094960762473 -0.5 0 -0.068284893502985222 -0.48675218671496823 0 -0.0592050482887286 -0.43724862561442102 0 -0.029940962632043398 -0.44157836874350842 0 -0.046989275041331609 -0.45982274630938391 0 -0.028773756427440841 -0.4670948252302583 0 -0.029940962632043398 -0.44157836874350842 0 -0.046989275041331609 -0.45982274630938391 0 -0.056316832862168952 -0.47428236653284372 0 -0.046989275041331609 -0.45982274630938391 0 -0.069370637970189927 -0.46782977073426751 0 -0.046989275041331609 -0.45982274630938391 0 -0.064335537278912364 -0.4529089215486013 0 -0.069370637970189927 -0.46782977073426751 0 -0.0592050482887286 -0.43724862561442102 0 -0.046989275041331609 -0.45982274630938391 0 -0.064335537278912364 -0.4529089215486013 0 -0.0592050482887286 -0.43724862561442102 0 -0.064335537278912364 -0.4529089215486013 0 -0.085470265846094615 -0.44647373827550801 0 -0.064335537278912364 -0.4529089215486013 0 -0.069370637970189927 -0.46782977073426751 0 -0.085470265846094615 -0.44647373827550801 0 -0.069370637970189927 -0.46782977073426751 0 -0.085470265846094615 -0.44647373827550801 0 -0.069370637970189927 -0.46782977073426751 0 -0.085470265846094615 -0.44647373827550801 0 -0.09615940511688198 -0.46334946179542508 0 -0.064496094960762473 -0.5 0 -0.068284893502985222 -0.48675218671496823 0 -0.093119865746998265 -0.5 0 -0.069370637970189927 -0.46782977073426751 0 -0.068284893502985222 -0.48675218671496823 0 -0.087520409847341024 -0.47970027998336751 0 -0.056316832862168952 -0.47428236653284372 0 -0.069370637970189927 -0.46782977073426751 0 -0.068284893502985222 -0.48675218671496823 0 -0.069370637970189927 -0.46782977073426751 0 -0.087520409847341024 -0.47970027998336751 0 -0.09615940511688198 -0.46334946179542508 0 -0.068284893502985222 -0.48675218671496823 0 -0.087520409847341024 -0.47970027998336751 0 -0.093119865746998265 -0.5 0 -0.087520409847341024 -0.47970027998336751 0 -0.093119865746998265 -0.5 0 -0.10797596573858111 -0.48380568069613361 0 -0.093119865746998265 -0.5 0 -0.10797596573858111 -0.48380568069613361 0 -0.121743636533234 -0.5 0 -0.10797596573858111 -0.48380568069613361 0 -0.09615940511688198 -0.46334946179542508 0 -0.1147096293411029 -0.46571286975442222 0 -0.087520409847341024 -0.47970027998336751 0 -0.10797596573858111 -0.48380568069613361 0 -0.09615940511688198 -0.46334946179542508 0 -0.1340485458086379 -0.47628554922756372 0 -0.10797596573858111 -0.48380568069613361 0 -0.1147096293411029 -0.46571286975442222 0 -0.1340485458086379 -0.47628554922756372 0 -0.10797596573858111 -0.48380568069613361 0 -0.121743636533234 -0.5 0 -0.085470265846094615 -0.44647373827550801 0 -0.1097733172218608 -0.44720863277194772 0 -0.1015698937219993 -0.42511770581674851 0 -0.085470265846094615 -0.44647373827550801 0 -0.09615940511688198 -0.46334946179542508 0 -0.1097733172218608 -0.44720863277194772 0 -0.09615940511688198 -0.46334946179542508 0 -0.1147096293411029 -0.46571286975442222 0 -0.1097733172218608 -0.44720863277194772 0 -0.1275588856758908 -0.45503704772575038 0 -0.1147096293411029 -0.46571286975442222 0 -0.1097733172218608 -0.44720863277194772 0 -0.1275588856758908 -0.45503704772575038 0 -0.13127005720907819 -0.43109628490700719 0 -0.1097733172218608 -0.44720863277194772 0 -0.13127005720907819 -0.43109628490700719 0 -0.1097733172218608 -0.44720863277194772 0 -0.1015698937219993 -0.42511770581674851 0 -0.1015698937219993 -0.42511770581674851 0 -0.117669521597904 -0.40376167335798901 0 -0.093129802726593783 -0.40425860006547881 0 -0.1015698937219993 -0.42511770581674851 0 -0.117669521597904 -0.40376167335798901 0 -0.13127005720907819 -0.43109628490700719 0 -0.1015698937219993 -0.42511770581674851 0 -0.117669521597904 -0.40376167335798901 0 -0.13376914947380869 -0.38240564089922952 0 -0.117669521597904 -0.40376167335798901 0 -0.11312063300744141 -0.38724405109171978 0 -0.12619815888375349 -0.37141732307028719 0 -0.1112571933738904 -0.37385256917993742 0 -0.11312063300744141 -0.38724405109171978 0 -0.13376914947380869 -0.38240564089922952 0 -0.12619815888375349 -0.37141732307028719 0 -0.11312063300744141 -0.38724405109171978 0 -0.1112571933738904 -0.37385256917993742 0 -0.11312063300744141 -0.38724405109171978 0 -0.09809891488648112 -0.38186868850555888 0 -0.1112571933738904 -0.37385256917993742 0 -0.1018914545828679 -0.36962519423259399 0 -0.09809891488648112 -0.38186868850555888 0 -0.117669521597904 -0.40376167335798901 0 -0.11312063300744141 -0.38724405109171978 0 -0.093129802726593783 -0.40425860006547881 0 -0.11312063300744141 -0.38724405109171978 0 -0.09809891488648112 -0.38186868850555888 0 -0.093129802726593783 -0.40425860006547881 0 -0.09809891488648112 -0.38186868850555888 0 -0.093129802726593783 -0.40425860006547881 0 -0.084698315725514436 -0.38887161947882648 0 -0.093129802726593783 -0.40425860006547881 0 -0.084698315725514436 -0.38887161947882648 0 -0.072565307919049998 -0.3980733794824301 0 -0.09809891488648112 -0.38186868850555888 0 -0.087025017306539443 -0.37745545772501632 0 -0.084698315725514436 -0.38887161947882648 0 -0.09373082316589082 -0.37181012148302339 0 -0.09809891488648112 -0.38186868850555888 0 -0.087025017306539443 -0.37745545772501632 0 -0.084698315725514436 -0.38887161947882648 0 -0.079686925683906298 -0.38050529743799949 0 -0.071473503005387892 -0.38540524841244977 0 -0.079131740822782085 -0.37266707297715063 0 -0.087025017306539443 -0.37745545772501632 0 -0.079686925683906298 -0.38050529743799949 0 -0.087025017306539443 -0.37745545772501632 0 -0.084698315725514436 -0.38887161947882648 0 -0.079686925683906298 -0.38050529743799949 0 -0.054093898303567589 -0.39291530317835999 0 -0.071473503005387892 -0.38540524841244977 0 -0.062598847692499904 -0.37739661857073742 0 -0.079686925683906298 -0.38050529743799949 0 -0.073757809905612745 -0.37687486480527532 0 -0.071473503005387892 -0.38540524841244977 0 -0.079131740822782085 -0.37266707297715063 0 -0.079686925683906298 -0.38050529743799949 0 -0.073757809905612745 -0.37687486480527532 0 -0.073757809905612745 -0.37687486480527532 0 -0.071473503005387892 -0.38540524841244977 0 -0.062598847692499904 -0.37739661857073742 0 -0.071526011972588746 -0.3715151644510708 0 -0.073757809905612745 -0.37687486480527532 0 -0.062598847692499904 -0.37739661857073742 0 -0.054093898303567589 -0.39291530317835999 0 -0.071473503005387892 -0.38540524841244977 0 -0.072565307919049998 -0.3980733794824301 0 -0.093129802726593783 -0.40425860006547881 0 -0.072565307919049998 -0.3980733794824301 0 -0.066434651638500347 -0.41508599726878131 0 -0.054093898303567589 -0.39291530317835999 0 -0.072565307919049998 -0.3980733794824301 0 -0.066434651638500347 -0.41508599726878131 0 -0.084698315725514436 -0.38887161947882648 0 -0.071473503005387892 -0.38540524841244977 0 -0.072565307919049998 -0.3980733794824301 0 -0.0592050482887286 -0.43724862561442102 0 -0.066434651638500347 -0.41508599726878131 0 -0.082000832912009602 -0.42711173130914942 0 -0.0592050482887286 -0.43724862561442102 0 -0.085470265846094615 -0.44647373827550801 0 -0.082000832912009602 -0.42711173130914942 0 -0.085470265846094615 -0.44647373827550801 0 -0.1015698937219993 -0.42511770581674851 0 -0.085470265846094615 -0.44647373827550801 0 -0.1015698937219993 -0.42511770581674851 0 -0.082000832912009602 -0.42711173130914942 0 -0.093129802726593783 -0.40425860006547881 0 -0.066434651638500347 -0.41508599726878131 0 -0.082000832912009602 -0.42711173130914942 0 -0.1015698937219993 -0.42511770581674851 0 -0.093129802726593783 -0.40425860006547881 0 -0.082000832912009602 -0.42711173130914942 0 -0.082790848221126437 -0.077614145209601304 0 -0.082166818669955746 -0.095356426783555159 0 -0.1023216692844521 -0.084600165711802025 0 -0.082790848221126437 -0.077614145209601304 0 -0.1004453461215105 -0.061861320794464519 0 -0.082790848221126437 -0.077614145209601304 0 -0.1004453461215105 -0.061861320794464519 0 -0.08159054264021362 -0.059168341883478623 0 -0.082790848221126437 -0.077614145209601304 0 -0.064632417218049909 -0.074264629315241137 0 -0.08159054264021362 -0.059168341883478623 0 -0.064632417218049909 -0.074264629315241137 0 -0.08159054264021362 -0.059168341883478623 0 -0.06273573915891674 -0.056475362972492803 0 -0.082790848221126437 -0.077614145209601304 0 -0.065136350320742331 -0.093366969624738075 0 -0.082790848221126437 -0.077614145209601304 0 -0.065136350320742331 -0.093366969624738075 0 -0.082166818669955746 -0.095356426783555159 0 -0.082790848221126437 -0.077614145209601304 0 -0.064632417218049909 -0.074264629315241137 0 -0.065136350320742331 -0.093366969624738075 0 -0.065136350320742331 -0.093366969624738075 0 -0.069924248612258391 -0.10852839035850111 0 -0.082166818669955746 -0.095356426783555159 0 -0.095177687828399193 -0.1097606763009157 0 -0.06869195565623587 -0.12921451161898631 0 -0.10231991339600249 -0.1312300764166251 0 -0.069924248612258391 -0.10852839035850111 0 -0.095177687828399193 -0.1097606763009157 0 -0.06869195565623587 -0.12921451161898631 0 -0.069924248612258391 -0.10852839035850111 0 -0.082166818669955746 -0.095356426783555159 0 -0.095177687828399193 -0.1097606763009157 0 -0.082166818669955746 -0.095356426783555159 0 -0.095177687828399193 -0.1097606763009157 0 -0.1023216692844521 -0.084600165711802025 0 -0.095177687828399193 -0.1097606763009157 0 -0.12256317794057529 -0.094196919881979008 0 -0.1023216692844521 -0.084600165711802025 0 -0.095177687828399193 -0.1097606763009157 0 -0.1155091227126646 -0.1177598473990125 0 -0.10231991339600249 -0.1312300764166251 0 -0.1155091227126646 -0.1177598473990125 0 -0.1237657710554881 -0.1358272565332431 0 -0.13392623501744799 -0.1137333990212667 0 -0.095177687828399193 -0.1097606763009157 0 -0.1155091227126646 -0.1177598473990125 0 -0.12256317794057529 -0.094196919881979008 0 -0.1155091227126646 -0.1177598473990125 0 -0.12256317794057529 -0.094196919881979008 0 -0.13392623501744799 -0.1137333990212667 0 -0.12256317794057529 -0.094196919881979008 0 -0.1023216692844521 -0.084600165711802025 0 -0.1273462545314373 -0.065703502395887903 0 -0.082790848221126437 -0.077614145209601304 0 -0.1023216692844521 -0.084600165711802025 0 -0.1004453461215105 -0.061861320794464519 0 -0.1004453461215105 -0.061861320794464519 0 -0.1273462545314373 -0.065703502395887903 0 -0.1023216692844521 -0.084600165711802025 0 -0.1004453461215105 -0.061861320794464519 0 -0.1273462545314373 -0.065703502395887903 0 -0.116677632603769 -0.047377512744298883 0 -0.1004453461215105 -0.061861320794464519 0 -0.1273462545314373 -0.065703502395887903 0 -0.116677632603769 -0.047377512744298883 0 -0.10637879821625169 -0.035276157595210321 0 -0.1179857531923746 -0.02859964174018529 0 -0.116677632603769 -0.047377512744298883 0 -0.13290991908602751 -0.032893704694133233 0 -0.116677632603769 -0.047377512744298883 0 -0.1179857531923746 -0.02859964174018529 0 -0.13290991908602751 -0.032893704694133233 0 -0.116677632603769 -0.047377512744298883 0 -0.10637879821625169 -0.035276157595210321 0 -0.1037830027264957 -0.047669441281668327 0 -0.10637879821625169 -0.035276157595210321 0 -0.1037830027264957 -0.047669441281668327 0 -0.091630233964451413 -0.046162773992699552 0 -0.116677632603769 -0.047377512744298883 0 -0.1004453461215105 -0.061861320794464519 0 -0.1037830027264957 -0.047669441281668327 0 -0.1004453461215105 -0.061861320794464519 0 -0.1037830027264957 -0.047669441281668327 0 -0.091630233964451413 -0.046162773992699552 0 -0.116677632603769 -0.047377512744298883 0 -0.1004453461215105 -0.061861320794464519 0 -0.1198072775707657 -0.0035428438909860371 0 -0.12809890080586719 -0.01116188753518595 0 -0.1270076602408961 0.0054890085451015942 0 -0.1198072775707657 -0.0035428438909860371 0 -0.11515655270422689 -0.01411595257478058 0 -0.109004284113599 0.0029875152561677238 0 -0.11515655270422689 -0.01411595257478058 0 -0.12809890080586719 -0.01116188753518595 0 -0.1260570433250007 -0.021116881940496671 0 -0.1198072775707657 -0.0035428438909860371 0 -0.11515655270422689 -0.01411595257478058 0 -0.12809890080586719 -0.01116188753518595 0 -0.11515655270422689 -0.01411595257478058 0 -0.1179857531923746 -0.02859964174018529 0 -0.1082324824208393 -0.023644396934330479 0 -0.11515655270422689 -0.01411595257478058 0 -0.1179857531923746 -0.02859964174018529 0 -0.1260570433250007 -0.021116881940496671 0 -0.10637879821625169 -0.035276157595210321 0 -0.1179857531923746 -0.02859964174018529 0 -0.1082324824208393 -0.023644396934330479 0 -0.11515655270422689 -0.01411595257478058 0 -0.096263024058796443 -0.018679181958643098 0 -0.1082324824208393 -0.023644396934330479 0 -0.10637879821625169 -0.035276157595210321 0 -0.096263024058796443 -0.018679181958643098 0 -0.1082324824208393 -0.023644396934330479 0 -0.10637879821625169 -0.035276157595210321 0 -0.096263024058796443 -0.018679181958643098 0 -0.07916989295605692 -0.027931930533526429 0 -0.11515655270422689 -0.01411595257478058 0 -0.096263024058796443 -0.018679181958643098 0 -0.109004284113599 0.0029875152561677238 0 -0.096263024058796443 -0.018679181958643098 0 -0.109004284113599 0.0029875152561677238 0 -0.09076148652287061 0.00039294385896961791 0 -0.096263024058796443 -0.018679181958643098 0 -0.072867677892725358 -0.0056960314549651548 0 -0.09076148652287061 0.00039294385896961791 0 -0.096263024058796443 -0.018679181958643098 0 -0.07916989295605692 -0.027931930533526429 0 -0.072867677892725358 -0.0056960314549651548 0 -0.07916989295605692 -0.027931930533526429 0 -0.072867677892725358 -0.0056960314549651548 0 -0.051960987695862167 -0.02058770347184256 0 -0.07916989295605692 -0.027931930533526429 0 -0.059292778841464153 -0.03903421017403385 0 -0.051960987695862167 -0.02058770347184256 0 -0.07916989295605692 -0.027931930533526429 0 -0.051960987695862167 -0.02058770347184256 0 -0.1004453461215105 -0.061861320794464519 0 -0.08159054264021362 -0.059168341883478623 0 -0.091630233964451413 -0.046162773992699552 0 -0.1004453461215105 -0.061861320794464519 0 -0.08159054264021362 -0.059168341883478623 0 -0.08159054264021362 -0.059168341883478623 0 -0.091630233964451413 -0.046162773992699552 0 -0.07488383751222058 -0.04575452391124625 0 -0.10637879821625169 -0.035276157595210321 0 -0.07916989295605692 -0.027931930533526429 0 -0.10637879821625169 -0.035276157595210321 0 -0.07916989295605692 -0.027931930533526429 0 -0.091630233964451413 -0.046162773992699552 0 -0.07916989295605692 -0.027931930533526429 0 -0.091630233964451413 -0.046162773992699552 0 -0.07488383751222058 -0.04575452391124625 0 -0.07916989295605692 -0.027931930533526429 0 -0.07488383751222058 -0.04575452391124625 0 -0.059292778841464153 -0.03903421017403385 0 -0.08159054264021362 -0.059168341883478623 0 -0.06273573915891674 -0.056475362972492803 0 -0.07488383751222058 -0.04575452391124625 0 -0.06273573915891674 -0.056475362972492803 0 -0.059292778841464153 -0.03903421017403385 0 -0.08159054264021362 -0.059168341883478623 0 -0.07488383751222058 -0.04575452391124625 0 -0.06273573915891674 -0.056475362972492803 0 -0.06273573915891674 -0.056475362972492803 0 -0.059292778841464153 -0.03903421017403385 0 -0.045505070427684848 -0.050255693954087521 0 -0.06273573915891674 -0.056475362972492803 0 -0.045505070427684848 -0.050255693954087521 0 -0.045327038674947598 -0.070019755375743856 0 -0.059292778841464153 -0.03903421017403385 0 -0.042463147736335263 -0.033446157238532372 0 -0.045505070427684848 -0.050255693954087521 0 -0.042463147736335263 -0.033446157238532372 0 -0.032183744271097707 -0.043321805188187373 0 -0.045505070427684848 -0.050255693954087521 0 -0.042463147736335263 -0.033446157238532372 0 -0.032183744271097707 -0.043321805188187373 0 -0.029503579780018298 -0.033559745971006687 0 -0.032183744271097707 -0.043321805188187373 0 -0.045505070427684848 -0.050255693954087521 0 -0.030313387073253949 -0.059356394622248621 0 -0.045505070427684848 -0.050255693954087521 0 -0.030313387073253949 -0.059356394622248621 0 -0.045327038674947598 -0.070019755375743856 0 -0.051960987695862167 -0.02058770347184256 0 -0.056754197590857008 0.0022484061051966271 0 -0.039511076852245842 0.0034204325671171889 0 -0.072867677892725358 -0.0056960314549651548 0 -0.051960987695862167 -0.02058770347184256 0 -0.056754197590857008 0.0022484061051966271 0 -0.059292778841464153 -0.03903421017403385 0 -0.042463147736335263 -0.033446157238532372 0 -0.051960987695862167 -0.02058770347184256 0 -0.042463147736335263 -0.033446157238532372 0 -0.051960987695862167 -0.02058770347184256 0 -0.02667309666574013 -0.025502671644261721 0 -0.042463147736335263 -0.033446157238532372 0 -0.02667309666574013 -0.025502671644261721 0 -0.029503579780018298 -0.033559745971006687 0 -0.051960987695862167 -0.02058770347184256 0 -0.02475208243566742 -0.013243476410158699 0 -0.051960987695862167 -0.02058770347184256 0 -0.02475208243566742 -0.013243476410158699 0 -0.02667309666574013 -0.025502671644261721 0 -0.051960987695862167 -0.02058770347184256 0 -0.02475208243566742 -0.013243476410158699 0 -0.039511076852245842 0.0034204325671171889 0 -0.02475208243566742 -0.013243476410158699 0 -0.039511076852245842 0.0034204325671171889 0 -0.027135101676566669 0.00097548958815388644 0 -0.020691166216051309 -0.0040443791037982563 0 -0.02475208243566742 -0.013243476410158699 0 -0.01190346157300424 -0.0036268694762264472 0 -0.020691166216051309 -0.0040443791037982563 0 -0.02475208243566742 -0.013243476410158699 0 -0.027135101676566669 0.00097548958815388644 0 -0.02667309666574013 -0.025502671644261721 0 -0.0097148324078655795 -0.028082529143142972 0 -0.019905839713198609 -0.03783494139214507 0 -0.02667309666574013 -0.025502671644261721 0 -0.0097148324078655795 -0.028082529143142972 0 -0.015373571140669029 -0.018780066613720951 0 -0.02475208243566742 -0.013243476410158699 0 -0.02667309666574013 -0.025502671644261721 0 -0.015373571140669029 -0.018780066613720951 0 -0.0015370784557240469 -0.02005925164403383 0 -0.015373571140669029 -0.018780066613720951 0 0.0086717366238725311 -0.0095015071444512437 0 -0.0097148324078655795 -0.028082529143142972 0 0.0023413406826586491 -0.025706590140771781 0 0.00026944013316385822 -0.035283918163044208 0 -0.0097148324078655795 -0.028082529143142972 0 -0.0015370784557240469 -0.02005925164403383 0 0.0023413406826586491 -0.025706590140771781 0 -0.0097148324078655795 -0.028082529143142972 0 -0.0015370784557240469 -0.02005925164403383 0 -0.015373571140669029 -0.018780066613720951 0 -0.02475208243566742 -0.013243476410158699 0 -0.015373571140669029 -0.018780066613720951 0 0.0024568228245273188 -0.0058992493484748354 0 -0.015373571140669029 -0.018780066613720951 0 0.0024568228245273188 -0.0058992493484748354 0 0.0086717366238725311 -0.0095015071444512437 0 -0.015373571140669029 -0.018780066613720951 0 0.0086717366238725311 -0.0095015071444512437 0 -0.02475208243566742 -0.013243476410158699 0 0.0024568228245273188 -0.0058992493484748354 0 -0.02475208243566742 -0.013243476410158699 0 -0.01190346157300424 -0.0036268694762264472 0 0.0024568228245273188 -0.0058992493484748354 0 -0.01190346157300424 -0.0036268694762264472 0 -0.0036174073565606751 0.0035994414650109569 0 0.0024568228245273188 -0.0058992493484748354 0 -0.020691166216051309 -0.0040443791037982563 0 -0.01190346157300424 -0.0036268694762264472 0 -0.01243404289280208 0.0024010229120926809 0 -0.032183744271097707 -0.043321805188187373 0 -0.022504516949813331 -0.049022498361542613 0 -0.030313387073253949 -0.059356394622248621 0 -0.022504516949813331 -0.049022498361542613 0 -0.01829608107134692 -0.05784858398942825 0 -0.011882446174205211 -0.049305184638853888 0 -0.01829608107134692 -0.05784858398942825 0 -0.030313387073253949 -0.059356394622248621 0 -0.01859852049316162 -0.068894775850046733 0 -0.022504516949813331 -0.049022498361542613 0 -0.01829608107134692 -0.05784858398942825 0 -0.030313387073253949 -0.059356394622248621 0 -0.032183744271097707 -0.043321805188187373 0 -0.022504516949813331 -0.049022498361542613 0 -0.019905839713198609 -0.03783494139214507 0 -0.032183744271097707 -0.043321805188187373 0 -0.029503579780018298 -0.033559745971006687 0 -0.019905839713198609 -0.03783494139214507 0 -0.02667309666574013 -0.025502671644261721 0 -0.029503579780018298 -0.033559745971006687 0 -0.019905839713198609 -0.03783494139214507 0 -0.022504516949813331 -0.049022498361542613 0 -0.019905839713198609 -0.03783494139214507 0 -0.011882446174205211 -0.049305184638853888 0 -0.019905839713198609 -0.03783494139214507 0 -0.0083459338507978504 -0.039270911438509852 0 -0.011882446174205211 -0.049305184638853888 0 -0.0097148324078655795 -0.028082529143142972 0 -0.019905839713198609 -0.03783494139214507 0 -0.0083459338507978504 -0.039270911438509852 0 -0.0097148324078655795 -0.028082529143142972 0 -0.0083459338507978504 -0.039270911438509852 0 0.00026944013316385822 -0.035283918163044208 0 -0.0083459338507978504 -0.039270911438509852 0 -0.00089835853485555409 -0.044715385004938837 0 0.00026944013316385822 -0.035283918163044208 0 -0.0083459338507978504 -0.039270911438509852 0 -0.00089835853485555409 -0.044715385004938837 0 -0.011882446174205211 -0.049305184638853888 0 -0.00089835853485555409 -0.044715385004938837 0 -0.0021208385016765201 -0.054023033810274658 0 -0.011882446174205211 -0.049305184638853888 0 -0.01829608107134692 -0.05784858398942825 0 -0.011882446174205211 -0.049305184638853888 0 -0.0081815346663004843 -0.062664066474449415 0 -0.0021208385016765201 -0.054023033810274658 0 -0.011882446174205211 -0.049305184638853888 0 -0.0081815346663004843 -0.062664066474449415 0 -0.0021208385016765201 -0.054023033810274658 0 -0.0081815346663004843 -0.062664066474449415 0 0.0036254775754798541 -0.064395336985159243 0 -0.0075674146404035893 -0.074661578839568449 0 -0.0081815346663004843 -0.062664066474449415 0 0.0036254775754798541 -0.064395336985159243 0 -0.0075674146404035893 -0.074661578839568449 0 0.0036254775754798541 -0.064395336985159243 0 0.003715720870280929 -0.075830019088264103 0 -0.0075674146404035893 -0.074661578839568449 0 -0.017836261464933209 -0.079263417991369434 0 -0.01859852049316162 -0.068894775850046733 0 -0.0075674146404035893 -0.074661578839568449 0 -0.0081815346663004843 -0.062664066474449415 0 -0.01859852049316162 -0.068894775850046733 0 -0.01829608107134692 -0.05784858398942825 0 -0.0081815346663004843 -0.062664066474449415 0 -0.01859852049316162 -0.068894775850046733 0 -0.0075674146404035893 -0.074661578839568449 0 -0.0070486383949544054 -0.087522709136193089 0 0.003715720870280929 -0.075830019088264103 0 -0.0075674146404035893 -0.074661578839568449 0 -0.0070486383949544054 -0.087522709136193089 0 -0.017836261464933209 -0.079263417991369434 0 -0.0070486383949544054 -0.087522709136193089 0 -0.017836261464933209 -0.079263417991369434 0 -0.02615849603114807 -0.088917779004178868 0 -0.0070486383949544054 -0.087522709136193089 0 -0.031967572856722727 -0.094421371179431335 0 -0.0070486383949544054 -0.087522709136193089 0 -0.031967572856722727 -0.094421371179431335 0 -0.018858547124150901 -0.097891963624570297 0 -0.0070486383949544054 -0.087522709136193089 0 -0.02615849603114807 -0.088917779004178868 0 -0.031967572856722727 -0.094421371179431335 0 -0.02615849603114807 -0.088917779004178868 0 -0.02980823776499834 -0.07632024712686003 0 -0.031967572856722727 -0.094421371179431335 0 -0.017836261464933209 -0.079263417991369434 0 -0.02615849603114807 -0.088917779004178868 0 -0.02980823776499834 -0.07632024712686003 0 -0.02615849603114807 -0.088917779004178868 0 -0.031967572856722727 -0.094421371179431335 0 -0.030313387073253949 -0.059356394622248621 0 -0.01859852049316162 -0.068894775850046733 0 -0.02980823776499834 -0.07632024712686003 0 -0.017836261464933209 -0.079263417991369434 0 -0.01859852049316162 -0.068894775850046733 0 -0.02980823776499834 -0.07632024712686003 0 -0.030313387073253949 -0.059356394622248621 0 -0.02980823776499834 -0.07632024712686003 0 -0.045327038674947598 -0.070019755375743856 0 -0.045327038674947598 -0.070019755375743856 0 -0.031967572856722727 -0.094421371179431335 0 -0.02980823776499834 -0.07632024712686003 0 -0.045327038674947598 -0.070019755375743856 0 -0.031967572856722727 -0.094421371179431335 0 -0.048850747794387153 -0.08739010708506581 0 -0.036964601292650903 -0.09513497413513404 0 -0.031967572856722727 -0.094421371179431335 0 -0.045327038674947598 -0.070019755375743856 0 -0.048850747794387153 -0.08739010708506581 0 -0.031967572856722727 -0.094421371179431335 0 -0.048850747794387153 -0.08739010708506581 0 -0.049608387957034643 -0.09625296122120322 0 -0.036964601292650903 -0.09513497413513404 0 -0.064632417218049909 -0.074264629315241137 0 -0.065136350320742331 -0.093366969624738075 0 -0.048850747794387153 -0.08739010708506581 0 -0.065136350320742331 -0.093366969624738075 0 -0.048850747794387153 -0.08739010708506581 0 -0.049608387957034643 -0.09625296122120322 0 -0.064632417218049909 -0.074264629315241137 0 -0.045327038674947598 -0.070019755375743856 0 -0.048850747794387153 -0.08739010708506581 0 -0.064632417218049909 -0.074264629315241137 0 -0.06273573915891674 -0.056475362972492803 0 -0.045327038674947598 -0.070019755375743856 0 -0.047481852420358212 -0.109119794039875 0 -0.06869195565623587 -0.12921451161898631 0 -0.047481852420358212 -0.109119794039875 0 -0.045563247953021691 -0.12565442676634581 0 -0.06869195565623587 -0.12921451161898631 0 -0.069924248612258391 -0.10852839035850111 0 -0.047481852420358212 -0.109119794039875 0 -0.06869195565623587 -0.12921451161898631 0 -0.065136350320742331 -0.093366969624738075 0 -0.069924248612258391 -0.10852839035850111 0 -0.047481852420358212 -0.109119794039875 0 -0.065136350320742331 -0.093366969624738075 0 -0.047481852420358212 -0.109119794039875 0 -0.065136350320742331 -0.093366969624738075 0 -0.049608387957034643 -0.09625296122120322 0 -0.047481852420358212 -0.109119794039875 0 -0.047481852420358212 -0.109119794039875 0 -0.031967572856722727 -0.094421371179431335 0 -0.031729699686876563 -0.11213651906547061 0 -0.047481852420358212 -0.109119794039875 0 -0.031967572856722727 -0.094421371179431335 0 -0.049608387957034643 -0.09625296122120322 0 -0.047481852420358212 -0.109119794039875 0 -0.036964601292650903 -0.09513497413513404 0 -0.047481852420358212 -0.109119794039875 0 -0.036964601292650903 -0.09513497413513404 0 -0.031967572856722727 -0.094421371179431335 0 -0.036964601292650903 -0.09513497413513404 0 -0.031967572856722727 -0.094421371179431335 0 -0.047481852420358212 -0.109119794039875 0 -0.029340021817679741 -0.1253074575840718 0 -0.047481852420358212 -0.109119794039875 0 -0.029340021817679741 -0.1253074575840718 0 -0.045563247953021691 -0.12565442676634581 0 -0.047481852420358212 -0.109119794039875 0 -0.031729699686876563 -0.11213651906547061 0 -0.029340021817679741 -0.1253074575840718 0 -0.031729699686876563 -0.11213651906547061 0 -0.01812935165274563 -0.1196974534585042 0 -0.029340021817679741 -0.1253074575840718 0 -0.01812935165274563 -0.1196974534585042 0 -0.017450945659027679 -0.1055440703262762 0 -0.01137653374665607 -0.1112393652131312 0 -0.031967572856722727 -0.094421371179431335 0 -0.031729699686876563 -0.11213651906547061 0 -0.01812935165274563 -0.1196974534585042 0 -0.01812935165274563 -0.1196974534585042 0 -0.02549545190467014 -0.1000468486574056 0 -0.017450945659027679 -0.1055440703262762 0 -0.031967572856722727 -0.094421371179431335 0 -0.01812935165274563 -0.1196974534585042 0 -0.031967572856722727 -0.094421371179431335 0 -0.01812935165274563 -0.1196974534585042 0 -0.02549545190467014 -0.1000468486574056 0 -0.031967572856722727 -0.094421371179431335 0 -0.02549545190467014 -0.1000468486574056 0 -0.018858547124150901 -0.097891963624570297 0 -0.02549545190467014 -0.1000468486574056 0 -0.017450945659027679 -0.1055440703262762 0 -0.018858547124150901 -0.097891963624570297 0 -0.0070486383949544054 -0.087522709136193089 0 -0.018858547124150901 -0.097891963624570297 0 -0.0093951580297607605 -0.10185191554885251 0 -0.017450945659027679 -0.1055440703262762 0 -0.0093951580297607605 -0.10185191554885251 0 -0.01137653374665607 -0.1112393652131312 0 -0.0093951580297607605 -0.10185191554885251 0 -0.0035869806737475439 -0.109254310938091 0 -0.01137653374665607 -0.1112393652131312 0 -0.017450945659027679 -0.1055440703262762 0 -0.018858547124150901 -0.097891963624570297 0 -0.0093951580297607605 -0.10185191554885251 0 -0.0093951580297607605 -0.10185191554885251 0 -0.0035869806737475439 -0.109254310938091 0 0.0019506974199720399 -0.09965907405485358 0 -0.0070486383949544054 -0.087522709136193089 0 -0.0093951580297607605 -0.10185191554885251 0 0.0019506974199720399 -0.09965907405485358 0 -0.01812935165274563 -0.1196974534585042 0 -0.0045801415063462221 -0.11901338943474531 0 9.826656896625493e-06 -0.1313325988566085 0 -0.01812935165274563 -0.1196974534585042 0 -0.01137653374665607 -0.1112393652131312 0 -0.0045801415063462221 -0.11901338943474531 0 -0.0035869806737475439 -0.109254310938091 0 -0.0045801415063462221 -0.11901338943474531 0 0.0050755095359780464 -0.1176346018525178 0 -0.0035869806737475439 -0.109254310938091 0 -0.01137653374665607 -0.1112393652131312 0 -0.0045801415063462221 -0.11901338943474531 0 -0.01812935165274563 -0.1196974534585042 0 -0.0042911304487681804 -0.1449735357375769 0 -0.01812935165274563 -0.1196974534585042 0 -0.01119819121500139 -0.14149512112826859 0 -0.0042911304487681804 -0.1449735357375769 0 -0.0045801415063462221 -0.11901338943474531 0 9.826656896625493e-06 -0.1313325988566085 0 0.0028017473852785121 -0.12509361147560369 0 -0.01812935165274563 -0.1196974534585042 0 9.826656896625493e-06 -0.1313325988566085 0 -0.0042911304487681804 -0.1449735357375769 0 -0.02573247105784323 -0.13844273957598499 0 -0.029340021817679741 -0.1253074575840718 0 -0.01119819121500139 -0.14149512112826859 0 -0.029340021817679741 -0.1253074575840718 0 -0.01119819121500139 -0.14149512112826859 0 -0.01812935165274563 -0.1196974534585042 0 -0.029340021817679741 -0.1253074575840718 0 -0.01119819121500139 -0.14149512112826859 0 -0.02573247105784323 -0.13844273957598499 0 -0.029340021817679741 -0.1253074575840718 0 -0.037583070405603228 -0.13486253745322471 0 -0.02573247105784323 -0.13844273957598499 0 -0.02962545377514874 -0.14467118375912191 0 -0.037583070405603228 -0.13486253745322471 0 -0.02962545377514874 -0.14467118375912191 0 -0.022955864228792529 -0.1552533787338776 0 -0.033240937642084453 -0.15449405307590919 0 -0.02962545377514874 -0.14467118375912191 0 -0.020915618075783071 -0.14587739795523841 0 -0.022955864228792529 -0.1552533787338776 0 -0.02573247105784323 -0.13844273957598499 0 -0.02962545377514874 -0.14467118375912191 0 -0.020915618075783071 -0.14587739795523841 0 -0.02573247105784323 -0.13844273957598499 0 -0.020915618075783071 -0.14587739795523841 0 -0.01119819121500139 -0.14149512112826859 0 -0.020915618075783071 -0.14587739795523841 0 -0.022955864228792529 -0.1552533787338776 0 -0.013188374713158471 -0.15327147787407391 0 -0.013188374713158471 -0.15327147787407391 0 -0.0042911304487681804 -0.1449735357375769 0 -0.0071458368837113064 -0.16233451461267639 0 -0.020915618075783071 -0.14587739795523841 0 -0.013188374713158471 -0.15327147787407391 0 -0.01119819121500139 -0.14149512112826859 0 -0.013188374713158471 -0.15327147787407391 0 -0.01119819121500139 -0.14149512112826859 0 -0.0042911304487681804 -0.1449735357375769 0 -0.0042911304487681804 -0.1449735357375769 0 -0.0071458368837113064 -0.16233451461267639 0 0.0095470907552092765 -0.17024961801664959 0 -0.0071458368837113064 -0.16233451461267639 0 -0.01004160949427578 -0.1777901312346947 0 0.0095470907552092765 -0.17024961801664959 0 -0.0071458368837113064 -0.16233451461267639 0 -0.01004160949427578 -0.1777901312346947 0 -0.01775516051756338 -0.16538781020038651 0 -0.013188374713158471 -0.15327147787407391 0 -0.0071458368837113064 -0.16233451461267639 0 -0.01775516051756338 -0.16538781020038651 0 -0.01004160949427578 -0.1777901312346947 0 -0.01150313280436043 -0.19210061927939939 0 0.002640502934626776 -0.19032053178508629 0 -0.01004160949427578 -0.1777901312346947 0 -0.023890753912799899 -0.18613776185906319 0 -0.01150313280436043 -0.19210061927939939 0 -0.01004160949427578 -0.1777901312346947 0 -0.023461828320481559 -0.1748995209018166 0 -0.01775516051756338 -0.16538781020038651 0 -0.01004160949427578 -0.1777901312346947 0 -0.023461828320481559 -0.1748995209018166 0 -0.023890753912799899 -0.18613776185906319 0 -0.023461828320481559 -0.1748995209018166 0 -0.032201320752337427 -0.16626705287711041 0 -0.033420296925431303 -0.17891484833782839 0 -0.023461828320481559 -0.1748995209018166 0 -0.023890753912799899 -0.18613776185906319 0 -0.033420296925431303 -0.17891484833782839 0 -0.022955864228792529 -0.1552533787338776 0 -0.013188374713158471 -0.15327147787407391 0 -0.01775516051756338 -0.16538781020038651 0 -0.023461828320481559 -0.1748995209018166 0 -0.01775516051756338 -0.16538781020038651 0 -0.032201320752337427 -0.16626705287711041 0 -0.022955864228792529 -0.1552533787338776 0 -0.01775516051756338 -0.16538781020038651 0 -0.032201320752337427 -0.16626705287711041 0 -0.022955864228792529 -0.1552533787338776 0 -0.032201320752337427 -0.16626705287711041 0 -0.033240937642084453 -0.15449405307590919 0 -0.032201320752337427 -0.16626705287711041 0 -0.043434230479875047 -0.15832830106009291 0 -0.033240937642084453 -0.15449405307590919 0 -0.032201320752337427 -0.16626705287711041 0 -0.043687505939618308 -0.1673568449601813 0 -0.040935563781011347 -0.17468514146938069 0 -0.043687505939618308 -0.1673568449601813 0 -0.040935563781011347 -0.17468514146938069 0 -0.048744738925107417 -0.1734800557606514 0 -0.032201320752337427 -0.16626705287711041 0 -0.043687505939618308 -0.1673568449601813 0 -0.043434230479875047 -0.15832830106009291 0 -0.043687505939618308 -0.1673568449601813 0 -0.043434230479875047 -0.15832830106009291 0 -0.051854560213446553 -0.16624130154598499 0 -0.033420296925431303 -0.17891484833782839 0 -0.040924532128100731 -0.18183331827627419 0 -0.038546764299253182 -0.18895639886596791 0 -0.023890753912799899 -0.18613776185906319 0 -0.033420296925431303 -0.17891484833782839 0 -0.038546764299253182 -0.18895639886596791 0 -0.032201320752337427 -0.16626705287711041 0 -0.033420296925431303 -0.17891484833782839 0 -0.040935563781011347 -0.17468514146938069 0 -0.033420296925431303 -0.17891484833782839 0 -0.040935563781011347 -0.17468514146938069 0 -0.040924532128100731 -0.18183331827627419 0 -0.040935563781011347 -0.17468514146938069 0 -0.046634988015472938 -0.18025872860423861 0 -0.048744738925107417 -0.1734800557606514 0 -0.040935563781011347 -0.17468514146938069 0 -0.040924532128100731 -0.18183331827627419 0 -0.046634988015472938 -0.18025872860423861 0 -0.040924532128100731 -0.18183331827627419 0 -0.046634988015472938 -0.18025872860423861 0 -0.045332322771230962 -0.18519050899865069 0 -0.040924532128100731 -0.18183331827627419 0 -0.045332322771230962 -0.18519050899865069 0 -0.038546764299253182 -0.18895639886596791 0 -0.058091797745387197 -0.18050324616302379 0 -0.055435849363365111 -0.18853271889981429 0 -0.073503216488820231 -0.17937253084284269 0 -0.050604095605847943 -0.18355865227444981 0 -0.058091797745387197 -0.18050324616302379 0 -0.050634812899979287 -0.19096685313573361 0 -0.045332322771230962 -0.18519050899865069 0 -0.050604095605847943 -0.18355865227444981 0 -0.050634812899979287 -0.19096685313573361 0 -0.046634988015472938 -0.18025872860423861 0 -0.050604095605847943 -0.18355865227444981 0 -0.052035646457771083 -0.17831228491601361 0 -0.046634988015472938 -0.18025872860423861 0 -0.045332322771230962 -0.18519050899865069 0 -0.050604095605847943 -0.18355865227444981 0 -0.050604095605847943 -0.18355865227444981 0 -0.052035646457771083 -0.17831228491601361 0 -0.058091797745387197 -0.18050324616302379 0 -0.046634988015472938 -0.18025872860423861 0 -0.052035646457771083 -0.17831228491601361 0 -0.048744738925107417 -0.1734800557606514 0 -0.052035646457771083 -0.17831228491601361 0 -0.048744738925107417 -0.1734800557606514 0 -0.056200286110221827 -0.17362225563598391 0 -0.056200286110221827 -0.17362225563598391 0 -0.058091797745387197 -0.18050324616302379 0 -0.06429903277862424 -0.17448067255320129 0 -0.052035646457771083 -0.17831228491601361 0 -0.056200286110221827 -0.17362225563598391 0 -0.058091797745387197 -0.18050324616302379 0 -0.058091797745387197 -0.18050324616302379 0 -0.050634812899979287 -0.19096685313573361 0 -0.055435849363365111 -0.18853271889981429 0 -0.043434230479875047 -0.15832830106009291 0 -0.051854560213446553 -0.16624130154598499 0 -0.056394738855570503 -0.15768618928085559 0 -0.043687505939618308 -0.1673568449601813 0 -0.048744738925107417 -0.1734800557606514 0 -0.051854560213446553 -0.16624130154598499 0 -0.048744738925107417 -0.1734800557606514 0 -0.056200286110221827 -0.17362225563598391 0 -0.051854560213446553 -0.16624130154598499 0 -0.056200286110221827 -0.17362225563598391 0 -0.051854560213446553 -0.16624130154598499 0 -0.059779740176486233 -0.1667521897721643 0 -0.056200286110221827 -0.17362225563598391 0 -0.059779740176486233 -0.1667521897721643 0 -0.06429903277862424 -0.17448067255320129 0 -0.051854560213446553 -0.16624130154598499 0 -0.059779740176486233 -0.1667521897721643 0 -0.056394738855570503 -0.15768618928085559 0 -0.059779740176486233 -0.1667521897721643 0 -0.056394738855570503 -0.15768618928085559 0 -0.07015008292456805 -0.16173052984479541 0 -0.056394738855570503 -0.15768618928085559 0 -0.050139196861436169 -0.14935228213583079 0 -0.063451253054240528 -0.14682003484689721 0 -0.043434230479875047 -0.15832830106009291 0 -0.056394738855570503 -0.15768618928085559 0 -0.050139196861436169 -0.14935228213583079 0 -0.050139196861436169 -0.14935228213583079 0 -0.050042193950698442 -0.13838577923163731 0 -0.063451253054240528 -0.14682003484689721 0 -0.050042193950698442 -0.13838577923163731 0 -0.06869195565623587 -0.12921451161898631 0 -0.063451253054240528 -0.14682003484689721 0 -0.050042193950698442 -0.13838577923163731 0 -0.045563247953021691 -0.12565442676634581 0 -0.06869195565623587 -0.12921451161898631 0 -0.050042193950698442 -0.13838577923163731 0 -0.045563247953021691 -0.12565442676634581 0 -0.037583070405603228 -0.13486253745322471 0 -0.050042193950698442 -0.13838577923163731 0 -0.037583070405603228 -0.13486253745322471 0 -0.039295529973121267 -0.14752373635501251 0 -0.029340021817679741 -0.1253074575840718 0 -0.045563247953021691 -0.12565442676634581 0 -0.037583070405603228 -0.13486253745322471 0 -0.02962545377514874 -0.14467118375912191 0 -0.037583070405603228 -0.13486253745322471 0 -0.039295529973121267 -0.14752373635501251 0 -0.043434230479875047 -0.15832830106009291 0 -0.033240937642084453 -0.15449405307590919 0 -0.039295529973121267 -0.14752373635501251 0 -0.02962545377514874 -0.14467118375912191 0 -0.033240937642084453 -0.15449405307590919 0 -0.039295529973121267 -0.14752373635501251 0 -0.043434230479875047 -0.15832830106009291 0 -0.050139196861436169 -0.14935228213583079 0 -0.039295529973121267 -0.14752373635501251 0 -0.050139196861436169 -0.14935228213583079 0 -0.050042193950698442 -0.13838577923163731 0 -0.039295529973121267 -0.14752373635501251 0 -0.036848398950594899 -0.2553221433106021 0 -0.01337552196006451 -0.25409280855202881 0 -0.027447047462922279 -0.2323408579255884 0 -0.01337552196006451 -0.25409280855202881 0 -0.027447047462922279 -0.2323408579255884 0 -0.01337552196006451 -0.25409280855202881 0 -0.0091063790605239205 -0.2364425148976132 0 -0.027447047462922279 -0.2323408579255884 0 -0.01337552196006451 -0.25409280855202881 0 -0.0091063790605239205 -0.2364425148976132 0 0.00030022057776212072 -0.24629662869332139 0 -0.0091063790605239205 -0.2364425148976132 0 0.00030022057776212072 -0.24629662869332139 0 0.0046442973170082603 -0.23576555496681531 0 -0.0091063790605239205 -0.2364425148976132 0 -0.0025393444666661361 -0.22566425141104671 0 -0.015885494014903991 -0.2248619605488362 0 -0.0091063790605239205 -0.2364425148976132 0 -0.0025393444666661361 -0.22566425141104671 0 0.0046442973170082603 -0.23576555496681531 0 -0.0025393444666661361 -0.22566425141104671 0 -0.0086360185701775533 -0.21661767075634711 0 -0.0048980057222967749 -0.2141554977215134 0 -0.0025393444666661361 -0.22566425141104671 0 -0.015885494014903991 -0.2248619605488362 0 -0.0086360185701775533 -0.21661767075634711 0 -0.0091063790605239205 -0.2364425148976132 0 -0.015885494014903991 -0.2248619605488362 0 -0.027447047462922279 -0.2323408579255884 0 -0.027447047462922279 -0.2323408579255884 0 -0.02394887774736287 -0.21741178933004179 0 -0.041518572965780029 -0.210588907299148 0 -0.015885494014903991 -0.2248619605488362 0 -0.02394887774736287 -0.21741178933004179 0 -0.0086360185701775533 -0.21661767075634711 0 -0.015885494014903991 -0.2248619605488362 0 -0.027447047462922279 -0.2323408579255884 0 -0.02394887774736287 -0.21741178933004179 0 -0.0048980057222967749 -0.2141554977215134 0 -0.02776640931113851 -0.20256117542862451 0 -0.02394887774736287 -0.21741178933004179 0 -0.0086360185701775533 -0.21661767075634711 0 -0.02776640931113851 -0.20256117542862451 0 -0.02394887774736287 -0.21741178933004179 0 -0.02776640931113851 -0.20256117542862451 0 -0.041518572965780029 -0.210588907299148 0 -0.0048980057222967749 -0.2141554977215134 0 -0.0047882959264406531 -0.20141652287543249 0 -0.02776640931113851 -0.20256117542862451 0 -0.0086360185701775533 -0.21661767075634711 0 -0.0048980057222967749 -0.2141554977215134 0 -0.02776640931113851 -0.20256117542862451 0 -0.0086360185701775533 -0.21661767075634711 0 -0.0048980057222967749 -0.2141554977215134 0 -0.0048980057222967749 -0.2141554977215134 0 -0.0047882959264406531 -0.20141652287543249 0 0.0092436531184435858 -0.2048405990086179 0 -0.0047882959264406531 -0.20141652287543249 0 -0.01150313280436043 -0.19210061927939939 0 -0.02776640931113851 -0.20256117542862451 0 -0.0047882959264406531 -0.20141652287543249 0 -0.01150313280436043 -0.19210061927939939 0 0.002640502934626776 -0.19032053178508629 0 -0.023890753912799899 -0.18613776185906319 0 -0.01150313280436043 -0.19210061927939939 0 -0.02776640931113851 -0.20256117542862451 0 -0.023890753912799899 -0.18613776185906319 0 -0.02776640931113851 -0.20256117542862451 0 -0.038546764299253182 -0.18895639886596791 0 -0.02776640931113851 -0.20256117542862451 0 -0.050634812899979287 -0.19096685313573361 0 -0.02776640931113851 -0.20256117542862451 0 -0.038546764299253182 -0.18895639886596791 0 -0.050634812899979287 -0.19096685313573361 0 -0.02776640931113851 -0.20256117542862451 0 -0.050634812899979287 -0.19096685313573361 0 -0.041518572965780029 -0.210588907299148 0 -0.045332322771230962 -0.18519050899865069 0 -0.038546764299253182 -0.18895639886596791 0 -0.050634812899979287 -0.19096685313573361 0 -0.055435849363365111 -0.18853271889981429 0 -0.041518572965780029 -0.210588907299148 0 -0.055435849363365111 -0.18853271889981429 0 -0.055108985367665488 -0.20581055016808489 0 -0.041518572965780029 -0.210588907299148 0 -0.055435849363365111 -0.18853271889981429 0 -0.06203781403843292 -0.20031743574030481 0 -0.055108985367665488 -0.20581055016808489 0 -0.050634812899979287 -0.19096685313573361 0 -0.055435849363365111 -0.18853271889981429 0 -0.041518572965780029 -0.210588907299148 0 -0.050634812899979287 -0.19096685313573361 0 -0.055435849363365111 -0.18853271889981429 0 -0.055435849363365111 -0.18853271889981429 0 -0.06203781403843292 -0.20031743574030481 0 -0.063141010736911043 -0.19327916992240879 0 -0.055435849363365111 -0.18853271889981429 0 -0.063141010736911043 -0.19327916992240879 0 -0.066606942483051851 -0.18870244153473689 0 -0.055108985367665488 -0.20581055016808489 0 -0.052153914018988869 -0.21698608600263361 0 -0.069845740422969566 -0.2109198279828213 0 -0.06203781403843292 -0.20031743574030481 0 -0.055108985367665488 -0.20581055016808489 0 -0.069845740422969566 -0.2109198279828213 0 -0.055108985367665488 -0.20581055016808489 0 -0.052153914018988869 -0.21698608600263361 0 -0.041518572965780029 -0.210588907299148 0 -0.052153914018988869 -0.21698608600263361 0 -0.041518572965780029 -0.210588907299148 0 -0.043749808189988082 -0.22378839034499759 0 -0.027447047462922279 -0.2323408579255884 0 -0.042148774194249818 -0.23224325476855459 0 -0.043749808189988082 -0.22378839034499759 0 -0.027447047462922279 -0.2323408579255884 0 -0.041518572965780029 -0.210588907299148 0 -0.043749808189988082 -0.22378839034499759 0 -0.027447047462922279 -0.2323408579255884 0 -0.041518572965780029 -0.210588907299148 0 -0.042148774194249818 -0.23224325476855459 0 -0.043749808189988082 -0.22378839034499759 0 -0.053347069686782073 -0.2331209856467116 0 -0.052153914018988869 -0.21698608600263361 0 -0.043749808189988082 -0.22378839034499759 0 -0.053347069686782073 -0.2331209856467116 0 -0.052153914018988869 -0.21698608600263361 0 -0.053347069686782073 -0.2331209856467116 0 -0.069845740422969566 -0.2109198279828213 0 -0.053347069686782073 -0.2331209856467116 0 -0.069845740422969566 -0.2109198279828213 0 -0.053347069686782073 -0.2331209856467116 0 -0.060304122168017268 -0.23674779300095111 0 -0.069845740422969566 -0.2109198279828213 0 -0.050762503913064652 -0.26257575801908078 0 -0.060304122168017268 -0.23674779300095111 0 -0.050762503913064652 -0.26257575801908078 0 -0.060304122168017268 -0.23674779300095111 0 -0.050179157051726118 -0.24768379108550251 0 -0.053347069686782073 -0.2331209856467116 0 -0.060304122168017268 -0.23674779300095111 0 -0.050179157051726118 -0.24768379108550251 0 -0.036848398950594899 -0.2553221433106021 0 -0.053347069686782073 -0.2331209856467116 0 -0.036848398950594899 -0.2553221433106021 0 -0.027447047462922279 -0.2323408579255884 0 -0.040414712655136617 -0.23899423036048759 0 -0.036848398950594899 -0.2553221433106021 0 -0.053347069686782073 -0.2331209856467116 0 -0.040414712655136617 -0.23899423036048759 0 -0.036848398950594899 -0.2553221433106021 0 -0.053347069686782073 -0.2331209856467116 0 -0.050179157051726118 -0.24768379108550251 0 -0.042148774194249818 -0.23224325476855459 0 -0.053347069686782073 -0.2331209856467116 0 -0.040414712655136617 -0.23899423036048759 0 -0.027447047462922279 -0.2323408579255884 0 -0.042148774194249818 -0.23224325476855459 0 -0.040414712655136617 -0.23899423036048759 0 -0.083529437657296868 -0.25385245579954557 0 -0.10226620831189261 -0.2398666626675463 0 -0.083529437657296868 -0.25385245579954557 0 -0.081177927262070612 -0.23596080721511689 0 -0.071445417037491687 -0.24278740934712811 0 -0.083529437657296868 -0.25385245579954557 0 -0.081177927262070612 -0.23596080721511689 0 -0.10226620831189261 -0.2398666626675463 0 -0.065857606964651497 -0.25285372279474522 0 -0.060304122168017268 -0.23674779300095111 0 -0.071445417037491687 -0.24278740934712811 0 -0.065857606964651497 -0.25285372279474522 0 -0.083529437657296868 -0.25385245579954557 0 -0.071445417037491687 -0.24278740934712811 0 -0.060304122168017268 -0.23674779300095111 0 -0.071445417037491687 -0.24278740934712811 0 -0.071980609511168941 -0.22979269168691011 0 -0.081177927262070612 -0.23596080721511689 0 -0.071445417037491687 -0.24278740934712811 0 -0.071980609511168941 -0.22979269168691011 0 -0.060304122168017268 -0.23674779300095111 0 -0.069845740422969566 -0.2109198279828213 0 -0.081177927262070612 -0.23596080721511689 0 -0.071980609511168941 -0.22979269168691011 0 -0.079145055461641217 -0.22117666045830409 0 -0.060304122168017268 -0.23674779300095111 0 -0.071980609511168941 -0.22979269168691011 0 -0.069845740422969566 -0.2109198279828213 0 -0.071980609511168941 -0.22979269168691011 0 -0.079145055461641217 -0.22117666045830409 0 -0.069845740422969566 -0.2109198279828213 0 -0.081177927262070612 -0.23596080721511689 0 -0.090379925814139062 -0.22283455729441409 0 -0.10226620831189261 -0.2398666626675463 0 -0.081177927262070612 -0.23596080721511689 0 -0.079145055461641217 -0.22117666045830409 0 -0.090379925814139062 -0.22283455729441409 0 -0.090379925814139062 -0.22283455729441409 0 -0.08234107429785785 -0.2063754181122581 0 -0.094248478256742499 -0.2086229789818177 0 -0.08234107429785785 -0.2063754181122581 0 -0.069845740422969566 -0.2109198279828213 0 -0.083088173793509981 -0.19310037114208889 0 -0.079145055461641217 -0.22117666045830409 0 -0.090379925814139062 -0.22283455729441409 0 -0.08234107429785785 -0.2063754181122581 0 -0.08234107429785785 -0.2063754181122581 0 -0.08834384652095012 -0.20043254091069559 0 -0.094248478256742499 -0.2086229789818177 0 -0.08834384652095012 -0.20043254091069559 0 -0.095032524993158632 -0.20031816737945801 0 -0.094248478256742499 -0.2086229789818177 0 -0.079145055461641217 -0.22117666045830409 0 -0.08234107429785785 -0.2063754181122581 0 -0.069845740422969566 -0.2109198279828213 0 -0.069845740422969566 -0.2109198279828213 0 -0.083088173793509981 -0.19310037114208889 0 -0.069845740422969566 -0.2109198279828213 0 -0.076741738930729358 -0.1922532241149672 0 -0.06203781403843292 -0.20031743574030481 0 -0.069845740422969566 -0.2109198279828213 0 -0.068329187957521575 -0.19525984574188621 0 -0.069845740422969566 -0.2109198279828213 0 -0.076741738930729358 -0.1922532241149672 0 -0.083088173793509981 -0.19310037114208889 0 -0.069845740422969566 -0.2109198279828213 0 -0.068329187957521575 -0.19525984574188621 0 -0.076741738930729358 -0.1922532241149672 0 -0.06203781403843292 -0.20031743574030481 0 -0.063141010736911043 -0.19327916992240879 0 -0.068329187957521575 -0.19525984574188621 0 -0.068329187957521575 -0.19525984574188621 0 -0.066606942483051851 -0.18870244153473689 0 -0.073281720766020422 -0.1862756889554697 0 -0.063141010736911043 -0.19327916992240879 0 -0.068329187957521575 -0.19525984574188621 0 -0.066606942483051851 -0.18870244153473689 0 -0.068329187957521575 -0.19525984574188621 0 -0.076741738930729358 -0.1922532241149672 0 -0.073281720766020422 -0.1862756889554697 0 -0.08234107429785785 -0.2063754181122581 0 -0.083088173793509981 -0.19310037114208889 0 -0.08834384652095012 -0.20043254091069559 0 -0.083088173793509981 -0.19310037114208889 0 -0.08834384652095012 -0.20043254091069559 0 -0.091147533238153097 -0.19473436473423539 0 -0.08834384652095012 -0.20043254091069559 0 -0.091147533238153097 -0.19473436473423539 0 -0.095032524993158632 -0.20031816737945801 0 -0.083088173793509981 -0.19310037114208889 0 -0.091147533238153097 -0.19473436473423539 0 -0.093606709146700134 -0.18708691409772341 0 -0.098764355755873751 -0.1943291605183847 0 -0.093606709146700134 -0.18708691409772341 0 -0.1019193288190722 -0.18732105397562829 0 -0.091147533238153097 -0.19473436473423539 0 -0.098764355755873751 -0.1943291605183847 0 -0.093606709146700134 -0.18708691409772341 0 -0.098764355755873751 -0.1943291605183847 0 -0.095032524993158632 -0.20031816737945801 0 -0.1052534552091709 -0.2036341211720081 0 -0.091147533238153097 -0.19473436473423539 0 -0.098764355755873751 -0.1943291605183847 0 -0.095032524993158632 -0.20031816737945801 0 -0.098764355755873751 -0.1943291605183847 0 -0.1067485786643496 -0.1934903758181197 0 -0.1052534552091709 -0.2036341211720081 0 -0.1067485786643496 -0.1934903758181197 0 -0.11446643551075519 -0.19674352147712049 0 -0.1052534552091709 -0.2036341211720081 0 -0.098764355755873751 -0.1943291605183847 0 -0.1067485786643496 -0.1934903758181197 0 -0.1019193288190722 -0.18732105397562829 0 -0.1067485786643496 -0.1934903758181197 0 -0.1019193288190722 -0.18732105397562829 0 -0.1120246044731837 -0.18736918337352951 0 -0.11446643551075519 -0.19674352147712049 0 -0.1227985886545105 -0.2084038747399454 0 -0.125506950552561 -0.1908200522819998 0 -0.11446643551075519 -0.19674352147712049 0 -0.1227985886545105 -0.2084038747399454 0 -0.1052534552091709 -0.2036341211720081 0 -0.1067485786643496 -0.1934903758181197 0 -0.11446643551075519 -0.19674352147712049 0 -0.1120246044731837 -0.18736918337352951 0 -0.11446643551075519 -0.19674352147712049 0 -0.1120246044731837 -0.18736918337352951 0 -0.125506950552561 -0.1908200522819998 0 -0.1227985886545105 -0.2084038747399454 0 -0.1062093186925142 -0.21863736692026259 0 -0.1052534552091709 -0.2036341211720081 0 -0.1227985886545105 -0.2084038747399454 0 -0.1062093186925142 -0.21863736692026259 0 -0.1210029789664883 -0.2258808695355469 0 -0.090379925814139062 -0.22283455729441409 0 -0.1062093186925142 -0.21863736692026259 0 -0.094248478256742499 -0.2086229789818177 0 -0.1062093186925142 -0.21863736692026259 0 -0.1052534552091709 -0.2036341211720081 0 -0.094248478256742499 -0.2086229789818177 0 -0.095032524993158632 -0.20031816737945801 0 -0.1052534552091709 -0.2036341211720081 0 -0.094248478256742499 -0.2086229789818177 0 -0.090379925814139062 -0.22283455729441409 0 -0.1062093186925142 -0.21863736692026259 0 -0.10226620831189261 -0.2398666626675463 0 -0.1210029789664883 -0.2258808695355469 0 -0.10226620831189261 -0.2398666626675463 0 -0.1062093186925142 -0.21863736692026259 0 -0.1210029789664883 -0.2258808695355469 0 -0.10226620831189261 -0.2398666626675463 0 -0.1210029789664883 -0.2258808695355469 0 -0.11808015724625499 -0.2469318776918972 0 -0.10226620831189261 -0.2398666626675463 0 -0.104587978076215 -0.25747443718160112 0 -0.11808015724625499 -0.2469318776918972 0 -0.10226620831189261 -0.2398666626675463 0 -0.089902058892114209 -0.14930922919809711 0 -0.06869195565623587 -0.12921451161898631 0 -0.10231991339600249 -0.1312300764166251 0 -0.089902058892114209 -0.14930922919809711 0 -0.06869195565623587 -0.12921451161898631 0 -0.089902058892114209 -0.14930922919809711 0 -0.063451253054240528 -0.14682003484689721 0 -0.07015008292456805 -0.16173052984479541 0 -0.089902058892114209 -0.14930922919809711 0 -0.06869195565623587 -0.12921451161898631 0 -0.063451253054240528 -0.14682003484689721 0 -0.056394738855570503 -0.15768618928085559 0 -0.063451253054240528 -0.14682003484689721 0 -0.07015008292456805 -0.16173052984479541 0 -0.07015008292456805 -0.16173052984479541 0 -0.073503216488820231 -0.17937253084284269 0 -0.081749186113828504 -0.16533619623432691 0 -0.07015008292456805 -0.16173052984479541 0 -0.06429903277862424 -0.17448067255320129 0 -0.073503216488820231 -0.17937253084284269 0 -0.059779740176486233 -0.1667521897721643 0 -0.07015008292456805 -0.16173052984479541 0 -0.06429903277862424 -0.17448067255320129 0 -0.076741738930729358 -0.1922532241149672 0 -0.073281720766020422 -0.1862756889554697 0 -0.083637737438488832 -0.17358662024711299 0 -0.055435849363365111 -0.18853271889981429 0 -0.066606942483051851 -0.18870244153473689 0 -0.073503216488820231 -0.17937253084284269 0 -0.055435849363365111 -0.18853271889981429 0 -0.073503216488820231 -0.17937253084284269 0 -0.058091797745387197 -0.18050324616302379 0 -0.06429903277862424 -0.17448067255320129 0 -0.073503216488820231 -0.17937253084284269 0 -0.066606942483051851 -0.18870244153473689 0 -0.073503216488820231 -0.17937253084284269 0 -0.073281720766020422 -0.1862756889554697 0 -0.073503216488820231 -0.17937253084284269 0 -0.073281720766020422 -0.1862756889554697 0 -0.083637737438488832 -0.17358662024711299 0 -0.083088173793509981 -0.19310037114208889 0 -0.093606709146700134 -0.18708691409772341 0 -0.09633060716405073 -0.17528091430135659 0 -0.083088173793509981 -0.19310037114208889 0 -0.09633060716405073 -0.17528091430135659 0 -0.076741738930729358 -0.1922532241149672 0 -0.083637737438488832 -0.17358662024711299 0 -0.083088173793509981 -0.19310037114208889 0 -0.083637737438488832 -0.17358662024711299 0 -0.09633060716405073 -0.17528091430135659 0 -0.076741738930729358 -0.1922532241149672 0 -0.083088173793509981 -0.19310037114208889 0 -0.083637737438488832 -0.17358662024711299 0 -0.073503216488820231 -0.17937253084284269 0 -0.083637737438488832 -0.17358662024711299 0 -0.081749186113828504 -0.16533619623432691 0 -0.089902058892114209 -0.14930922919809711 0 -0.081749186113828504 -0.16533619623432691 0 -0.091552834825151197 -0.16268207103878601 0 -0.089902058892114209 -0.14930922919809711 0 -0.07015008292456805 -0.16173052984479541 0 -0.081749186113828504 -0.16533619623432691 0 -0.083637737438488832 -0.17358662024711299 0 -0.081749186113828504 -0.16533619623432691 0 -0.091552834825151197 -0.16268207103878601 0 -0.083637737438488832 -0.17358662024711299 0 -0.091552834825151197 -0.16268207103878601 0 -0.09633060716405073 -0.17528091430135659 0 -0.091552834825151197 -0.16268207103878601 0 -0.09633060716405073 -0.17528091430135659 0 -0.1136053070935282 -0.1579211140452195 0 -0.09633060716405073 -0.17528091430135659 0 -0.1034448431315682 -0.1800149715571959 0 -0.1136053070935282 -0.1579211140452195 0 -0.089902058892114209 -0.14930922919809711 0 -0.091552834825151197 -0.16268207103878601 0 -0.1136053070935282 -0.1579211140452195 0 -0.1034448431315682 -0.1800149715571959 0 -0.1136053070935282 -0.1579211140452195 0 -0.093606709146700134 -0.18708691409772341 0 -0.098825372065347819 -0.18242596348297599 0 -0.09633060716405073 -0.17528091430135659 0 -0.093606709146700134 -0.18708691409772341 0 -0.098825372065347819 -0.18242596348297599 0 -0.1019193288190722 -0.18732105397562829 0 -0.098825372065347819 -0.18242596348297599 0 -0.1034448431315682 -0.1800149715571959 0 -0.1019193288190722 -0.18732105397562829 0 -0.098825372065347819 -0.18242596348297599 0 -0.09633060716405073 -0.17528091430135659 0 -0.1034448431315682 -0.1800149715571959 0 -0.1034448431315682 -0.1800149715571959 0 -0.1019193288190722 -0.18732105397562829 0 -0.1120246044731837 -0.18736918337352951 0 -0.1034448431315682 -0.1800149715571959 0 -0.120174673664546 -0.17432542895230019 0 -0.1120246044731837 -0.18736918337352951 0 -0.120174673664546 -0.17432542895230019 0 -0.1120246044731837 -0.18736918337352951 0 -0.125506950552561 -0.1908200522819998 0 -0.1034448431315682 -0.1800149715571959 0 -0.120174673664546 -0.17432542895230019 0 -0.1136053070935282 -0.1579211140452195 0 -0.120174673664546 -0.17432542895230019 0 -0.1136053070935282 -0.1579211140452195 0 -0.13545341440724179 -0.16156209145281139 0 -0.1136053070935282 -0.1579211140452195 0 -0.1237657710554881 -0.1358272565332431 0 -0.1136053070935282 -0.1579211140452195 0 -0.10231991339600249 -0.1312300764166251 0 -0.1237657710554881 -0.1358272565332431 0 -0.089902058892114209 -0.14930922919809711 0 -0.1136053070935282 -0.1579211140452195 0 -0.10231991339600249 -0.1312300764166251 0 -0.1155091227126646 -0.1177598473990125 0 -0.10231991339600249 -0.1312300764166251 0 -0.1237657710554881 -0.1358272565332431 0 -0.1237657710554881 -0.1358272565332431 0 -0.14275978701905889 -0.12772012913660111 0 -0.13392623501744799 -0.1137333990212667 0 -0.1237657710554881 -0.1358272565332431 0 -0.14275978701905889 -0.12772012913660111 0 -0.1376444295167342 -0.14475357770421801 0 -0.14275978701905889 -0.12772012913660111 0 -0.1513521505779423 -0.1358503771511535 0 -0.1376444295167342 -0.14475357770421801 0 -0.14275978701905889 -0.12772012913660111 0 -0.1513521505779423 -0.1358503771511535 0 -0.15810287542058279 -0.1243064578130951 0 -0.15114954164027811 -0.14995818884503409 0 -0.1376444295167342 -0.14475357770421801 0 -0.13545341440724179 -0.16156209145281139 0 -0.1513521505779423 -0.1358503771511535 0 -0.15114954164027811 -0.14995818884503409 0 -0.16451957836064371 -0.13718483230815701 0 -0.1513521505779423 -0.1358503771511535 0 -0.15114954164027811 -0.14995818884503409 0 -0.1376444295167342 -0.14475357770421801 0 -0.1136053070935282 -0.1579211140452195 0 -0.1376444295167342 -0.14475357770421801 0 -0.13545341440724179 -0.16156209145281139 0 -0.1136053070935282 -0.1579211140452195 0 -0.1237657710554881 -0.1358272565332431 0 -0.1376444295167342 -0.14475357770421801 0 -0.120174673664546 -0.17432542895230019 0 -0.13545341440724179 -0.16156209145281139 0 -0.14120900881520401 -0.17859507864850629 0 -0.120174673664546 -0.17432542895230019 0 -0.14120900881520401 -0.17859507864850629 0 -0.125506950552561 -0.1908200522819998 0 -0.14120900881520401 -0.17859507864850629 0 -0.15091106966405629 -0.1643188846364099 0 -0.162183137385531 -0.1746707784741986 0 -0.14120900881520401 -0.17859507864850629 0 -0.162183137385531 -0.1746707784741986 0 -0.15295181950933759 -0.1895278279665463 0 -0.15114954164027811 -0.14995818884503409 0 -0.13545341440724179 -0.16156209145281139 0 -0.15091106966405629 -0.1643188846364099 0 -0.13545341440724179 -0.16156209145281139 0 -0.14120900881520401 -0.17859507864850629 0 -0.15091106966405629 -0.1643188846364099 0 -0.15114954164027811 -0.14995818884503409 0 -0.15091106966405629 -0.1643188846364099 0 -0.1645602460720266 -0.1568082857614988 0 -0.15091106966405629 -0.1643188846364099 0 -0.1645602460720266 -0.1568082857614988 0 -0.162183137385531 -0.1746707784741986 0 -0.1645602460720266 -0.1568082857614988 0 -0.162183137385531 -0.1746707784741986 0 -0.18114584608108811 -0.16213902632913679 0 -0.162183137385531 -0.1746707784741986 0 -0.15295181950933759 -0.1895278279665463 0 -0.16638916090187039 -0.19089622456834329 0 -0.162183137385531 -0.1746707784741986 0 -0.1789210489840653 -0.18075921301553091 0 -0.16638916090187039 -0.19089622456834329 0 -0.162183137385531 -0.1746707784741986 0 -0.1789210489840653 -0.18075921301553091 0 -0.18114584608108811 -0.16213902632913679 0 -0.1789210489840653 -0.18075921301553091 0 -0.18114584608108811 -0.16213902632913679 0 -0.19230296492543231 -0.17558266003431719 0 -0.18114584608108811 -0.16213902632913679 0 -0.17910127373205309 -0.14476320778896559 0 -0.19285819503716581 -0.15089707990853149 0 -0.1645602460720266 -0.1568082857614988 0 -0.18114584608108811 -0.16213902632913679 0 -0.17910127373205309 -0.14476320778896559 0 -0.1974861366251737 -0.1346223331293194 0 -0.171687344136814 -0.123091166387347 0 -0.1781985832136711 -0.13491538490344721 0 -0.1974861366251737 -0.1346223331293194 0 -0.171687344136814 -0.123091166387347 0 -0.17910127373205309 -0.14476320778896559 0 -0.1781985832136711 -0.13491538490344721 0 -0.1974861366251737 -0.1346223331293194 0 -0.1974861366251737 -0.1346223331293194 0 -0.18670154425786009 -0.12220563002721729 0 -0.171687344136814 -0.123091166387347 0 -0.17910127373205309 -0.14476320778896559 0 -0.1781985832136711 -0.13491538490344721 0 -0.16451957836064371 -0.13718483230815701 0 -0.16451957836064371 -0.13718483230815701 0 -0.171687344136814 -0.123091166387347 0 -0.15810287542058279 -0.1243064578130951 0 -0.1781985832136711 -0.13491538490344721 0 -0.16451957836064371 -0.13718483230815701 0 -0.171687344136814 -0.123091166387347 0 -0.1513521505779423 -0.1358503771511535 0 -0.16451957836064371 -0.13718483230815701 0 -0.15810287542058279 -0.1243064578130951 0 -0.15114954164027811 -0.14995818884503409 0 -0.1645602460720266 -0.1568082857614988 0 -0.16451957836064371 -0.13718483230815701 0 -0.1645602460720266 -0.1568082857614988 0 -0.17910127373205309 -0.14476320778896559 0 -0.16451957836064371 -0.13718483230815701 0 -0.1549563994126926 -0.25638117026728369 0 -0.13696654556145929 -0.2465802172165627 0 -0.15365965796257949 -0.2299931084414959 0 -0.1210029789664883 -0.2258808695355469 0 -0.11808015724625499 -0.2469318776918972 0 -0.13696654556145929 -0.2465802172165627 0 -0.1210029789664883 -0.2258808695355469 0 -0.13696654556145929 -0.2465802172165627 0 -0.138191590637953 -0.22647853689450981 0 -0.1227985886545105 -0.2084038747399454 0 -0.1210029789664883 -0.2258808695355469 0 -0.138191590637953 -0.22647853689450981 0 -0.138191590637953 -0.22647853689450981 0 -0.15365965796257949 -0.2299931084414959 0 -0.14161168050696279 -0.21160407954434299 0 -0.13696654556145929 -0.2465802172165627 0 -0.138191590637953 -0.22647853689450981 0 -0.15365965796257949 -0.2299931084414959 0 -0.15365965796257949 -0.2299931084414959 0 -0.14161168050696279 -0.21160407954434299 0 -0.15835174474388319 -0.2063157035694109 0 -0.14161168050696279 -0.21160407954434299 0 -0.13963141598605511 -0.19662605241616021 0 -0.15835174474388319 -0.2063157035694109 0 -0.1227985886545105 -0.2084038747399454 0 -0.14161168050696279 -0.21160407954434299 0 -0.13963141598605511 -0.19662605241616021 0 -0.1227985886545105 -0.2084038747399454 0 -0.138191590637953 -0.22647853689450981 0 -0.14161168050696279 -0.21160407954434299 0 -0.1227985886545105 -0.2084038747399454 0 -0.13963141598605511 -0.19662605241616021 0 -0.125506950552561 -0.1908200522819998 0 -0.14120900881520401 -0.17859507864850629 0 -0.13963141598605511 -0.19662605241616021 0 -0.125506950552561 -0.1908200522819998 0 -0.13963141598605511 -0.19662605241616021 0 -0.15295181950933759 -0.1895278279665463 0 -0.15835174474388319 -0.2063157035694109 0 -0.14120900881520401 -0.17859507864850629 0 -0.13963141598605511 -0.19662605241616021 0 -0.15295181950933759 -0.1895278279665463 0 -0.16638916090187039 -0.19089622456834329 0 -0.1795380538865349 -0.20320759981602951 0 -0.15835174474388319 -0.2063157035694109 0 -0.15295181950933759 -0.1895278279665463 0 -0.16638916090187039 -0.19089622456834329 0 -0.15835174474388319 -0.2063157035694109 0 -0.1789210489840653 -0.18075921301553091 0 -0.1795380538865349 -0.20320759981602951 0 -0.19495851875280459 -0.19445531521795009 0 -0.1789210489840653 -0.18075921301553091 0 -0.16638916090187039 -0.19089622456834329 0 -0.1795380538865349 -0.20320759981602951 0 -0.1795380538865349 -0.20320759981602951 0 -0.17403775036096211 -0.22266416074263479 0 -0.1908778617433434 -0.21654733783798691 0 -0.1795380538865349 -0.20320759981602951 0 -0.15835174474388319 -0.2063157035694109 0 -0.17403775036096211 -0.22266416074263479 0 -0.15365965796257949 -0.2299931084414959 0 -0.15835174474388319 -0.2063157035694109 0 -0.17403775036096211 -0.22266416074263479 0 -0.15365965796257949 -0.2299931084414959 0 -0.17403775036096211 -0.22266416074263479 0 -0.1711511126820103 -0.2454622828759119 0 -0.17403775036096211 -0.22266416074263479 0 -0.18871061161523961 -0.23588040243197769 0 -0.1908778617433434 -0.21654733783798691 0 -0.17403775036096211 -0.22266416074263479 0 -0.1711511126820103 -0.2454622828759119 0 -0.18871061161523961 -0.23588040243197769 0 -0.18821041320015461 -0.25321495835273289 0 -0.1711511126820103 -0.2454622828759119 0 -0.18871061161523961 -0.23588040243197769 0 -0.1549563994126926 -0.25638117026728369 0 -0.15365965796257949 -0.2299931084414959 0 -0.1711511126820103 -0.2454622828759119 0 -0.20427737249766981 -0.24797899690480421 0 -0.20621014913701191 -0.22758520757719869 0 -0.2215532654752311 -0.24133106905983459 0 -0.18821041320015461 -0.25321495835273289 0 -0.20427737249766981 -0.24797899690480421 0 -0.18871061161523961 -0.23588040243197769 0 -0.20427737249766981 -0.24797899690480421 0 -0.18871061161523961 -0.23588040243197769 0 -0.20621014913701191 -0.22758520757719869 0 -0.18871061161523961 -0.23588040243197769 0 -0.20621014913701191 -0.22758520757719869 0 -0.1908778617433434 -0.21654733783798691 0 -0.20621014913701191 -0.22758520757719869 0 -0.22224486842701091 -0.22713437756392699 0 -0.2215532654752311 -0.24133106905983459 0 -0.20621014913701191 -0.22758520757719869 0 -0.217072132600347 -0.21622468905513531 0 -0.22224486842701091 -0.22713437756392699 0 -0.20621014913701191 -0.22758520757719869 0 -0.217072132600347 -0.21622468905513531 0 -0.2056326469088835 -0.2085405100335597 0 -0.217072132600347 -0.21622468905513531 0 -0.2056326469088835 -0.2085405100335597 0 -0.21968540764397879 -0.20557320755319661 0 -0.2056326469088835 -0.2085405100335597 0 -0.2106710430964556 -0.1968602222531359 0 -0.21968540764397879 -0.20557320755319661 0 -0.20621014913701191 -0.22758520757719869 0 -0.2056326469088835 -0.2085405100335597 0 -0.1908778617433434 -0.21654733783798691 0 -0.1795380538865349 -0.20320759981602951 0 -0.1908778617433434 -0.21654733783798691 0 -0.19495851875280459 -0.19445531521795009 0 -0.2056326469088835 -0.2085405100335597 0 -0.1908778617433434 -0.21654733783798691 0 -0.19495851875280459 -0.19445531521795009 0 -0.2106710430964556 -0.1968602222531359 0 -0.22728142096427759 -0.19425397980670309 0 -0.20522675148825131 -0.18158782910824481 0 -0.2056326469088835 -0.2085405100335597 0 -0.19495851875280459 -0.19445531521795009 0 -0.2106710430964556 -0.1968602222531359 0 -0.22728142096427759 -0.19425397980670309 0 -0.20522675148825131 -0.18158782910824481 0 -0.19495851875280459 -0.19445531521795009 0 -0.2106710430964556 -0.1968602222531359 0 -0.20522675148825131 -0.18158782910824481 0 -0.22728142096427759 -0.19425397980670309 0 -0.24692575768292011 -0.19600501844481719 0 -0.22271580934176971 -0.1793788101085306 0 -0.2106710430964556 -0.1968602222531359 0 -0.22728142096427759 -0.19425397980670309 0 -0.21968540764397879 -0.20557320755319661 0 -0.22728142096427759 -0.19425397980670309 0 -0.24692575768292011 -0.19600501844481719 0 -0.24933609044030389 -0.20692013050516139 0 -0.24692575768292011 -0.19600501844481719 0 -0.22271580934176971 -0.1793788101085306 0 -0.22728142096427759 -0.19425397980670309 0 -0.24933609044030389 -0.20692013050516139 0 -0.22728142096427759 -0.19425397980670309 0 -0.24933609044030389 -0.20692013050516139 0 -0.2315875908848499 -0.21229014254779449 0 -0.24933609044030389 -0.20692013050516139 0 -0.2443222649532667 -0.21836723814268599 0 -0.2315875908848499 -0.21229014254779449 0 -0.24933609044030389 -0.20692013050516139 0 -0.2443222649532667 -0.21836723814268599 0 -0.25170803779926798 -0.2184142035842741 0 -0.22728142096427759 -0.19425397980670309 0 -0.2315875908848499 -0.21229014254779449 0 -0.21968540764397879 -0.20557320755319661 0 -0.217072132600347 -0.21622468905513531 0 -0.2315875908848499 -0.21229014254779449 0 -0.21968540764397879 -0.20557320755319661 0 -0.217072132600347 -0.21622468905513531 0 -0.2315875908848499 -0.21229014254779449 0 -0.22224486842701091 -0.22713437756392699 0 -0.2315875908848499 -0.21229014254779449 0 -0.22224486842701091 -0.22713437756392699 0 -0.23622916876500799 -0.22897103137762501 0 -0.22224486842701091 -0.22713437756392699 0 -0.23622916876500799 -0.22897103137762501 0 -0.2215532654752311 -0.24133106905983459 0 -0.2443222649532667 -0.21836723814268599 0 -0.23622916876500799 -0.22897103137762501 0 -0.25215205956079811 -0.2272816576573034 0 -0.2443222649532667 -0.21836723814268599 0 -0.2315875908848499 -0.21229014254779449 0 -0.23622916876500799 -0.22897103137762501 0 -0.23622916876500799 -0.22897103137762501 0 -0.2448759247925982 -0.23766676242721729 0 -0.25215205956079811 -0.2272816576573034 0 -0.2443222649532667 -0.21836723814268599 0 -0.25215205956079811 -0.2272816576573034 0 -0.25170803779926798 -0.2184142035842741 0 -0.23592948902621311 -0.2477715507551034 0 -0.2448759247925982 -0.23766676242721729 0 -0.25741499207255808 -0.2468477206326791 0 -0.23622916876500799 -0.22897103137762501 0 -0.23592948902621311 -0.2477715507551034 0 -0.2448759247925982 -0.23766676242721729 0 -0.23622916876500799 -0.22897103137762501 0 -0.23592948902621311 -0.2477715507551034 0 -0.2215532654752311 -0.24133106905983459 0 -0.2061565224662168 -0.15124154296024339 0 -0.1974861366251737 -0.1346223331293194 0 -0.2232849291135334 -0.14615349987129159 0 -0.2061565224662168 -0.15124154296024339 0 -0.21864749055459171 -0.16178220011983041 0 -0.2232849291135334 -0.14615349987129159 0 -0.21393053126983869 -0.13110201379163039 0 -0.1974861366251737 -0.1346223331293194 0 -0.2232849291135334 -0.14615349987129159 0 -0.1974861366251737 -0.1346223331293194 0 -0.2232849291135334 -0.14615349987129159 0 -0.21393053126983869 -0.13110201379163039 0 -0.22975118582055801 -0.12539958860092129 0 -0.20225593608176021 -0.1189976926349819 0 -0.21393053126983869 -0.13110201379163039 0 -0.1974861366251737 -0.1346223331293194 0 -0.20225593608176021 -0.1189976926349819 0 -0.1974861366251737 -0.1346223331293194 0 -0.20225593608176021 -0.1189976926349819 0 -0.18670154425786009 -0.12220563002721729 0 -0.17910127373205309 -0.14476320778896559 0 -0.1974861366251737 -0.1346223331293194 0 -0.19285819503716581 -0.15089707990853149 0 -0.2061565224662168 -0.15124154296024339 0 -0.1974861366251737 -0.1346223331293194 0 -0.19285819503716581 -0.15089707990853149 0 -0.2061565224662168 -0.15124154296024339 0 -0.19285819503716581 -0.15089707990853149 0 -0.19850586100061929 -0.16275260177224399 0 -0.18114584608108811 -0.16213902632913679 0 -0.19850586100061929 -0.16275260177224399 0 -0.19230296492543231 -0.17558266003431719 0 -0.18114584608108811 -0.16213902632913679 0 -0.19285819503716581 -0.15089707990853149 0 -0.19850586100061929 -0.16275260177224399 0 -0.1789210489840653 -0.18075921301553091 0 -0.19495851875280459 -0.19445531521795009 0 -0.19230296492543231 -0.17558266003431719 0 -0.19495851875280459 -0.19445531521795009 0 -0.19230296492543231 -0.17558266003431719 0 -0.20522675148825131 -0.18158782910824481 0 -0.19850586100061929 -0.16275260177224399 0 -0.19230296492543231 -0.17558266003431719 0 -0.20522675148825131 -0.18158782910824481 0 -0.22728142096427759 -0.19425397980670309 0 -0.20522675148825131 -0.18158782910824481 0 -0.22271580934176971 -0.1793788101085306 0 -0.19850586100061929 -0.16275260177224399 0 -0.20522675148825131 -0.18158782910824481 0 -0.22271580934176971 -0.1793788101085306 0 -0.2061565224662168 -0.15124154296024339 0 -0.19850586100061929 -0.16275260177224399 0 -0.21864749055459171 -0.16178220011983041 0 -0.19850586100061929 -0.16275260177224399 0 -0.21864749055459171 -0.16178220011983041 0 -0.22271580934176971 -0.1793788101085306 0 -0.19850586100061929 -0.16275260177224399 0 -0.22271580934176971 -0.1793788101085306 0 -0.21864749055459171 -0.16178220011983041 0 -0.2288175402157793 -0.1615656347197178 0 -0.2232849291135334 -0.14615349987129159 0 -0.21864749055459171 -0.16178220011983041 0 -0.23024779901317491 -0.17106100739123881 0 -0.22271580934176971 -0.1793788101085306 0 -0.21864749055459171 -0.16178220011983041 0 -0.23024779901317491 -0.17106100739123881 0 -0.2288175402157793 -0.1615656347197178 0 -0.23024779901317491 -0.17106100739123881 0 -0.2288175402157793 -0.1615656347197178 0 -0.23669499565750471 -0.1660626901431827 0 -0.23024779901317491 -0.17106100739123881 0 -0.22271580934176971 -0.1793788101085306 0 -0.23790124951302791 -0.18090394508946189 0 -0.24692575768292011 -0.19600501844481719 0 -0.22271580934176971 -0.1793788101085306 0 -0.23790124951302791 -0.18090394508946189 0 -0.23024779901317491 -0.17106100739123881 0 -0.23790124951302791 -0.18090394508946189 0 -0.238180233643773 -0.17264475543636509 0 -0.23790124951302791 -0.18090394508946189 0 -0.238180233643773 -0.17264475543636509 0 -0.24424249797212791 -0.175980572320725 0 -0.238180233643773 -0.17264475543636509 0 -0.24424249797212791 -0.175980572320725 0 -0.24248590012259039 -0.16874156103166549 0 -0.24996747062821489 -0.1776172147900528 0 -0.24424249797212791 -0.175980572320725 0 -0.2481423511905558 -0.1700161807078017 0 -0.24996747062821489 -0.1776172147900528 0 -0.24424249797212791 -0.175980572320725 0 -0.24907905928585861 -0.18352758111344969 0 -0.24692575768292011 -0.19600501844481719 0 -0.23790124951302791 -0.18090394508946189 0 -0.24907905928585861 -0.18352758111344969 0 -0.23790124951302791 -0.18090394508946189 0 -0.24424249797212791 -0.175980572320725 0 -0.24907905928585861 -0.18352758111344969 0 -0.2288175402157793 -0.1615656347197178 0 -0.23778105099972599 -0.15875891222506949 0 -0.23669499565750471 -0.1660626901431827 0 -0.23778105099972599 -0.15875891222506949 0 -0.23669499565750471 -0.1660626901431827 0 -0.24265744994998459 -0.1636042700550398 0 -0.23024779901317491 -0.17106100739123881 0 -0.238180233643773 -0.17264475543636509 0 -0.23669499565750471 -0.1660626901431827 0 -0.238180233643773 -0.17264475543636509 0 -0.23669499565750471 -0.1660626901431827 0 -0.24248590012259039 -0.16874156103166549 0 -0.23669499565750471 -0.1660626901431827 0 -0.24248590012259039 -0.16874156103166549 0 -0.24265744994998459 -0.1636042700550398 0 -0.24575161844544599 -0.16550056645148031 0 -0.24248590012259039 -0.16874156103166549 0 -0.24265744994998459 -0.1636042700550398 0 -0.24424249797212791 -0.175980572320725 0 -0.24248590012259039 -0.16874156103166549 0 -0.2481423511905558 -0.1700161807078017 0 -0.24575161844544599 -0.16550056645148031 0 -0.24248590012259039 -0.16874156103166549 0 -0.2481423511905558 -0.1700161807078017 0 -0.24575161844544599 -0.16550056645148031 0 -0.2481423511905558 -0.1700161807078017 0 -0.249072028622703 -0.16615182420934929 0 -0.24575161844544599 -0.16550056645148031 0 -0.249072028622703 -0.16615182420934929 0 -0.24734788027843749 -0.1629205955995687 0 -0.249072028622703 -0.16615182420934929 0 -0.24734788027843749 -0.1629205955995687 0 -0.25038409082640922 -0.16381984975180011 0 -0.23778105099972599 -0.15875891222506949 0 -0.24653744436367839 -0.1592978736252528 0 -0.24908372160189399 -0.15768466661326169 0 -0.23778105099972599 -0.15875891222506949 0 -0.24265744994998459 -0.1636042700550398 0 -0.24653744436367839 -0.1592978736252528 0 -0.2493933759359015 -0.16137552544613121 0 -0.24908372160189399 -0.15768466661326169 0 -0.25038409082640922 -0.16381984975180011 0 -0.2493933759359015 -0.16137552544613121 0 -0.24734788027843749 -0.1629205955995687 0 -0.25038409082640922 -0.16381984975180011 0 -0.2493933759359015 -0.16137552544613121 0 -0.24734788027843749 -0.1629205955995687 0 -0.24653744436367839 -0.1592978736252528 0 -0.24734788027843749 -0.1629205955995687 0 -0.24265744994998459 -0.1636042700550398 0 -0.24653744436367839 -0.1592978736252528 0 -0.24575161844544599 -0.16550056645148031 0 -0.24734788027843749 -0.1629205955995687 0 -0.24265744994998459 -0.1636042700550398 0 -0.24653744436367839 -0.1592978736252528 0 -0.24908372160189399 -0.15768466661326169 0 -0.2493933759359015 -0.16137552544613121 0 -0.24653744436367839 -0.1592978736252528 0 -0.24908372160189399 -0.15768466661326169 0 -0.24908372160189399 -0.15768466661326169 0 -0.24211142644617789 -0.1398353473551551 0 -0.25447166707179603 -0.1542711061093904 0 -0.24908372160189399 -0.15768466661326169 0 -0.2232849291135334 -0.14615349987129159 0 -0.24908372160189399 -0.15768466661326169 0 -0.2232849291135334 -0.14615349987129159 0 -0.24211142644617789 -0.1398353473551551 0 -0.23778105099972599 -0.15875891222506949 0 -0.24908372160189399 -0.15768466661326169 0 -0.2232849291135334 -0.14615349987129159 0 -0.24211142644617789 -0.1398353473551551 0 -0.25447166707179603 -0.1542711061093904 0 -0.2288175402157793 -0.1615656347197178 0 -0.23778105099972599 -0.15875891222506949 0 -0.2232849291135334 -0.14615349987129159 0 -0.2232849291135334 -0.14615349987129159 0 -0.22975118582055801 -0.12539958860092129 0 -0.24211142644617789 -0.1398353473551551 0 -0.21393053126983869 -0.13110201379163039 0 -0.2232849291135334 -0.14615349987129159 0 -0.22975118582055801 -0.12539958860092129 0 -0.22975118582055801 -0.12539958860092129 0 -0.24211142644617789 -0.1398353473551551 0 -0.25545163518708708 -0.13138358964421271 0 -0.22975118582055801 -0.12539958860092129 0 -0.24211142644617789 -0.1398353473551551 0 -0.22975118582055801 -0.12539958860092129 0 -0.25545163518708708 -0.13138358964421271 0 -0.22975118582055801 -0.12539958860092129 0 -0.2391705189568494 -0.11326632217287751 0 -0.25545163518708708 -0.13138358964421271 0 -0.2391705189568494 -0.11326632217287751 0 -0.24514954582311629 -0.10133274003856201 0 -0.25640897086900277 -0.1124834958395014 0 -0.24514954582311629 -0.10133274003856201 0 -0.22919681459679159 -0.09607957383444729 0 -0.24555390681774389 -0.085262056606915188 0 -0.2391705189568494 -0.11326632217287751 0 -0.24514954582311629 -0.10133274003856201 0 -0.22919681459679159 -0.09607957383444729 0 -0.22919681459679159 -0.09607957383444729 0 -0.21906496144454071 -0.1129189450796186 0 -0.21228642659443001 -0.097172647152769298 0 -0.2391705189568494 -0.11326632217287751 0 -0.22919681459679159 -0.09607957383444729 0 -0.21906496144454071 -0.1129189450796186 0 -0.22975118582055801 -0.12539958860092129 0 -0.2391705189568494 -0.11326632217287751 0 -0.21906496144454071 -0.1129189450796186 0 -0.22975118582055801 -0.12539958860092129 0 -0.21906496144454071 -0.1129189450796186 0 -0.2301735080372628 -0.076931335197850503 0 -0.23977546518461251 -0.056304918150352531 0 -0.25655880488831317 -0.071666108523075783 0 -0.24555390681774389 -0.085262056606915188 0 -0.2301735080372628 -0.076931335197850503 0 -0.25655880488831317 -0.071666108523075783 0 -0.22919681459679159 -0.09607957383444729 0 -0.24555390681774389 -0.085262056606915188 0 -0.2301735080372628 -0.076931335197850503 0 -0.22919681459679159 -0.09607957383444729 0 -0.21911268395182459 -0.087168035319395445 0 -0.21228642659443001 -0.097172647152769298 0 -0.21911268395182459 -0.087168035319395445 0 -0.2301735080372628 -0.076931335197850503 0 -0.211941893586965 -0.077786061207168342 0 -0.22919681459679159 -0.09607957383444729 0 -0.21911268395182459 -0.087168035319395445 0 -0.2301735080372628 -0.076931335197850503 0 -0.2301735080372628 -0.076931335197850503 0 -0.21324483229015359 -0.065399402779659235 0 -0.2301735080372628 -0.076931335197850503 0 -0.2272548016815481 -0.063024478600742548 0 -0.21324483229015359 -0.065399402779659235 0 -0.2301735080372628 -0.076931335197850503 0 -0.2272548016815481 -0.063024478600742548 0 -0.23977546518461251 -0.056304918150352531 0 -0.2301735080372628 -0.076931335197850503 0 -0.21324483229015359 -0.065399402779659235 0 -0.211941893586965 -0.077786061207168342 0 -0.21324483229015359 -0.065399402779659235 0 -0.211941893586965 -0.077786061207168342 0 -0.19868563270185499 -0.066919239399244129 0 -0.211941893586965 -0.077786061207168342 0 -0.20692791686870801 -0.08788786711214816 0 -0.19656128880224311 -0.083989714088137102 0 -0.21911268395182459 -0.087168035319395445 0 -0.211941893586965 -0.077786061207168342 0 -0.20692791686870801 -0.08788786711214816 0 -0.21911268395182459 -0.087168035319395445 0 -0.20692791686870801 -0.08788786711214816 0 -0.21228642659443001 -0.097172647152769298 0 -0.20692791686870801 -0.08788786711214816 0 -0.21228642659443001 -0.097172647152769298 0 -0.1966977687536971 -0.095437705988763152 0 -0.211941893586965 -0.077786061207168342 0 -0.19656128880224311 -0.083989714088137102 0 -0.1830945282641647 -0.073665872602239876 0 -0.20692791686870801 -0.08788786711214816 0 -0.19656128880224311 -0.083989714088137102 0 -0.1966977687536971 -0.095437705988763152 0 -0.19656128880224311 -0.083989714088137102 0 -0.1966977687536971 -0.095437705988763152 0 -0.18461908388071771 -0.086986760877682395 0 -0.19656128880224311 -0.083989714088137102 0 -0.18461908388071771 -0.086986760877682395 0 -0.1830945282641647 -0.073665872602239876 0 -0.211941893586965 -0.077786061207168342 0 -0.19868563270185499 -0.066919239399244129 0 -0.1830945282641647 -0.073665872602239876 0 -0.211941893586965 -0.077786061207168342 0 -0.1830945282641647 -0.073665872602239876 0 -0.18893955922053149 -0.064084006499044638 0 -0.19868563270185499 -0.066919239399244129 0 -0.1830945282641647 -0.073665872602239876 0 -0.22975118582055801 -0.12539958860092129 0 -0.20225593608176021 -0.1189976926349819 0 -0.21906496144454071 -0.1129189450796186 0 -0.2042582321366207 -0.1065324074543952 0 -0.20225593608176021 -0.1189976926349819 0 -0.22975118582055801 -0.12539958860092129 0 -0.21906496144454071 -0.1129189450796186 0 -0.20225593608176021 -0.1189976926349819 0 -0.21906496144454071 -0.1129189450796186 0 -0.21228642659443001 -0.097172647152769298 0 -0.2042582321366207 -0.1065324074543952 0 -0.21228642659443001 -0.097172647152769298 0 -0.2042582321366207 -0.1065324074543952 0 -0.1966977687536971 -0.095437705988763152 0 -0.1966977687536971 -0.095437705988763152 0 -0.19180145271110241 -0.10671487279132651 0 -0.18103464024047139 -0.1000107612094519 0 -0.2042582321366207 -0.1065324074543952 0 -0.1966977687536971 -0.095437705988763152 0 -0.19180145271110241 -0.10671487279132651 0 -0.20225593608176021 -0.1189976926349819 0 -0.17476068634296271 -0.1125957966690404 0 -0.19180145271110241 -0.10671487279132651 0 -0.20225593608176021 -0.1189976926349819 0 -0.17476068634296271 -0.1125957966690404 0 -0.20225593608176021 -0.1189976926349819 0 -0.18670154425786009 -0.12220563002721729 0 -0.17476068634296271 -0.1125957966690404 0 -0.2042582321366207 -0.1065324074543952 0 -0.19180145271110241 -0.10671487279132651 0 -0.20225593608176021 -0.1189976926349819 0 -0.18670154425786009 -0.12220563002721729 0 -0.17476068634296271 -0.1125957966690404 0 -0.171687344136814 -0.123091166387347 0 -0.171687344136814 -0.123091166387347 0 -0.16407891958125481 -0.11473127846198571 0 -0.15810287542058279 -0.1243064578130951 0 -0.17476068634296271 -0.1125957966690404 0 -0.171687344136814 -0.123091166387347 0 -0.16407891958125481 -0.11473127846198571 0 -0.17476068634296271 -0.1125957966690404 0 -0.16407891958125481 -0.11473127846198571 0 -0.16407643147975631 -0.1018132648438155 0 -0.16407891958125481 -0.11473127846198571 0 -0.15810287542058279 -0.1243064578130951 0 -0.15176726052615819 -0.1118497065966302 0 -0.16407891958125481 -0.11473127846198571 0 -0.16407643147975631 -0.1018132648438155 0 -0.15176726052615819 -0.1118497065966302 0 -0.19180145271110241 -0.10671487279132651 0 -0.17476068634296271 -0.1125957966690404 0 -0.18103464024047139 -0.1000107612094519 0 -0.16407643147975631 -0.1018132648438155 0 -0.18103464024047139 -0.1000107612094519 0 -0.17234876516596731 -0.089502269635095305 0 -0.1966977687536971 -0.095437705988763152 0 -0.18103464024047139 -0.1000107612094519 0 -0.18461908388071771 -0.086986760877682395 0 -0.17476068634296271 -0.1125957966690404 0 -0.16407643147975631 -0.1018132648438155 0 -0.18103464024047139 -0.1000107612094519 0 -0.18461908388071771 -0.086986760877682395 0 -0.17718112506962461 -0.082393777976951882 0 -0.1830945282641647 -0.073665872602239876 0 -0.17718112506962461 -0.082393777976951882 0 -0.17234876516596731 -0.089502269635095305 0 -0.16866212296764879 -0.079420208792789937 0 -0.17718112506962461 -0.082393777976951882 0 -0.1830945282641647 -0.073665872602239876 0 -0.16866212296764879 -0.079420208792789937 0 -0.18461908388071771 -0.086986760877682395 0 -0.17718112506962461 -0.082393777976951882 0 -0.17234876516596731 -0.089502269635095305 0 -0.18103464024047139 -0.1000107612094519 0 -0.18461908388071771 -0.086986760877682395 0 -0.17234876516596731 -0.089502269635095305 0 -0.1830945282641647 -0.073665872602239876 0 -0.1589620235638706 -0.070219094369223231 0 -0.177661919373062 -0.061883443633226211 0 -0.18893955922053149 -0.064084006499044638 0 -0.1830945282641647 -0.073665872602239876 0 -0.177661919373062 -0.061883443633226211 0 -0.1589620235638706 -0.070219094369223231 0 -0.1542471629413642 -0.069545683997312507 0 -0.1620098668213362 -0.052665738940296657 0 -0.1830945282641647 -0.073665872602239876 0 -0.1589620235638706 -0.070219094369223231 0 -0.16866212296764879 -0.079420208792789937 0 -0.1589620235638706 -0.070219094369223231 0 -0.177661919373062 -0.061883443633226211 0 -0.1830945282641647 -0.073665872602239876 0 -0.1589620235638706 -0.070219094369223231 0 -0.1589620235638706 -0.070219094369223231 0 -0.16866212296764879 -0.079420208792789937 0 -0.1542471629413642 -0.069545683997312507 0 -0.1589620235638706 -0.070219094369223231 0 -0.1542471629413642 -0.069545683997312507 0 -0.16866212296764879 -0.079420208792789937 0 -0.1592134173365391 -0.0875115484213803 0 -0.1542471629413642 -0.069545683997312507 0 -0.16407643147975631 -0.1018132648438155 0 -0.17234876516596731 -0.089502269635095305 0 -0.1592134173365391 -0.0875115484213803 0 -0.17234876516596731 -0.089502269635095305 0 -0.16866212296764879 -0.079420208792789937 0 -0.1592134173365391 -0.0875115484213803 0 -0.1592134173365391 -0.0875115484213803 0 -0.1440866989794079 -0.091639541509290434 0 -0.1542471629413642 -0.069545683997312507 0 -0.1440866989794079 -0.091639541509290434 0 -0.1542471629413642 -0.069545683997312507 0 -0.1377790389216309 -0.079102810485991673 0 -0.1440866989794079 -0.091639541509290434 0 -0.1542471629413642 -0.069545683997312507 0 -0.16407643147975631 -0.1018132648438155 0 -0.1592134173365391 -0.0875115484213803 0 -0.1440866989794079 -0.091639541509290434 0 -0.1542471629413642 -0.069545683997312507 0 -0.1273462545314373 -0.065703502395887903 0 -0.1542471629413642 -0.069545683997312507 0 -0.1273462545314373 -0.065703502395887903 0 -0.1377790389216309 -0.079102810485991673 0 -0.12256317794057529 -0.094196919881979008 0 -0.1273462545314373 -0.065703502395887903 0 -0.1377790389216309 -0.079102810485991673 0 -0.12256317794057529 -0.094196919881979008 0 -0.1440866989794079 -0.091639541509290434 0 -0.1377790389216309 -0.079102810485991673 0 -0.1440866989794079 -0.091639541509290434 0 -0.13392623501744799 -0.1137333990212667 0 -0.12256317794057529 -0.094196919881979008 0 -0.1440866989794079 -0.091639541509290434 0 -0.13392623501744799 -0.1137333990212667 0 -0.1237657710554881 -0.1358272565332431 0 -0.13392623501744799 -0.1137333990212667 0 -0.14275978701905889 -0.12772012913660111 0 -0.13392623501744799 -0.1137333990212667 0 -0.15176726052615819 -0.1118497065966302 0 -0.14275978701905889 -0.12772012913660111 0 -0.15810287542058279 -0.1243064578130951 0 -0.15176726052615819 -0.1118497065966302 0 -0.1440866989794079 -0.091639541509290434 0 -0.13392623501744799 -0.1137333990212667 0 -0.15176726052615819 -0.1118497065966302 0 -0.16407643147975631 -0.1018132648438155 0 -0.1440866989794079 -0.091639541509290434 0 -0.15176726052615819 -0.1118497065966302 0 -0.149142205568286 -0.018409896643967642 0 -0.13290991908602751 -0.032893704694133233 0 -0.14981208925821429 -0.03063708571700061 0 -0.149142205568286 -0.018409896643967642 0 -0.13290991908602751 -0.032893704694133233 0 -0.149142205568286 -0.018409896643967642 0 -0.14422967234624631 -0.01310578201341526 0 -0.1365363064596273 -0.022344523514878829 0 -0.149142205568286 -0.018409896643967642 0 -0.14422967234624631 -0.01310578201341526 0 -0.14981208925821429 -0.03063708571700061 0 -0.15409518357207999 -0.024321113853385371 0 -0.149142205568286 -0.018409896643967642 0 -0.14981208925821429 -0.03063708571700061 0 -0.15409518357207999 -0.024321113853385371 0 -0.1625152222808964 -0.030842037338487619 0 -0.15409518357207999 -0.024321113853385371 0 -0.149142205568286 -0.018409896643967642 0 -0.15524144618814689 -0.018108675806430202 0 -0.14422967234624631 -0.01310578201341526 0 -0.161915684297986 0.0081328403297782435 0 -0.149142205568286 -0.018409896643967642 0 -0.14422967234624631 -0.01310578201341526 0 -0.16333232793836591 -0.0057482787726198551 0 -0.149142205568286 -0.018409896643967642 0 -0.15524144618814689 -0.018108675806430202 0 -0.16333232793836591 -0.0057482787726198551 0 -0.14422967234624631 -0.01310578201341526 0 -0.12809890080586719 -0.01116188753518595 0 -0.1365363064596273 -0.022344523514878829 0 -0.14422967234624631 -0.01310578201341526 0 -0.1270076602408961 0.0054890085451015942 0 -0.14422967234624631 -0.01310578201341526 0 -0.12809890080586719 -0.01116188753518595 0 -0.1270076602408961 0.0054890085451015942 0 -0.12809890080586719 -0.01116188753518595 0 -0.1260570433250007 -0.021116881940496671 0 -0.1365363064596273 -0.022344523514878829 0 -0.149142205568286 -0.018409896643967642 0 -0.1365363064596273 -0.022344523514878829 0 -0.13290991908602751 -0.032893704694133233 0 -0.14422967234624631 -0.01310578201341526 0 -0.1365363064596273 -0.022344523514878829 0 -0.1260570433250007 -0.021116881940496671 0 -0.1365363064596273 -0.022344523514878829 0 -0.13290991908602751 -0.032893704694133233 0 -0.1179857531923746 -0.02859964174018529 0 -0.1260570433250007 -0.021116881940496671 0 -0.13290991908602751 -0.032893704694133233 0 -0.116677632603769 -0.047377512744298883 0 -0.13290991908602751 -0.032893704694133233 0 -0.14396845660025431 -0.047641793902280842 0 -0.116677632603769 -0.047377512744298883 0 -0.1273462545314373 -0.065703502395887903 0 -0.14396845660025431 -0.047641793902280842 0 -0.1542471629413642 -0.069545683997312507 0 -0.14396845660025431 -0.047641793902280842 0 -0.1620098668213362 -0.052665738940296657 0 -0.1542471629413642 -0.069545683997312507 0 -0.1273462545314373 -0.065703502395887903 0 -0.14396845660025431 -0.047641793902280842 0 -0.14396845660025431 -0.047641793902280842 0 -0.1572451229633732 -0.040114993923558093 0 -0.1620098668213362 -0.052665738940296657 0 -0.14981208925821429 -0.03063708571700061 0 -0.13290991908602751 -0.032893704694133233 0 -0.14396845660025431 -0.047641793902280842 0 -0.14981208925821429 -0.03063708571700061 0 -0.14396845660025431 -0.047641793902280842 0 -0.1572451229633732 -0.040114993923558093 0 -0.16977257070130591 -0.035785793883279668 0 -0.1620098668213362 -0.052665738940296657 0 -0.1572451229633732 -0.040114993923558093 0 -0.16977257070130591 -0.035785793883279668 0 -0.1625152222808964 -0.030842037338487619 0 -0.1572451229633732 -0.040114993923558093 0 -0.16977257070130591 -0.035785793883279668 0 -0.1620098668213362 -0.052665738940296657 0 -0.14981208925821429 -0.03063708571700061 0 -0.1572451229633732 -0.040114993923558093 0 -0.1625152222808964 -0.030842037338487619 0 -0.16977257070130591 -0.035785793883279668 0 -0.1620098668213362 -0.052665738940296657 0 -0.17335033961901589 -0.050550994367936017 0 -0.16977257070130591 -0.035785793883279668 0 -0.1625152222808964 -0.030842037338487619 0 -0.1589620235638706 -0.070219094369223231 0 -0.1620098668213362 -0.052665738940296657 0 -0.177661919373062 -0.061883443633226211 0 -0.1542471629413642 -0.069545683997312507 0 -0.1620098668213362 -0.052665738940296657 0 -0.1620098668213362 -0.052665738940296657 0 -0.177661919373062 -0.061883443633226211 0 -0.17335033961901589 -0.050550994367936017 0 -0.177661919373062 -0.061883443633226211 0 -0.17335033961901589 -0.050550994367936017 0 -0.1830443636221751 -0.044826632122373727 0 -0.177661919373062 -0.061883443633226211 0 -0.1963161565430441 -0.053867470361468189 0 -0.177661919373062 -0.061883443633226211 0 -0.1830443636221751 -0.044826632122373727 0 -0.1963161565430441 -0.053867470361468189 0 -0.16977257070130591 -0.035785793883279668 0 -0.1830443636221751 -0.044826632122373727 0 -0.1881193352265291 -0.0301442605115642 0 -0.16977257070130591 -0.035785793883279668 0 -0.17335033961901589 -0.050550994367936017 0 -0.1830443636221751 -0.044826632122373727 0 -0.16977257070130591 -0.035785793883279668 0 -0.1830443636221751 -0.044826632122373727 0 -0.16977257070130591 -0.035785793883279668 0 -0.1804094400903643 -0.01265599611663721 0 -0.1881193352265291 -0.0301442605115642 0 -0.16977257070130591 -0.035785793883279668 0 -0.1804094400903643 -0.01265599611663721 0 -0.15982393950381751 -0.022929309059400049 0 -0.1625152222808964 -0.030842037338487619 0 -0.1804094400903643 -0.01265599611663721 0 -0.16977257070130591 -0.035785793883279668 0 -0.1625152222808964 -0.030842037338487619 0 -0.1804094400903643 -0.01265599611663721 0 -0.15409518357207999 -0.024321113853385371 0 -0.15524144618814689 -0.018108675806430202 0 -0.15982393950381751 -0.022929309059400049 0 -0.15409518357207999 -0.024321113853385371 0 -0.15982393950381751 -0.022929309059400049 0 -0.1625152222808964 -0.030842037338487619 0 -0.15524144618814689 -0.018108675806430202 0 -0.15982393950381751 -0.022929309059400049 0 -0.16333232793836591 -0.0057482787726198551 0 -0.15982393950381751 -0.022929309059400049 0 -0.1804094400903643 -0.01265599611663721 0 -0.17383021784488911 -0.00087598240050870343 0 -0.15982393950381751 -0.022929309059400049 0 -0.17383021784488911 -0.00087598240050870343 0 -0.14422967234624631 -0.01310578201341526 0 -0.16333232793836591 -0.0057482787726198551 0 -0.161915684297986 0.0081328403297782435 0 -0.15982393950381751 -0.022929309059400049 0 -0.16333232793836591 -0.0057482787726198551 0 -0.17383021784488911 -0.00087598240050870343 0 -0.149142205568286 -0.018409896643967642 0 -0.16333232793836591 -0.0057482787726198551 0 -0.1804094400903643 -0.01265599611663721 0 -0.17383021784488911 -0.00087598240050870343 0 -0.19104630947942389 0.01047380165000469 0 -0.1804094400903643 -0.01265599611663721 0 -0.19104630947942389 0.01047380165000469 0 -0.1804094400903643 -0.01265599611663721 0 -0.19771232677283049 -0.0035869177676293379 0 -0.1977520353780145 -0.0169456522455728 0 -0.1804094400903643 -0.01265599611663721 0 -0.19771232677283049 -0.0035869177676293379 0 -0.19104630947942389 0.01047380165000469 0 -0.19771232677283049 -0.0035869177676293379 0 -0.1977520353780145 -0.0169456522455728 0 -0.20970438837856969 -0.0069460019217090288 0 -0.1804094400903643 -0.01265599611663721 0 -0.1881193352265291 -0.0301442605115642 0 -0.1977520353780145 -0.0169456522455728 0 -0.1881193352265291 -0.0301442605115642 0 -0.20232759468190151 -0.029715605876152289 0 -0.1977520353780145 -0.0169456522455728 0 -0.20232759468190151 -0.029715605876152289 0 -0.21131464996518601 -0.020299747948645828 0 -0.22119256990360681 -0.043177745406306298 0 -0.20232759468190151 -0.029715605876152289 0 -0.1977520353780145 -0.0169456522455728 0 -0.21131464996518601 -0.020299747948645828 0 -0.21131464996518601 -0.020299747948645828 0 -0.20970438837856969 -0.0069460019217090288 0 -0.22788668582136981 -0.019717011186425659 0 -0.20970438837856969 -0.0069460019217090288 0 -0.22661941181265161 -0.002192526522613961 0 -0.20987163203899811 0.0031202334755927319 0 -0.19771232677283049 -0.0035869177676293379 0 -0.20970438837856969 -0.0069460019217090288 0 -0.20987163203899811 0.0031202334755927319 0 -0.1977520353780145 -0.0169456522455728 0 -0.21131464996518601 -0.020299747948645828 0 -0.20970438837856969 -0.0069460019217090288 0 -0.18893955922053149 -0.064084006499044638 0 -0.177661919373062 -0.061883443633226211 0 -0.1963161565430441 -0.053867470361468189 0 -0.21324483229015359 -0.065399402779659235 0 -0.19868563270185499 -0.066919239399244129 0 -0.1963161565430441 -0.053867470361468189 0 -0.18893955922053149 -0.064084006499044638 0 -0.19868563270185499 -0.066919239399244129 0 -0.1963161565430441 -0.053867470361468189 0 -0.1830443636221751 -0.044826632122373727 0 -0.1963161565430441 -0.053867470361468189 0 -0.1830443636221751 -0.044826632122373727 0 -0.1963161565430441 -0.053867470361468189 0 -0.196833474798698 -0.040635097126493817 0 -0.1830443636221751 -0.044826632122373727 0 -0.1881193352265291 -0.0301442605115642 0 -0.196833474798698 -0.040635097126493817 0 -0.1881193352265291 -0.0301442605115642 0 -0.20232759468190151 -0.029715605876152289 0 -0.196833474798698 -0.040635097126493817 0 -0.20232759468190151 -0.029715605876152289 0 -0.196833474798698 -0.040635097126493817 0 -0.22119256990360681 -0.043177745406306298 0 -0.1963161565430441 -0.053867470361468189 0 -0.196833474798698 -0.040635097126493817 0 -0.22119256990360681 -0.043177745406306298 0 -0.21324483229015359 -0.065399402779659235 0 -0.1963161565430441 -0.053867470361468189 0 -0.1963161565430441 -0.053867470361468189 0 -0.22119256990360681 -0.043177745406306298 0 -0.21324483229015359 -0.065399402779659235 0 -0.1963161565430441 -0.053867470361468189 0 -0.22119256990360681 -0.043177745406306298 0 -0.2272548016815481 -0.063024478600742548 0 -0.21324483229015359 -0.065399402779659235 0 -0.22119256990360681 -0.043177745406306298 0 -0.2272548016815481 -0.063024478600742548 0 -0.22119256990360681 -0.043177745406306298 0 -0.23977546518461251 -0.056304918150352531 0 -0.22119256990360681 -0.043177745406306298 0 -0.24606898326416901 -0.032488020451143552 0 -0.22119256990360681 -0.043177745406306298 0 -0.24606898326416901 -0.032488020451143552 0 -0.22788668582136981 -0.019717011186425659 0 -0.22119256990360681 -0.043177745406306298 0 -0.24606898326416901 -0.032488020451143552 0 -0.23977546518461251 -0.056304918150352531 0 -0.22661941181265161 -0.002192526522613961 0 -0.22788668582136981 -0.019717011186425659 0 -0.2457341329903851 -0.01253522981326796 0 -0.20970438837856969 -0.0069460019217090288 0 -0.22661941181265161 -0.002192526522613961 0 -0.22788668582136981 -0.019717011186425659 0 -0.20970438837856969 -0.0069460019217090288 0 -0.22788668582136981 -0.019717011186425659 0 -0.21131464996518601 -0.020299747948645828 0 -0.22119256990360681 -0.043177745406306298 0 -0.22788668582136981 -0.019717011186425659 0 -0.24606898326416901 -0.032488020451143552 0 -0.22788668582136981 -0.019717011186425659 0 -0.24740207735718189 -0.022523559374643631 0 -0.24606898326416901 -0.032488020451143552 0 -0.22788668582136981 -0.019717011186425659 0 -0.22788668582136981 -0.019717011186425659 0 -0.24740207735718189 -0.022523559374643631 0 -0.2457341329903851 -0.01253522981326796 0 -0.24740207735718189 -0.022523559374643631 0 -0.2457341329903851 -0.01253522981326796 0 -0.2557006066445256 -0.019932535511397838 0 -0.22661941181265161 -0.002192526522613961 0 -0.2457341329903851 -0.01253522981326796 0 -0.24960084376701569 0.0020560893945085678 0 -0.2457341329903851 -0.01253522981326796 0 -0.26129007469328452 -0.01175620120180206 0 -0.24960084376701569 0.0020560893945085678 0 -0.2457341329903851 -0.01253522981326796 0 -0.26129007469328452 -0.01175620120180206 0 -0.2557006066445256 -0.019932535511397838 0 -0.24606898326416901 -0.032488020451143552 0 -0.25700117952287937 -0.027790310637931099 0 -0.26015822018888568 -0.032874827229555703 0 -0.24606898326416901 -0.032488020451143552 0 -0.24740207735718189 -0.022523559374643631 0 -0.25700117952287937 -0.027790310637931099 0 -0.24606898326416901 -0.032488020451143552 0 -0.25700117952287937 -0.027790310637931099 0 -0.24740207735718189 -0.022523559374643631 0 -0.25700117952287937 -0.027790310637931099 0 -0.2557006066445256 -0.019932535511397838 0 -0.26129007469328452 -0.01175620120180206 0 -0.2557006066445256 -0.019932535511397838 0 -0.2670755686588972 -0.02505737652934446 0 -0.25700117952287937 -0.027790310637931099 0 -0.2670755686588972 -0.02505737652934446 0 -0.26015822018888568 -0.032874827229555703 0 -0.25700117952287937 -0.027790310637931099 0 -0.2557006066445256 -0.019932535511397838 0 -0.2670755686588972 -0.02505737652934446 0 -0.26129007469328452 -0.01175620120180206 0 -0.2670755686588972 -0.02505737652934446 0 -0.27711765511504161 -0.018212414202884181 0 -0.2670755686588972 -0.02505737652934446 0 -0.27635544808043422 -0.0299144516208859 0 -0.26015822018888568 -0.032874827229555703 0 -0.27711765511504161 -0.018212414202884181 0 -0.27635544808043422 -0.0299144516208859 0 -0.29007302368476517 -0.026507025218126451 0 -0.2670755686588972 -0.02505737652934446 0 -0.27711765511504161 -0.018212414202884181 0 -0.27635544808043422 -0.0299144516208859 0 -0.26129007469328452 -0.01175620120180206 0 -0.27711765511504161 -0.018212414202884181 0 -0.27499301778672641 -0.0036671053792906058 0 -0.26129007469328452 -0.01175620120180206 0 -0.27499301778672641 -0.0036671053792906058 0 -0.26365804434625278 0.010739703857289029 0 -0.27499301778672641 -0.0036671053792906058 0 -0.29372437073348062 -0.0090368829173401739 0 -0.28016864702839289 0.01138005324287753 0 -0.27711765511504161 -0.018212414202884181 0 -0.27499301778672641 -0.0036671053792906058 0 -0.29372437073348062 -0.0090368829173401739 0 -0.27711765511504161 -0.018212414202884181 0 -0.29372437073348062 -0.0090368829173401739 0 -0.29007302368476517 -0.026507025218126451 0 -0.29372437073348062 -0.0090368829173401739 0 -0.3072800944385683 -0.029453819077557859 0 -0.31105552914382723 -0.010423022317807191 0 -0.29372437073348062 -0.0090368829173401739 0 -0.29007302368476517 -0.026507025218126451 0 -0.3072800944385683 -0.029453819077557859 0 -0.29372437073348062 -0.0090368829173401739 0 -0.3072800944385683 -0.029453819077557859 0 -0.29372437073348062 -0.0090368829173401739 0 -0.31105552914382723 -0.010423022317807191 0 -0.30222657664053859 0.011676498958688591 0 -0.30752461697015621 -0.055503381678231108 0 -0.30070195478699452 -0.041830009225648328 0 -0.283841418579521 -0.044189104453893423 0 -0.30752461697015621 -0.055503381678231108 0 -0.30070195478699452 -0.041830009225648328 0 -0.32216388524578549 -0.050012368499061592 0 -0.29007302368476517 -0.026507025218126451 0 -0.3072800944385683 -0.029453819077557859 0 -0.30070195478699452 -0.041830009225648328 0 -0.3072800944385683 -0.029453819077557859 0 -0.30070195478699452 -0.041830009225648328 0 -0.32216388524578549 -0.050012368499061592 0 -0.29007302368476517 -0.026507025218126451 0 -0.30070195478699452 -0.041830009225648328 0 -0.283841418579521 -0.044189104453893423 0 -0.27635544808043422 -0.0299144516208859 0 -0.29007302368476517 -0.026507025218126451 0 -0.283841418579521 -0.044189104453893423 0 -0.30752461697015621 -0.055503381678231108 0 -0.283841418579521 -0.044189104453893423 0 -0.28583460308811109 -0.060418874667249857 0 -0.30752461697015621 -0.055503381678231108 0 -0.283841418579521 -0.044189104453893423 0 -0.28583460308811109 -0.060418874667249857 0 -0.26595179317614048 -0.046453447559196087 0 -0.25655880488831317 -0.071666108523075783 0 -0.28583460308811109 -0.060418874667249857 0 -0.26595179317614048 -0.046453447559196087 0 -0.283841418579521 -0.044189104453893423 0 -0.28583460308811109 -0.060418874667249857 0 -0.26595179317614048 -0.046453447559196087 0 -0.27635544808043422 -0.0299144516208859 0 -0.283841418579521 -0.044189104453893423 0 -0.26015822018888568 -0.032874827229555703 0 -0.283841418579521 -0.044189104453893423 0 -0.26595179317614048 -0.046453447559196087 0 -0.26015822018888568 -0.032874827229555703 0 -0.283841418579521 -0.044189104453893423 0 -0.26015822018888568 -0.032874827229555703 0 -0.24606898326416901 -0.032488020451143552 0 -0.26595179317614048 -0.046453447559196087 0 -0.26015822018888568 -0.032874827229555703 0 -0.24606898326416901 -0.032488020451143552 0 -0.26595179317614048 -0.046453447559196087 0 -0.24606898326416901 -0.032488020451143552 0 -0.23977546518461251 -0.056304918150352531 0 -0.26595179317614048 -0.046453447559196087 0 -0.23977546518461251 -0.056304918150352531 0 -0.26595179317614048 -0.046453447559196087 0 -0.25655880488831317 -0.071666108523075783 0 -0.24555390681774389 -0.085262056606915188 0 -0.25655880488831317 -0.071666108523075783 0 -0.26803153391442991 -0.095378392255273434 0 -0.25655880488831317 -0.071666108523075783 0 -0.26803153391442991 -0.095378392255273434 0 -0.28638021740512642 -0.082763814475016392 0 -0.26803153391442991 -0.095378392255273434 0 -0.28345381965668448 -0.1005580612787146 0 -0.28638021740512642 -0.082763814475016392 0 -0.28583460308811109 -0.060418874667249857 0 -0.25655880488831317 -0.071666108523075783 0 -0.28638021740512642 -0.082763814475016392 0 -0.25640897086900277 -0.1124834958395014 0 -0.27505909307764498 -0.1164075210735606 0 -0.25545163518708708 -0.13138358964421271 0 -0.2391705189568494 -0.11326632217287751 0 -0.25640897086900277 -0.1124834958395014 0 -0.25545163518708708 -0.13138358964421271 0 -0.24514954582311629 -0.10133274003856201 0 -0.25640897086900277 -0.1124834958395014 0 -0.26803153391442991 -0.095378392255273434 0 -0.24514954582311629 -0.10133274003856201 0 -0.24555390681774389 -0.085262056606915188 0 -0.26803153391442991 -0.095378392255273434 0 -0.25640897086900277 -0.1124834958395014 0 -0.26803153391442991 -0.095378392255273434 0 -0.27505909307764498 -0.1164075210735606 0 -0.26803153391442991 -0.095378392255273434 0 -0.27505909307764498 -0.1164075210735606 0 -0.28345381965668448 -0.1005580612787146 0 -0.29566688275770492 -0.12360252405131909 0 -0.28843975759755353 -0.1182142688638067 0 -0.2867526655933279 -0.1255306518788101 0 -0.29566688275770492 -0.12360252405131909 0 -0.28843975759755353 -0.1182142688638067 0 -0.29369344050953761 -0.1160603338841294 0 -0.27505909307764498 -0.1164075210735606 0 -0.28843975759755353 -0.1182142688638067 0 -0.2867526655933279 -0.1255306518788101 0 -0.27505909307764498 -0.1164075210735606 0 -0.28843975759755353 -0.1182142688638067 0 -0.28940155529108552 -0.10977843881110989 0 -0.28843975759755353 -0.1182142688638067 0 -0.28940155529108552 -0.10977843881110989 0 -0.29369344050953761 -0.1160603338841294 0 -0.28940155529108552 -0.10977843881110989 0 -0.29369344050953761 -0.1160603338841294 0 -0.30126556639180641 -0.1126461038102818 0 -0.28345381965668448 -0.1005580612787146 0 -0.29839669859513568 -0.098462139778612845 0 -0.28638021740512642 -0.082763814475016392 0 -0.27505909307764498 -0.1164075210735606 0 -0.28940155529108552 -0.10977843881110989 0 -0.28345381965668448 -0.1005580612787146 0 -0.28940155529108552 -0.10977843881110989 0 -0.28345381965668448 -0.1005580612787146 0 -0.29839669859513568 -0.098462139778612845 0 -0.28940155529108552 -0.10977843881110989 0 -0.29839669859513568 -0.098462139778612845 0 -0.30126556639180641 -0.1126461038102818 0 -0.31113871349541611 -0.1010988719485461 0 -0.30126556639180641 -0.1126461038102818 0 -0.32063296738022878 -0.1123542747533071 0 -0.29839669859513568 -0.098462139778612845 0 -0.31113871349541611 -0.1010988719485461 0 -0.30810108118804042 -0.087972476261675842 0 -0.31113871349541611 -0.1010988719485461 0 -0.30810108118804042 -0.087972476261675842 0 -0.31791098823753039 -0.093987083567516005 0 -0.29839669859513568 -0.098462139778612845 0 -0.31113871349541611 -0.1010988719485461 0 -0.30126556639180641 -0.1126461038102818 0 -0.32063296738022878 -0.1123542747533071 0 -0.29634726323047522 -0.12774060725377789 0 -0.31220072318521042 -0.1319900570544435 0 -0.32063296738022878 -0.1123542747533071 0 -0.29634726323047522 -0.12774060725377789 0 -0.30126556639180641 -0.1126461038102818 0 -0.32063296738022878 -0.1123542747533071 0 -0.29634726323047522 -0.12774060725377789 0 -0.29566688275770492 -0.12360252405131909 0 -0.30126556639180641 -0.1126461038102818 0 -0.29634726323047522 -0.12774060725377789 0 -0.29566688275770492 -0.12360252405131909 0 -0.29369344050953761 -0.1160603338841294 0 -0.30126556639180641 -0.1126461038102818 0 -0.28583460308811109 -0.060418874667249857 0 -0.30571741300008187 -0.074384301775303655 0 -0.28583460308811109 -0.060418874667249857 0 -0.28638021740512642 -0.082763814475016392 0 -0.30571741300008187 -0.074384301775303655 0 -0.28638021740512642 -0.082763814475016392 0 -0.30810108118804042 -0.087972476261675842 0 -0.30571741300008187 -0.074384301775303655 0 -0.29839669859513568 -0.098462139778612845 0 -0.28638021740512642 -0.082763814475016392 0 -0.30810108118804042 -0.087972476261675842 0 -0.30752461697015621 -0.055503381678231108 0 -0.28583460308811109 -0.060418874667249857 0 -0.30571741300008187 -0.074384301775303655 0 -0.30752461697015621 -0.055503381678231108 0 -0.30571741300008187 -0.074384301775303655 0 -0.33120781536079169 -0.066817658902568133 0 -0.30571741300008187 -0.074384301775303655 0 -0.32560022291205282 -0.088349728883357043 0 -0.33120781536079169 -0.066817658902568133 0 -0.30571741300008187 -0.074384301775303655 0 -0.32560022291205282 -0.088349728883357043 0 -0.30810108118804042 -0.087972476261675842 0 -0.30571741300008187 -0.074384301775303655 0 -0.32560022291205282 -0.088349728883357043 0 -0.30810108118804042 -0.087972476261675842 0 -0.32560022291205282 -0.088349728883357043 0 -0.31791098823753039 -0.093987083567516005 0 -0.32560022291205282 -0.088349728883357043 0 -0.32439717918942951 -0.092969183999308258 0 -0.31791098823753039 -0.093987083567516005 0 -0.32560022291205282 -0.088349728883357043 0 -0.32923382513965932 -0.090901923833365594 0 -0.32560022291205282 -0.088349728883357043 0 -0.32439717918942951 -0.092969183999308258 0 -0.32923382513965932 -0.090901923833365594 0 -0.32560022291205282 -0.088349728883357043 0 -0.32439717918942951 -0.092969183999308258 0 -0.32439717918942951 -0.092969183999308258 0 -0.32923382513965932 -0.090901923833365594 0 -0.32962211623213489 -0.096885380531372467 0 -0.33823230975079549 -0.088573801604723876 0 -0.34491867152998318 -0.096967942252837599 0 -0.3479725441035455 -0.074826745574803954 0 -0.32560022291205282 -0.088349728883357043 0 -0.33464181455897168 -0.081870683920727896 0 -0.33120781536079169 -0.066817658902568133 0 -0.32923382513965932 -0.090901923833365594 0 -0.33823230975079549 -0.088573801604723876 0 -0.32962211623213489 -0.096885380531372467 0 -0.32560022291205282 -0.088349728883357043 0 -0.33464181455897168 -0.081870683920727896 0 -0.32923382513965932 -0.090901923833365594 0 -0.33464181455897168 -0.081870683920727896 0 -0.32923382513965932 -0.090901923833365594 0 -0.33823230975079549 -0.088573801604723876 0 -0.33464181455897168 -0.081870683920727896 0 -0.33823230975079549 -0.088573801604723876 0 -0.3479725441035455 -0.074826745574803954 0 -0.33464181455897168 -0.081870683920727896 0 -0.33120781536079169 -0.066817658902568133 0 -0.3479725441035455 -0.074826745574803954 0 -0.32560022291205282 -0.088349728883357043 0 -0.33120781536079169 -0.066817658902568133 0 -0.33120781536079169 -0.066817658902568133 0 -0.3479725441035455 -0.074826745574803954 0 -0.33120781536079169 -0.066817658902568133 0 -0.34593996383306391 -0.067383739300363066 0 -0.3479725441035455 -0.074826745574803954 0 -0.32063296738022878 -0.1123542747533071 0 -0.32031774440271321 -0.099545156744692359 0 -0.32962211623213489 -0.096885380531372467 0 -0.31113871349541611 -0.1010988719485461 0 -0.32063296738022878 -0.1123542747533071 0 -0.32031774440271321 -0.099545156744692359 0 -0.31113871349541611 -0.1010988719485461 0 -0.31791098823753039 -0.093987083567516005 0 -0.32031774440271321 -0.099545156744692359 0 -0.32439717918942951 -0.092969183999308258 0 -0.32031774440271321 -0.099545156744692359 0 -0.32962211623213489 -0.096885380531372467 0 -0.32439717918942951 -0.092969183999308258 0 -0.31791098823753039 -0.093987083567516005 0 -0.32031774440271321 -0.099545156744692359 0 -0.32063296738022878 -0.1123542747533071 0 -0.34491867152998318 -0.096967942252837599 0 -0.32063296738022878 -0.1123542747533071 0 -0.32962211623213489 -0.096885380531372467 0 -0.34491867152998318 -0.096967942252837599 0 -0.33823230975079549 -0.088573801604723876 0 -0.32962211623213489 -0.096885380531372467 0 -0.34491867152998318 -0.096967942252837599 0 -0.32063296738022878 -0.1123542747533071 0 -0.34122720148201829 -0.1237318501744108 0 -0.34491867152998318 -0.096967942252837599 0 -0.34122720148201829 -0.1237318501744108 0 -0.34491867152998318 -0.096967942252837599 0 -0.32063296738022878 -0.1123542747533071 0 -0.34122720148201829 -0.1237318501744108 0 -0.32663105754698429 -0.1326895278805936 0 -0.34122720148201829 -0.1237318501744108 0 -0.35615663959531541 -0.11802001385421799 0 -0.34491867152998318 -0.096967942252837599 0 -0.35615663959531541 -0.11802001385421799 0 -0.35588320456471062 -0.09899250827923306 0 -0.34491867152998318 -0.096967942252837599 0 -0.35615663959531541 -0.11802001385421799 0 -0.35588320456471062 -0.09899250827923306 0 -0.35615663959531541 -0.11802001385421799 0 -0.35588320456471062 -0.09899250827923306 0 -0.36216190767238438 -0.1084179975782822 0 -0.35588320456471062 -0.09899250827923306 0 -0.37232941934761499 -0.099242541508515247 0 -0.36671192124631657 -0.08316071705016026 0 -0.35588320456471062 -0.09899250827923306 0 -0.37232941934761499 -0.099242541508515247 0 -0.36216190767238438 -0.1084179975782822 0 -0.37232941934761499 -0.099242541508515247 0 -0.36216190767238438 -0.1084179975782822 0 -0.3721164519794673 -0.1103027432889376 0 -0.35615663959531541 -0.11802001385421799 0 -0.36574709414584772 -0.1129698554934646 0 -0.36551509918699598 -0.11837061039799231 0 -0.36216190767238438 -0.1084179975782822 0 -0.36574709414584772 -0.1129698554934646 0 -0.3721164519794673 -0.1103027432889376 0 -0.35615663959531541 -0.11802001385421799 0 -0.36216190767238438 -0.1084179975782822 0 -0.36574709414584772 -0.1129698554934646 0 -0.36574709414584772 -0.1129698554934646 0 -0.3721164519794673 -0.1103027432889376 0 -0.37089559062818073 -0.1156280421876069 0 -0.3721164519794673 -0.1103027432889376 0 -0.37089559062818073 -0.1156280421876069 0 -0.37446835130961909 -0.1190712911890162 0 -0.36574709414584772 -0.1129698554934646 0 -0.37089559062818073 -0.1156280421876069 0 -0.36551509918699598 -0.11837061039799231 0 -0.37089559062818073 -0.1156280421876069 0 -0.37446835130961909 -0.1190712911890162 0 -0.36551509918699598 -0.11837061039799231 0 -0.37446835130961909 -0.1190712911890162 0 -0.3637671517752642 -0.1260612571391854 0 -0.36515874731498721 -0.12834887181203791 0 -0.37446835130961909 -0.1190712911890162 0 -0.36515874731498721 -0.12834887181203791 0 -0.37446835130961909 -0.1190712911890162 0 -0.36551509918699598 -0.11837061039799231 0 -0.3637671517752642 -0.1260612571391854 0 -0.37089559062818073 -0.1156280421876069 0 -0.37446835130961909 -0.1190712911890162 0 -0.35615663959531541 -0.11802001385421799 0 -0.36551509918699598 -0.11837061039799231 0 -0.3637671517752642 -0.1260612571391854 0 -0.35910781973558759 -0.073259978319068497 0 -0.3479725441035455 -0.074826745574803954 0 -0.36440564389032459 -0.082677401705622322 0 -0.35910781973558759 -0.073259978319068497 0 -0.35296142065491742 -0.069780418132558253 0 -0.3479725441035455 -0.074826745574803954 0 -0.35910781973558759 -0.073259978319068497 0 -0.3578606447163708 -0.066281438231983389 0 -0.35296142065491742 -0.069780418132558253 0 -0.3578606447163708 -0.066281438231983389 0 -0.36407645212730883 -0.062816252256658447 0 -0.35276904631665978 -0.059204219883170997 0 -0.3578606447163708 -0.066281438231983389 0 -0.35296142065491742 -0.069780418132558253 0 -0.35276904631665978 -0.059204219883170997 0 -0.35296142065491742 -0.069780418132558253 0 -0.34593996383306391 -0.067383739300363066 0 -0.35276904631665978 -0.059204219883170997 0 -0.35296142065491742 -0.069780418132558253 0 -0.34593996383306391 -0.067383739300363066 0 -0.3479725441035455 -0.074826745574803954 0 -0.35588320456471062 -0.09899250827923306 0 -0.34491867152998318 -0.096967942252837599 0 -0.36671192124631657 -0.08316071705016026 0 -0.34491867152998318 -0.096967942252837599 0 -0.3479725441035455 -0.074826745574803954 0 -0.36440564389032459 -0.082677401705622322 0 -0.34491867152998318 -0.096967942252837599 0 -0.36671192124631657 -0.08316071705016026 0 -0.34491867152998318 -0.096967942252837599 0 -0.36671192124631657 -0.08316071705016026 0 -0.36440564389032459 -0.082677401705622322 0 -0.34491867152998318 -0.096967942252837599 0 -0.3479725441035455 -0.074826745574803954 0 -0.3479725441035455 -0.074826745574803954 0 -0.36440564389032459 -0.082677401705622322 0 -0.35910781973558759 -0.073259978319068497 0 -0.36671192124631657 -0.08316071705016026 0 -0.36440564389032459 -0.082677401705622322 0 -0.37232941934761499 -0.099242541508515247 0 -0.36671192124631657 -0.08316071705016026 0 -0.38353159609917009 -0.090673626234151788 0 -0.36671192124631657 -0.08316071705016026 0 -0.36407645212730883 -0.062816252256658447 0 -0.38850517096265003 -0.069353491847482573 0 -0.35910781973558759 -0.073259978319068497 0 -0.36671192124631657 -0.08316071705016026 0 -0.36407645212730883 -0.062816252256658447 0 -0.35910781973558759 -0.073259978319068497 0 -0.3578606447163708 -0.066281438231983389 0 -0.36407645212730883 -0.062816252256658447 0 -0.36407645212730883 -0.062816252256658447 0 -0.35756566361037551 -0.045477496466802138 0 -0.37579340756508861 -0.046776097022995483 0 -0.36407645212730883 -0.062816252256658447 0 -0.35276904631665978 -0.059204219883170997 0 -0.35756566361037551 -0.045477496466802138 0 -0.34593996383306391 -0.067383739300363066 0 -0.35276904631665978 -0.059204219883170997 0 -0.33739254470778268 -0.043069494903692267 0 -0.35276904631665978 -0.059204219883170997 0 -0.35756566361037551 -0.045477496466802138 0 -0.33739254470778268 -0.043069494903692267 0 -0.35040428163511411 -0.033016756118454497 0 -0.34357727405477012 -0.019321330904815529 0 -0.33739254470778268 -0.043069494903692267 0 -0.35756566361037551 -0.045477496466802138 0 -0.35040428163511411 -0.033016756118454497 0 -0.36308164416752797 -0.024198702198508091 0 -0.35756566361037551 -0.045477496466802138 0 -0.35040428163511411 -0.033016756118454497 0 -0.33739254470778268 -0.043069494903692267 0 -0.35756566361037551 -0.045477496466802138 0 -0.36308164416752797 -0.024198702198508091 0 -0.37579340756508861 -0.046776097022995483 0 -0.36308164416752797 -0.024198702198508091 0 -0.37579340756508861 -0.046776097022995483 0 -0.36308164416752797 -0.024198702198508091 0 -0.37386683033107732 -0.0057703736779719239 0 -0.35036988076996728 -0.001621307374020602 0 -0.36308164416752797 -0.024198702198508091 0 -0.35036988076996728 -0.001621307374020602 0 -0.34357727405477012 -0.019321330904815529 0 -0.36308164416752797 -0.024198702198508091 0 -0.35036988076996728 -0.001621307374020602 0 -0.35040428163511411 -0.033016756118454497 0 -0.36308164416752797 -0.024198702198508091 0 -0.34357727405477012 -0.019321330904815529 0 -0.34357727405477012 -0.019321330904815529 0 -0.33739254470778268 -0.043069494903692267 0 -0.34357727405477012 -0.019321330904815529 0 -0.32490308862797312 -0.025843295000844521 0 -0.33739254470778268 -0.043069494903692267 0 -0.35036988076996728 -0.001621307374020602 0 -0.34357727405477012 -0.019321330904815529 0 -0.32714351527857533 0.00054238644801803419 0 -0.34357727405477012 -0.019321330904815529 0 -0.32490308862797312 -0.025843295000844521 0 -0.32714351527857533 0.00054238644801803419 0 -0.31105552914382723 -0.010423022317807191 0 -0.32490308862797312 -0.025843295000844521 0 -0.32714351527857533 0.00054238644801803419 0 -0.3072800944385683 -0.029453819077557859 0 -0.31105552914382723 -0.010423022317807191 0 -0.32490308862797312 -0.025843295000844521 0 -0.3072800944385683 -0.029453819077557859 0 -0.32490308862797312 -0.025843295000844521 0 -0.32216388524578549 -0.050012368499061592 0 -0.30752461697015621 -0.055503381678231108 0 -0.33120781536079169 -0.066817658902568133 0 -0.30752461697015621 -0.055503381678231108 0 -0.33120781536079169 -0.066817658902568133 0 -0.32216388524578549 -0.050012368499061592 0 -0.33120781536079169 -0.066817658902568133 0 -0.32216388524578549 -0.050012368499061592 0 -0.33739254470778268 -0.043069494903692267 0 -0.33120781536079169 -0.066817658902568133 0 -0.34593996383306391 -0.067383739300363066 0 -0.33739254470778268 -0.043069494903692267 0 -0.33120781536079169 -0.066817658902568133 0 -0.33739254470778268 -0.043069494903692267 0 -0.32490308862797312 -0.025843295000844521 0 -0.32216388524578549 -0.050012368499061592 0 -0.33739254470778268 -0.043069494903692267 0 -0.2953456543652212 -0.22925743511739041 0 -0.31529067626906931 -0.24295470058744989 0 -0.29344542939235668 -0.232252431902078 0 -0.31562540891235408 -0.24499054903389081 0 -0.31529067626906931 -0.24295470058744989 0 -0.29344542939235668 -0.232252431902078 0 -0.2953456543652212 -0.22925743511739041 0 -0.31529067626906931 -0.24295470058744989 0 -0.30213545205644998 -0.25474964514874388 0 -0.29344542939235668 -0.232252431902078 0 -0.31562540891235408 -0.24499054903389081 0 -0.29344542939235668 -0.232252431902078 0 -0.31562540891235408 -0.24499054903389081 0 -0.31234393222515783 -0.22503256360959481 0 -0.2953456543652212 -0.22925743511739041 0 -0.31529067626906931 -0.24295470058744989 0 -0.31234393222515783 -0.22503256360959481 0 -0.2953456543652212 -0.22925743511739041 0 -0.30939718818124612 -0.2071104266317397 0 -0.2953456543652212 -0.22925743511739041 0 -0.27113570602407072 -0.21263122678110391 0 -0.29344542939235668 -0.232252431902078 0 -0.27139075991633033 -0.21958628120361981 0 -0.29344542939235668 -0.232252431902078 0 -0.2953456543652212 -0.22925743511739041 0 -0.27139075991633033 -0.21958628120361981 0 -0.29344542939235668 -0.232252431902078 0 -0.2953456543652212 -0.22925743511739041 0 -0.28161261259963222 -0.25100354534260161 0 -0.30213545205644998 -0.25474964514874388 0 -0.29344542939235668 -0.232252431902078 0 -0.28161261259963222 -0.25100354534260161 0 -0.29344542939235668 -0.232252431902078 0 -0.27715588799895341 -0.2350820636184815 0 -0.28161261259963222 -0.25100354534260161 0 -0.29344542939235668 -0.232252431902078 0 -0.28161261259963222 -0.25100354534260161 0 -0.27715588799895341 -0.2350820636184815 0 -0.25741499207255808 -0.2468477206326791 0 -0.27715588799895341 -0.2350820636184815 0 -0.25741499207255808 -0.2468477206326791 0 -0.26412509992495281 -0.23022152526295869 0 -0.2448759247925982 -0.23766676242721729 0 -0.25741499207255808 -0.2468477206326791 0 -0.25215205956079811 -0.2272816576573034 0 -0.25741499207255808 -0.2468477206326791 0 -0.25215205956079811 -0.2272816576573034 0 -0.26412509992495281 -0.23022152526295869 0 -0.25215205956079811 -0.2272816576573034 0 -0.26102173624270331 -0.22108778803194559 0 -0.25170803779926798 -0.2184142035842741 0 -0.25215205956079811 -0.2272816576573034 0 -0.26412509992495281 -0.23022152526295869 0 -0.26102173624270331 -0.22108778803194559 0 -0.26412509992495281 -0.23022152526295869 0 -0.26102173624270331 -0.22108778803194559 0 -0.27139075991633033 -0.21958628120361981 0 -0.29344542939235668 -0.232252431902078 0 -0.27715588799895341 -0.2350820636184815 0 -0.27139075991633033 -0.21958628120361981 0 -0.2953456543652212 -0.22925743511739041 0 -0.27139075991633033 -0.21958628120361981 0 -0.27113570602407072 -0.21263122678110391 0 -0.27715588799895341 -0.2350820636184815 0 -0.26412509992495281 -0.23022152526295869 0 -0.27139075991633033 -0.21958628120361981 0 -0.27944382444320492 -0.20569988932139399 0 -0.27113570602407072 -0.21263122678110391 0 -0.28657899864344488 -0.21185951192372551 0 -0.27944382444320492 -0.20569988932139399 0 -0.27100190357648729 -0.2039747392976782 0 -0.27113570602407072 -0.21263122678110391 0 -0.27100190357648729 -0.2039747392976782 0 -0.27113570602407072 -0.21263122678110391 0 -0.26396414653240557 -0.19994396307351001 0 -0.24933609044030389 -0.20692013050516139 0 -0.27139075991633033 -0.21958628120361981 0 -0.24692575768292011 -0.19600501844481719 0 -0.27113570602407072 -0.21263122678110391 0 -0.24933609044030389 -0.20692013050516139 0 -0.27139075991633033 -0.21958628120361981 0 -0.27113570602407072 -0.21263122678110391 0 -0.24933609044030389 -0.20692013050516139 0 -0.26102173624270331 -0.22108778803194559 0 -0.27139075991633033 -0.21958628120361981 0 -0.24692575768292011 -0.19600501844481719 0 -0.24933609044030389 -0.20692013050516139 0 -0.27113570602407072 -0.21263122678110391 0 -0.24933609044030389 -0.20692013050516139 0 -0.26102173624270331 -0.22108778803194559 0 -0.25170803779926798 -0.2184142035842741 0 -0.24692575768292011 -0.19600501844481719 0 -0.27113570602407072 -0.21263122678110391 0 -0.26396414653240557 -0.19994396307351001 0 -0.24692575768292011 -0.19600501844481719 0 -0.26396414653240557 -0.19994396307351001 0 -0.2582243666820917 -0.19037710227150059 0 -0.24692575768292011 -0.19600501844481719 0 -0.24907905928585861 -0.18352758111344969 0 -0.2582243666820917 -0.19037710227150059 0 -0.26396414653240557 -0.19994396307351001 0 -0.2582243666820917 -0.19037710227150059 0 -0.27253299869645842 -0.19673172857245019 0 -0.2582243666820917 -0.19037710227150059 0 -0.27253299869645842 -0.19673172857245019 0 -0.26672173610191241 -0.18208110987605111 0 -0.27253299869645842 -0.19673172857245019 0 -0.28099491777395108 -0.18950209657790201 0 -0.26672173610191241 -0.18208110987605111 0 -0.27100190357648729 -0.2039747392976782 0 -0.26396414653240557 -0.19994396307351001 0 -0.27253299869645842 -0.19673172857245019 0 -0.27944382444320492 -0.20569988932139399 0 -0.27253299869645842 -0.19673172857245019 0 -0.28714881259108449 -0.19887694203022541 0 -0.27944382444320492 -0.20569988932139399 0 -0.27100190357648729 -0.2039747392976782 0 -0.27253299869645842 -0.19673172857245019 0 -0.27253299869645842 -0.19673172857245019 0 -0.28099491777395108 -0.18950209657790201 0 -0.28714881259108449 -0.19887694203022541 0 -0.28099491777395108 -0.18950209657790201 0 -0.28714881259108449 -0.19887694203022541 0 -0.29193602177569727 -0.18743073178882891 0 -0.28714881259108449 -0.19887694203022541 0 -0.29651567672813189 -0.20490571674892019 0 -0.29193602177569727 -0.18743073178882891 0 -0.27944382444320492 -0.20569988932139399 0 -0.28714881259108449 -0.19887694203022541 0 -0.28657899864344488 -0.21185951192372551 0 -0.2953456543652212 -0.22925743511739041 0 -0.27113570602407072 -0.21263122678110391 0 -0.28657899864344488 -0.21185951192372551 0 -0.2953456543652212 -0.22925743511739041 0 -0.28657899864344488 -0.21185951192372551 0 -0.29651567672813189 -0.20490571674892019 0 -0.28714881259108449 -0.19887694203022541 0 -0.28657899864344488 -0.21185951192372551 0 -0.29651567672813189 -0.20490571674892019 0 -0.2953456543652212 -0.22925743511739041 0 -0.30939718818124612 -0.2071104266317397 0 -0.2953456543652212 -0.22925743511739041 0 -0.29651567672813189 -0.20490571674892019 0 -0.30939718818124612 -0.2071104266317397 0 -0.31234393222515783 -0.22503256360959481 0 -0.30939718818124612 -0.2071104266317397 0 -0.30939718818124612 -0.2071104266317397 0 -0.31376517377250662 -0.20022592453955329 0 -0.29651567672813189 -0.20490571674892019 0 -0.30939718818124612 -0.2071104266317397 0 -0.30560043623471572 -0.18401853013763611 0 -0.29651567672813189 -0.20490571674892019 0 -0.30560043623471572 -0.18401853013763611 0 -0.29193602177569727 -0.18743073178882891 0 -0.30939718818124612 -0.2071104266317397 0 -0.30560043623471572 -0.18401853013763611 0 -0.31376517377250662 -0.20022592453955329 0 -0.30939718818124612 -0.2071104266317397 0 -0.30560043623471572 -0.18401853013763611 0 -0.30560043623471572 -0.18401853013763611 0 -0.30180368428818732 -0.16092663364353221 0 -0.29229196391410017 -0.1735925500309429 0 -0.30560043623471572 -0.18401853013763611 0 -0.30180368428818732 -0.16092663364353221 0 -0.30180368428818732 -0.16092663364353221 0 -0.32017254169737208 -0.17010047110032239 0 -0.30180368428818732 -0.16092663364353221 0 -0.31318380971752291 -0.1568254476793759 0 -0.32017254169737208 -0.17010047110032239 0 -0.30560043623471572 -0.18401853013763611 0 -0.30180368428818732 -0.16092663364353221 0 -0.32017254169737208 -0.17010047110032239 0 -0.29229196391410017 -0.1735925500309429 0 -0.27943563052183051 -0.16555738982802121 0 -0.28745248247897481 -0.15375930745798691 0 -0.30180368428818732 -0.16092663364353221 0 -0.29229196391410017 -0.1735925500309429 0 -0.28745248247897481 -0.15375930745798691 0 -0.30180368428818732 -0.16092663364353221 0 -0.28745248247897481 -0.15375930745798691 0 -0.28099491777395108 -0.18950209657790201 0 -0.29193602177569727 -0.18743073178882891 0 -0.27598597596034852 -0.17939807428795049 0 -0.29229196391410017 -0.1735925500309429 0 -0.27598597596034852 -0.17939807428795049 0 -0.27943563052183051 -0.16555738982802121 0 -0.29229196391410017 -0.1735925500309429 0 -0.29193602177569727 -0.18743073178882891 0 -0.27598597596034852 -0.17939807428795049 0 -0.30560043623471572 -0.18401853013763611 0 -0.29229196391410017 -0.1735925500309429 0 -0.29193602177569727 -0.18743073178882891 0 -0.28099491777395108 -0.18950209657790201 0 -0.27598597596034852 -0.17939807428795049 0 -0.26672173610191241 -0.18208110987605111 0 -0.27598597596034852 -0.17939807428795049 0 -0.26605222632075343 -0.17462604452880429 0 -0.26672173610191241 -0.18208110987605111 0 -0.27598597596034852 -0.17939807428795049 0 -0.26522882151607219 -0.1668345901986705 0 -0.27598597596034852 -0.17939807428795049 0 -0.26605222632075343 -0.17462604452880429 0 -0.26522882151607219 -0.1668345901986705 0 -0.2582243666820917 -0.19037710227150059 0 -0.26672173610191241 -0.18208110987605111 0 -0.25650270545956211 -0.18103622873945979 0 -0.26672173610191241 -0.18208110987605111 0 -0.25976484624105728 -0.17431292186175071 0 -0.25650270545956211 -0.18103622873945979 0 -0.26605222632075343 -0.17462604452880429 0 -0.26672173610191241 -0.18208110987605111 0 -0.25976484624105728 -0.17431292186175071 0 -0.26605222632075343 -0.17462604452880429 0 -0.25976484624105728 -0.17431292186175071 0 -0.26245172528994709 -0.17100315189148099 0 -0.24996747062821489 -0.1776172147900528 0 -0.25372295983756732 -0.17266205551982561 0 -0.25650270545956211 -0.18103622873945979 0 -0.25976484624105728 -0.17431292186175071 0 -0.25372295983756732 -0.17266205551982561 0 -0.25650270545956211 -0.18103622873945979 0 -0.24996747062821489 -0.1776172147900528 0 -0.2481423511905558 -0.1700161807078017 0 -0.25372295983756732 -0.17266205551982561 0 -0.24996747062821489 -0.1776172147900528 0 -0.24907905928585861 -0.18352758111344969 0 -0.25650270545956211 -0.18103622873945979 0 -0.24907905928585861 -0.18352758111344969 0 -0.2582243666820917 -0.19037710227150059 0 -0.25650270545956211 -0.18103622873945979 0 -0.24908372160189399 -0.15768466661326169 0 -0.25654654189594578 -0.16345600980702499 0 -0.26231065183551699 -0.16342640464724131 0 -0.24908372160189399 -0.15768466661326169 0 -0.26231065183551699 -0.16342640464724131 0 -0.25447166707179603 -0.1542711061093904 0 -0.24908372160189399 -0.15768466661326169 0 -0.26231065183551699 -0.16342640464724131 0 -0.24908372160189399 -0.15768466661326169 0 -0.25654654189594578 -0.16345600980702499 0 -0.25038409082640922 -0.16381984975180011 0 -0.2481423511905558 -0.1700161807078017 0 -0.249072028622703 -0.16615182420934929 0 -0.25295218475615933 -0.16660674659945809 0 -0.25654654189594578 -0.16345600980702499 0 -0.25038409082640922 -0.16381984975180011 0 -0.25295218475615933 -0.16660674659945809 0 -0.249072028622703 -0.16615182420934929 0 -0.25038409082640922 -0.16381984975180011 0 -0.25295218475615933 -0.16660674659945809 0 -0.2481423511905558 -0.1700161807078017 0 -0.25372295983756732 -0.17266205551982561 0 -0.25295218475615933 -0.16660674659945809 0 -0.25976484624105728 -0.17431292186175071 0 -0.25372295983756732 -0.17266205551982561 0 -0.25876100708190558 -0.1682390509766987 0 -0.25372295983756732 -0.17266205551982561 0 -0.25295218475615933 -0.16660674659945809 0 -0.25876100708190558 -0.1682390509766987 0 -0.25654654189594578 -0.16345600980702499 0 -0.25295218475615933 -0.16660674659945809 0 -0.25876100708190558 -0.1682390509766987 0 -0.25654654189594578 -0.16345600980702499 0 -0.25876100708190558 -0.1682390509766987 0 -0.26231065183551699 -0.16342640464724131 0 -0.25976484624105728 -0.17431292186175071 0 -0.25876100708190558 -0.1682390509766987 0 -0.26245172528994709 -0.17100315189148099 0 -0.25876100708190558 -0.1682390509766987 0 -0.26245172528994709 -0.17100315189148099 0 -0.26522882151607219 -0.1668345901986705 0 -0.26605222632075343 -0.17462604452880429 0 -0.26245172528994709 -0.17100315189148099 0 -0.26522882151607219 -0.1668345901986705 0 -0.25876100708190558 -0.1682390509766987 0 -0.26522882151607219 -0.1668345901986705 0 -0.26231065183551699 -0.16342640464724131 0 -0.26522882151607219 -0.1668345901986705 0 -0.26231065183551699 -0.16342640464724131 0 -0.26231065183551699 -0.16342640464724131 0 -0.26614972118325059 -0.15607019707325179 0 -0.25447166707179603 -0.1542711061093904 0 -0.26231065183551699 -0.16342640464724131 0 -0.25447166707179603 -0.1542711061093904 0 -0.26522882151607219 -0.1668345901986705 0 -0.26231065183551699 -0.16342640464724131 0 -0.26614972118325059 -0.15607019707325179 0 -0.27190893424898138 -0.16042095640958531 0 -0.27599188067387642 -0.15275947598951209 0 -0.26614972118325059 -0.15607019707325179 0 -0.26522882151607219 -0.1668345901986705 0 -0.27190893424898138 -0.16042095640958531 0 -0.26614972118325059 -0.15607019707325179 0 -0.26522882151607219 -0.1668345901986705 0 -0.27190893424898138 -0.16042095640958531 0 -0.27943563052183051 -0.16555738982802121 0 -0.27598597596034852 -0.17939807428795049 0 -0.26522882151607219 -0.1668345901986705 0 -0.27943563052183051 -0.16555738982802121 0 -0.27190893424898138 -0.16042095640958531 0 -0.27943563052183051 -0.16555738982802121 0 -0.27599188067387642 -0.15275947598951209 0 -0.27943563052183051 -0.16555738982802121 0 -0.27599188067387642 -0.15275947598951209 0 -0.28745248247897481 -0.15375930745798691 0 -0.27599188067387642 -0.15275947598951209 0 -0.26781187581270638 -0.1458193483984479 0 -0.28115208455361612 -0.13736759068750409 0 -0.26781187581270638 -0.1458193483984479 0 -0.28115208455361612 -0.13736759068750409 0 -0.27599188067387642 -0.15275947598951209 0 -0.26781187581270638 -0.1458193483984479 0 -0.26614972118325059 -0.15607019707325179 0 -0.26781187581270638 -0.1458193483984479 0 -0.25447166707179603 -0.1542711061093904 0 -0.26781187581270638 -0.1458193483984479 0 -0.26614972118325059 -0.15607019707325179 0 -0.25447166707179603 -0.1542711061093904 0 -0.26781187581270638 -0.1458193483984479 0 -0.2549616511294418 -0.14282734787680151 0 -0.25447166707179603 -0.1542711061093904 0 -0.24211142644617789 -0.1398353473551551 0 -0.2549616511294418 -0.14282734787680151 0 -0.25447166707179603 -0.1542711061093904 0 -0.24908372160189399 -0.15768466661326169 0 -0.25447166707179603 -0.1542711061093904 0 -0.24211142644617789 -0.1398353473551551 0 -0.2549616511294418 -0.14282734787680151 0 -0.25545163518708708 -0.13138358964421271 0 -0.26781187581270638 -0.1458193483984479 0 -0.2549616511294418 -0.14282734787680151 0 -0.25545163518708708 -0.13138358964421271 0 -0.26781187581270638 -0.1458193483984479 0 -0.25545163518708708 -0.13138358964421271 0 -0.28115208455361612 -0.13736759068750409 0 -0.27505909307764498 -0.1164075210735606 0 -0.25545163518708708 -0.13138358964421271 0 -0.28115208455361612 -0.13736759068750409 0 -0.27505909307764498 -0.1164075210735606 0 -0.28115208455361612 -0.13736759068750409 0 -0.2867526655933279 -0.1255306518788101 0 -0.25545163518708708 -0.13138358964421271 0 -0.28115208455361612 -0.13736759068750409 0 -0.28115208455361612 -0.13736759068750409 0 -0.29634726323047522 -0.12774060725377789 0 -0.29859800288209293 -0.1414296361400906 0 -0.28115208455361612 -0.13736759068750409 0 -0.29634726323047522 -0.12774060725377789 0 -0.28115208455361612 -0.13736759068750409 0 -0.29859800288209293 -0.1414296361400906 0 -0.28115208455361612 -0.13736759068750409 0 -0.2867526655933279 -0.1255306518788101 0 -0.29634726323047522 -0.12774060725377789 0 -0.29566688275770492 -0.12360252405131909 0 -0.2867526655933279 -0.1255306518788101 0 -0.29634726323047522 -0.12774060725377789 0 -0.29566688275770492 -0.12360252405131909 0 -0.29634726323047522 -0.12774060725377789 0 -0.27599188067387642 -0.15275947598951209 0 -0.28115208455361612 -0.13736759068750409 0 -0.28745248247897481 -0.15375930745798691 0 -0.30180368428818732 -0.16092663364353221 0 -0.28745248247897481 -0.15375930745798691 0 -0.29859800288209293 -0.1414296361400906 0 -0.28115208455361612 -0.13736759068750409 0 -0.28745248247897481 -0.15375930745798691 0 -0.29859800288209293 -0.1414296361400906 0 -0.30180368428818732 -0.16092663364353221 0 -0.29859800288209293 -0.1414296361400906 0 -0.31318380971752291 -0.1568254476793759 0 -0.29859800288209293 -0.1414296361400906 0 -0.31806686715807531 -0.14596269711803661 0 -0.29859800288209293 -0.1414296361400906 0 -0.31806686715807531 -0.14596269711803661 0 -0.31318380971752291 -0.1568254476793759 0 -0.30180368428818732 -0.16092663364353221 0 -0.29859800288209293 -0.1414296361400906 0 -0.29859800288209293 -0.1414296361400906 0 -0.31220072318521042 -0.1319900570544435 0 -0.31806686715807531 -0.14596269711803661 0 -0.29634726323047522 -0.12774060725377789 0 -0.29859800288209293 -0.1414296361400906 0 -0.31220072318521042 -0.1319900570544435 0 -0.29634726323047522 -0.12774060725377789 0 -0.29859800288209293 -0.1414296361400906 0 -0.32063296738022878 -0.1123542747533071 0 -0.31220072318521042 -0.1319900570544435 0 -0.32663105754698429 -0.1326895278805936 0 -0.31220072318521042 -0.1319900570544435 0 -0.32663105754698429 -0.1326895278805936 0 -0.31806686715807531 -0.14596269711803661 0 -0.31806686715807531 -0.14596269711803661 0 -0.33753573143405707 -0.15049575809598459 0 -0.31806686715807531 -0.14596269711803661 0 -0.32578788269758169 -0.15380960446084119 0 -0.33753573143405707 -0.15049575809598459 0 -0.32663105754698429 -0.1326895278805936 0 -0.31806686715807531 -0.14596269711803661 0 -0.33753573143405707 -0.15049575809598459 0 -0.31806686715807531 -0.14596269711803661 0 -0.32578788269758169 -0.15380960446084119 0 -0.31318380971752291 -0.1568254476793759 0 -0.32578788269758169 -0.15380960446084119 0 -0.33733743043350373 -0.1519334806429678 0 -0.33753573143405707 -0.15049575809598459 0 -0.32578788269758169 -0.15380960446084119 0 -0.33733743043350373 -0.1519334806429678 0 -0.32354860881437431 -0.1615663566863049 0 -0.33733743043350373 -0.1519334806429678 0 -0.33753573143405707 -0.15049575809598459 0 -0.34191276590683062 -0.1515148912044392 0 -0.33753573143405707 -0.15049575809598459 0 -0.34191276590683062 -0.1515148912044392 0 -0.33733743043350373 -0.1519334806429678 0 -0.33753573143405707 -0.15049575809598459 0 -0.33753573143405707 -0.15049575809598459 0 -0.34191276590683062 -0.1515148912044392 0 -0.34665248260882858 -0.13616200655165109 0 -0.34122720148201829 -0.1237318501744108 0 -0.32663105754698429 -0.1326895278805936 0 -0.33753573143405707 -0.15049575809598459 0 -0.34122720148201829 -0.1237318501744108 0 -0.33753573143405707 -0.15049575809598459 0 -0.34122720148201829 -0.1237318501744108 0 -0.33753573143405707 -0.15049575809598459 0 -0.34665248260882858 -0.13616200655165109 0 -0.35615663959531541 -0.11802001385421799 0 -0.34665248260882858 -0.13616200655165109 0 -0.3564300746259208 -0.1370475194292029 0 -0.35615663959531541 -0.11802001385421799 0 -0.3564300746259208 -0.1370475194292029 0 -0.35615663959531541 -0.11802001385421799 0 -0.3564300746259208 -0.1370475194292029 0 -0.3637671517752642 -0.1260612571391854 0 -0.34122720148201829 -0.1237318501744108 0 -0.35615663959531541 -0.11802001385421799 0 -0.34665248260882858 -0.13616200655165109 0 -0.36515874731498721 -0.12834887181203791 0 -0.37528549039322923 -0.1449960120138393 0 -0.3564300746259208 -0.1370475194292029 0 -0.36515874731498721 -0.12834887181203791 0 -0.3564300746259208 -0.1370475194292029 0 -0.36515874731498721 -0.12834887181203791 0 -0.37528549039322923 -0.1449960120138393 0 -0.3564300746259208 -0.1370475194292029 0 -0.3637671517752642 -0.1260612571391854 0 -0.36515874731498721 -0.12834887181203791 0 -0.36515874731498721 -0.12834887181203791 0 -0.37528549039322923 -0.1449960120138393 0 -0.37846185340904842 -0.13460212654896381 0 -0.3637671517752642 -0.1260612571391854 0 -0.36515874731498721 -0.12834887181203791 0 -0.37446835130961909 -0.1190712911890162 0 -0.36515874731498721 -0.12834887181203791 0 -0.37846185340904842 -0.13460212654896381 0 -0.35668741385592662 -0.15495496758134419 0 -0.38541223347147141 -0.16164315221564071 0 -0.37528549039322923 -0.1449960120138393 0 -0.3564300746259208 -0.1370475194292029 0 -0.35668741385592662 -0.15495496758134419 0 -0.37528549039322923 -0.1449960120138393 0 -0.3564300746259208 -0.1370475194292029 0 -0.35668741385592662 -0.15495496758134419 0 -0.34191276590683062 -0.1515148912044392 0 -0.3564300746259208 -0.1370475194292029 0 -0.35668741385592662 -0.15495496758134419 0 -0.34191276590683062 -0.1515148912044392 0 -0.3564300746259208 -0.1370475194292029 0 -0.34191276590683062 -0.1515148912044392 0 -0.34665248260882858 -0.13616200655165109 0 -0.3564300746259208 -0.1370475194292029 0 -0.34191276590683062 -0.1515148912044392 0 -0.35668741385592662 -0.15495496758134419 0 -0.34191276590683062 -0.1515148912044392 0 -0.35668741385592662 -0.15495496758134419 0 -0.34739710302741139 -0.16215146572485931 0 -0.35668741385592662 -0.15495496758134419 0 -0.34739710302741139 -0.16215146572485931 0 -0.35692693391199132 -0.171622434043435 0 -0.35668741385592662 -0.15495496758134419 0 -0.35692693391199132 -0.171622434043435 0 -0.34739710302741139 -0.16215146572485931 0 -0.35692693391199132 -0.171622434043435 0 -0.34772862848711389 -0.17366744123063799 0 -0.34739710302741139 -0.16215146572485931 0 -0.34772862848711389 -0.17366744123063799 0 -0.33886744987387152 -0.1668408518138752 0 -0.35668741385592662 -0.15495496758134419 0 -0.38541223347147141 -0.16164315221564071 0 -0.35668741385592662 -0.15495496758134419 0 -0.35692693391199132 -0.171622434043435 0 -0.38541223347147141 -0.16164315221564071 0 -0.35692693391199132 -0.171622434043435 0 -0.37332338635268508 -0.17831024631329251 0 -0.38541223347147141 -0.16164315221564071 0 -0.37332338635268508 -0.17831024631329251 0 -0.35691025651573999 -0.18844814601390611 0 -0.35977028446242493 -0.18987651093178501 0 -0.37332338635268508 -0.17831024631329251 0 -0.35691025651573999 -0.18844814601390611 0 -0.35692693391199132 -0.171622434043435 0 -0.37332338635268508 -0.17831024631329251 0 -0.35691025651573999 -0.18844814601390611 0 -0.37332338635268508 -0.17831024631329251 0 -0.36992062117441488 -0.19019085015314671 0 -0.37854345557504288 -0.1905265959620572 0 -0.37332338635268508 -0.17831024631329251 0 -0.35977028446242493 -0.18987651093178501 0 -0.36992062117441488 -0.19019085015314671 0 -0.35692693391199132 -0.171622434043435 0 -0.35691025651573999 -0.18844814601390611 0 -0.33854139910655578 -0.17927430855711479 0 -0.35016459356534502 -0.19261474038588841 0 -0.35691025651573999 -0.18844814601390611 0 -0.34772862848711389 -0.17366744123063799 0 -0.33854139910655578 -0.17927430855711479 0 -0.35691025651573999 -0.18844814601390611 0 -0.35692693391199132 -0.171622434043435 0 -0.34772862848711389 -0.17366744123063799 0 -0.35691025651573999 -0.18844814601390611 0 -0.33854139910655578 -0.17927430855711479 0 -0.35691025651573999 -0.18844814601390611 0 -0.33854139910655578 -0.17927430855711479 0 -0.33886744987387152 -0.1668408518138752 0 -0.32272744766514111 -0.170634215384944 0 -0.33854139910655578 -0.17927430855711479 0 -0.32017254169737208 -0.17010047110032239 0 -0.33854139910655578 -0.17927430855711479 0 -0.32461123580212942 -0.18536235847152899 0 -0.33633353156934143 -0.1911820373907567 0 -0.34772862848711389 -0.17366744123063799 0 -0.33854139910655578 -0.17927430855711479 0 -0.33886744987387152 -0.1668408518138752 0 -0.34191276590683062 -0.1515148912044392 0 -0.33886744987387152 -0.1668408518138752 0 -0.32272744766514111 -0.170634215384944 0 -0.34191276590683062 -0.1515148912044392 0 -0.32272744766514111 -0.170634215384944 0 -0.33733743043350373 -0.1519334806429678 0 -0.34191276590683062 -0.1515148912044392 0 -0.32272744766514111 -0.170634215384944 0 -0.34191276590683062 -0.1515148912044392 0 -0.34739710302741139 -0.16215146572485931 0 -0.33886744987387152 -0.1668408518138752 0 -0.33733743043350373 -0.1519334806429678 0 -0.32272744766514111 -0.170634215384944 0 -0.32354860881437431 -0.1615663566863049 0 -0.32272744766514111 -0.170634215384944 0 -0.32354860881437431 -0.1615663566863049 0 -0.32017254169737208 -0.17010047110032239 0 -0.32578788269758169 -0.15380960446084119 0 -0.32354860881437431 -0.1615663566863049 0 -0.31318380971752291 -0.1568254476793759 0 -0.32354860881437431 -0.1615663566863049 0 -0.31318380971752291 -0.1568254476793759 0 -0.32017254169737208 -0.17010047110032239 0 -0.33854139910655578 -0.17927430855711479 0 -0.32017254169737208 -0.17010047110032239 0 -0.32461123580212942 -0.18536235847152899 0 -0.33854139910655578 -0.17927430855711479 0 -0.32272744766514111 -0.170634215384944 0 -0.32017254169737208 -0.17010047110032239 0 -0.30560043623471572 -0.18401853013763611 0 -0.32017254169737208 -0.17010047110032239 0 -0.32461123580212942 -0.18536235847152899 0 -0.30560043623471572 -0.18401853013763611 0 -0.31871604460186748 -0.19321143368735541 0 -0.31376517377250662 -0.20022592453955329 0 -0.30560043623471572 -0.18401853013763611 0 -0.32461123580212942 -0.18536235847152899 0 -0.31871604460186748 -0.19321143368735541 0 -0.32326530528390879 -0.2014012960001843 0 -0.32654492721683082 -0.19481546314326151 0 -0.33273751894001308 -0.19960125614382099 0 -0.32326530528390879 -0.2014012960001843 0 -0.32654492721683082 -0.19481546314326151 0 -0.31871604460186748 -0.19321143368735541 0 -0.32461123580212942 -0.18536235847152899 0 -0.32654492721683082 -0.19481546314326151 0 -0.31871604460186748 -0.19321143368735541 0 -0.32326530528390879 -0.2014012960001843 0 -0.31871604460186748 -0.19321143368735541 0 -0.31376517377250662 -0.20022592453955329 0 -0.32326530528390879 -0.2014012960001843 0 -0.31376517377250662 -0.20022592453955329 0 -0.31778984107301977 -0.20667676158269199 0 -0.31234393222515783 -0.22503256360959481 0 -0.30939718818124612 -0.2071104266317397 0 -0.31778984107301977 -0.20667676158269199 0 -0.30939718818124612 -0.2071104266317397 0 -0.31376517377250662 -0.20022592453955329 0 -0.31778984107301977 -0.20667676158269199 0 -0.31234393222515783 -0.22503256360959481 0 -0.31778984107301977 -0.20667676158269199 0 -0.32466484193892498 -0.21282343509709409 0 -0.32326530528390879 -0.2014012960001843 0 -0.31778984107301977 -0.20667676158269199 0 -0.32466484193892498 -0.21282343509709409 0 -0.32326530528390879 -0.2014012960001843 0 -0.32466484193892498 -0.21282343509709409 0 -0.3295619897284548 -0.2056631043537778 0 -0.3295619897284548 -0.2056631043537778 0 -0.33750254042044592 -0.2159347274252166 0 -0.33731922585860219 -0.20627148423756009 0 -0.3295619897284548 -0.2056631043537778 0 -0.33731922585860219 -0.20627148423756009 0 -0.33273751894001308 -0.19960125614382099 0 -0.32466484193892498 -0.21282343509709409 0 -0.33750254042044592 -0.2159347274252166 0 -0.32924231831849943 -0.22327066548083091 0 -0.32466484193892498 -0.21282343509709409 0 -0.3295619897284548 -0.2056631043537778 0 -0.33750254042044592 -0.2159347274252166 0 -0.33731922585860219 -0.20627148423756009 0 -0.34240475996574032 -0.1988967871362638 0 -0.3451619797206924 -0.21032490077113361 0 -0.33750254042044592 -0.2159347274252166 0 -0.33731922585860219 -0.20627148423756009 0 -0.3451619797206924 -0.21032490077113361 0 -0.34240475996574032 -0.1988967871362638 0 -0.33273751894001308 -0.19960125614382099 0 -0.33633353156934143 -0.1911820373907567 0 -0.33731922585860219 -0.20627148423756009 0 -0.34240475996574032 -0.1988967871362638 0 -0.33273751894001308 -0.19960125614382099 0 -0.32326530528390879 -0.2014012960001843 0 -0.3295619897284548 -0.2056631043537778 0 -0.33273751894001308 -0.19960125614382099 0 -0.32461123580212942 -0.18536235847152899 0 -0.32654492721683082 -0.19481546314326151 0 -0.33633353156934143 -0.1911820373907567 0 -0.32654492721683082 -0.19481546314326151 0 -0.33273751894001308 -0.19960125614382099 0 -0.33633353156934143 -0.1911820373907567 0 -0.33854139910655578 -0.17927430855711479 0 -0.33633353156934143 -0.1911820373907567 0 -0.35016459356534502 -0.19261474038588841 0 -0.34240475996574032 -0.1988967871362638 0 -0.33633353156934143 -0.1911820373907567 0 -0.35016459356534502 -0.19261474038588841 0 -0.34240475996574032 -0.1988967871362638 0 -0.34911187141308392 -0.1985122133748656 0 -0.35034062549283951 -0.20403806271291169 0 -0.34240475996574032 -0.1988967871362638 0 -0.35016459356534502 -0.19261474038588841 0 -0.34911187141308392 -0.1985122133748656 0 -0.35016459356534502 -0.19261474038588841 0 -0.34911187141308392 -0.1985122133748656 0 -0.35353750662841071 -0.19849926326439871 0 -0.34911187141308392 -0.1985122133748656 0 -0.35353750662841071 -0.19849926326439871 0 -0.35034062549283951 -0.20403806271291169 0 -0.35353750662841071 -0.19849926326439871 0 -0.35654254196950458 -0.20364953100732361 0 -0.35034062549283951 -0.20403806271291169 0 -0.35661689634176252 -0.19444235418781941 0 -0.36000876332041959 -0.19440477349139951 0 -0.35985492173771899 -0.19865080201936239 0 -0.35353750662841071 -0.19849926326439871 0 -0.35661689634176252 -0.19444235418781941 0 -0.35985492173771899 -0.19865080201936239 0 -0.35353750662841071 -0.19849926326439871 0 -0.35985492173771899 -0.19865080201936239 0 -0.35654254196950458 -0.20364953100732361 0 -0.35016459356534502 -0.19261474038588841 0 -0.35719899109012332 -0.19055405908859599 0 -0.35691025651573999 -0.18844814601390611 0 -0.35016459356534502 -0.19261474038588841 0 -0.35691025651573999 -0.18844814601390611 0 -0.35016459356534502 -0.19261474038588841 0 -0.35353750662841071 -0.19849926326439871 0 -0.35661689634176252 -0.19444235418781941 0 -0.35016459356534502 -0.19261474038588841 0 -0.35661689634176252 -0.19444235418781941 0 -0.35719899109012332 -0.19055405908859599 0 -0.35661689634176252 -0.19444235418781941 0 -0.35926569886762671 -0.19226508861895139 0 -0.36000876332041959 -0.19440477349139951 0 -0.35661689634176252 -0.19444235418781941 0 -0.35926569886762671 -0.19226508861895139 0 -0.35719899109012332 -0.19055405908859599 0 -0.35926569886762671 -0.19226508861895139 0 -0.35719899109012332 -0.19055405908859599 0 -0.35977028446242493 -0.18987651093178501 0 -0.35719899109012332 -0.19055405908859599 0 -0.35691025651573999 -0.18844814601390611 0 -0.35977028446242493 -0.18987651093178501 0 -0.35719899109012332 -0.19055405908859599 0 -0.35691025651573999 -0.18844814601390611 0 -0.35691025651573999 -0.18844814601390611 0 -0.35977028446242493 -0.18987651093178501 0 -0.35977028446242493 -0.18987651093178501 0 -0.36339175344154112 -0.19271694887851709 0 -0.36992062117441488 -0.19019085015314671 0 -0.36339175344154112 -0.19271694887851709 0 -0.36347931666782418 -0.19557882604094151 0 -0.36823493331560581 -0.1943202457765589 0 -0.36339175344154112 -0.19271694887851709 0 -0.36000876332041959 -0.19440477349139951 0 -0.36347931666782418 -0.19557882604094151 0 -0.35926569886762671 -0.19226508861895139 0 -0.36339175344154112 -0.19271694887851709 0 -0.36000876332041959 -0.19440477349139951 0 -0.35926569886762671 -0.19226508861895139 0 -0.35977028446242493 -0.18987651093178501 0 -0.36339175344154112 -0.19271694887851709 0 -0.36000876332041959 -0.19440477349139951 0 -0.35985492173771899 -0.19865080201936239 0 -0.36347931666782418 -0.19557882604094151 0 -0.35985492173771899 -0.19865080201936239 0 -0.36187873621008743 -0.2055047669660276 0 -0.35654254196950458 -0.20364953100732361 0 -0.35985492173771899 -0.19865080201936239 0 -0.36760251540788841 -0.20154590335683581 0 -0.36187873621008743 -0.2055047669660276 0 -0.35985492173771899 -0.19865080201936239 0 -0.36347931666782418 -0.19557882604094151 0 -0.36760251540788841 -0.20154590335683581 0 -0.36347931666782418 -0.19557882604094151 0 -0.36760251540788841 -0.20154590335683581 0 -0.36823493331560581 -0.1943202457765589 0 -0.36760251540788841 -0.20154590335683581 0 -0.36823493331560581 -0.1943202457765589 0 -0.37504253256815029 -0.1965843699532486 0 -0.36760251540788841 -0.20154590335683581 0 -0.37710548144123213 -0.20982693797764149 0 -0.37504253256815029 -0.1965843699532486 0 -0.36992062117441488 -0.19019085015314671 0 -0.37854345557504288 -0.1905265959620572 0 -0.37504253256815029 -0.1965843699532486 0 -0.36339175344154112 -0.19271694887851709 0 -0.36992062117441488 -0.19019085015314671 0 -0.36823493331560581 -0.1943202457765589 0 -0.36992062117441488 -0.19019085015314671 0 -0.36823493331560581 -0.1943202457765589 0 -0.37504253256815029 -0.1965843699532486 0 -0.36665986171497328 -0.2110321626386498 0 -0.36690705876439161 -0.22217834925555879 0 -0.37710548144123213 -0.20982693797764149 0 -0.36760251540788841 -0.20154590335683581 0 -0.36665986171497328 -0.2110321626386498 0 -0.37710548144123213 -0.20982693797764149 0 -0.36187873621008743 -0.2055047669660276 0 -0.36665986171497328 -0.2110321626386498 0 -0.35682036025073921 -0.2115876681125089 0 -0.36760251540788841 -0.20154590335683581 0 -0.36187873621008743 -0.2055047669660276 0 -0.36665986171497328 -0.2110321626386498 0 -0.36665986171497328 -0.2110321626386498 0 -0.35682036025073921 -0.2115876681125089 0 -0.36690705876439161 -0.22217834925555879 0 -0.35682036025073921 -0.2115876681125089 0 -0.35103488495404012 -0.21982559774263449 0 -0.36690705876439161 -0.22217834925555879 0 -0.36187873621008743 -0.2055047669660276 0 -0.35682036025073921 -0.2115876681125089 0 -0.35654254196950458 -0.20364953100732361 0 -0.35682036025073921 -0.2115876681125089 0 -0.35654254196950458 -0.20364953100732361 0 -0.35034062549283951 -0.20403806271291169 0 -0.35682036025073921 -0.2115876681125089 0 -0.3451619797206924 -0.21032490077113361 0 -0.35034062549283951 -0.20403806271291169 0 -0.34240475996574032 -0.1988967871362638 0 -0.3451619797206924 -0.21032490077113361 0 -0.35034062549283951 -0.20403806271291169 0 -0.33750254042044592 -0.2159347274252166 0 -0.3451619797206924 -0.21032490077113361 0 -0.35103488495404012 -0.21982559774263449 0 -0.35682036025073921 -0.2115876681125089 0 -0.3451619797206924 -0.21032490077113361 0 -0.35103488495404012 -0.21982559774263449 0 -0.35103488495404012 -0.21982559774263449 0 -0.35811506254885389 -0.23021829818560119 0 -0.34280771584388481 -0.2273809804201537 0 -0.33750254042044592 -0.2159347274252166 0 -0.35103488495404012 -0.21982559774263449 0 -0.34280771584388481 -0.2273809804201537 0 -0.35103488495404012 -0.21982559774263449 0 -0.35811506254885389 -0.23021829818560119 0 -0.36690705876439161 -0.22217834925555879 0 -0.35811506254885389 -0.23021829818560119 0 -0.34882924485425448 -0.23768245024691359 0 -0.34280771584388481 -0.2273809804201537 0 -0.35811506254885389 -0.23021829818560119 0 -0.36690705876439161 -0.22217834925555879 0 -0.3689443854345229 -0.2416094576424957 0 -0.36690705876439161 -0.22217834925555879 0 -0.3689443854345229 -0.2416094576424957 0 -0.38156329505330949 -0.2243542697352347 0 -0.34616816808376821 -0.25207713586638669 0 -0.3689443854345229 -0.2416094576424957 0 -0.34882924485425448 -0.23768245024691359 0 -0.35811506254885389 -0.23021829818560119 0 -0.3689443854345229 -0.2416094576424957 0 -0.34882924485425448 -0.23768245024691359 0 -0.33168645956306869 -0.2542145225846455 0 -0.34616816808376821 -0.25207713586638669 0 -0.33212224396721529 -0.2373541434397253 0 -0.34616816808376821 -0.25207713586638669 0 -0.34882924485425448 -0.23768245024691359 0 -0.33212224396721529 -0.2373541434397253 0 -0.34882924485425448 -0.23768245024691359 0 -0.33212224396721529 -0.2373541434397253 0 -0.34280771584388481 -0.2273809804201537 0 -0.33750254042044592 -0.2159347274252166 0 -0.34280771584388481 -0.2273809804201537 0 -0.32924231831849943 -0.22327066548083091 0 -0.33212224396721529 -0.2373541434397253 0 -0.34280771584388481 -0.2273809804201537 0 -0.32924231831849943 -0.22327066548083091 0 -0.31234393222515783 -0.22503256360959481 0 -0.31529067626906931 -0.24295470058744989 0 -0.31234393222515783 -0.22503256360959481 0 -0.33212224396721529 -0.2373541434397253 0 -0.32924231831849943 -0.22327066548083091 0 -0.31234393222515783 -0.22503256360959481 0 -0.32466484193892498 -0.21282343509709409 0 -0.32924231831849943 -0.22327066548083091 0 -0.33168645956306869 -0.2542145225846455 0 -0.31562540891235408 -0.24499054903389081 0 -0.31529067626906931 -0.24295470058744989 0 -0.33168645956306869 -0.2542145225846455 0 -0.31529067626906931 -0.24295470058744989 0 -0.33168645956306869 -0.2542145225846455 0 -0.33212224396721529 -0.2373541434397253 0 -0.31529067626906931 -0.24295470058744989 0 -0.31234393222515783 -0.22503256360959481 0 -0.33212224396721529 -0.2373541434397253 0 -0.31529067626906931 -0.24295470058744989 0 -0.33168645956306869 -0.2542145225846455 0 -0.31562540891235408 -0.24499054903389081 0 -0.31562540891235408 -0.24499054903389081 0 -0.31529067626906931 -0.24295470058744989 0 -0.44077913706085309 -0.25265964186792861 0 -0.42736086759810438 -0.23060163059163041 0 -0.44022348047835519 -0.2423530460955565 0 -0.44077913706085309 -0.25265964186792861 0 -0.42228007360992031 -0.24400999108587701 0 -0.42736086759810438 -0.23060163059163041 0 -0.44077913706085309 -0.25265964186792861 0 -0.42736086759810438 -0.23060163059163041 0 -0.42228007360992031 -0.24400999108587701 0 -0.42736086759810438 -0.23060163059163041 0 -0.41603051253650869 -0.24036420679564921 0 -0.42228007360992031 -0.24400999108587701 0 -0.42736086759810438 -0.23060163059163041 0 -0.42736086759810438 -0.23060163059163041 0 -0.43842836541689251 -0.2360538851166937 0 -0.44022348047835519 -0.2423530460955565 0 -0.42736086759810438 -0.23060163059163041 0 -0.43489803334774008 -0.2107108348398376 0 -0.42736086759810438 -0.23060163059163041 0 -0.4373516967015787 -0.21388589486958451 0 -0.43484168810467078 -0.22520862762548891 0 -0.42736086759810438 -0.23060163059163041 0 -0.4373516967015787 -0.21388589486958451 0 -0.43601009865010448 -0.23073475532807661 0 -0.43484168810467078 -0.22520862762548891 0 -0.42736086759810438 -0.23060163059163041 0 -0.43601009865010448 -0.23073475532807661 0 -0.42736086759810438 -0.23060163059163041 0 -0.43842836541689251 -0.2360538851166937 0 -0.43601009865010448 -0.23073475532807661 0 -0.43484168810467078 -0.22520862762548891 0 -0.43837374922590272 -0.2256525351467418 0 -0.43484168810467078 -0.22520862762548891 0 -0.4373516967015787 -0.21388589486958451 0 -0.43837374922590272 -0.2256525351467418 0 -0.42736086759810438 -0.23060163059163041 0 -0.4137943981515152 -0.20829999647532579 0 -0.41603051253650869 -0.24036420679564921 0 -0.39739763337210943 -0.23501061977264379 0 -0.41031953365521329 -0.21396061293343269 0 -0.41603051253650869 -0.24036420679564921 0 -0.41031953365521329 -0.21396061293343269 0 -0.42736086759810438 -0.23060163059163041 0 -0.41603051253650869 -0.24036420679564921 0 -0.41031953365521329 -0.21396061293343269 0 -0.40190870609421009 -0.25449723798200929 0 -0.41603051253650869 -0.24036420679564921 0 -0.39739763337210943 -0.23501061977264379 0 -0.38447573308900712 -0.25606062661185608 0 -0.39739763337210943 -0.23501061977264379 0 -0.38447573308900712 -0.25606062661185608 0 -0.40190870609421009 -0.25449723798200929 0 -0.39739763337210943 -0.23501061977264379 0 -0.38447573308900712 -0.25606062661185608 0 -0.3689443854345229 -0.2416094576424957 0 -0.39739763337210943 -0.23501061977264379 0 -0.3689443854345229 -0.2416094576424957 0 -0.39739763337210943 -0.23501061977264379 0 -0.38156329505330949 -0.2243542697352347 0 -0.36690705876439161 -0.22217834925555879 0 -0.38156329505330949 -0.2243542697352347 0 -0.37710548144123213 -0.20982693797764149 0 -0.39739763337210943 -0.23501061977264379 0 -0.38156329505330949 -0.2243542697352347 0 -0.39297621060536042 -0.21226177226555881 0 -0.39739763337210943 -0.23501061977264379 0 -0.41031953365521329 -0.21396061293343269 0 -0.39739763337210943 -0.23501061977264379 0 -0.39297621060536042 -0.21226177226555881 0 -0.41031953365521329 -0.21396061293343269 0 -0.40165510463213372 -0.2062184062256909 0 -0.39297621060536042 -0.21226177226555881 0 -0.41031953365521329 -0.21396061293343269 0 -0.40165510463213372 -0.2062184062256909 0 -0.40650239726254722 -0.1963128294056744 0 -0.41031953365521329 -0.21396061293343269 0 -0.39297621060536042 -0.21226177226555881 0 -0.38519646603041308 -0.1990041102365066 0 -0.39602523949119067 -0.19819637819966721 0 -0.40165510463213372 -0.2062184062256909 0 -0.39297621060536042 -0.21226177226555881 0 -0.39602523949119067 -0.19819637819966721 0 -0.38156329505330949 -0.2243542697352347 0 -0.39297621060536042 -0.21226177226555881 0 -0.37710548144123213 -0.20982693797764149 0 -0.39297621060536042 -0.21226177226555881 0 -0.37710548144123213 -0.20982693797764149 0 -0.38519646603041308 -0.1990041102365066 0 -0.37710548144123213 -0.20982693797764149 0 -0.37504253256815029 -0.1965843699532486 0 -0.38519646603041308 -0.1990041102365066 0 -0.37854345557504288 -0.1905265959620572 0 -0.37504253256815029 -0.1965843699532486 0 -0.38519646603041308 -0.1990041102365066 0 -0.37854345557504288 -0.1905265959620572 0 -0.38519646603041308 -0.1990041102365066 0 -0.38923427174955111 -0.1885434031540916 0 -0.38519646603041308 -0.1990041102365066 0 -0.38923427174955111 -0.1885434031540916 0 -0.39602523949119067 -0.19819637819966721 0 -0.38923427174955111 -0.1885434031540916 0 -0.39602523949119067 -0.19819637819966721 0 -0.40051686441961809 -0.18647333771037999 0 -0.38923427174955111 -0.1885434031540916 0 -0.40051686441961809 -0.18647333771037999 0 -0.40165510463213372 -0.2062184062256909 0 -0.39602523949119067 -0.19819637819966721 0 -0.40650239726254722 -0.1963128294056744 0 -0.40650239726254722 -0.1963128294056744 0 -0.40422692678988958 -0.18579263672866969 0 -0.39602523949119067 -0.19819637819966721 0 -0.40650239726254722 -0.1963128294056744 0 -0.40051686441961809 -0.18647333771037999 0 -0.40650239726254722 -0.1963128294056744 0 -0.40051686441961809 -0.18647333771037999 0 -0.40650239726254722 -0.1963128294056744 0 -0.40422692678988958 -0.18579263672866969 0 -0.40051686441961809 -0.18647333771037999 0 -0.4140580329532586 -0.19244493638747379 0 -0.40650239726254722 -0.1963128294056744 0 -0.4137943981515152 -0.20829999647532579 0 -0.4140580329532586 -0.19244493638747379 0 -0.4137943981515152 -0.20829999647532579 0 -0.42231209022185368 -0.19442452364186419 0 -0.4140580329532586 -0.19244493638747379 0 -0.40650239726254722 -0.1963128294056744 0 -0.40422692678988958 -0.18579263672866969 0 -0.4140580329532586 -0.19244493638747379 0 -0.42231209022185368 -0.19442452364186419 0 -0.41422397354014989 -0.1839584358829901 0 -0.42231209022185368 -0.19442452364186419 0 -0.41422397354014989 -0.1839584358829901 0 -0.4137943981515152 -0.20829999647532579 0 -0.42231209022185368 -0.19442452364186419 0 -0.40650239726254722 -0.1963128294056744 0 -0.4137943981515152 -0.20829999647532579 0 -0.42736086759810438 -0.23060163059163041 0 -0.4137943981515152 -0.20829999647532579 0 -0.41031953365521329 -0.21396061293343269 0 -0.40650239726254722 -0.1963128294056744 0 -0.4137943981515152 -0.20829999647532579 0 -0.41031953365521329 -0.21396061293343269 0 -0.40650239726254722 -0.1963128294056744 0 -0.41031953365521329 -0.21396061293343269 0 -0.4137943981515152 -0.20829999647532579 0 -0.41031953365521329 -0.21396061293343269 0 -0.4137943981515152 -0.20829999647532579 0 -0.43489803334774008 -0.2107108348398376 0 -0.42231209022185368 -0.19442452364186419 0 -0.42736086759810438 -0.23060163059163041 0 -0.4137943981515152 -0.20829999647532579 0 -0.43489803334774008 -0.2107108348398376 0 -0.42736086759810438 -0.23060163059163041 0 -0.4373516967015787 -0.21388589486958451 0 -0.43489803334774008 -0.2107108348398376 0 -0.4373516967015787 -0.21388589486958451 0 -0.43489803334774008 -0.2107108348398376 0 -0.42231209022185368 -0.19442452364186419 0 -0.43057891027166728 -0.18095772581997491 0 -0.44111772007090622 -0.19429690387956 0 -0.43489803334774008 -0.2107108348398376 0 -0.42231209022185368 -0.19442452364186419 0 -0.43489803334774008 -0.2107108348398376 0 -0.42231209022185368 -0.19442452364186419 0 -0.44111772007090622 -0.19429690387956 0 -0.42231209022185368 -0.19442452364186419 0 -0.43057891027166728 -0.18095772581997491 0 -0.43057891027166728 -0.18095772581997491 0 -0.41422397354014989 -0.1839584358829901 0 -0.43057891027166728 -0.18095772581997491 0 -0.42922682725352368 -0.171844786092304 0 -0.41422397354014989 -0.1839584358829901 0 -0.43057891027166728 -0.18095772581997491 0 -0.44140876524852229 -0.16331569822836481 0 -0.42231209022185368 -0.19442452364186419 0 -0.43057891027166728 -0.18095772581997491 0 -0.41422397354014989 -0.1839584358829901 0 -0.43057891027166728 -0.18095772581997491 0 -0.4309419184098367 -0.17224412180516829 0 -0.44140876524852229 -0.16331569822836481 0 -0.43057891027166728 -0.18095772581997491 0 -0.4309419184098367 -0.17224412180516829 0 -0.42922682725352368 -0.171844786092304 0 -0.4309419184098367 -0.17224412180516829 0 -0.42922682725352368 -0.171844786092304 0 -0.43314509164951948 -0.16422752876596811 0 -0.43203501857303628 -0.1466669632686152 0 -0.44140876524852229 -0.16331569822836481 0 -0.42595550280748851 -0.16005265768260021 0 -0.42922682725352368 -0.171844786092304 0 -0.41148048671939391 -0.15474174595858459 0 -0.4309419184098367 -0.17224412180516829 0 -0.43314509164951948 -0.16422752876596811 0 -0.42922682725352368 -0.171844786092304 0 -0.4309419184098367 -0.17224412180516829 0 -0.43314509164951948 -0.16422752876596811 0 -0.44140876524852229 -0.16331569822836481 0 -0.43314509164951948 -0.16422752876596811 0 -0.42595550280748851 -0.16005265768260021 0 -0.42505442157884721 -0.15402606797891441 0 -0.43314509164951948 -0.16422752876596811 0 -0.42595550280748851 -0.16005265768260021 0 -0.42922682725352368 -0.171844786092304 0 -0.42922682725352368 -0.171844786092304 0 -0.39972427730547622 -0.16497551749894099 0 -0.41148048671939391 -0.15474174595858459 0 -0.42922682725352368 -0.171844786092304 0 -0.41148048671939391 -0.15474174595858459 0 -0.42922682725352368 -0.171844786092304 0 -0.39972427730547622 -0.16497551749894099 0 -0.42922682725352368 -0.171844786092304 0 -0.40740510916547079 -0.1751347707740627 0 -0.39972427730547622 -0.16497551749894099 0 -0.42595550280748851 -0.16005265768260021 0 -0.41148048671939391 -0.15474174595858459 0 -0.42505442157884721 -0.15402606797891441 0 -0.40740510916547079 -0.1751347707740627 0 -0.41422397354014989 -0.1839584358829901 0 -0.42922682725352368 -0.171844786092304 0 -0.40740510916547079 -0.1751347707740627 0 -0.41422397354014989 -0.1839584358829901 0 -0.40740510916547079 -0.1751347707740627 0 -0.41422397354014989 -0.1839584358829901 0 -0.40422692678988958 -0.18579263672866969 0 -0.41422397354014989 -0.1839584358829901 0 -0.40422692678988958 -0.18579263672866969 0 -0.4140580329532586 -0.19244493638747379 0 -0.41422397354014989 -0.1839584358829901 0 -0.40422692678988958 -0.18579263672866969 0 -0.40051686441961809 -0.18647333771037999 0 -0.38948031873731331 -0.16833059212106191 0 -0.40740510916547079 -0.1751347707740627 0 -0.40422692678988958 -0.18579263672866969 0 -0.39972427730547622 -0.16497551749894099 0 -0.38923427174955111 -0.1885434031540916 0 -0.40051686441961809 -0.18647333771037999 0 -0.38948031873731331 -0.16833059212106191 0 -0.40422692678988958 -0.18579263672866969 0 -0.39972427730547622 -0.16497551749894099 0 -0.40051686441961809 -0.18647333771037999 0 -0.38948031873731331 -0.16833059212106191 0 -0.39972427730547622 -0.16497551749894099 0 -0.40422692678988958 -0.18579263672866969 0 -0.40051686441961809 -0.18647333771037999 0 -0.39972427730547622 -0.16497551749894099 0 -0.40422692678988958 -0.18579263672866969 0 -0.40051686441961809 -0.18647333771037999 0 -0.37332338635268508 -0.17831024631329251 0 -0.37854345557504288 -0.1905265959620572 0 -0.38923427174955111 -0.1885434031540916 0 -0.37332338635268508 -0.17831024631329251 0 -0.38948031873731331 -0.16833059212106191 0 -0.37332338635268508 -0.17831024631329251 0 -0.38923427174955111 -0.1885434031540916 0 -0.38948031873731331 -0.16833059212106191 0 -0.37332338635268508 -0.17831024631329251 0 -0.38948031873731331 -0.16833059212106191 0 -0.38541223347147141 -0.16164315221564071 0 -0.38948031873731331 -0.16833059212106191 0 -0.38541223347147141 -0.16164315221564071 0 -0.39622952185458249 -0.1641618110938147 0 -0.38948031873731331 -0.16833059212106191 0 -0.38541223347147141 -0.16164315221564071 0 -0.38541223347147141 -0.16164315221564071 0 -0.39271177990959588 -0.156857957040483 0 -0.39622952185458249 -0.1641618110938147 0 -0.38541223347147141 -0.16164315221564071 0 -0.39622952185458249 -0.1641618110938147 0 -0.39271177990959588 -0.156857957040483 0 -0.39622952185458249 -0.1641618110938147 0 -0.39915714759055743 -0.16235350418543859 0 -0.39622952185458249 -0.1641618110938147 0 -0.39972427730547622 -0.16497551749894099 0 -0.39915714759055743 -0.16235350418543859 0 -0.39622952185458249 -0.1641618110938147 0 -0.39915714759055743 -0.16235350418543859 0 -0.38948031873731331 -0.16833059212106191 0 -0.39622952185458249 -0.1641618110938147 0 -0.39972427730547622 -0.16497551749894099 0 -0.38948031873731331 -0.16833059212106191 0 -0.39622952185458249 -0.1641618110938147 0 -0.39622952185458249 -0.1641618110938147 0 -0.39972427730547622 -0.16497551749894099 0 -0.39972427730547622 -0.16497551749894099 0 -0.39915714759055743 -0.16235350418543859 0 -0.41148048671939391 -0.15474174595858459 0 -0.39915714759055743 -0.16235350418543859 0 -0.41148048671939391 -0.15474174595858459 0 -0.39972427730547622 -0.16497551749894099 0 -0.39915714759055743 -0.16235350418543859 0 -0.39297441901450642 -0.13690651857380051 0 -0.41148048671939391 -0.15474174595858459 0 -0.39915714759055743 -0.16235350418543859 0 -0.39612006169404052 -0.14831213155858591 0 -0.41148048671939391 -0.15474174595858459 0 -0.39612006169404052 -0.14831213155858591 0 -0.39297441901450642 -0.13690651857380051 0 -0.41148048671939391 -0.15474174595858459 0 -0.39297441901450642 -0.13690651857380051 0 -0.4079994844475347 -0.13860737181033189 0 -0.41148048671939391 -0.15474174595858459 0 -0.39612006169404052 -0.14831213155858591 0 -0.38682763964864841 -0.14721964965855219 0 -0.39297441901450642 -0.13690651857380051 0 -0.39915714759055743 -0.16235350418543859 0 -0.39612006169404052 -0.14831213155858591 0 -0.39271177990959588 -0.156857957040483 0 -0.39915714759055743 -0.16235350418543859 0 -0.39612006169404052 -0.14831213155858591 0 -0.39271177990959588 -0.156857957040483 0 -0.39612006169404052 -0.14831213155858591 0 -0.38682763964864841 -0.14721964965855219 0 -0.38541223347147141 -0.16164315221564071 0 -0.37528549039322923 -0.1449960120138393 0 -0.38541223347147141 -0.16164315221564071 0 -0.38682763964864841 -0.14721964965855219 0 -0.37528549039322923 -0.1449960120138393 0 -0.38541223347147141 -0.16164315221564071 0 -0.39271177990959588 -0.156857957040483 0 -0.38682763964864841 -0.14721964965855219 0 -0.38682763964864841 -0.14721964965855219 0 -0.37528549039322923 -0.1449960120138393 0 -0.37846185340904842 -0.13460212654896381 0 -0.37446835130961909 -0.1190712911890162 0 -0.39297441901450642 -0.13690651857380051 0 -0.39717979884675048 -0.1195153947443312 0 -0.37446835130961909 -0.1190712911890162 0 -0.39297441901450642 -0.13690651857380051 0 -0.37446835130961909 -0.1190712911890162 0 -0.37846185340904842 -0.13460212654896381 0 -0.39297441901450642 -0.13690651857380051 0 -0.38682763964864841 -0.14721964965855219 0 -0.37846185340904842 -0.13460212654896381 0 -0.39297441901450642 -0.13690651857380051 0 -0.39297441901450642 -0.13690651857380051 0 -0.4079994844475347 -0.13860737181033189 0 -0.39717979884675048 -0.1195153947443312 0 -0.4079994844475347 -0.13860737181033189 0 -0.42099081209764982 -0.14886750224256121 0 -0.4175250693695744 -0.1208958061282376 0 -0.4079994844475347 -0.13860737181033189 0 -0.39717979884675048 -0.1195153947443312 0 -0.4175250693695744 -0.1208958061282376 0 -0.4079994844475347 -0.13860737181033189 0 -0.41148048671939391 -0.15474174595858459 0 -0.42099081209764982 -0.14886750224256121 0 -0.41148048671939391 -0.15474174595858459 0 -0.42099081209764982 -0.14886750224256121 0 -0.41148048671939391 -0.15474174595858459 0 -0.42099081209764982 -0.14886750224256121 0 -0.42505442157884721 -0.15402606797891441 0 -0.43203501857303628 -0.1466669632686152 0 -0.44140876524852229 -0.16331569822836481 0 -0.43314509164951948 -0.16422752876596811 0 -0.42890364790961721 -0.14817560853228609 0 -0.42505442157884721 -0.15402606797891441 0 -0.43314509164951948 -0.16422752876596811 0 -0.42890364790961721 -0.14817560853228609 0 -0.43203501857303628 -0.1466669632686152 0 -0.42099081209764982 -0.14886750224256121 0 -0.42890364790961721 -0.14817560853228609 0 -0.42505442157884721 -0.15402606797891441 0 -0.42890364790961721 -0.14817560853228609 0 -0.43203501857303628 -0.1466669632686152 0 -0.43203501857303628 -0.1466669632686152 0 -0.4175250693695744 -0.1208958061282376 0 -0.43203501857303628 -0.1466669632686152 0 -0.4175250693695744 -0.1208958061282376 0 -0.44270194581816669 -0.1237995845843381 0 -0.42099081209764982 -0.14886750224256121 0 -0.42890364790961721 -0.14817560853228609 0 -0.4175250693695744 -0.1208958061282376 0 -0.42890364790961721 -0.14817560853228609 0 -0.43203501857303628 -0.1466669632686152 0 -0.4175250693695744 -0.1208958061282376 0 -0.43203501857303628 -0.1466669632686152 0 -0.44594619432605948 -0.13996477701610199 0 -0.44270194581816669 -0.1237995845843381 0 -0.44594619432605948 -0.13996477701610199 0 -0.45985737007908289 -0.1332625907635894 0 -0.44270194581816669 -0.1237995845843381 0 -0.44594619432605948 -0.13996477701610199 0 -0.45063306766380401 -0.14828914449597791 0 -0.45985737007908289 -0.1332625907635894 0 -0.44594619432605948 -0.13996477701610199 0 -0.45985737007908289 -0.1332625907635894 0 -0.43203501857303628 -0.1466669632686152 0 -0.44172810830543269 -0.14861418840754839 0 -0.44140876524852229 -0.16331569822836481 0 -0.43203501857303628 -0.1466669632686152 0 -0.44594619432605948 -0.13996477701610199 0 -0.44172810830543269 -0.14861418840754839 0 -0.43203501857303628 -0.1466669632686152 0 -0.44594619432605948 -0.13996477701610199 0 -0.44172810830543269 -0.14861418840754839 0 -0.45063306766380401 -0.14828914449597791 0 -0.44140876524852229 -0.16331569822836481 0 -0.45063306766380401 -0.14828914449597791 0 -0.44140876524852229 -0.16331569822836481 0 -0.45063306766380401 -0.14828914449597791 0 -0.45673855453176587 -0.15307307544661489 0 -0.44140876524852229 -0.16331569822836481 0 -0.44594619432605948 -0.13996477701610199 0 -0.44172810830543269 -0.14861418840754839 0 -0.45063306766380401 -0.14828914449597791 0 -0.45063306766380401 -0.14828914449597791 0 -0.45985737007908289 -0.1332625907635894 0 -0.45063306766380401 -0.14828914449597791 0 -0.45673855453176587 -0.15307307544661489 0 -0.45985737007908289 -0.1332625907635894 0 -0.45673855453176587 -0.15307307544661489 0 -0.46682999009711768 -0.15073376937958241 0 -0.46522525612599441 -0.1306764274724784 0 -0.45673855453176587 -0.15307307544661489 0 -0.46522525612599441 -0.1306764274724784 0 -0.45673855453176587 -0.15307307544661489 0 -0.46682999009711768 -0.15073376937958241 0 -0.46817728976359851 -0.1610048067299972 0 -0.45985737007908289 -0.1332625907635894 0 -0.44270194581816669 -0.1237995845843381 0 -0.45788115182577938 -0.11993283980912391 0 -0.45673855453176587 -0.15307307544661489 0 -0.45985737007908289 -0.1332625907635894 0 -0.46522525612599441 -0.1306764274724784 0 -0.45985737007908289 -0.1332625907635894 0 -0.46522525612599441 -0.1306764274724784 0 -0.47084733415767871 -0.1158396029228486 0 -0.45985737007908289 -0.1332625907635894 0 -0.46522525612599441 -0.1306764274724784 0 -0.46522525612599441 -0.1306764274724784 0 -0.47926957317607938 -0.1239100958316325 0 -0.46522525612599441 -0.1306764274724784 0 -0.47555414163115761 -0.14501006247650791 0 -0.47926957317607938 -0.1239100958316325 0 -0.48548478670023099 -0.14271227174620421 0 -0.47555414163115761 -0.14501006247650791 0 -0.47926957317607938 -0.1239100958316325 0 -0.50000000000000022 -0.1437747378006998 0 -0.48548478670023099 -0.14271227174620421 0 -0.47926957317607938 -0.1239100958316325 0 -0.50000000000000022 -0.1437747378006998 0 -0.47926957317607938 -0.1239100958316325 0 -0.50000000000000167 -0.1139225013870849 0 -0.50000000000000022 -0.1437747378006998 0 -0.47926957317607938 -0.1239100958316325 0 -0.50000000000000022 -0.1437747378006998 0 -0.48548478670023099 -0.14271227174620421 0 -0.48711543199368612 -0.15815419087597571 0 -0.47555414163115761 -0.14501006247650791 0 -0.48711543199368612 -0.15815419087597571 0 -0.46817728976359851 -0.1610048067299972 0 -0.46682999009711768 -0.15073376937958241 0 -0.47555414163115761 -0.14501006247650791 0 -0.46817728976359851 -0.1610048067299972 0 -0.46682999009711768 -0.15073376937958241 0 -0.46522525612599441 -0.1306764274724784 0 -0.47555414163115761 -0.14501006247650791 0 -0.48548478670023099 -0.14271227174620421 0 -0.47555414163115761 -0.14501006247650791 0 -0.48711543199368612 -0.15815419087597571 0 -0.47375146362347309 -0.1702915791018528 0 -0.48711543199368612 -0.15815419087597571 0 -0.48233363497072662 -0.17844164009879721 0 -0.47375146362347309 -0.1702915791018528 0 -0.48711543199368612 -0.15815419087597571 0 -0.46817728976359851 -0.1610048067299972 0 -0.50000000000000022 -0.1437747378006998 0 -0.5 -0.16805839682296839 0 -0.48711543199368612 -0.15815419087597571 0 -0.5 -0.16805839682296839 0 -0.48711543199368612 -0.15815419087597571 0 -0.48233363497072662 -0.17844164009879721 0 -0.48711543199368612 -0.15815419087597571 0 -0.48233363497072662 -0.17844164009879721 0 -0.5 -0.16805839682296839 0 -0.48233363497072662 -0.17844164009879721 0 -0.5 -0.19234205584523709 0 -0.48233363497072662 -0.17844164009879721 0 -0.47150950157309179 -0.1814829416590025 0 -0.47755183794776718 -0.19872908932161881 0 -0.47375146362347309 -0.1702915791018528 0 -0.47150950157309179 -0.1814829416590025 0 -0.46421955343776738 -0.17478553340296529 0 -0.47375146362347309 -0.1702915791018528 0 -0.48233363497072662 -0.17844164009879721 0 -0.47150950157309179 -0.1814829416590025 0 -0.47150950157309179 -0.1814829416590025 0 -0.46328121282885232 -0.1816938166781841 0 -0.46613699333081049 -0.1897092416762754 0 -0.46328121282885232 -0.1816938166781841 0 -0.45389885019697862 -0.1854993694039119 0 -0.46613699333081049 -0.1897092416762754 0 -0.46328121282885232 -0.1816938166781841 0 -0.45389885019697862 -0.1854993694039119 0 -0.45965612491054098 -0.1756228051165952 0 -0.45389885019697862 -0.1854993694039119 0 -0.45965612491054098 -0.1756228051165952 0 -0.45389885019697862 -0.1854993694039119 0 -0.45965612491054098 -0.1756228051165952 0 -0.44939774943386501 -0.1775049530593493 0 -0.45965612491054098 -0.1756228051165952 0 -0.44939774943386501 -0.1775049530593493 0 -0.47150950157309179 -0.1814829416590025 0 -0.46328121282885232 -0.1816938166781841 0 -0.46421955343776738 -0.17478553340296529 0 -0.45965612491054098 -0.1756228051165952 0 -0.46421955343776738 -0.17478553340296529 0 -0.46328121282885232 -0.1816938166781841 0 -0.45965612491054098 -0.1756228051165952 0 -0.46421955343776738 -0.17478553340296529 0 -0.45965612491054098 -0.1756228051165952 0 -0.46421955343776738 -0.17478553340296529 0 -0.46817728976359851 -0.1610048067299972 0 -0.45965612491054098 -0.1756228051165952 0 -0.46817728976359851 -0.1610048067299972 0 -0.45673855453176587 -0.15307307544661489 0 -0.45965612491054098 -0.1756228051165952 0 -0.44825185293753661 -0.17546972342075129 0 -0.45673855453176587 -0.15307307544661489 0 -0.45965612491054098 -0.1756228051165952 0 -0.46817728976359851 -0.1610048067299972 0 -0.47375146362347309 -0.1702915791018528 0 -0.46421955343776738 -0.17478553340296529 0 -0.46817728976359851 -0.1610048067299972 0 -0.45673855453176587 -0.15307307544661489 0 -0.44140876524852229 -0.16331569822836481 0 -0.44825185293753661 -0.17546972342075129 0 -0.45673855453176587 -0.15307307544661489 0 -0.44825185293753661 -0.17546972342075129 0 -0.44140876524852229 -0.16331569822836481 0 -0.44825185293753661 -0.17546972342075129 0 -0.43057891027166728 -0.18095772581997491 0 -0.44140876524852229 -0.16331569822836481 0 -0.44733740679407308 -0.17788297291928279 0 -0.45389885019697862 -0.1854993694039119 0 -0.44733740679407308 -0.17788297291928279 0 -0.44111772007090622 -0.19429690387956 0 -0.43057891027166728 -0.18095772581997491 0 -0.44733740679407308 -0.17788297291928279 0 -0.44111772007090622 -0.19429690387956 0 -0.43057891027166728 -0.18095772581997491 0 -0.44733740679407308 -0.17788297291928279 0 -0.44733740679407308 -0.17788297291928279 0 -0.44111772007090622 -0.19429690387956 0 -0.45389885019697862 -0.1854993694039119 0 -0.44939774943386501 -0.1775049530593493 0 -0.45389885019697862 -0.1854993694039119 0 -0.44939774943386501 -0.1775049530593493 0 -0.44733740679407308 -0.17788297291928279 0 -0.45965612491054098 -0.1756228051165952 0 -0.44939774943386501 -0.1775049530593493 0 -0.44825185293753661 -0.17546972342075129 0 -0.44140876524852229 -0.16331569822836481 0 -0.44825185293753661 -0.17546972342075129 0 -0.44733740679407308 -0.17788297291928279 0 -0.44939774943386501 -0.1775049530593493 0 -0.44825185293753661 -0.17546972342075129 0 -0.44733740679407308 -0.17788297291928279 0 -0.44825185293753661 -0.17546972342075129 0 -0.44733740679407308 -0.17788297291928279 0 -0.44939774943386501 -0.1775049530593493 0 -0.44825185293753661 -0.17546972342075129 0 -0.44939774943386501 -0.1775049530593493 0 -0.44733740679407308 -0.17788297291928279 0 -0.43489803334774008 -0.2107108348398376 0 -0.44111772007090622 -0.19429690387956 0 -0.43489803334774008 -0.2107108348398376 0 -0.44562527344927833 -0.19969263213674801 0 -0.44111772007090622 -0.19429690387956 0 -0.45389885019697862 -0.1854993694039119 0 -0.44562527344927833 -0.19969263213674801 0 -0.44111772007090622 -0.19429690387956 0 -0.45389885019697862 -0.1854993694039119 0 -0.44562527344927833 -0.19969263213674801 0 -0.4373516967015787 -0.21388589486958451 0 -0.43489803334774008 -0.2107108348398376 0 -0.44562527344927833 -0.19969263213674801 0 -0.4373516967015787 -0.21388589486958451 0 -0.44622550185687587 -0.20955057868729021 0 -0.45382672822652842 -0.2158561906331635 0 -0.4373516967015787 -0.21388589486958451 0 -0.44562527344927833 -0.19969263213674801 0 -0.44562527344927833 -0.19969263213674801 0 -0.44622550185687587 -0.20955057868729021 0 -0.4633344455608947 -0.20225795397417559 0 -0.4373516967015787 -0.21388589486958451 0 -0.44562527344927833 -0.19969263213674801 0 -0.44622550185687587 -0.20955057868729021 0 -0.44622550185687587 -0.20955057868729021 0 -0.45382672822652842 -0.2158561906331635 0 -0.4633344455608947 -0.20225795397417559 0 -0.4633344455608947 -0.20225795397417559 0 -0.47277004092480862 -0.2190165385444405 0 -0.45382672822652842 -0.2158561906331635 0 -0.4633344455608947 -0.20225795397417559 0 -0.47277004092480862 -0.2190165385444405 0 -0.45389885019697862 -0.1854993694039119 0 -0.4633344455608947 -0.20225795397417559 0 -0.46613699333081049 -0.1897092416762754 0 -0.45389885019697862 -0.1854993694039119 0 -0.44562527344927833 -0.19969263213674801 0 -0.4633344455608947 -0.20225795397417559 0 -0.45389885019697862 -0.1854993694039119 0 -0.4633344455608947 -0.20225795397417559 0 -0.47150950157309179 -0.1814829416590025 0 -0.46613699333081049 -0.1897092416762754 0 -0.47755183794776718 -0.19872908932161881 0 -0.48233363497072662 -0.17844164009879721 0 -0.47755183794776718 -0.19872908932161881 0 -0.4633344455608947 -0.20225795397417559 0 -0.46613699333081049 -0.1897092416762754 0 -0.47755183794776718 -0.19872908932161881 0 -0.48233363497072662 -0.17844164009879721 0 -0.47755183794776718 -0.19872908932161881 0 -0.5 -0.19234205584523709 0 -0.47755183794776718 -0.19872908932161881 0 -0.5 -0.19234205584523709 0 -0.48581993498126458 -0.2113851629526064 0 -0.5 -0.19234205584523709 0 -0.5 -0.2166257148675057 0 -0.48581993498126458 -0.2113851629526064 0 -0.5 -0.2166257148675057 0 -0.48581993498126458 -0.2113851629526064 0 -0.48892480932967591 -0.22610232107912201 0 -0.47755183794776718 -0.19872908932161881 0 -0.48581993498126458 -0.2113851629526064 0 -0.47277004092480862 -0.2190165385444405 0 -0.4633344455608947 -0.20225795397417559 0 -0.47755183794776718 -0.19872908932161881 0 -0.47277004092480862 -0.2190165385444405 0 -0.47755183794776718 -0.19872908932161881 0 -0.47277004092480862 -0.2190165385444405 0 -0.47277004092480862 -0.2190165385444405 0 -0.48603407074230492 -0.2425748151412834 0 -0.48581993498126458 -0.2113851629526064 0 -0.47277004092480862 -0.2190165385444405 0 -0.48892480932967591 -0.22610232107912201 0 -0.47277004092480862 -0.2190165385444405 0 -0.48892480932967591 -0.22610232107912201 0 -0.48603407074230492 -0.2425748151412834 0 -0.47277004092480862 -0.2190165385444405 0 -0.46741965326655049 -0.24171631384191331 0 -0.5 -0.2166257148675057 0 -0.48892480932967591 -0.22610232107912201 0 -0.5 -0.2409093738897744 0 -0.48892480932967591 -0.22610232107912201 0 -0.5 -0.2409093738897744 0 -0.48603407074230492 -0.2425748151412834 0 -0.49929810055980212 -0.26613309173812583 0 -0.5 -0.2409093738897744 0 -0.48603407074230492 -0.2425748151412834 0 -0.47927821206045718 -0.2549957909490197 0 -0.48603407074230492 -0.2425748151412834 0 -0.47463435663203962 -0.24749806294815899 0 -0.48603407074230492 -0.2425748151412834 0 -0.47463435663203962 -0.24749806294815899 0 -0.46741965326655049 -0.24171631384191331 0 -0.47277004092480862 -0.2190165385444405 0 -0.48603407074230492 -0.2425748151412834 0 -0.46741965326655049 -0.24171631384191331 0 -0.46580549045884612 -0.25070533186041938 0 -0.47463435663203962 -0.24749806294815899 0 -0.46741965326655049 -0.24171631384191331 0 -0.46580549045884612 -0.25070533186041938 0 -0.45157859358021252 -0.2322956133650019 0 -0.46580549045884612 -0.25070533186041938 0 -0.46741965326655049 -0.24171631384191331 0 -0.45157859358021252 -0.2322956133650019 0 -0.46580549045884612 -0.25070533186041938 0 -0.45322302897513811 -0.24734791131453041 0 -0.45157859358021252 -0.2322956133650019 0 -0.45382672822652842 -0.2158561906331635 0 -0.47277004092480862 -0.2190165385444405 0 -0.46139875399952518 -0.22722116409612969 0 -0.47277004092480862 -0.2190165385444405 0 -0.46741965326655049 -0.24171631384191331 0 -0.46139875399952518 -0.22722116409612969 0 -0.45382672822652842 -0.2158561906331635 0 -0.46139875399952518 -0.22722116409612969 0 -0.45157859358021252 -0.2322956133650019 0 -0.46741965326655049 -0.24171631384191331 0 -0.46139875399952518 -0.22722116409612969 0 -0.45157859358021252 -0.2322956133650019 0 -0.4373516967015787 -0.21388589486958451 0 -0.45157859358021252 -0.2322956133650019 0 -0.43837374922590272 -0.2256525351467418 0 -0.4373516967015787 -0.21388589486958451 0 -0.45157859358021252 -0.2322956133650019 0 -0.4373516967015787 -0.21388589486958451 0 -0.45382672822652842 -0.2158561906331635 0 -0.45157859358021252 -0.2322956133650019 0 -0.45157859358021252 -0.2322956133650019 0 -0.43837374922590272 -0.2256525351467418 0 -0.44256160292688312 -0.23318291885774259 0 -0.43601009865010448 -0.23073475532807661 0 -0.43837374922590272 -0.2256525351467418 0 -0.44256160292688312 -0.23318291885774259 0 -0.43601009865010448 -0.23073475532807661 0 -0.44256160292688312 -0.23318291885774259 0 -0.43842836541689251 -0.2360538851166937 0 -0.43842836541689251 -0.2360538851166937 0 -0.44022348047835519 -0.2423530460955565 0 -0.44652778436588508 -0.24030905954491261 0 -0.44256160292688312 -0.23318291885774259 0 -0.43842836541689251 -0.2360538851166937 0 -0.44652778436588508 -0.24030905954491261 0 -0.44022348047835519 -0.2423530460955565 0 -0.44497996325768502 -0.24954655088257049 0 -0.44652778436588508 -0.24030905954491261 0 -0.44077913706085309 -0.25265964186792861 0 -0.44022348047835519 -0.2423530460955565 0 -0.44497996325768502 -0.24954655088257049 0 -0.45322302897513811 -0.24734791131453041 0 -0.44497996325768502 -0.24954655088257049 0 -0.44652778436588508 -0.24030905954491261 0 -0.45322302897513811 -0.24734791131453041 0 -0.45157859358021252 -0.2322956133650019 0 -0.44652778436588508 -0.24030905954491261 0 -0.45157859358021252 -0.2322956133650019 0 -0.44256160292688312 -0.23318291885774259 0 -0.44652778436588508 -0.24030905954491261 0 -0.41335658653367269 -0.053608749972787507 0 -0.41312331080503573 -0.030221837676415859 0 -0.39575382196091108 -0.043711718060366403 0 -0.41335658653367269 -0.053608749972787507 0 -0.41312331080503573 -0.030221837676415859 0 -0.43820800210469563 -0.037864008098092351 0 -0.41335658653367269 -0.053608749972787507 0 -0.43820800210469563 -0.037864008098092351 0 -0.43831874725749392 -0.061808615173961523 0 -0.41335658653367269 -0.053608749972787507 0 -0.43820800210469563 -0.037864008098092351 0 -0.43060494516913078 -0.01179346857363894 0 -0.41312331080503573 -0.030221837676415859 0 -0.43820800210469563 -0.037864008098092351 0 -0.43060494516913078 -0.01179346857363894 0 -0.41045745653796167 -0.010878751280657359 0 -0.41452005595584318 0.012840333182226219 0 -0.43060494516913078 -0.01179346857363894 0 -0.41045745653796167 -0.010878751280657359 0 -0.41312331080503573 -0.030221837676415859 0 -0.41045745653796167 -0.010878751280657359 0 -0.41312331080503573 -0.030221837676415859 0 -0.39035905252384251 -0.023474330072952639 0 -0.41045745653796167 -0.010878751280657359 0 -0.39035905252384251 -0.023474330072952639 0 -0.39392003490616567 0.0019241882577540001 0 -0.37386683033107732 -0.0057703736779719239 0 -0.39035905252384251 -0.023474330072952639 0 -0.39392003490616567 0.0019241882577540001 0 -0.36308164416752797 -0.024198702198508091 0 -0.37386683033107732 -0.0057703736779719239 0 -0.39035905252384251 -0.023474330072952639 0 -0.39035905252384251 -0.023474330072952639 0 -0.37579340756508861 -0.046776097022995483 0 -0.39575382196091108 -0.043711718060366403 0 -0.36308164416752797 -0.024198702198508091 0 -0.39035905252384251 -0.023474330072952639 0 -0.37579340756508861 -0.046776097022995483 0 -0.41312331080503573 -0.030221837676415859 0 -0.39035905252384251 -0.023474330072952639 0 -0.39575382196091108 -0.043711718060366403 0 -0.41335658653367269 -0.053608749972787507 0 -0.38850517096265003 -0.069353491847482573 0 -0.41335658653367269 -0.053608749972787507 0 -0.39575382196091108 -0.043711718060366403 0 -0.38850517096265003 -0.069353491847482573 0 -0.37579340756508861 -0.046776097022995483 0 -0.39575382196091108 -0.043711718060366403 0 -0.38850517096265003 -0.069353491847482573 0 -0.37579340756508861 -0.046776097022995483 0 -0.38850517096265003 -0.069353491847482573 0 -0.36407645212730883 -0.062816252256658447 0 -0.37579340756508861 -0.046776097022995483 0 -0.38850517096265003 -0.069353491847482573 0 -0.36671192124631657 -0.08316071705016026 0 -0.38850517096265003 -0.069353491847482573 0 -0.36671192124631657 -0.08316071705016026 0 -0.38850517096265003 -0.069353491847482573 0 -0.38353159609917009 -0.090673626234151788 0 -0.38850517096265003 -0.069353491847482573 0 -0.40301512016611191 -0.095124648987860355 0 -0.41897054108937282 -0.077829773601207103 0 -0.38850517096265003 -0.069353491847482573 0 -0.38353159609917009 -0.090673626234151788 0 -0.40301512016611191 -0.095124648987860355 0 -0.38850517096265003 -0.069353491847482573 0 -0.40301512016611191 -0.095124648987860355 0 -0.37446835130961909 -0.1190712911890162 0 -0.38709634877315702 -0.10648673177674051 0 -0.39717979884675048 -0.1195153947443312 0 -0.37446835130961909 -0.1190712911890162 0 -0.38709634877315702 -0.10648673177674051 0 -0.3721164519794673 -0.1103027432889376 0 -0.37446835130961909 -0.1190712911890162 0 -0.38709634877315702 -0.10648673177674051 0 -0.37232941934761499 -0.099242541508515247 0 -0.38353159609917009 -0.090673626234151788 0 -0.38709634877315702 -0.10648673177674051 0 -0.37232941934761499 -0.099242541508515247 0 -0.3721164519794673 -0.1103027432889376 0 -0.38709634877315702 -0.10648673177674051 0 -0.38353159609917009 -0.090673626234151788 0 -0.38709634877315702 -0.10648673177674051 0 -0.40301512016611191 -0.095124648987860355 0 -0.38709634877315702 -0.10648673177674051 0 -0.40301512016611191 -0.095124648987860355 0 -0.39717979884675048 -0.1195153947443312 0 -0.40301512016611191 -0.095124648987860355 0 -0.39717979884675048 -0.1195153947443312 0 -0.4175250693695744 -0.1208958061282376 0 -0.40301512016611191 -0.095124648987860355 0 -0.4175250693695744 -0.1208958061282376 0 -0.42987313529714738 -0.103229458652802 0 -0.40301512016611191 -0.095124648987860355 0 -0.4175250693695744 -0.1208958061282376 0 -0.4175250693695744 -0.1208958061282376 0 -0.42987313529714738 -0.103229458652802 0 -0.44270194581816669 -0.1237995845843381 0 -0.41335658653367269 -0.053608749972787507 0 -0.38850517096265003 -0.069353491847482573 0 -0.41897054108937282 -0.077829773601207103 0 -0.40301512016611191 -0.095124648987860355 0 -0.42987313529714738 -0.103229458652802 0 -0.41897054108937282 -0.077829773601207103 0 -0.42987313529714738 -0.103229458652802 0 -0.41897054108937282 -0.077829773601207103 0 -0.44084885756810999 -0.087093981709601365 0 -0.41897054108937282 -0.077829773601207103 0 -0.44084885756810999 -0.087093981709601365 0 -0.43831874725749392 -0.061808615173961523 0 -0.41335658653367269 -0.053608749972787507 0 -0.41897054108937282 -0.077829773601207103 0 -0.43831874725749392 -0.061808615173961523 0 -0.44084885756810999 -0.087093981709601365 0 -0.45493170804705652 -0.068108193074449083 0 -0.43831874725749392 -0.061808615173961523 0 -0.44084885756810999 -0.087093981709601365 0 -0.46338563635750529 -0.081157913918780883 0 -0.45493170804705652 -0.068108193074449083 0 -0.44084885756810999 -0.087093981709601365 0 -0.46268585558858571 -0.092758471456503677 0 -0.46338563635750529 -0.081157913918780883 0 -0.46268585558858571 -0.092758471456503677 0 -0.46961619317019632 -0.097307299729926897 0 -0.47064595207155252 -0.087726515824668769 0 -0.46268585558858571 -0.092758471456503677 0 -0.46338563635750529 -0.081157913918780883 0 -0.47064595207155252 -0.087726515824668769 0 -0.46338563635750529 -0.081157913918780883 0 -0.45493170804705652 -0.068108193074449083 0 -0.47113163608963882 -0.066262076241195123 0 -0.42987313529714738 -0.103229458652802 0 -0.44270194581816669 -0.1237995845843381 0 -0.45575536040747378 -0.1013779298612726 0 -0.44270194581816669 -0.1237995845843381 0 -0.45575536040747378 -0.1013779298612726 0 -0.45788115182577938 -0.11993283980912391 0 -0.44084885756810999 -0.087093981709601365 0 -0.46268585558858571 -0.092758471456503677 0 -0.45575536040747378 -0.1013779298612726 0 -0.42987313529714738 -0.103229458652802 0 -0.44084885756810999 -0.087093981709601365 0 -0.45575536040747378 -0.1013779298612726 0 -0.44084885756810999 -0.087093981709601365 0 -0.45575536040747378 -0.1013779298612726 0 -0.45575536040747378 -0.1013779298612726 0 -0.47084733415767871 -0.1158396029228486 0 -0.46961619317019632 -0.097307299729926897 0 -0.46268585558858571 -0.092758471456503677 0 -0.45575536040747378 -0.1013779298612726 0 -0.46961619317019632 -0.097307299729926897 0 -0.45575536040747378 -0.1013779298612726 0 -0.47084733415767871 -0.1158396029228486 0 -0.45575536040747378 -0.1013779298612726 0 -0.45788115182577938 -0.11993283980912391 0 -0.47084733415767871 -0.1158396029228486 0 -0.45985737007908289 -0.1332625907635894 0 -0.47084733415767871 -0.1158396029228486 0 -0.45985737007908289 -0.1332625907635894 0 -0.45788115182577938 -0.11993283980912391 0 -0.47084733415767871 -0.1158396029228486 0 -0.46522525612599441 -0.1306764274724784 0 -0.47084733415767871 -0.1158396029228486 0 -0.46522525612599441 -0.1306764274724784 0 -0.47926957317607938 -0.1239100958316325 0 -0.47084733415767871 -0.1158396029228486 0 -0.47926957317607938 -0.1239100958316325 0 -0.47084733415767871 -0.1158396029228486 0 -0.47926957317607938 -0.1239100958316325 0 -0.47084733415767871 -0.1158396029228486 0 -0.47675316281530639 -0.11619716137486839 0 -0.47926957317607938 -0.1239100958316325 0 -0.47675316281530639 -0.11619716137486839 0 -0.48557330553920108 -0.11045315746050501 0 -0.47084733415767871 -0.1158396029228486 0 -0.47675316281530639 -0.11619716137486839 0 -0.48557330553920108 -0.11045315746050501 0 -0.47084733415767871 -0.1158396029228486 0 -0.48198685085580761 -0.086442100097992886 0 -0.47084733415767871 -0.1158396029228486 0 -0.48280833066571388 -0.09587506518835992 0 -0.47084733415767871 -0.1158396029228486 0 -0.48280833066571388 -0.09587506518835992 0 -0.48557330553920108 -0.11045315746050501 0 -0.47084733415767871 -0.1158396029228486 0 -0.46961619317019632 -0.097307299729926897 0 -0.48198685085580761 -0.086442100097992886 0 -0.47084733415767871 -0.1158396029228486 0 -0.48280833066571388 -0.09587506518835992 0 -0.48198685085580761 -0.086442100097992886 0 -0.48280833066571388 -0.09587506518835992 0 -0.50000000000000167 -0.1139225013870849 0 -0.5 -0.087125175517278941 0 -0.48280833066571388 -0.09587506518835992 0 -0.50000000000000167 -0.1139225013870849 0 -0.48557330553920108 -0.11045315746050501 0 -0.47926957317607938 -0.1239100958316325 0 -0.50000000000000167 -0.1139225013870849 0 -0.48557330553920108 -0.11045315746050501 0 -0.47926957317607938 -0.1239100958316325 0 -0.50000000000000167 -0.1139225013870849 0 -0.4805007694158861 -0.070642814599713333 0 -0.47113163608963882 -0.066262076241195123 0 -0.48117887242496649 -0.06124469182774115 0 -0.4805007694158861 -0.070642814599713333 0 -0.47113163608963882 -0.066262076241195123 0 -0.47410875622310372 -0.07916642978894714 0 -0.46338563635750529 -0.081157913918780883 0 -0.47113163608963882 -0.066262076241195123 0 -0.47410875622310372 -0.07916642978894714 0 -0.4805007694158861 -0.070642814599713333 0 -0.47410875622310372 -0.07916642978894714 0 -0.48198685085580761 -0.086442100097992886 0 -0.47410875622310372 -0.07916642978894714 0 -0.47064595207155252 -0.087726515824668769 0 -0.48198685085580761 -0.086442100097992886 0 -0.46338563635750529 -0.081157913918780883 0 -0.47410875622310372 -0.07916642978894714 0 -0.47064595207155252 -0.087726515824668769 0 -0.46961619317019632 -0.097307299729926897 0 -0.47064595207155252 -0.087726515824668769 0 -0.48198685085580761 -0.086442100097992886 0 -0.48280833066571388 -0.09587506518835992 0 -0.49429422294316439 -0.077164341092233302 0 -0.48280833066571388 -0.09587506518835992 0 -0.48198685085580761 -0.086442100097992886 0 -0.49429422294316439 -0.077164341092233302 0 -0.48280833066571388 -0.09587506518835992 0 -0.5 -0.087125175517278941 0 -0.49429422294316439 -0.077164341092233302 0 -0.48198685085580761 -0.086442100097992886 0 -0.49265126332334991 -0.058298410911498011 0 -0.5 -0.087125175517278941 0 -0.49429422294316439 -0.077164341092233302 0 -0.5 -0.060327849647472953 0 -0.49429422294316439 -0.077164341092233302 0 -0.5 -0.060327849647472953 0 -0.49265126332334991 -0.058298410911498011 0 -0.4805007694158861 -0.070642814599713333 0 -0.48198685085580761 -0.086442100097992886 0 -0.49265126332334991 -0.058298410911498011 0 -0.48198685085580761 -0.086442100097992886 0 -0.49429422294316439 -0.077164341092233302 0 -0.49265126332334991 -0.058298410911498011 0 -0.4805007694158861 -0.070642814599713333 0 -0.49265126332334991 -0.058298410911498011 0 -0.48117887242496649 -0.06124469182774115 0 -0.5 -0.060327849647472953 0 -0.49265126332334991 -0.058298410911498011 0 -0.48967846391895858 -0.045825604281208437 0 -0.49265126332334991 -0.058298410911498011 0 -0.48521636436096488 -0.053850577332439413 0 -0.48967846391895858 -0.045825604281208437 0 -0.49265126332334991 -0.058298410911498011 0 -0.48521636436096488 -0.053850577332439413 0 -0.48117887242496649 -0.06124469182774115 0 -0.5 -0.060327849647472953 0 -0.5 -0.033530523777666972 0 -0.48967846391895858 -0.045825604281208437 0 -0.5 -0.033530523777666972 0 -0.48967846391895858 -0.045825604281208437 0 -0.47851790483816808 -0.028784415602774852 0 -0.47735685777658482 -0.050033602309310032 0 -0.46097366296253423 -0.044218378328706551 0 -0.47851790483816808 -0.028784415602774852 0 -0.48967846391895858 -0.045825604281208437 0 -0.47735685777658482 -0.050033602309310032 0 -0.47851790483816808 -0.028784415602774852 0 -0.47113163608963882 -0.066262076241195123 0 -0.47735685777658482 -0.050033602309310032 0 -0.46097366296253423 -0.044218378328706551 0 -0.47113163608963882 -0.066262076241195123 0 -0.48117887242496649 -0.06124469182774115 0 -0.47735685777658482 -0.050033602309310032 0 -0.48521636436096488 -0.053850577332439413 0 -0.48117887242496649 -0.06124469182774115 0 -0.47735685777658482 -0.050033602309310032 0 -0.48521636436096488 -0.053850577332439413 0 -0.48967846391895858 -0.045825604281208437 0 -0.47735685777658482 -0.050033602309310032 0 -0.45493170804705652 -0.068108193074449083 0 -0.47113163608963882 -0.066262076241195123 0 -0.46097366296253423 -0.044218378328706551 0 -0.46097366296253423 -0.044218378328706551 0 -0.44849985755273353 -0.018439543671980519 0 -0.46097366296253423 -0.044218378328706551 0 -0.43820800210469563 -0.037864008098092351 0 -0.44849985755273353 -0.018439543671980519 0 -0.45493170804705652 -0.068108193074449083 0 -0.46097366296253423 -0.044218378328706551 0 -0.43831874725749392 -0.061808615173961523 0 -0.46097366296253423 -0.044218378328706551 0 -0.43820800210469563 -0.037864008098092351 0 -0.43831874725749392 -0.061808615173961523 0 -0.44849985755273353 -0.018439543671980519 0 -0.43602605214293289 0.0073392909847455091 0 -0.43060494516913078 -0.01179346857363894 0 -0.44849985755273353 -0.018439543671980519 0 -0.43602605214293289 0.0073392909847455091 0 -0.45247801815206601 -0.00021267159895182791 0 -0.44849985755273353 -0.018439543671980519 0 -0.43602605214293289 0.0073392909847455091 0 -0.43060494516913078 -0.01179346857363894 0 -0.43820800210469563 -0.037864008098092351 0 -0.44849985755273353 -0.018439543671980519 0 -0.46097366296253423 -0.044218378328706551 0 -0.44849985755273353 -0.018439543671980519 0 -0.47851790483816808 -0.028784415602774852 0 -0.44849985755273353 -0.018439543671980519 0 -0.47238365416176142 -0.004376002632806574 0 -0.47851790483816808 -0.028784415602774852 0 -0.45247801815206601 -0.00021267159895182791 0 -0.44849985755273353 -0.018439543671980519 0 -0.47238365416176142 -0.004376002632806574 0 -0.47238365416176142 -0.004376002632806574 0 -0.47851790483816808 -0.028784415602774852 0 -0.5 -0.0067331979078609772 0 -0.5 -0.033530523777666972 0 -0.47851790483816808 -0.028784415602774852 0 -0.5 -0.0067331979078609772 0 -0.47238365416176142 -0.004376002632806574 0 -0.5 -0.0067331979078609772 0 -0.48692396532733678 0.0070167764544100189 0 -0.5 -0.0067331979078609772 0 -0.48692396532733678 0.0070167764544100189 0 -0.5 0.020064127961944959 0 -0.48692396532733678 0.0070167764544100189 0 -0.5 0.020064127961944959 0 -0.47762003056999952 0.022823648640905751 0 -0.5 0.020064127961944959 0 -0.47762003056999952 0.022823648640905751 0 -0.5 0.046861453831750943 0 -0.47238365416176142 -0.004376002632806574 0 -0.48692396532733678 0.0070167764544100189 0 -0.47762003056999952 0.022823648640905751 0 -0.5 0.046861453831750943 0 -0.47543357440467909 0.044437254085042968 0 -0.48238442449370511 0.058683293355730921 0 -0.5 0.046861453831750943 0 -0.48238442449370511 0.058683293355730921 0 -0.5 0.073658779701557042 0 -0.47762003056999952 0.022823648640905751 0 -0.47543357440467909 0.044437254085042968 0 -0.46446931605284869 0.033031902833482181 0 -0.47762003056999952 0.022823648640905751 0 -0.5 0.046861453831750943 0 -0.47543357440467909 0.044437254085042968 0 -0.47543357440467909 0.044437254085042968 0 -0.48238442449370511 0.058683293355730921 0 -0.46819378720837718 0.056616265984737242 0 -0.46819378720837718 0.056616265984737242 0 -0.45950085312514732 0.047878326131107221 0 -0.45254448407653208 0.058961093097241707 0 -0.47543357440467909 0.044437254085042968 0 -0.46819378720837718 0.056616265984737242 0 -0.45950085312514732 0.047878326131107221 0 -0.47543357440467909 0.044437254085042968 0 -0.45950085312514732 0.047878326131107221 0 -0.46446931605284869 0.033031902833482181 0 -0.45950085312514732 0.047878326131107221 0 -0.46446931605284869 0.033031902833482181 0 -0.45016148447121218 0.037218678055738787 0 -0.45016148447121218 0.037218678055738787 0 -0.44563558557344718 0.057481201632299778 0 -0.43682294489754081 0.044876062345568631 0 -0.45016148447121218 0.037218678055738787 0 -0.440250022322759 0.02790166230134046 0 -0.43682294489754081 0.044876062345568631 0 -0.45016148447121218 0.037218678055738787 0 -0.44563558557344718 0.057481201632299778 0 -0.45950085312514732 0.047878326131107221 0 -0.45016148447121218 0.037218678055738787 0 -0.44563558557344718 0.057481201632299778 0 -0.44563558557344718 0.057481201632299778 0 -0.43682294489754081 0.044876062345568631 0 -0.43547360317257888 0.055202592411633611 0 -0.44563558557344718 0.057481201632299778 0 -0.43547360317257888 0.055202592411633611 0 -0.43868161657570071 0.063903283280005316 0 -0.45950085312514732 0.047878326131107221 0 -0.45254448407653208 0.058961093097241707 0 -0.44563558557344718 0.057481201632299778 0 -0.45254448407653208 0.058961093097241707 0 -0.44563558557344718 0.057481201632299778 0 -0.44947150862254459 0.069962324306870827 0 -0.47238365416176142 -0.004376002632806574 0 -0.47762003056999952 0.022823648640905751 0 -0.45468738336897713 0.016956154479177869 0 -0.45247801815206601 -0.00021267159895182791 0 -0.47238365416176142 -0.004376002632806574 0 -0.45468738336897713 0.016956154479177869 0 -0.46446931605284869 0.033031902833482181 0 -0.45016148447121218 0.037218678055738787 0 -0.45468738336897713 0.016956154479177869 0 -0.47762003056999952 0.022823648640905751 0 -0.46446931605284869 0.033031902833482181 0 -0.45468738336897713 0.016956154479177869 0 -0.45016148447121218 0.037218678055738787 0 -0.45468738336897713 0.016956154479177869 0 -0.440250022322759 0.02790166230134046 0 -0.45468738336897713 0.016956154479177869 0 -0.440250022322759 0.02790166230134046 0 -0.43602605214293289 0.0073392909847455091 0 -0.45016148447121218 0.037218678055738787 0 -0.45468738336897713 0.016956154479177869 0 -0.45247801815206601 -0.00021267159895182791 0 -0.45468738336897713 0.016956154479177869 0 -0.43602605214293289 0.0073392909847455091 0 -0.43060494516913078 -0.01179346857363894 0 -0.43602605214293289 0.0073392909847455091 0 -0.41452005595584318 0.012840333182226219 0 -0.41045745653796167 -0.010878751280657359 0 -0.41452005595584318 0.012840333182226219 0 -0.39392003490616567 0.0019241882577540001 0 -0.41452005595584318 0.012840333182226219 0 -0.41064186946719738 0.03886414427874945 0 -0.39474023141196701 0.024403084373331479 0 -0.41452005595584318 0.012840333182226219 0 -0.42355224673313219 0.03311812564147152 0 -0.41064186946719738 0.03886414427874945 0 -0.43602605214293289 0.0073392909847455091 0 -0.41452005595584318 0.012840333182226219 0 -0.42355224673313219 0.03311812564147152 0 -0.43602605214293289 0.0073392909847455091 0 -0.42355224673313219 0.03311812564147152 0 -0.440250022322759 0.02790166230134046 0 -0.43602605214293289 0.0073392909847455091 0 -0.42355224673313219 0.03311812564147152 0 -0.440250022322759 0.02790166230134046 0 -0.42355224673313219 0.03311812564147152 0 -0.43682294489754081 0.044876062345568631 0 -0.42355224673313219 0.03311812564147152 0 -0.43682294489754081 0.044876062345568631 0 -0.42612414911499441 0.053887291217118063 0 -0.43547360317257888 0.055202592411633611 0 -0.42612414911499441 0.053887291217118063 0 -0.43250759088109397 0.06518561386722703 0 -0.43547360317257888 0.055202592411633611 0 -0.43250759088109397 0.06518561386722703 0 -0.43868161657570071 0.063903283280005316 0 -0.43682294489754081 0.044876062345568631 0 -0.43547360317257888 0.055202592411633611 0 -0.42612414911499441 0.053887291217118063 0 -0.42612414911499441 0.053887291217118063 0 -0.41731006768228862 0.066044392738610194 0 -0.43250759088109397 0.06518561386722703 0 -0.42355224673313219 0.03311812564147152 0 -0.42612414911499441 0.053887291217118063 0 -0.41107844132332999 0.058896960298196868 0 -0.41107844132332999 0.058896960298196868 0 -0.41064186946719738 0.03886414427874945 0 -0.40485119833265742 0.05175455541029679 0 -0.42612414911499441 0.053887291217118063 0 -0.41107844132332999 0.058896960298196868 0 -0.41731006768228862 0.066044392738610194 0 -0.41107844132332999 0.058896960298196868 0 -0.41731006768228862 0.066044392738610194 0 -0.40948197144517728 0.062196284896531173 0 -0.41107844132332999 0.058896960298196868 0 -0.41731006768228862 0.066044392738610194 0 -0.40948197144517728 0.062196284896531173 0 -0.41107844132332999 0.058896960298196868 0 -0.40485119833265742 0.05175455541029679 0 -0.41107844132332999 0.058896960298196868 0 -0.40485119833265742 0.05175455541029679 0 -0.40948197144517728 0.062196284896531173 0 -0.41107844132332999 0.058896960298196868 0 -0.42355224673313219 0.03311812564147152 0 -0.41107844132332999 0.058896960298196868 0 -0.41064186946719738 0.03886414427874945 0 -0.42355224673313219 0.03311812564147152 0 -0.41107844132332999 0.058896960298196868 0 -0.41064186946719738 0.03886414427874945 0 -0.39648568672133039 0.040530274070019433 0 -0.39474023141196701 0.024403084373331479 0 -0.39648568672133039 0.040530274070019433 0 -0.38347171402920532 0.035392599189949039 0 -0.39474023141196701 0.024403084373331479 0 -0.41064186946719738 0.03886414427874945 0 -0.39648568672133039 0.040530274070019433 0 -0.40485119833265742 0.05175455541029679 0 -0.40948197144517728 0.062196284896531173 0 -0.38941771508337569 0.052333168768062148 0 -0.40948197144517728 0.062196284896531173 0 -0.40485119833265742 0.05175455541029679 0 -0.38941771508337569 0.052333168768062148 0 -0.40948197144517728 0.062196284896531173 0 -0.38941771508337569 0.052333168768062148 0 -0.394616154297806 0.063972435058113897 0 -0.39648568672133039 0.040530274070019433 0 -0.40485119833265742 0.05175455541029679 0 -0.38941771508337569 0.052333168768062148 0 -0.38941771508337569 0.052333168768062148 0 -0.36935345872157233 0.042470052639596932 0 -0.38941771508337569 0.052333168768062148 0 -0.37681524306003711 0.065250811082137608 0 -0.394616154297806 0.063972435058113897 0 -0.38941771508337569 0.052333168768062148 0 -0.37681524306003711 0.065250811082137608 0 -0.36935345872157233 0.042470052639596932 0 -0.39648568672133039 0.040530274070019433 0 -0.38941771508337569 0.052333168768062148 0 -0.38347171402920532 0.035392599189949039 0 -0.38941771508337569 0.052333168768062148 0 -0.38347171402920532 0.035392599189949039 0 -0.36935345872157233 0.042470052639596932 0 -0.38347171402920532 0.035392599189949039 0 -0.39474023141196701 0.024403084373331479 0 -0.3706940928529856 0.017688088116135699 0 -0.39392003490616567 0.0019241882577540001 0 -0.39474023141196701 0.024403084373331479 0 -0.3706940928529856 0.017688088116135699 0 -0.37386683033107732 -0.0057703736779719239 0 -0.39392003490616567 0.0019241882577540001 0 -0.3706940928529856 0.017688088116135699 0 -0.41452005595584318 0.012840333182226219 0 -0.39392003490616567 0.0019241882577540001 0 -0.39474023141196701 0.024403084373331479 0 -0.39707696675619802 0.1200314486644503 0 -0.39770196468127023 0.093532139762760216 0 -0.40667111190036209 0.10767678159311039 0 -0.39063735938267691 0.1011412678082938 0 -0.39707696675619802 0.1200314486644503 0 -0.39770196468127023 0.093532139762760216 0 -0.39707696675619802 0.1200314486644503 0 -0.39770196468127023 0.093532139762760216 0 -0.39770196468127023 0.093532139762760216 0 -0.40667111190036209 0.10767678159311039 0 -0.41023017150533758 0.098384891557798004 0 -0.39707696675619802 0.1200314486644503 0 -0.40667111190036209 0.10767678159311039 0 -0.41488522895406871 0.1192449970498325 0 -0.39063735938267691 0.1011412678082938 0 -0.39707696675619802 0.1200314486644503 0 -0.38060826231021638 0.1138275894597852 0 -0.39707696675619802 0.1200314486644503 0 -0.3860036274130878 0.123961055762184 0 -0.38060826231021638 0.1138275894597852 0 -0.3860036274130878 0.123961055762184 0 -0.38060826231021638 0.1138275894597852 0 -0.3757865004079588 0.1288508230644082 0 -0.38060826231021638 0.1138275894597852 0 -0.37913303111269347 0.1011472026539591 0 -0.36875202228408638 0.1025718974637901 0 -0.39063735938267691 0.1011412678082938 0 -0.38060826231021638 0.1138275894597852 0 -0.37913303111269347 0.1011472026539591 0 -0.39063735938267691 0.1011412678082938 0 -0.37913303111269347 0.1011472026539591 0 -0.3833614672091788 0.09351775071029772 0 -0.37913303111269347 0.1011472026539591 0 -0.3833614672091788 0.09351775071029772 0 -0.37429617338574228 0.086844948952546519 0 -0.38821369211171242 0.085150643953555205 0 -0.3833614672091788 0.09351775071029772 0 -0.37429617338574228 0.086844948952546519 0 -0.38821369211171242 0.085150643953555205 0 -0.37681524306003711 0.065250811082137608 0 -0.37429617338574228 0.086844948952546519 0 -0.39063735938267691 0.1011412678082938 0 -0.38821369211171242 0.085150643953555205 0 -0.3833614672091788 0.09351775071029772 0 -0.37681524306003711 0.065250811082137608 0 -0.40274968760263402 0.076109475485724692 0 -0.38821369211171242 0.085150643953555205 0 -0.37681524306003711 0.065250811082137608 0 -0.40274968760263402 0.076109475485724692 0 -0.37681524306003711 0.065250811082137608 0 -0.394616154297806 0.063972435058113897 0 -0.40274968760263402 0.076109475485724692 0 -0.40948197144517728 0.062196284896531173 0 -0.40274968760263402 0.076109475485724692 0 -0.40948197144517728 0.062196284896531173 0 -0.394616154297806 0.063972435058113897 0 -0.40274968760263402 0.076109475485724692 0 -0.39063735938267691 0.1011412678082938 0 -0.38821369211171242 0.085150643953555205 0 -0.40274968760263402 0.076109475485724692 0 -0.39063735938267691 0.1011412678082938 0 -0.40274968760263402 0.076109475485724692 0 -0.39770196468127023 0.093532139762760216 0 -0.40274968760263402 0.076109475485724692 0 -0.39770196468127023 0.093532139762760216 0 -0.41162859171729538 0.08920906016293273 0 -0.39063735938267691 0.1011412678082938 0 -0.40274968760263402 0.076109475485724692 0 -0.41162859171729538 0.08920906016293273 0 -0.428761965412914 0.087000728415810719 0 -0.41907035698170619 0.095341845387973551 0 -0.40274968760263402 0.076109475485724692 0 -0.41162859171729538 0.08920906016293273 0 -0.428761965412914 0.087000728415810719 0 -0.40274968760263402 0.076109475485724692 0 -0.428761965412914 0.087000728415810719 0 -0.40274968760263402 0.076109475485724692 0 -0.4278231448573353 0.078102482316046412 0 -0.428761965412914 0.087000728415810719 0 -0.39770196468127023 0.093532139762760216 0 -0.41162859171729538 0.08920906016293273 0 -0.41023017150533758 0.098384891557798004 0 -0.40274968760263402 0.076109475485724692 0 -0.41731006768228862 0.066044392738610194 0 -0.4278231448573353 0.078102482316046412 0 -0.40948197144517728 0.062196284896531173 0 -0.41731006768228862 0.066044392738610194 0 -0.40948197144517728 0.062196284896531173 0 -0.40274968760263402 0.076109475485724692 0 -0.41731006768228862 0.066044392738610194 0 -0.41731006768228862 0.066044392738610194 0 -0.4278231448573353 0.078102482316046412 0 -0.44110968667568251 0.077743725208860831 0 -0.41731006768228862 0.066044392738610194 0 -0.43250759088109397 0.06518561386722703 0 -0.44110968667568251 0.077743725208860831 0 -0.41731006768228862 0.066044392738610194 0 -0.44110968667568251 0.077743725208860831 0 -0.41731006768228862 0.066044392738610194 0 -0.4278231448573353 0.078102482316046412 0 -0.43250759088109397 0.06518561386722703 0 -0.43868161657570071 0.063903283280005316 0 -0.44110968667568251 0.077743725208860831 0 -0.4278231448573353 0.078102482316046412 0 -0.44110968667568251 0.077743725208860831 0 -0.43833622203238159 0.090160571893483032 0 -0.4278231448573353 0.078102482316046412 0 -0.428761965412914 0.087000728415810719 0 -0.43833622203238159 0.090160571893483032 0 -0.4278231448573353 0.078102482316046412 0 -0.43833622203238159 0.090160571893483032 0 -0.428761965412914 0.087000728415810719 0 -0.42850333895073639 0.099435603576946724 0 -0.43833622203238159 0.090160571893483032 0 -0.4333986769481889 0.112266042196451 0 -0.43833622203238159 0.090160571893483032 0 -0.42850333895073639 0.099435603576946724 0 -0.4333986769481889 0.112266042196451 0 -0.43833622203238159 0.090160571893483032 0 -0.42850333895073639 0.099435603576946724 0 -0.41869643688717129 0.10513883083371529 0 -0.4333986769481889 0.112266042196451 0 -0.42850333895073639 0.099435603576946724 0 -0.41907035698170619 0.095341845387973551 0 -0.41869643688717129 0.10513883083371529 0 -0.428761965412914 0.087000728415810719 0 -0.42850333895073639 0.099435603576946724 0 -0.41907035698170619 0.095341845387973551 0 -0.41907035698170619 0.095341845387973551 0 -0.41869643688717129 0.10513883083371529 0 -0.41023017150533758 0.098384891557798004 0 -0.41869643688717129 0.10513883083371529 0 -0.40667111190036209 0.10767678159311039 0 -0.41023017150533758 0.098384891557798004 0 -0.41162859171729538 0.08920906016293273 0 -0.41907035698170619 0.095341845387973551 0 -0.41023017150533758 0.098384891557798004 0 -0.39707696675619802 0.1200314486644503 0 -0.41488522895406871 0.1192449970498325 0 -0.40762465400961301 0.13495956646335119 0 -0.41869643688717129 0.10513883083371529 0 -0.40667111190036209 0.10767678159311039 0 -0.41488522895406871 0.1192449970498325 0 -0.41869643688717129 0.10513883083371529 0 -0.41488522895406871 0.1192449970498325 0 -0.4333986769481889 0.112266042196451 0 -0.41488522895406871 0.1192449970498325 0 -0.4333986769481889 0.112266042196451 0 -0.42846113186399659 0.13437151249941909 0 -0.4333986769481889 0.112266042196451 0 -0.42846113186399659 0.13437151249941909 0 -0.4333986769481889 0.112266042196451 0 -0.45412659820604639 0.1082715176416391 0 -0.44968682629133111 0.13295997446018029 0 -0.4333986769481889 0.112266042196451 0 -0.45412659820604639 0.1082715176416391 0 -0.43833622203238159 0.090160571893483032 0 -0.45412659820604639 0.1082715176416391 0 -0.43833622203238159 0.090160571893483032 0 -0.45412659820604639 0.1082715176416391 0 -0.43833622203238159 0.090160571893483032 0 -0.45943578718363592 0.088569484297218518 0 -0.45412659820604639 0.1082715176416391 0 -0.45943578718363592 0.088569484297218518 0 -0.47042123002214842 0.099727779442537579 0 -0.45412659820604639 0.1082715176416391 0 -0.47753125562638682 0.1129348803927601 0 -0.47042123002214842 0.099727779442537579 0 -0.45412659820604639 0.1082715176416391 0 -0.47753125562638682 0.1129348803927601 0 -0.46991697437971058 0.12638246338979581 0 -0.45412659820604639 0.1082715176416391 0 -0.46991697437971058 0.12638246338979581 0 -0.45412659820604639 0.1082715176416391 0 -0.46991697437971058 0.12638246338979581 0 -0.44968682629133111 0.13295997446018029 0 -0.44563558557344718 0.057481201632299778 0 -0.43868161657570071 0.063903283280005316 0 -0.44110968667568251 0.077743725208860831 0 -0.44563558557344718 0.057481201632299778 0 -0.44110968667568251 0.077743725208860831 0 -0.44563558557344718 0.057481201632299778 0 -0.44947150862254459 0.069962324306870827 0 -0.44110968667568251 0.077743725208860831 0 -0.44947150862254459 0.069962324306870827 0 -0.44110968667568251 0.077743725208860831 0 -0.44841718536067238 0.081335919548834346 0 -0.44947150862254459 0.069962324306870827 0 -0.44841718536067238 0.081335919548834346 0 -0.45747010360644269 0.075604174110592115 0 -0.44841718536067238 0.081335919548834346 0 -0.43833622203238159 0.090160571893483032 0 -0.45943578718363592 0.088569484297218518 0 -0.44110968667568251 0.077743725208860831 0 -0.44841718536067238 0.081335919548834346 0 -0.43833622203238159 0.090160571893483032 0 -0.44110968667568251 0.077743725208860831 0 -0.43833622203238159 0.090160571893483032 0 -0.44110968667568251 0.077743725208860831 0 -0.44841718536067238 0.081335919548834346 0 -0.45943578718363592 0.088569484297218518 0 -0.47394209580671409 0.090046654868542159 0 -0.47042123002214842 0.099727779442537579 0 -0.45943578718363592 0.088569484297218518 0 -0.45747010360644269 0.075604174110592115 0 -0.47033902398692878 0.074520604803825594 0 -0.45943578718363592 0.088569484297218518 0 -0.47033902398692878 0.074520604803825594 0 -0.47394209580671409 0.090046654868542159 0 -0.44841718536067238 0.081335919548834346 0 -0.45943578718363592 0.088569484297218518 0 -0.45747010360644269 0.075604174110592115 0 -0.45254448407653208 0.058961093097241707 0 -0.47033902398692878 0.074520604803825594 0 -0.45254448407653208 0.058961093097241707 0 -0.45747010360644269 0.075604174110592115 0 -0.47033902398692878 0.074520604803825594 0 -0.46819378720837718 0.056616265984737242 0 -0.45254448407653208 0.058961093097241707 0 -0.47033902398692878 0.074520604803825594 0 -0.45254448407653208 0.058961093097241707 0 -0.44947150862254459 0.069962324306870827 0 -0.45747010360644269 0.075604174110592115 0 -0.48238442449370511 0.058683293355730921 0 -0.47033902398692878 0.074520604803825594 0 -0.48500539140706839 0.073101848464219202 0 -0.48238442449370511 0.058683293355730921 0 -0.46819378720837718 0.056616265984737242 0 -0.47033902398692878 0.074520604803825594 0 -0.47033902398692878 0.074520604803825594 0 -0.4875717440975284 0.086547463669418179 0 -0.48500539140706839 0.073101848464219202 0 -0.47033902398692878 0.074520604803825594 0 -0.48813356389732532 0.090080116510409827 0 -0.4875717440975284 0.086547463669418179 0 -0.47033902398692878 0.074520604803825594 0 -0.48813356389732532 0.090080116510409827 0 -0.47033902398692878 0.074520604803825594 0 -0.47394209580671409 0.090046654868542159 0 -0.48813356389732532 0.090080116510409827 0 -0.47394209580671409 0.090046654868542159 0 -0.48813356389732532 0.090080116510409827 0 -0.4810132168917477 0.098500264066286619 0 -0.48813356389732532 0.090080116510409827 0 -0.5 0.073658779701557042 0 -0.49999999999999961 0.1004561055713631 0 -0.48813356389732532 0.090080116510409827 0 -0.4875717440975284 0.086547463669418179 0 -0.5 0.073658779701557042 0 -0.48813356389732532 0.090080116510409827 0 -0.4875717440975284 0.086547463669418179 0 -0.48238442449370511 0.058683293355730921 0 -0.48500539140706839 0.073101848464219202 0 -0.5 0.073658779701557042 0 -0.4875717440975284 0.086547463669418179 0 -0.48500539140706839 0.073101848464219202 0 -0.5 0.073658779701557042 0 -0.47753125562638682 0.1129348803927601 0 -0.49382952800422991 0.12589562851573621 0 -0.46991697437971058 0.12638246338979581 0 -0.47753125562638682 0.1129348803927601 0 -0.47042123002214842 0.099727779442537579 0 -0.4810132168917477 0.098500264066286619 0 -0.47394209580671409 0.090046654868542159 0 -0.47042123002214842 0.099727779442537579 0 -0.4810132168917477 0.098500264066286619 0 -0.47753125562638682 0.1129348803927601 0 -0.4810132168917477 0.098500264066286619 0 -0.49098154595077659 0.10798787251307319 0 -0.48813356389732532 0.090080116510409827 0 -0.49098154595077659 0.10798787251307319 0 -0.48813356389732532 0.090080116510409827 0 -0.4810132168917477 0.098500264066286619 0 -0.49098154595077659 0.10798787251307319 0 -0.48813356389732532 0.090080116510409827 0 -0.49098154595077659 0.10798787251307319 0 -0.49999999999999961 0.1004561055713631 0 -0.48813356389732532 0.090080116510409827 0 -0.49999999999999961 0.1004561055713631 0 -0.49098154595077659 0.10798787251307319 0 -0.49999999999999961 0.1004561055713631 0 -0.49999999999999922 0.1117667714195722 0 -0.49098154595077659 0.10798787251307319 0 -0.49999999999999922 0.1117667714195722 0 -0.49382952800422991 0.12589562851573621 0 -0.49098154595077659 0.10798787251307319 0 -0.49382952800422991 0.12589562851573621 0 -0.47753125562638682 0.1129348803927601 0 -0.49098154595077659 0.10798787251307319 0 -0.49382952800422991 0.12589562851573621 0 -0.49999999999999922 0.1117667714195722 0 -0.49382952800422991 0.12589562851573621 0 -0.5 0.1363266460757406 0 -0.49999999999999922 0.1117667714195722 0 -0.49382952800422991 0.12589562851573621 0 -0.49382952800422991 0.12589562851573621 0 -0.48570735055337649 0.14449340913795081 0 -0.49382952800422991 0.12589562851573621 0 -0.5 0.1363266460757406 0 -0.49654437597322121 0.14296625399742641 0 -0.49382952800422991 0.12589562851573621 0 -0.49654437597322121 0.14296625399742641 0 -0.49382952800422991 0.12589562851573621 0 -0.49654437597322121 0.14296625399742641 0 -0.48570735055337649 0.14449340913795081 0 -0.49382952800422991 0.12589562851573621 0 -0.46991697437971058 0.12638246338979581 0 -0.48570735055337649 0.14449340913795081 0 -0.46991697437971058 0.12638246338979581 0 -0.48570735055337649 0.14449340913795081 0 -0.46708314560197051 0.14866023307784509 0 -0.46991697437971058 0.12638246338979581 0 -0.48570735055337649 0.14449340913795081 0 -0.48570735055337649 0.14449340913795081 0 -0.47661157543449162 0.16532048799378909 0 -0.48570735055337649 0.14449340913795081 0 -0.47661157543449162 0.16532048799378909 0 -0.46708314560197051 0.14866023307784509 0 -0.48570735055337649 0.14449340913795081 0 -0.49925922394221461 0.16003687947911621 0 -0.49546389145776398 0.16308701247538551 0 -0.49654437597322121 0.14296625399742641 0 -0.49925922394221461 0.16003687947911621 0 -0.49654437597322121 0.14296625399742641 0 -0.48570735055337649 0.14449340913795081 0 -0.49925922394221461 0.16003687947911621 0 -0.5 0.1363266460757406 0 -0.49654437597322121 0.14296625399742641 0 -0.49925922394221461 0.16003687947911621 0 -0.48570735055337649 0.14449340913795081 0 -0.49925922394221461 0.16003687947911621 0 -0.48570735055337649 0.14449340913795081 0 -0.49546389145776398 0.16308701247538551 0 -0.47661157543449162 0.16532048799378909 0 -0.49925922394221461 0.16003687947911621 0 -0.5 0.16469478695411871 0 -0.49925922394221461 0.16003687947911621 0 -0.49546389145776398 0.16308701247538551 0 -0.5 0.16469478695411871 0 -0.49546389145776398 0.16308701247538551 0 -0.5 0.16469478695411871 0 -0.48795890287818172 0.17747622480328701 0 -0.48795890287818172 0.17747622480328701 0 -0.5 0.19096591515044051 0 -0.4755123496152211 0.19245995545728939 0 -0.5 0.16469478695411871 0 -0.48795890287818172 0.17747622480328701 0 -0.5 0.19096591515044051 0 -0.49546389145776398 0.16308701247538551 0 -0.48795890287818172 0.17747622480328701 0 -0.46881827331792347 0.17617345397920059 0 -0.48795890287818172 0.17747622480328701 0 -0.46881827331792347 0.17617345397920059 0 -0.4755123496152211 0.19245995545728939 0 -0.49546389145776398 0.16308701247538551 0 -0.46881827331792347 0.17617345397920059 0 -0.47661157543449162 0.16532048799378909 0 -0.49546389145776398 0.16308701247538551 0 -0.46881827331792347 0.17617345397920059 0 -0.46881827331792347 0.17617345397920059 0 -0.47661157543449162 0.16532048799378909 0 -0.46185610583665399 0.1629494662655285 0 -0.46881827331792347 0.17617345397920059 0 -0.46185610583665399 0.1629494662655285 0 -0.44613060252609321 0.1703760744692728 0 -0.47661157543449162 0.16532048799378909 0 -0.46185610583665399 0.1629494662655285 0 -0.46708314560197051 0.14866023307784509 0 -0.46881827331792347 0.17617345397920059 0 -0.4755123496152211 0.19245995545728939 0 -0.44217265517808269 0.18925989548301519 0 -0.46881827331792347 0.17617345397920059 0 -0.44217265517808269 0.18925989548301519 0 -0.46881827331792347 0.17617345397920059 0 -0.44613060252609321 0.1703760744692728 0 -0.44217265517808269 0.18925989548301519 0 -0.46185610583665399 0.1629494662655285 0 -0.44613060252609321 0.1703760744692728 0 -0.44971688602049331 0.1542325304883467 0 -0.44613060252609321 0.1703760744692728 0 -0.44971688602049331 0.1542325304883467 0 -0.43041577037961443 0.15668839696730641 0 -0.4393214139917323 0.14460759234472151 0 -0.44971688602049331 0.1542325304883467 0 -0.43041577037961443 0.15668839696730641 0 -0.4393214139917323 0.14460759234472151 0 -0.44971688602049331 0.1542325304883467 0 -0.44968682629133111 0.13295997446018029 0 -0.4393214139917323 0.14460759234472151 0 -0.44968682629133111 0.13295997446018029 0 -0.42846113186399659 0.13437151249941909 0 -0.46991697437971058 0.12638246338979581 0 -0.44968682629133111 0.13295997446018029 0 -0.46708314560197051 0.14866023307784509 0 -0.46185610583665399 0.1629494662655285 0 -0.44971688602049331 0.1542325304883467 0 -0.46708314560197051 0.14866023307784509 0 -0.44971688602049331 0.1542325304883467 0 -0.44968682629133111 0.13295997446018029 0 -0.46708314560197051 0.14866023307784509 0 -0.4697666247372328 0.246778541961896 0 -0.5 0.2435081715430846 0 -0.47363116297533631 0.226754593661495 0 -0.5 0.2435081715430846 0 -0.47363116297533631 0.226754593661495 0 -0.5 0.2172370433467625 0 -0.47363116297533631 0.226754593661495 0 -0.48364437975213459 0.20779923113439239 0 -0.46461099041149428 0.20628822922450779 0 -0.48364437975213459 0.20779923113439239 0 -0.5 0.2172370433467625 0 -0.5 0.19096591515044051 0 -0.47363116297533631 0.226754593661495 0 -0.48364437975213459 0.20779923113439239 0 -0.5 0.2172370433467625 0 -0.48364437975213459 0.20779923113439239 0 -0.5 0.19096591515044051 0 -0.4755123496152211 0.19245995545728939 0 -0.48364437975213459 0.20779923113439239 0 -0.4755123496152211 0.19245995545728939 0 -0.46461099041149428 0.20628822922450779 0 -0.4755123496152211 0.19245995545728939 0 -0.44217265517808269 0.18925989548301519 0 -0.46461099041149428 0.20628822922450779 0 -0.44217265517808269 0.18925989548301519 0 -0.46461099041149428 0.20628822922450779 0 -0.44217265517808269 0.18925989548301519 0 -0.44266698117153019 0.20772580261396731 0 -0.46461099041149428 0.20628822922450779 0 -0.44266698117153019 0.20772580261396731 0 -0.46461099041149428 0.20628822922450779 0 -0.44589531302757418 0.2241937500113822 0 -0.44266698117153019 0.20772580261396731 0 -0.44589531302757418 0.2241937500113822 0 -0.42681265787157119 0.22389809705147259 0 -0.47363116297533631 0.226754593661495 0 -0.44589531302757418 0.2241937500113822 0 -0.45227703132625979 0.24254031856665259 0 -0.47363116297533631 0.226754593661495 0 -0.46461099041149428 0.20628822922450779 0 -0.44589531302757418 0.2241937500113822 0 -0.44589531302757418 0.2241937500113822 0 -0.45227703132625979 0.24254031856665259 0 -0.43492665015400073 0.24765803541183851 0 -0.4697666247372328 0.246778541961896 0 -0.45227703132625979 0.24254031856665259 0 -0.46070258907804629 0.26034453476876251 0 -0.4697666247372328 0.246778541961896 0 -0.47363116297533631 0.226754593661495 0 -0.45227703132625979 0.24254031856665259 0 -0.41169286489136492 0.2420245503970109 0 -0.43492665015400073 0.24765803541183851 0 -0.42681265787157119 0.22389809705147259 0 -0.44589531302757418 0.2241937500113822 0 -0.43492665015400073 0.24765803541183851 0 -0.42681265787157119 0.22389809705147259 0 -0.42681265787157119 0.22389809705147259 0 -0.41010746517943147 0.22501810856660809 0 -0.41395441857776838 0.21466535356254179 0 -0.41169286489136492 0.2420245503970109 0 -0.41010746517943147 0.22501810856660809 0 -0.39848310169784751 0.23069419786626769 0 -0.41169286489136492 0.2420245503970109 0 -0.42681265787157119 0.22389809705147259 0 -0.41010746517943147 0.22501810856660809 0 -0.41395441857776838 0.21466535356254179 0 -0.41510395819146839 0.20255412336846901 0 -0.3920525537276402 0.21387534153325369 0 -0.42569545791873059 0.2079810972929059 0 -0.41510395819146839 0.20255412336846901 0 -0.41395441857776838 0.21466535356254179 0 -0.42569545791873059 0.2079810972929059 0 -0.41510395819146839 0.20255412336846901 0 -0.42681265787157119 0.22389809705147259 0 -0.41395441857776838 0.21466535356254179 0 -0.42569545791873059 0.2079810972929059 0 -0.44266698117153019 0.20772580261396731 0 -0.42681265787157119 0.22389809705147259 0 -0.42569545791873059 0.2079810972929059 0 -0.44217265517808269 0.18925989548301519 0 -0.42569545791873059 0.2079810972929059 0 -0.41510395819146839 0.20255412336846901 0 -0.44217265517808269 0.18925989548301519 0 -0.44266698117153019 0.20772580261396731 0 -0.42569545791873059 0.2079810972929059 0 -0.44217265517808269 0.18925989548301519 0 -0.41510395819146839 0.20255412336846901 0 -0.44217265517808269 0.18925989548301519 0 -0.41510395819146839 0.20255412336846901 0 -0.41171920951588198 0.1863261197594662 0 -0.41510395819146839 0.20255412336846901 0 -0.39515840879978881 0.19233423201742419 0 -0.41171920951588198 0.1863261197594662 0 -0.41510395819146839 0.20255412336846901 0 -0.39515840879978881 0.19233423201742419 0 -0.41510395819146839 0.20255412336846901 0 -0.39515840879978881 0.19233423201742419 0 -0.3920525537276402 0.21387534153325369 0 -0.39515840879978881 0.19233423201742419 0 -0.38101957528007507 0.19558147659755079 0 -0.3920525537276402 0.21387534153325369 0 -0.39515840879978881 0.19233423201742419 0 -0.38101957528007507 0.19558147659755079 0 -0.37521285940810861 0.18211434066638041 0 -0.38101957528007507 0.19558147659755079 0 -0.37521285940810861 0.18211434066638041 0 -0.37095721161068029 0.19719176923319681 0 -0.38101957528007507 0.19558147659755079 0 -0.37521285940810861 0.18211434066638041 0 -0.38101957528007507 0.19558147659755079 0 -0.37590864940513352 0.21075356203291459 0 -0.37095721161068029 0.19719176923319681 0 -0.37590864940513352 0.21075356203291459 0 -0.3920525537276402 0.21387534153325369 0 -0.36900114926381172 0.22519655969803809 0 -0.38101957528007507 0.19558147659755079 0 -0.37590864940513352 0.21075356203291459 0 -0.3920525537276402 0.21387534153325369 0 -0.41510395819146839 0.20255412336846901 0 -0.3920525537276402 0.21387534153325369 0 -0.41010746517943147 0.22501810856660809 0 -0.41395441857776838 0.21466535356254179 0 -0.3920525537276402 0.21387534153325369 0 -0.41010746517943147 0.22501810856660809 0 -0.3920525537276402 0.21387534153325369 0 -0.39848310169784751 0.23069419786626769 0 -0.3920525537276402 0.21387534153325369 0 -0.39848310169784751 0.23069419786626769 0 -0.386039657251464 0.2302061138209982 0 -0.3920525537276402 0.21387534153325369 0 -0.36900114926381172 0.22519655969803809 0 -0.3920525537276402 0.21387534153325369 0 -0.386039657251464 0.2302061138209982 0 -0.36900114926381172 0.22519655969803809 0 -0.386039657251464 0.2302061138209982 0 -0.37661380802373873 0.23842031180005979 0 -0.36900114926381172 0.22519655969803809 0 -0.37661380802373873 0.23842031180005979 0 -0.39252296743933662 0.24234687501346749 0 -0.3808842698206959 0.25160229322625349 0 -0.386039657251464 0.2302061138209982 0 -0.37661380802373873 0.23842031180005979 0 -0.39252296743933662 0.24234687501346749 0 -0.37661380802373873 0.23842031180005979 0 -0.37189546908600152 0.24710649406950619 0 -0.3808842698206959 0.25160229322625349 0 -0.41169286489136492 0.2420245503970109 0 -0.39848310169784751 0.23069419786626769 0 -0.39252296743933662 0.24234687501346749 0 -0.41169286489136492 0.2420245503970109 0 -0.39252296743933662 0.24234687501346749 0 -0.39748669628250699 0.25861498906765301 0 -0.39848310169784751 0.23069419786626769 0 -0.386039657251464 0.2302061138209982 0 -0.39252296743933662 0.24234687501346749 0 -0.41728108020441418 0.14673336956544211 0 -0.43041577037961443 0.15668839696730641 0 -0.41708653918283828 0.15885175152504291 0 -0.41728108020441418 0.14673336956544211 0 -0.40706081970745001 0.1498422928203593 0 -0.41708653918283828 0.15885175152504291 0 -0.40706081970745001 0.1498422928203593 0 -0.41708653918283828 0.15885175152504291 0 -0.40363284929875021 0.16001224096591821 0 -0.41728108020441418 0.14673336956544211 0 -0.40706081970745001 0.1498422928203593 0 -0.40762465400961301 0.13495956646335119 0 -0.41488522895406871 0.1192449970498325 0 -0.40762465400961301 0.13495956646335119 0 -0.42846113186399659 0.13437151249941909 0 -0.41728108020441418 0.14673336956544211 0 -0.40762465400961301 0.13495956646335119 0 -0.42846113186399659 0.13437151249941909 0 -0.4333986769481889 0.112266042196451 0 -0.44968682629133111 0.13295997446018029 0 -0.42846113186399659 0.13437151249941909 0 -0.4393214139917323 0.14460759234472151 0 -0.42846113186399659 0.13437151249941909 0 -0.43041577037961443 0.15668839696730641 0 -0.41728108020441418 0.14673336956544211 0 -0.42846113186399659 0.13437151249941909 0 -0.43041577037961443 0.15668839696730641 0 -0.44613060252609321 0.1703760744692728 0 -0.43041577037961443 0.15668839696730641 0 -0.4229027522384165 0.17463606822446659 0 -0.43041577037961443 0.15668839696730641 0 -0.4229027522384165 0.17463606822446659 0 -0.41708653918283828 0.15885175152504291 0 -0.44217265517808269 0.18925989548301519 0 -0.4229027522384165 0.17463606822446659 0 -0.44217265517808269 0.18925989548301519 0 -0.4229027522384165 0.17463606822446659 0 -0.41171920951588198 0.1863261197594662 0 -0.44613060252609321 0.1703760744692728 0 -0.44217265517808269 0.18925989548301519 0 -0.4229027522384165 0.17463606822446659 0 -0.4229027522384165 0.17463606822446659 0 -0.41171920951588198 0.1863261197594662 0 -0.3958269709060534 0.1730300664678304 0 -0.4229027522384165 0.17463606822446659 0 -0.40363284929875021 0.16001224096591821 0 -0.4229027522384165 0.17463606822446659 0 -0.40363284929875021 0.16001224096591821 0 -0.3958269709060534 0.1730300664678304 0 -0.4229027522384165 0.17463606822446659 0 -0.41708653918283828 0.15885175152504291 0 -0.40363284929875021 0.16001224096591821 0 -0.3958269709060534 0.1730300664678304 0 -0.39645196883112571 0.1465307575661402 0 -0.40363284929875021 0.16001224096591821 0 -0.3958269709060534 0.1730300664678304 0 -0.39645196883112571 0.1465307575661402 0 -0.3958269709060534 0.1730300664678304 0 -0.38580029260298032 0.1616138533475904 0 -0.39645196883112571 0.1465307575661402 0 -0.39515840879978881 0.19233423201742419 0 -0.3958269709060534 0.1730300664678304 0 -0.38681605211362802 0.1800842864330838 0 -0.39515840879978881 0.19233423201742419 0 -0.41171920951588198 0.1863261197594662 0 -0.3958269709060534 0.1730300664678304 0 -0.39515840879978881 0.19233423201742419 0 -0.37521285940810861 0.18211434066638041 0 -0.39515840879978881 0.19233423201742419 0 -0.38681605211362802 0.1800842864330838 0 -0.37521285940810861 0.18211434066638041 0 -0.3958269709060534 0.1730300664678304 0 -0.38681605211362802 0.1800842864330838 0 -0.38106596934056158 0.17285850658070021 0 -0.38681605211362802 0.1800842864330838 0 -0.38106596934056158 0.17285850658070021 0 -0.37521285940810861 0.18211434066638041 0 -0.38106596934056158 0.17285850658070021 0 -0.37521285940810861 0.18211434066638041 0 -0.36940079741169912 0.16863480581882531 0 -0.38580029260298032 0.1616138533475904 0 -0.38795086493183351 0.1475449102121959 0 -0.36940079741169912 0.16863480581882531 0 -0.38795086493183351 0.1475449102121959 0 -0.36940079741169912 0.16863480581882531 0 -0.38106596934056158 0.17285850658070021 0 -0.38580029260298032 0.1616138533475904 0 -0.36940079741169912 0.16863480581882531 0 -0.3958269709060534 0.1730300664678304 0 -0.38106596934056158 0.17285850658070021 0 -0.38580029260298032 0.1616138533475904 0 -0.37700340153538109 0.14949247443069749 0 -0.38795086493183351 0.1475449102121959 0 -0.36940079741169912 0.16863480581882531 0 -0.37700340153538109 0.14949247443069749 0 -0.38795086493183351 0.1475449102121959 0 -0.38082038703108162 0.14057405178263521 0 -0.37700340153538109 0.14949247443069749 0 -0.38082038703108162 0.14057405178263521 0 -0.37143337269002891 0.1406957462444772 0 -0.38894150024300472 0.14194602035526591 0 -0.38795086493183351 0.1475449102121959 0 -0.38082038703108162 0.14057405178263521 0 -0.38580029260298032 0.1616138533475904 0 -0.38795086493183351 0.1475449102121959 0 -0.39645196883112571 0.1465307575661402 0 -0.38894150024300472 0.14194602035526591 0 -0.38795086493183351 0.1475449102121959 0 -0.39645196883112571 0.1465307575661402 0 -0.40706081970745001 0.1498422928203593 0 -0.40762465400961301 0.13495956646335119 0 -0.39645196883112571 0.1465307575661402 0 -0.40706081970745001 0.1498422928203593 0 -0.40363284929875021 0.16001224096591821 0 -0.39645196883112571 0.1465307575661402 0 -0.39707696675619802 0.1200314486644503 0 -0.39645196883112571 0.1465307575661402 0 -0.39054278017797828 0.13313436186009231 0 -0.39707696675619802 0.1200314486644503 0 -0.39645196883112571 0.1465307575661402 0 -0.39707696675619802 0.1200314486644503 0 -0.40762465400961301 0.13495956646335119 0 -0.39645196883112571 0.1465307575661402 0 -0.38894150024300472 0.14194602035526591 0 -0.39645196883112571 0.1465307575661402 0 -0.39054278017797828 0.13313436186009231 0 -0.39707696675619802 0.1200314486644503 0 -0.3860036274130878 0.123961055762184 0 -0.39054278017797828 0.13313436186009231 0 -0.3860036274130878 0.123961055762184 0 -0.39054278017797828 0.13313436186009231 0 -0.3757865004079588 0.1288508230644082 0 -0.38894150024300472 0.14194602035526591 0 -0.39054278017797828 0.13313436186009231 0 -0.38082038703108162 0.14057405178263521 0 -0.38082038703108162 0.14057405178263521 0 -0.3757865004079588 0.1288508230644082 0 -0.37143337269002891 0.1406957462444772 0 -0.39054278017797828 0.13313436186009231 0 -0.38082038703108162 0.14057405178263521 0 -0.3757865004079588 0.1288508230644082 0 -0.3757865004079588 0.1288508230644082 0 -0.36365945666973548 0.13075123516802761 0 -0.36537835329425011 0.11658336638688931 0 -0.3757865004079588 0.1288508230644082 0 -0.36365945666973548 0.13075123516802761 0 -0.37143337269002891 0.1406957462444772 0 -0.36365945666973548 0.13075123516802761 0 -0.35864456615364471 0.1436885829187782 0 -0.37143337269002891 0.1406957462444772 0 -0.36365945666973548 0.13075123516802761 0 -0.35864456615364471 0.1436885829187782 0 -0.34788833489559018 0.1187423600187314 0 -0.35864456615364471 0.1436885829187782 0 -0.34788833489559018 0.1187423600187314 0 -0.34936906004984508 0.1365039253897396 0 -0.35864456615364471 0.1436885829187782 0 -0.34788833489559018 0.1187423600187314 0 -0.34936906004984508 0.1365039253897396 0 -0.33713317186269892 0.12811771566020949 0 -0.34788833489559018 0.1187423600187314 0 -0.34936906004984508 0.1365039253897396 0 -0.35022277488156878 0.15663004324405369 0 -0.33692117457573678 0.14205888185722981 0 -0.34936906004984508 0.1365039253897396 0 -0.35864456615364471 0.1436885829187782 0 -0.35022277488156878 0.15663004324405369 0 -0.34936906004984508 0.1365039253897396 0 -0.35022277488156878 0.15663004324405369 0 -0.35864456615364471 0.1436885829187782 0 -0.35886674500735349 0.15681254586861951 0 -0.35022277488156878 0.15663004324405369 0 -0.35864456615364471 0.1436885829187782 0 -0.36940079741169912 0.16863480581882531 0 -0.35864456615364471 0.1436885829187782 0 -0.3699602630724812 0.15162176210927941 0 -0.36940079741169912 0.16863480581882531 0 -0.35864456615364471 0.1436885829187782 0 -0.37143337269002891 0.1406957462444772 0 -0.3699602630724812 0.15162176210927941 0 -0.37700340153538109 0.14949247443069749 0 -0.37143337269002891 0.1406957462444772 0 -0.3699602630724812 0.15162176210927941 0 -0.35864456615364471 0.1436885829187782 0 -0.36940079741169912 0.16863480581882531 0 -0.35886674500735349 0.15681254586861951 0 -0.37700340153538109 0.14949247443069749 0 -0.3699602630724812 0.15162176210927941 0 -0.36940079741169912 0.16863480581882531 0 -0.36940079741169912 0.16863480581882531 0 -0.36207307424430191 0.1707096377479369 0 -0.36045198533109812 0.16595613495424691 0 -0.36940079741169912 0.16863480581882531 0 -0.36207307424430191 0.1707096377479369 0 -0.36303358087775039 0.1758738054537331 0 -0.36207307424430191 0.1707096377479369 0 -0.36045198533109812 0.16595613495424691 0 -0.3563488685336369 0.17244862861211049 0 -0.36940079741169912 0.16863480581882531 0 -0.36045198533109812 0.16595613495424691 0 -0.35886674500735349 0.15681254586861951 0 -0.37521285940810861 0.18211434066638041 0 -0.36303358087775039 0.1758738054537331 0 -0.36468399497056447 0.18816689416062421 0 -0.37521285940810861 0.18211434066638041 0 -0.36940079741169912 0.16863480581882531 0 -0.37521285940810861 0.18211434066638041 0 -0.36940079741169912 0.16863480581882531 0 -0.36303358087775039 0.1758738054537331 0 -0.37521285940810861 0.18211434066638041 0 -0.36303358087775039 0.1758738054537331 0 -0.36940079741169912 0.16863480581882531 0 -0.36303358087775039 0.1758738054537331 0 -0.36207307424430191 0.1707096377479369 0 -0.36303358087775039 0.1758738054537331 0 -0.3563488685336369 0.17244862861211049 0 -0.36303358087775039 0.1758738054537331 0 -0.3563488685336369 0.17244862861211049 0 -0.36303358087775039 0.1758738054537331 0 -0.36468399497056447 0.18816689416062421 0 -0.35159089723275549 0.1888831922535735 0 -0.36303358087775039 0.1758738054537331 0 -0.3563488685336369 0.17244862861211049 0 -0.35159089723275549 0.1888831922535735 0 -0.35090683605716078 0.1727566177488136 0 -0.3462742667478344 0.18347258500627781 0 -0.35159089723275549 0.1888831922535735 0 -0.3563488685336369 0.17244862861211049 0 -0.35090683605716078 0.1727566177488136 0 -0.35159089723275549 0.1888831922535735 0 -0.35090683605716078 0.1727566177488136 0 -0.35159089723275549 0.1888831922535735 0 -0.36303358087775039 0.1758738054537331 0 -0.35159089723275549 0.1888831922535735 0 -0.35090683605716078 0.1727566177488136 0 -0.3462742667478344 0.18347258500627781 0 -0.33735878061649971 0.17614752064458089 0 -0.35090683605716078 0.1727566177488136 0 -0.35022277488156878 0.15663004324405369 0 -0.34178355067170663 0.16506581601580361 0 -0.35090683605716078 0.1727566177488136 0 -0.35022277488156878 0.15663004324405369 0 -0.35090683605716078 0.1727566177488136 0 -0.35535944196216362 0.16492079408556881 0 -0.35022277488156878 0.15663004324405369 0 -0.36045198533109812 0.16595613495424691 0 -0.35886674500735349 0.15681254586861951 0 -0.35535944196216362 0.16492079408556881 0 -0.35886674500735349 0.15681254586861951 0 -0.35022277488156878 0.15663004324405369 0 -0.35886674500735349 0.15681254586861951 0 -0.35535944196216362 0.16492079408556881 0 -0.35022277488156878 0.15663004324405369 0 -0.3563488685336369 0.17244862861211049 0 -0.35090683605716078 0.1727566177488136 0 -0.35535944196216362 0.16492079408556881 0 -0.36045198533109812 0.16595613495424691 0 -0.3563488685336369 0.17244862861211049 0 -0.35535944196216362 0.16492079408556881 0 -0.35022277488156878 0.15663004324405369 0 -0.32947700814807512 0.1561920319110193 0 -0.35022277488156878 0.15663004324405369 0 -0.34178355067170663 0.16506581601580361 0 -0.32947700814807512 0.1561920319110193 0 -0.34178355067170663 0.16506581601580361 0 -0.33735878061649971 0.17614752064458089 0 -0.32947700814807512 0.1561920319110193 0 -0.33735878061649971 0.17614752064458089 0 -0.32947700814807512 0.1561920319110193 0 -0.33735878061649971 0.17614752064458089 0 -0.31962485915832772 0.17075919113522439 0 -0.32947700814807512 0.1561920319110193 0 -0.35090683605716078 0.1727566177488136 0 -0.34178355067170663 0.16506581601580361 0 -0.33735878061649971 0.17614752064458089 0 -0.33735878061649971 0.17614752064458089 0 -0.3181451103870484 0.187522853298456 0 -0.33064859824622861 0.19560218497408571 0 -0.3462742667478344 0.18347258500627781 0 -0.33735878061649971 0.17614752064458089 0 -0.34524055308492452 0.19610300937814229 0 -0.33735878061649971 0.17614752064458089 0 -0.34524055308492452 0.19610300937814229 0 -0.33735878061649971 0.17614752064458089 0 -0.3181451103870484 0.187522853298456 0 -0.31962485915832772 0.17075919113522439 0 -0.3181451103870484 0.187522853298456 0 -0.31962485915832772 0.17075919113522439 0 -0.30399098830610211 0.17817063702591401 0 -0.31962485915832772 0.17075919113522439 0 -0.32947700814807512 0.1561920319110193 0 -0.3091524083339135 0.15576291279615059 0 -0.32002149507353561 0.13225206340963899 0 -0.32947700814807512 0.1561920319110193 0 -0.3091524083339135 0.15576291279615059 0 -0.32002149507353561 0.13225206340963899 0 -0.32947700814807512 0.1561920319110193 0 -0.32947700814807512 0.1561920319110193 0 -0.3091524083339135 0.15576291279615059 0 -0.32002149507353561 0.13225206340963899 0 -0.33713317186269892 0.12811771566020949 0 -0.33692117457573678 0.14205888185722981 0 -0.34936906004984508 0.1365039253897396 0 -0.33713317186269892 0.12811771566020949 0 -0.33692117457573678 0.14205888185722981 0 -0.35022277488156878 0.15663004324405369 0 -0.32947700814807512 0.1561920319110193 0 -0.33692117457573678 0.14205888185722981 0 -0.32002149507353561 0.13225206340963899 0 -0.32947700814807512 0.1561920319110193 0 -0.33692117457573678 0.14205888185722981 0 -0.34811501629049041 0.2400077106365042 0 -0.34100729123518558 0.2479862968857878 0 -0.35424623130922589 0.25148204210355629 0 -0.35360229816990307 0.2363014762157917 0 -0.35800404160218302 0.24520060722922529 0 -0.35945222975769098 0.23791166604246081 0 -0.35360229816990307 0.2363014762157917 0 -0.35945222975769098 0.23791166604246081 0 -0.35827744205992168 0.23097724316103169 0 -0.35360229816990307 0.2363014762157917 0 -0.35424623130922589 0.25148204210355629 0 -0.34811501629049041 0.2400077106365042 0 -0.35360229816990307 0.2363014762157917 0 -0.35424623130922589 0.25148204210355629 0 -0.35360229816990307 0.2363014762157917 0 -0.35800404160218302 0.24520060722922529 0 -0.35424623130922589 0.25148204210355629 0 -0.35800404160218302 0.24520060722922529 0 -0.35424623130922589 0.25148204210355629 0 -0.36161226349133518 0.25054371540632331 0 -0.36399014653455641 0.24319426409251799 0 -0.37189546908600152 0.24710649406950619 0 -0.36161226349133518 0.25054371540632331 0 -0.35800404160218302 0.24520060722922529 0 -0.36399014653455641 0.24319426409251799 0 -0.36161226349133518 0.25054371540632331 0 -0.37661380802373873 0.23842031180005979 0 -0.36399014653455641 0.24319426409251799 0 -0.37189546908600152 0.24710649406950619 0 -0.37661380802373873 0.23842031180005979 0 -0.36399014653455641 0.24319426409251799 0 -0.36439633059403342 0.2338709647272528 0 -0.36399014653455641 0.24319426409251799 0 -0.35945222975769098 0.23791166604246081 0 -0.36439633059403342 0.2338709647272528 0 -0.35800404160218302 0.24520060722922529 0 -0.36399014653455641 0.24319426409251799 0 -0.35945222975769098 0.23791166604246081 0 -0.36439633059403342 0.2338709647272528 0 -0.36900114926381172 0.22519655969803809 0 -0.36097798674739789 0.22568119849162571 0 -0.36439633059403342 0.2338709647272528 0 -0.36097798674739789 0.22568119849162571 0 -0.35827744205992168 0.23097724316103169 0 -0.35945222975769098 0.23791166604246081 0 -0.36439633059403342 0.2338709647272528 0 -0.35827744205992168 0.23097724316103169 0 -0.37661380802373873 0.23842031180005979 0 -0.36439633059403342 0.2338709647272528 0 -0.36900114926381172 0.22519655969803809 0 -0.36900114926381172 0.22519655969803809 0 -0.36126575696078211 0.21722653975729339 0 -0.36815978254056358 0.2153259998961069 0 -0.36900114926381172 0.22519655969803809 0 -0.36097798674739789 0.22568119849162571 0 -0.36126575696078211 0.21722653975729339 0 -0.36097798674739789 0.22568119849162571 0 -0.35295836503058281 0.22112091032802689 0 -0.36126575696078211 0.21722653975729339 0 -0.34811501629049041 0.2400077106365042 0 -0.35360229816990307 0.2363014762157917 0 -0.35295836503058281 0.22112091032802689 0 -0.36097798674739789 0.22568119849162571 0 -0.35295836503058281 0.22112091032802689 0 -0.35827744205992168 0.23097724316103169 0 -0.34811501629049041 0.2400077106365042 0 -0.35295836503058281 0.22112091032802689 0 -0.33193065390600779 0.23097836018250731 0 -0.35295836503058281 0.22112091032802689 0 -0.36126575696078211 0.21722653975729339 0 -0.35360229816990307 0.2363014762157917 0 -0.35295836503058281 0.22112091032802689 0 -0.35360229816990307 0.2363014762157917 0 -0.35295836503058281 0.22112091032802689 0 -0.35827744205992168 0.23097724316103169 0 -0.35295836503058281 0.22112091032802689 0 -0.35269806176192181 0.21498432458744601 0 -0.34005109608426859 0.22094405460469571 0 -0.35865216419900559 0.2097232461333691 0 -0.35269806176192181 0.21498432458744601 0 -0.35159089723275549 0.1888831922535735 0 -0.35269806176192181 0.21498432458744601 0 -0.34524055308492452 0.19610300937814229 0 -0.34268769642644259 0.21058063367583921 0 -0.35269806176192181 0.21498432458744601 0 -0.34524055308492452 0.19610300937814229 0 -0.35269806176192181 0.21498432458744601 0 -0.34268769642644259 0.21058063367583921 0 -0.34005109608426859 0.22094405460469571 0 -0.35295836503058281 0.22112091032802689 0 -0.35269806176192181 0.21498432458744601 0 -0.36126575696078211 0.21722653975729339 0 -0.35865216419900559 0.2097232461333691 0 -0.35269806176192181 0.21498432458744601 0 -0.36126575696078211 0.21722653975729339 0 -0.35295836503058281 0.22112091032802689 0 -0.35269806176192181 0.21498432458744601 0 -0.35865216419900559 0.2097232461333691 0 -0.36126575696078211 0.21722653975729339 0 -0.36646357453252709 0.20812733809618161 0 -0.36126575696078211 0.21722653975729339 0 -0.36815978254056358 0.2153259998961069 0 -0.36646357453252709 0.20812733809618161 0 -0.37590864940513352 0.21075356203291459 0 -0.36815978254056358 0.2153259998961069 0 -0.36646357453252709 0.20812733809618161 0 -0.37590864940513352 0.21075356203291459 0 -0.36900114926381172 0.22519655969803809 0 -0.36815978254056358 0.2153259998961069 0 -0.37590864940513352 0.21075356203291459 0 -0.36646357453252709 0.20812733809618161 0 -0.37095721161068029 0.19719176923319681 0 -0.35865216419900559 0.2097232461333691 0 -0.36646357453252709 0.20812733809618161 0 -0.36245461606767321 0.1984070038455292 0 -0.36646357453252709 0.20812733809618161 0 -0.36245461606767321 0.1984070038455292 0 -0.37095721161068029 0.19719176923319681 0 -0.37521285940810861 0.18211434066638041 0 -0.37095721161068029 0.19719176923319681 0 -0.36468399497056447 0.18816689416062421 0 -0.36245461606767321 0.1984070038455292 0 -0.36468399497056447 0.18816689416062421 0 -0.35159089723275549 0.1888831922535735 0 -0.36245461606767321 0.1984070038455292 0 -0.37095721161068029 0.19719176923319681 0 -0.36468399497056447 0.18816689416062421 0 -0.35865216419900559 0.2097232461333691 0 -0.36245461606767321 0.1984070038455292 0 -0.35159089723275549 0.1888831922535735 0 -0.35269806176192181 0.21498432458744601 0 -0.35159089723275549 0.1888831922535735 0 -0.35269806176192181 0.21498432458744601 0 -0.35159089723275549 0.1888831922535735 0 -0.34524055308492452 0.19610300937814229 0 -0.3462742667478344 0.18347258500627781 0 -0.35159089723275549 0.1888831922535735 0 -0.34524055308492452 0.19610300937814229 0 -0.35159089723275549 0.1888831922535735 0 -0.34524055308492452 0.19610300937814229 0 -0.33735878061649971 0.17614752064458089 0 -0.34524055308492452 0.19610300937814229 0 -0.33064859824622861 0.19560218497408571 0 -0.34524055308492452 0.19610300937814229 0 -0.33064859824622861 0.19560218497408571 0 -0.33276107477465933 0.2102911461330714 0 -0.3181451103870484 0.187522853298456 0 -0.33064859824622861 0.19560218497408571 0 -0.31651884423546811 0.20392247041802261 0 -0.3181451103870484 0.187522853298456 0 -0.31651884423546811 0.20392247041802261 0 -0.30319141061825261 0.1936121727856133 0 -0.33064859824622861 0.19560218497408571 0 -0.31651884423546811 0.20392247041802261 0 -0.33276107477465933 0.2102911461330714 0 -0.31651884423546811 0.20392247041802261 0 -0.33276107477465933 0.2102911461330714 0 -0.32028159646438942 0.2244792828879964 0 -0.33276107477465933 0.2102911461330714 0 -0.32028159646438942 0.2244792828879964 0 -0.33276107477465933 0.2102911461330714 0 -0.34005109608426859 0.22094405460469571 0 -0.32028159646438942 0.2244792828879964 0 -0.34524055308492452 0.19610300937814229 0 -0.33276107477465933 0.2102911461330714 0 -0.34524055308492452 0.19610300937814229 0 -0.33276107477465933 0.2102911461330714 0 -0.34268769642644259 0.21058063367583921 0 -0.33276107477465933 0.2102911461330714 0 -0.34268769642644259 0.21058063367583921 0 -0.34005109608426859 0.22094405460469571 0 -0.35295836503058281 0.22112091032802689 0 -0.34005109608426859 0.22094405460469571 0 -0.33193065390600779 0.23097836018250731 0 -0.34005109608426859 0.22094405460469571 0 -0.33193065390600779 0.23097836018250731 0 -0.32028159646438942 0.2244792828879964 0 -0.35295836503058281 0.22112091032802689 0 -0.33193065390600779 0.23097836018250731 0 -0.33193065390600779 0.23097836018250731 0 -0.31469186555211698 0.23157784399510159 0 -0.32028159646438942 0.2244792828879964 0 -0.33193065390600779 0.23097836018250731 0 -0.32028159646438942 0.2244792828879964 0 -0.32590405962885999 0.23988872612192449 0 -0.30600627897915322 0.24313128659167671 0 -0.32047046373798599 0.2502031592616149 0 -0.33193065390600779 0.23097836018250731 0 -0.32590405962885999 0.23988872612192449 0 -0.30600627897915322 0.24313128659167671 0 -0.33193065390600779 0.23097836018250731 0 -0.30600627897915322 0.24313128659167671 0 -0.33193065390600779 0.23097836018250731 0 -0.31469186555211698 0.23157784399510159 0 -0.30600627897915322 0.24313128659167671 0 -0.32590405962885999 0.23988872612192449 0 -0.32995983150266661 0.2491006168402228 0 -0.32047046373798599 0.2502031592616149 0 -0.34811501629049041 0.2400077106365042 0 -0.33193065390600779 0.23097836018250731 0 -0.34811501629049041 0.2400077106365042 0 -0.33193065390600779 0.23097836018250731 0 -0.33601133230185309 0.23986401650612449 0 -0.32590405962885999 0.23988872612192449 0 -0.33601133230185309 0.23986401650612449 0 -0.34100729123518558 0.2479862968857878 0 -0.32590405962885999 0.23988872612192449 0 -0.32995983150266661 0.2491006168402228 0 -0.34100729123518558 0.2479862968857878 0 -0.32590405962885999 0.23988872612192449 0 -0.34100729123518558 0.2479862968857878 0 -0.33193065390600779 0.23097836018250731 0 -0.32590405962885999 0.23988872612192449 0 -0.33601133230185309 0.23986401650612449 0 -0.34811501629049041 0.2400077106365042 0 -0.33601133230185309 0.23986401650612449 0 -0.34100729123518558 0.2479862968857878 0 -0.29122835622127508 0.24014316225426671 0 -0.27480113641271919 0.24745000839391201 0 -0.28008190405229821 0.25528421300084542 0 -0.30600627897915322 0.24313128659167671 0 -0.28008190405229821 0.25528421300084542 0 -0.29122835622127508 0.24014316225426671 0 -0.28279689476843312 0.22837286286544189 0 -0.27480113641271919 0.24745000839391201 0 -0.29122835622127508 0.24014316225426671 0 -0.30600627897915322 0.24313128659167671 0 -0.28008190405229821 0.25528421300084542 0 -0.29122835622127508 0.24014316225426671 0 -0.27480113641271919 0.24745000839391201 0 -0.29122835622127508 0.24014316225426671 0 -0.30600627897915322 0.24313128659167671 0 -0.30176101379148978 0.2263444103457421 0 -0.31469186555211698 0.23157784399510159 0 -0.30600627897915322 0.24313128659167671 0 -0.30176101379148978 0.2263444103457421 0 -0.32028159646438942 0.2244792828879964 0 -0.30176101379148978 0.2263444103457421 0 -0.29502960845379611 0.21039105105092359 0 -0.31469186555211698 0.23157784399510159 0 -0.32028159646438942 0.2244792828879964 0 -0.30176101379148978 0.2263444103457421 0 -0.29122835622127508 0.24014316225426671 0 -0.30176101379148978 0.2263444103457421 0 -0.28279689476843312 0.22837286286544189 0 -0.30176101379148978 0.2263444103457421 0 -0.28279689476843312 0.22837286286544189 0 -0.29502960845379611 0.21039105105092359 0 -0.29502960845379611 0.21039105105092359 0 -0.26977762044320291 0.1963028192138509 0 -0.28279689476843312 0.22837286286544189 0 -0.29502960845379611 0.21039105105092359 0 -0.27079117104308542 0.2157136142144423 0 -0.31651884423546811 0.20392247041802261 0 -0.32028159646438942 0.2244792828879964 0 -0.29502960845379611 0.21039105105092359 0 -0.32028159646438942 0.2244792828879964 0 -0.29502960845379611 0.21039105105092359 0 -0.31651884423546811 0.20392247041802261 0 -0.29502960845379611 0.21039105105092359 0 -0.30319141061825261 0.1936121727856133 0 -0.29502960845379611 0.21039105105092359 0 -0.26977762044320291 0.1963028192138509 0 -0.28550226382720639 0.1864582247946692 0 -0.29502960845379611 0.21039105105092359 0 -0.30319141061825261 0.1936121727856133 0 -0.28550226382720639 0.1864582247946692 0 -0.26977762044320291 0.1963028192138509 0 -0.28550226382720639 0.1864582247946692 0 -0.26544507544794732 0.18149510010624201 0 -0.26977762044320291 0.1963028192138509 0 -0.25153902896373131 0.21293985347282809 0 -0.2519707574243587 0.18424723025062709 0 -0.25153902896373131 0.21293985347282809 0 -0.2519707574243587 0.18424723025062709 0 -0.26977762044320291 0.1963028192138509 0 -0.25153902896373131 0.21293985347282809 0 -0.27079117104308542 0.2157136142144423 0 -0.25153902896373131 0.21293985347282809 0 -0.25142811322019359 0.22031130087314299 0 -0.29502960845379611 0.21039105105092359 0 -0.26977762044320291 0.1963028192138509 0 -0.27079117104308542 0.2157136142144423 0 -0.28279689476843312 0.22837286286544189 0 -0.27079117104308542 0.2157136142144423 0 -0.26317008268822811 0.23019493093336821 0 -0.25142811322019359 0.22031130087314299 0 -0.25115398850404869 0.2385295975885435 0 -0.25153902896373131 0.21293985347282809 0 -0.25754307823334438 0.22362703709826251 0 -0.26317008268822811 0.23019493093336821 0 -0.25754307823334438 0.22362703709826251 0 -0.25142811322019359 0.22031130087314299 0 -0.25115398850404869 0.2385295975885435 0 -0.25153902896373131 0.21293985347282809 0 -0.26317008268822811 0.23019493093336821 0 -0.25153902896373131 0.21293985347282809 0 -0.27079117104308542 0.2157136142144423 0 -0.26317008268822811 0.23019493093336821 0 -0.25754307823334438 0.22362703709826251 0 -0.25142811322019359 0.22031130087314299 0 -0.25153902896373131 0.21293985347282809 0 -0.25754307823334438 0.22362703709826251 0 -0.25142811322019359 0.22031130087314299 0 -0.25754307823334438 0.22362703709826251 0 -0.26317008268822811 0.23019493093336821 0 -0.25115398850404869 0.2385295975885435 0 -0.26119289255077732 0.24321224665890809 0 -0.27480113641271919 0.24745000839391201 0 -0.2526957767415019 0.25728249763198752 0 -0.26317008268822811 0.23019493093336821 0 -0.25115398850404869 0.2385295975885435 0 -0.26119289255077732 0.24321224665890809 0 -0.25115398850404869 0.2385295975885435 0 -0.26119289255077732 0.24321224665890809 0 -0.2526957767415019 0.25728249763198752 0 -0.25115398850404869 0.2385295975885435 0 -0.25087986378790578 0.25674789430394418 0 -0.26317008268822811 0.23019493093336821 0 -0.27480113641271919 0.24745000839391201 0 -0.28279689476843312 0.22837286286544189 0 -0.26317008268822811 0.23019493093336821 0 -0.27480113641271919 0.24745000839391201 0 -0.26317008268822811 0.23019493093336821 0 -0.26119289255077732 0.24321224665890809 0 -0.27480113641271919 0.24745000839391201 0 -0.28882780851975193 0.15533379368127831 0 -0.29794308360040278 0.13168936068279191 0 -0.27071730257997911 0.13199363759356911 0 -0.32002149507353561 0.13225206340963899 0 -0.29794308360040278 0.13168936068279191 0 -0.3091524083339135 0.15576291279615059 0 -0.28882780851975193 0.15533379368127831 0 -0.29794308360040278 0.13168936068279191 0 -0.3091524083339135 0.15576291279615059 0 -0.28882780851975193 0.15533379368127831 0 -0.3091524083339135 0.15576291279615059 0 -0.31962485915832772 0.17075919113522439 0 -0.3091524083339135 0.15576291279615059 0 -0.30399098830610211 0.17817063702591401 0 -0.3091524083339135 0.15576291279615059 0 -0.30399098830610211 0.17817063702591401 0 -0.29047195905341111 0.16779548246038781 0 -0.30319141061825261 0.1936121727856133 0 -0.30399098830610211 0.17817063702591401 0 -0.28550226382720639 0.1864582247946692 0 -0.3181451103870484 0.187522853298456 0 -0.30319141061825261 0.1936121727856133 0 -0.30399098830610211 0.17817063702591401 0 -0.30399098830610211 0.17817063702591401 0 -0.28550226382720639 0.1864582247946692 0 -0.29047195905341111 0.16779548246038781 0 -0.28550226382720639 0.1864582247946692 0 -0.29047195905341111 0.16779548246038781 0 -0.27441734209299401 0.1723670198049968 0 -0.28882780851975193 0.15533379368127831 0 -0.3091524083339135 0.15576291279615059 0 -0.29047195905341111 0.16779548246038781 0 -0.28882780851975193 0.15533379368127831 0 -0.29047195905341111 0.16779548246038781 0 -0.28668102045036431 0.16034850302916789 0 -0.29047195905341111 0.16779548246038781 0 -0.28668102045036431 0.16034850302916789 0 -0.27848056748033329 0.1627815253557453 0 -0.28882780851975193 0.15533379368127831 0 -0.28668102045036431 0.16034850302916789 0 -0.27848056748033329 0.1627815253557453 0 -0.26750297584778071 0.1643053748758099 0 -0.27441734209299401 0.1723670198049968 0 -0.25845045610245959 0.1699951684954159 0 -0.29047195905341111 0.16779548246038781 0 -0.27848056748033329 0.1627815253557453 0 -0.27441734209299401 0.1723670198049968 0 -0.27848056748033329 0.1627815253557453 0 -0.26750297584778071 0.1643053748758099 0 -0.262095046409418 0.15476937719487049 0 -0.28882780851975193 0.15533379368127831 0 -0.27848056748033329 0.1627815253557453 0 -0.262095046409418 0.15476937719487049 0 -0.27848056748033329 0.1627815253557453 0 -0.26750297584778071 0.1643053748758099 0 -0.27441734209299401 0.1723670198049968 0 -0.27441734209299401 0.1723670198049968 0 -0.26544507544794732 0.18149510010624201 0 -0.25845045610245959 0.1699951684954159 0 -0.28550226382720639 0.1864582247946692 0 -0.27441734209299401 0.1723670198049968 0 -0.26544507544794732 0.18149510010624201 0 -0.26977762044320291 0.1963028192138509 0 -0.26544507544794732 0.18149510010624201 0 -0.2519707574243587 0.18424723025062709 0 -0.26544507544794732 0.18149510010624201 0 -0.2519707574243587 0.18424723025062709 0 -0.25845045610245959 0.1699951684954159 0 -0.2519707574243587 0.18424723025062709 0 -0.25845045610245959 0.1699951684954159 0 -0.25240248588498698 0.15555460702842641 0 -0.2519707574243587 0.18424723025062709 0 -0.25240248588498698 0.15555460702842641 0 -0.26011274106116128 0.16115613189863071 0 -0.25240248588498698 0.15555460702842641 0 -0.262095046409418 0.15476937719487049 0 -0.26750297584778071 0.1643053748758099 0 -0.26011274106116128 0.16115613189863071 0 -0.262095046409418 0.15476937719487049 0 -0.26750297584778071 0.1643053748758099 0 -0.26011274106116128 0.16115613189863071 0 -0.25845045610245959 0.1699951684954159 0 -0.26011274106116128 0.16115613189863071 0 -0.25845045610245959 0.1699951684954159 0 -0.25240248588498698 0.15555460702842641 0 -0.25240248588498698 0.15555460702842641 0 -0.25283421434561532 0.1268619838062256 0 -0.25240248588498698 0.15555460702842641 0 -0.26177728296005742 0.14284772753414271 0 -0.25283421434561532 0.1268619838062256 0 -0.26177728296005742 0.14284772753414271 0 -0.262095046409418 0.15476937719487049 0 -0.27085436011730191 0.14623613400096491 0 -0.25240248588498698 0.15555460702842641 0 -0.26177728296005742 0.14284772753414271 0 -0.262095046409418 0.15476937719487049 0 -0.28882780851975193 0.15533379368127831 0 -0.27071730257997911 0.13199363759356911 0 -0.28882780851975193 0.15533379368127831 0 -0.262095046409418 0.15476937719487049 0 -0.28882780851975193 0.15533379368127831 0 -0.27085436011730191 0.14623613400096491 0 -0.27071730257997911 0.13199363759356911 0 -0.28882780851975193 0.15533379368127831 0 -0.262095046409418 0.15476937719487049 0 -0.27085436011730191 0.14623613400096491 0 -0.26177728296005742 0.14284772753414271 0 -0.27085436011730191 0.14623613400096491 0 -0.27071730257997911 0.13199363759356911 0 -0.26177728296005742 0.14284772753414271 0 -0.27071730257997911 0.13199363759356911 0 -0.25283421434561532 0.1268619838062256 0 -0.27071730257997911 0.13199363759356911 0 -0.25283421434561532 0.1268619838062256 0 -0.25260679664020508 0.108653481505861 0 -0.27071730257997911 0.13199363759356911 0 -0.25260679664020508 0.108653481505861 0 -0.27071730257997911 0.13199363759356911 0 -0.25260679664020508 0.108653481505861 0 -0.27083843989273021 0.10360891258907801 0 -0.25260679664020508 0.108653481505861 0 -0.27083843989273021 0.10360891258907801 0 -0.26148576369579651 0.086926222179072615 0 -0.25260679664020508 0.108653481505861 0 -0.26148576369579651 0.086926222179072615 0 -0.24825070137420599 0.08822620104569498 0 -0.27083843989273021 0.10360891258907801 0 -0.28837350509624188 0.10648166170785579 0 -0.28100883145142858 0.083989559959031374 0 -0.27071730257997911 0.13199363759356911 0 -0.27083843989273021 0.10360891258907801 0 -0.28837350509624188 0.10648166170785579 0 -0.29794308360040278 0.13168936068279191 0 -0.27071730257997911 0.13199363759356911 0 -0.28837350509624188 0.10648166170785579 0 -0.31056598199899382 0.1083120949082596 0 -0.30111046892445198 0.084372126406880341 0 -0.31947526535574561 0.09370477242134187 0 -0.31056598199899382 0.1083120949082596 0 -0.30111046892445198 0.084372126406880341 0 -0.28837350509624188 0.10648166170785579 0 -0.31056598199899382 0.1083120949082596 0 -0.30111046892445198 0.084372126406880341 0 -0.32002149507353561 0.13225206340963899 0 -0.29794308360040278 0.13168936068279191 0 -0.31056598199899382 0.1083120949082596 0 -0.29794308360040278 0.13168936068279191 0 -0.28837350509624188 0.10648166170785579 0 -0.31056598199899382 0.1083120949082596 0 -0.30786169804075147 0.069354624227088199 0 -0.30111046892445198 0.084372126406880341 0 -0.29165495584990958 0.060432157905501258 0 -0.30786169804075147 0.069354624227088199 0 -0.30111046892445198 0.084372126406880341 0 -0.31965440598829481 0.078129974809533556 0 -0.30786169804075147 0.069354624227088199 0 -0.29165495584990958 0.060432157905501258 0 -0.30809996351753621 0.057983772174615568 0 -0.30786169804075147 0.069354624227088199 0 -0.30809996351753621 0.057983772174615568 0 -0.31878869592356479 0.065855089838910169 0 -0.28837350509624188 0.10648166170785579 0 -0.30111046892445198 0.084372126406880341 0 -0.28100883145142858 0.083989559959031374 0 -0.30111046892445198 0.084372126406880341 0 -0.29165495584990958 0.060432157905501258 0 -0.30111046892445198 0.084372126406880341 0 -0.28100883145142858 0.083989559959031374 0 -0.29165495584990958 0.060432157905501258 0 -0.28100883145142858 0.083989559959031374 0 -0.26391889960040238 0.064561591331428803 0 -0.29165495584990958 0.060432157905501258 0 -0.28100883145142858 0.083989559959031374 0 -0.26391889960040238 0.064561591331428803 0 -0.27083843989273021 0.10360891258907801 0 -0.28100883145142858 0.083989559959031374 0 -0.26148576369579651 0.086926222179072615 0 -0.28100883145142858 0.083989559959031374 0 -0.26148576369579651 0.086926222179072615 0 -0.26391889960040238 0.064561591331428803 0 -0.26148576369579651 0.086926222179072615 0 -0.25138779661809041 0.077660573920342188 0 -0.24825070137420599 0.08822620104569498 0 -0.26391889960040238 0.064561591331428803 0 -0.25138779661809041 0.077660573920342188 0 -0.243513844780578 0.067599561642452954 0 -0.26391889960040238 0.064561591331428803 0 -0.243513844780578 0.067599561642452954 0 -0.26148576369579651 0.086926222179072615 0 -0.26391889960040238 0.064561591331428803 0 -0.25138779661809041 0.077660573920342188 0 -0.26391889960040238 0.064561591331428803 0 -0.2443720025925735 0.06529512410861317 0 -0.243513844780578 0.067599561642452954 0 -0.26391889960040238 0.064561591331428803 0 -0.25305719961821771 0.052213925563313057 0 -0.2443720025925735 0.06529512410861317 0 -0.26391889960040238 0.064561591331428803 0 -0.25305719961821771 0.052213925563313057 0 -0.27439017230815499 0.048226076158711322 0 -0.26391889960040238 0.064561591331428803 0 -0.25305719961821771 0.052213925563313057 0 -0.25305719961821771 0.052213925563313057 0 -0.26661292332330522 0.031796989403095208 0 -0.23866201042514501 0.035849361534072498 0 -0.25305719961821771 0.052213925563313057 0 -0.26661292332330522 0.031796989403095208 0 -0.25305719961821771 0.052213925563313057 0 -0.26661292332330522 0.031796989403095208 0 -0.27439017230815499 0.048226076158711322 0 -0.26661292332330522 0.031796989403095208 0 -0.27439017230815499 0.048226076158711322 0 -0.28405009312871171 0.031586396751559782 0 -0.26391889960040238 0.064561591331428803 0 -0.29165495584990958 0.060432157905501258 0 -0.26391889960040238 0.064561591331428803 0 -0.27439017230815499 0.048226076158711322 0 -0.29165495584990958 0.060432157905501258 0 -0.26129007469328452 -0.01175620120180206 0 -0.26365804434625278 0.010739703857289029 0 -0.24960084376701569 0.0020560893945085678 0 -0.26365804434625278 0.010739703857289029 0 -0.25079421002476948 0.02110945866695265 0 -0.24960084376701569 0.0020560893945085678 0 -0.26661292332330522 0.031796989403095208 0 -0.26365804434625278 0.010739703857289029 0 -0.25079421002476948 0.02110945866695265 0 -0.26661292332330522 0.031796989403095208 0 -0.25079421002476948 0.02110945866695265 0 -0.23866201042514501 0.035849361534072498 0 -0.26661292332330522 0.031796989403095208 0 -0.28016864702839289 0.01138005324287753 0 -0.26661292332330522 0.031796989403095208 0 -0.28016864702839289 0.01138005324287753 0 -0.28405009312871171 0.031586396751559782 0 -0.26661292332330522 0.031796989403095208 0 -0.26365804434625278 0.010739703857289029 0 -0.28016864702839289 0.01138005324287753 0 -0.27499301778672641 -0.0036671053792906058 0 -0.26365804434625278 0.010739703857289029 0 -0.28016864702839289 0.01138005324287753 0 -0.29372437073348062 -0.0090368829173401739 0 -0.28016864702839289 0.01138005324287753 0 -0.30222657664053859 0.011676498958688591 0 -0.29372437073348062 -0.0090368829173401739 0 -0.28016864702839289 0.01138005324287753 0 -0.30222657664053859 0.011676498958688591 0 -0.28405009312871171 0.031586396751559782 0 -0.30136481319622521 0.033659970736517081 0 -0.28016864702839289 0.01138005324287753 0 -0.30222657664053859 0.011676498958688591 0 -0.28405009312871171 0.031586396751559782 0 -0.30222657664053859 0.011676498958688591 0 -0.30136481319622521 0.033659970736517081 0 -0.31874309094751457 0.024377692297750459 0 -0.27439017230815499 0.048226076158711322 0 -0.29165495584990958 0.060432157905501258 0 -0.28704696232838361 0.048765395997368982 0 -0.29165495584990958 0.060432157905501258 0 -0.28704696232838361 0.048765395997368982 0 -0.2999065103685411 0.049428465351160911 0 -0.29165495584990958 0.060432157905501258 0 -0.28704696232838361 0.048765395997368982 0 -0.28704696232838361 0.048765395997368982 0 -0.30136481319622521 0.033659970736517081 0 -0.2999065103685411 0.049428465351160911 0 -0.27439017230815499 0.048226076158711322 0 -0.28704696232838361 0.048765395997368982 0 -0.28405009312871171 0.031586396751559782 0 -0.28704696232838361 0.048765395997368982 0 -0.28405009312871171 0.031586396751559782 0 -0.30136481319622521 0.033659970736517081 0 -0.30136481319622521 0.033659970736517081 0 -0.311365856950651 0.046301029941801478 0 -0.2999065103685411 0.049428465351160911 0 -0.29165495584990958 0.060432157905501258 0 -0.2999065103685411 0.049428465351160911 0 -0.30809996351753621 0.057983772174615568 0 -0.311365856950651 0.046301029941801478 0 -0.2999065103685411 0.049428465351160911 0 -0.30809996351753621 0.057983772174615568 0 -0.29165495584990958 0.060432157905501258 0 -0.30809996351753621 0.057983772174615568 0 -0.30809996351753621 0.057983772174615568 0 -0.32454497118516262 0.055535386443729733 0 -0.32334637081392409 0.046375216376424173 0 -0.30809996351753621 0.057983772174615568 0 -0.32454497118516262 0.055535386443729733 0 -0.31878869592356479 0.065855089838910169 0 -0.30809996351753621 0.057983772174615568 0 -0.32454497118516262 0.055535386443729733 0 -0.32454497118516262 0.055535386443729733 0 -0.32334637081392409 0.046375216376424173 0 -0.32494635397484678 0.043533482274954967 0 -0.311365856950651 0.046301029941801478 0 -0.30809996351753621 0.057983772174615568 0 -0.32334637081392409 0.046375216376424173 0 -0.30136481319622521 0.033659970736517081 0 -0.32494635397484678 0.043533482274954967 0 -0.311365856950651 0.046301029941801478 0 -0.32334637081392409 0.046375216376424173 0 -0.32494635397484678 0.043533482274954967 0 -0.30136481319622521 0.033659970736517081 0 -0.32494635397484678 0.043533482274954967 0 -0.31874309094751457 0.024377692297750459 0 -0.30136481319622521 0.033659970736517081 0 -0.311365856950651 0.046301029941801478 0 -0.32494635397484678 0.043533482274954967 0 -0.32334637081392409 0.046375216376424173 0 -0.32494635397484678 0.043533482274954967 0 -0.32494635397484678 0.043533482274954967 0 -0.33765811737240659 0.02095608745046694 0 -0.34928920235976868 0.032606936511131668 0 -0.32494635397484678 0.043533482274954967 0 -0.33765811737240659 0.02095608745046694 0 -0.32494635397484678 0.043533482274954967 0 -0.35088079851744031 0.054392146678550413 0 -0.34928920235976868 0.032606936511131668 0 -0.32454497118516262 0.055535386443729733 0 -0.32494635397484678 0.043533482274954967 0 -0.35088079851744031 0.054392146678550413 0 -0.32494635397484678 0.043533482274954967 0 -0.35088079851744031 0.054392146678550413 0 -0.32454497118516262 0.055535386443729733 0 -0.35088079851744031 0.054392146678550413 0 -0.33836371064776438 0.069956278474292047 0 -0.32714351527857533 0.00054238644801803419 0 -0.31874309094751457 0.024377692297750459 0 -0.33765811737240659 0.02095608745046694 0 -0.31105552914382723 -0.010423022317807191 0 -0.30222657664053859 0.011676498958688591 0 -0.32714351527857533 0.00054238644801803419 0 -0.30222657664053859 0.011676498958688591 0 -0.32714351527857533 0.00054238644801803419 0 -0.31874309094751457 0.024377692297750459 0 -0.32494635397484678 0.043533482274954967 0 -0.31874309094751457 0.024377692297750459 0 -0.33765811737240659 0.02095608745046694 0 -0.35036988076996728 -0.001621307374020602 0 -0.32714351527857533 0.00054238644801803419 0 -0.33765811737240659 0.02095608745046694 0 -0.35036988076996728 -0.001621307374020602 0 -0.33765811737240659 0.02095608745046694 0 -0.35310226398090661 0.01694554148424595 0 -0.35036988076996728 -0.001621307374020602 0 -0.33765811737240659 0.02095608745046694 0 -0.35036988076996728 -0.001621307374020602 0 -0.35310226398090661 0.01694554148424595 0 -0.3706940928529856 0.017688088116135699 0 -0.35310226398090661 0.01694554148424595 0 -0.3706940928529856 0.017688088116135699 0 -0.34928920235976868 0.032606936511131668 0 -0.33765811737240659 0.02095608745046694 0 -0.35310226398090661 0.01694554148424595 0 -0.34928920235976868 0.032606936511131668 0 -0.3706940928529856 0.017688088116135699 0 -0.34928920235976868 0.032606936511131668 0 -0.36935345872157233 0.042470052639596932 0 -0.37386683033107732 -0.0057703736779719239 0 -0.35036988076996728 -0.001621307374020602 0 -0.3706940928529856 0.017688088116135699 0 -0.34928920235976868 0.032606936511131668 0 -0.36935345872157233 0.042470052639596932 0 -0.35088079851744031 0.054392146678550413 0 -0.34928920235976868 0.032606936511131668 0 -0.36935345872157233 0.042470052639596932 0 -0.38347171402920532 0.035392599189949039 0 -0.3706940928529856 0.017688088116135699 0 -0.36935345872157233 0.042470052639596932 0 -0.37681524306003711 0.065250811082137608 0 -0.35088079851744031 0.054392146678550413 0 -0.36935345872157233 0.042470052639596932 0 -0.37681524306003711 0.065250811082137608 0 -0.35088079851744031 0.054392146678550413 0 -0.37681524306003711 0.065250811082137608 0 -0.35732853538923343 0.072215490624652517 0 -0.37429617338574228 0.086844948952546519 0 -0.37681524306003711 0.065250811082137608 0 -0.35088079851744031 0.054392146678550413 0 -0.35732853538923343 0.072215490624652517 0 -0.35088079851744031 0.054392146678550413 0 -0.35732853538923343 0.072215490624652517 0 -0.33836371064776438 0.069956278474292047 0 -0.35732853538923343 0.072215490624652517 0 -0.35631511111815778 0.090177128485904826 0 -0.33836371064776438 0.069956278474292047 0 -0.35631511111815778 0.090177128485904826 0 -0.33713210363753571 0.093796137118684564 0 -0.33836371064776438 0.069956278474292047 0 -0.35732853538923343 0.072215490624652517 0 -0.35631511111815778 0.090177128485904826 0 -0.37429617338574228 0.086844948952546519 0 -0.35631511111815778 0.090177128485904826 0 -0.37429617338574228 0.086844948952546519 0 -0.36875202228408638 0.1025718974637901 0 -0.37913303111269347 0.1011472026539591 0 -0.37429617338574228 0.086844948952546519 0 -0.36875202228408638 0.1025718974637901 0 -0.36875202228408638 0.1025718974637901 0 -0.36537835329425011 0.11658336638688931 0 -0.35557554319791368 0.1047562931465936 0 -0.35631511111815778 0.090177128485904826 0 -0.36875202228408638 0.1025718974637901 0 -0.35557554319791368 0.1047562931465936 0 -0.38060826231021638 0.1138275894597852 0 -0.3757865004079588 0.1288508230644082 0 -0.36537835329425011 0.11658336638688931 0 -0.38060826231021638 0.1138275894597852 0 -0.36875202228408638 0.1025718974637901 0 -0.36537835329425011 0.11658336638688931 0 -0.36365945666973548 0.13075123516802761 0 -0.36537835329425011 0.11658336638688931 0 -0.34788833489559018 0.1187423600187314 0 -0.36537835329425011 0.11658336638688931 0 -0.34788833489559018 0.1187423600187314 0 -0.35557554319791368 0.1047562931465936 0 -0.35631511111815778 0.090177128485904826 0 -0.35557554319791368 0.1047562931465936 0 -0.33713210363753571 0.093796137118684564 0 -0.34788833489559018 0.1187423600187314 0 -0.35557554319791368 0.1047562931465936 0 -0.33713210363753571 0.093796137118684564 0 -0.33713210363753571 0.093796137118684564 0 -0.33004502997043911 0.11169837990762441 0 -0.31947526535574561 0.09370477242134187 0 -0.34788833489559018 0.1187423600187314 0 -0.33713210363753571 0.093796137118684564 0 -0.34788833489559018 0.1187423600187314 0 -0.33713210363753571 0.093796137118684564 0 -0.33004502997043911 0.11169837990762441 0 -0.32002149507353561 0.13225206340963899 0 -0.33713317186269892 0.12811771566020949 0 -0.33004502997043911 0.11169837990762441 0 -0.33713317186269892 0.12811771566020949 0 -0.34788833489559018 0.1187423600187314 0 -0.33004502997043911 0.11169837990762441 0 -0.32002149507353561 0.13225206340963899 0 -0.31056598199899382 0.1083120949082596 0 -0.33004502997043911 0.11169837990762441 0 -0.32002149507353561 0.13225206340963899 0 -0.31056598199899382 0.1083120949082596 0 -0.31056598199899382 0.1083120949082596 0 -0.33004502997043911 0.11169837990762441 0 -0.31947526535574561 0.09370477242134187 0 -0.33713210363753571 0.093796137118684564 0 -0.31947526535574561 0.09370477242134187 0 -0.31965440598829481 0.078129974809533556 0 -0.30111046892445198 0.084372126406880341 0 -0.31947526535574561 0.09370477242134187 0 -0.31965440598829481 0.078129974809533556 0 -0.32454497118516262 0.055535386443729733 0 -0.31878869592356479 0.065855089838910169 0 -0.33836371064776438 0.069956278474292047 0 -0.30786169804075147 0.069354624227088199 0 -0.31965440598829481 0.078129974809533556 0 -0.31878869592356479 0.065855089838910169 0 -0.31965440598829481 0.078129974809533556 0 -0.31878869592356479 0.065855089838910169 0 -0.33836371064776438 0.069956278474292047 0 -0.33713210363753571 0.093796137118684564 0 -0.31965440598829481 0.078129974809533556 0 -0.33836371064776438 0.069956278474292047 0 -0.3963104206874723 0.47180649213986348 0 -0.37933533950595127 0.48722672784229137 0 -0.40676012542119461 0.48658851362344269 0 -0.3963104206874723 0.47180649213986348 0 -0.41373715292601893 0.46953029572473082 0 -0.40676012542119461 0.48658851362344269 0 -0.39267878341897972 0.5 0 -0.37933533950595127 0.48722672784229137 0 -0.40676012542119461 0.48658851362344269 0 -0.39267878341897972 0.5 0 -0.37933533950595127 0.48722672784229137 0 -0.36322779277758172 0.5 0 -0.3963104206874723 0.47180649213986348 0 -0.37933533950595127 0.48722672784229137 0 -0.37990903276478899 0.46812587243661352 0 -0.37990903276478899 0.46812587243661352 0 -0.37871401168823571 0.45682544008698073 0 -0.39481534703813931 0.45429544358709911 0 -0.37990903276478899 0.46812587243661352 0 -0.37871401168823571 0.45682544008698073 0 -0.37015070789911669 0.4605010226726215 0 -0.3963104206874723 0.47180649213986348 0 -0.37990903276478899 0.46812587243661352 0 -0.39481534703813931 0.45429544358709911 0 -0.37871401168823571 0.45682544008698073 0 -0.37976485939756338 0.44734204849793252 0 -0.39481534703813931 0.45429544358709911 0 -0.38276879612955012 0.44459618850815191 0 -0.37378601693697477 0.44541067362674269 0 -0.37164114564722589 0.43950505823018959 0 -0.38276879612955012 0.44459618850815191 0 -0.37072224522095798 0.43489693342920849 0 -0.38276879612955012 0.44459618850815191 0 -0.37072224522095798 0.43489693342920849 0 -0.37164114564722589 0.43950505823018959 0 -0.38276879612955012 0.44459618850815191 0 -0.37976485939756338 0.44734204849793252 0 -0.37378601693697477 0.44541067362674269 0 -0.37871401168823571 0.45682544008698073 0 -0.37976485939756338 0.44734204849793252 0 -0.37344320806865833 0.45221978757831571 0 -0.37976485939756338 0.44734204849793252 0 -0.37344320806865833 0.45221978757831571 0 -0.37378601693697477 0.44541067362674269 0 -0.38276879612955012 0.44459618850815191 0 -0.37976485939756338 0.44734204849793252 0 -0.39481534703813931 0.45429544358709911 0 -0.38276879612955012 0.44459618850815191 0 -0.39481534703813931 0.45429544358709911 0 -0.37976485939756338 0.44734204849793252 0 -0.39481534703813931 0.45429544358709911 0 -0.38276879612955012 0.44459618850815191 0 -0.39481534703813931 0.45429544358709911 0 -0.39665563574450918 0.43691211666370983 0 -0.39481534703813931 0.45429544358709911 0 -0.40961805647789978 0.44834864738476748 0 -0.39665563574450918 0.43691211666370983 0 -0.40961805647789978 0.44834864738476748 0 -0.4121967680595458 0.43619843559028659 0 -0.39665563574450918 0.43691211666370983 0 -0.39481534703813931 0.45429544358709911 0 -0.41373715292601893 0.46953029572473082 0 -0.3963104206874723 0.47180649213986348 0 -0.39481534703813931 0.45429544358709911 0 -0.41373715292601893 0.46953029572473082 0 -0.39481534703813931 0.45429544358709911 0 -0.4195470015964286 0.46572158269032737 0 -0.40961805647789978 0.44834864738476748 0 -0.4195470015964286 0.46572158269032737 0 -0.40961805647789978 0.44834864738476748 0 -0.42484240950340268 0.44735481812155747 0 -0.39481534703813931 0.45429544358709911 0 -0.4195470015964286 0.46572158269032737 0 -0.41373715292601893 0.46953029572473082 0 -0.39481534703813931 0.45429544358709911 0 -0.4195470015964286 0.46572158269032737 0 -0.40961805647789978 0.44834864738476748 0 -0.42484240950340268 0.44735481812155747 0 -0.4121967680595458 0.43619843559028659 0 -0.42484240950340268 0.44735481812155747 0 -0.43972064688853513 0.45527719930778648 0 -0.44200400683861057 0.43386701199941902 0 -0.4195470015964286 0.46572158269032737 0 -0.44427865615471862 0.47714772179355419 0 -0.43972064688853513 0.45527719930778648 0 -0.4195470015964286 0.46572158269032737 0 -0.42484240950340268 0.44735481812155747 0 -0.43972064688853513 0.45527719930778648 0 -0.4195470015964286 0.46572158269032737 0 -0.43265895881389782 0.48476514786236369 0 -0.44427865615471862 0.47714772179355419 0 -0.4195470015964286 0.46572158269032737 0 -0.41373715292601893 0.46953029572473082 0 -0.43265895881389782 0.48476514786236369 0 -0.41373715292601893 0.46953029572473082 0 -0.43265895881389782 0.48476514786236369 0 -0.4195470015964286 0.46572158269032737 0 -0.44427865615471862 0.47714772179355419 0 -0.41373715292601893 0.46953029572473082 0 -0.40676012542119461 0.48658851362344269 0 -0.43265895881389782 0.48476514786236369 0 -0.40676012542119461 0.48658851362344269 0 -0.43265895881389782 0.48476514786236369 0 -0.42212977406037749 0.5 0 -0.39267878341897972 0.5 0 -0.40676012542119461 0.48658851362344269 0 -0.42212977406037749 0.5 0 -0.43265895881389782 0.48476514786236369 0 -0.42212977406037749 0.5 0 -0.45158076470177549 0.49999999999999789 0 -0.5 0.5 0 -0.48841616572907798 0.45481804345328919 0 -0.5 0.43584747649322442 0 -0.43265895881389782 0.48476514786236369 0 -0.45158076470177549 0.49999999999999789 0 -0.44427865615471862 0.47714772179355419 0 -0.43265895881389782 0.48476514786236369 0 -0.45158076470177549 0.49999999999999789 0 -0.44427865615471862 0.47714772179355419 0 -0.46901031071300853 0.48857386089678112 0 -0.44427865615471862 0.47714772179355419 0 -0.46901031071300853 0.48857386089678112 0 -0.47220127589856248 0.47033132595217703 0 -0.45158076470177549 0.49999999999999789 0 -0.44427865615471862 0.47714772179355419 0 -0.46901031071300853 0.48857386089678112 0 -0.45158076470177549 0.49999999999999789 0 -0.47266136498653782 0.5 0 -0.46901031071300853 0.48857386089678112 0 -0.5 0.5 0 -0.49374196527129988 0.50000000000000444 0 -0.48841616572907798 0.45481804345328919 0 -0.46901031071300853 0.48857386089678112 0 -0.49374196527129988 0.50000000000000444 0 -0.47220127589856248 0.47033132595217703 0 -0.49374196527129988 0.50000000000000444 0 -0.48841616572907798 0.45481804345328919 0 -0.47266136498653782 0.5 0 -0.46901031071300853 0.48857386089678112 0 -0.49374196527129988 0.50000000000000444 0 -0.46901031071300853 0.48857386089678112 0 -0.47220127589856248 0.47033132595217703 0 -0.49374196527129988 0.50000000000000444 0 -0.48841616572907798 0.45481804345328919 0 -0.48003563205058508 0.43065993814503772 0 -0.5 0.43584747649322442 0 -0.47220127589856248 0.47033132595217703 0 -0.48841616572907798 0.45481804345328919 0 -0.46150383537392992 0.44953071829044761 0 -0.48841616572907798 0.45481804345328919 0 -0.46150383537392992 0.44953071829044761 0 -0.48003563205058508 0.43065993814503772 0 -0.48841616572907798 0.45481804345328919 0 -0.48003563205058508 0.43065993814503772 0 -0.44427865615471862 0.47714772179355419 0 -0.47220127589856248 0.47033132595217703 0 -0.46150383537392992 0.44953071829044761 0 -0.44427865615471862 0.47714772179355419 0 -0.46150383537392992 0.44953071829044761 0 -0.43972064688853513 0.45527719930778648 0 -0.46150383537392992 0.44953071829044761 0 -0.43972064688853513 0.45527719930778648 0 -0.44200400683861057 0.43386701199941902 0 -0.44200400683861057 0.43386701199941902 0 -0.46007705351007389 0.42405096957156641 0 -0.44121999526765771 0.40391707275941019 0 -0.46007705351007389 0.42405096957156641 0 -0.4716550983720923 0.40650183283678631 0 -0.44121999526765771 0.40391707275941019 0 -0.46150383537392992 0.44953071829044761 0 -0.46007705351007389 0.42405096957156641 0 -0.48003563205058508 0.43065993814503772 0 -0.46150383537392992 0.44953071829044761 0 -0.44200400683861057 0.43386701199941902 0 -0.46007705351007389 0.42405096957156641 0 -0.48003563205058508 0.43065993814503772 0 -0.4716550983720923 0.40650183283678631 0 -0.5 0.43584747649322442 0 -0.4716550983720923 0.40650183283678631 0 -0.5 0.43584747649322442 0 -0.5 0.38719684198889309 0 -0.46007705351007389 0.42405096957156641 0 -0.48003563205058508 0.43065993814503772 0 -0.4716550983720923 0.40650183283678631 0 -0.48003563205058508 0.43065993814503772 0 -0.4716550983720923 0.40650183283678631 0 -0.4716550983720923 0.40650183283678631 0 -0.5 0.38719684198889309 0 -0.46327456469359929 0.38234372752853468 0 -0.4716550983720923 0.40650183283678631 0 -0.46327456469359929 0.38234372752853468 0 -0.44121999526765771 0.40391707275941019 0 -0.4716550983720923 0.40650183283678631 0 -0.46327456469359929 0.38234372752853468 0 -0.46327456469359929 0.38234372752853468 0 -0.43857778953731391 0.38250988396188079 0 -0.44132878030208827 0.36392992676665031 0 -0.46327456469359929 0.38234372752853468 0 -0.44121999526765771 0.40391707275941019 0 -0.43857778953731391 0.38250988396188079 0 -0.43857778953731391 0.38250988396188079 0 -0.41854925254646241 0.38669387309712028 0 -0.42501138835674429 0.36146322985547369 0 -0.41854925254646241 0.38669387309712028 0 -0.40030158480427352 0.38476489135855713 0 -0.40712134522622873 0.3664241412867234 0 -0.41854925254646241 0.38669387309712028 0 -0.41817175533232598 0.4079259384384033 0 -0.40056783339182522 0.40266451620416432 0 -0.41854925254646241 0.38669387309712028 0 -0.40030158480427352 0.38476489135855713 0 -0.40056783339182522 0.40266451620416432 0 -0.44121999526765771 0.40391707275941019 0 -0.41854925254646241 0.38669387309712028 0 -0.41817175533232598 0.4079259384384033 0 -0.44121999526765771 0.40391707275941019 0 -0.43857778953731391 0.38250988396188079 0 -0.41854925254646241 0.38669387309712028 0 -0.44121999526765771 0.40391707275941019 0 -0.42540328677813921 0.4232192094747711 0 -0.41817175533232598 0.4079259384384033 0 -0.44200400683861057 0.43386701199941902 0 -0.44121999526765771 0.40391707275941019 0 -0.42540328677813921 0.4232192094747711 0 -0.42484240950340268 0.44735481812155747 0 -0.44200400683861057 0.43386701199941902 0 -0.42540328677813921 0.4232192094747711 0 -0.42540328677813921 0.4232192094747711 0 -0.4121967680595458 0.43619843559028659 0 -0.40740092168416792 0.42105793323157059 0 -0.42484240950340268 0.44735481812155747 0 -0.42540328677813921 0.4232192094747711 0 -0.4121967680595458 0.43619843559028659 0 -0.42540328677813921 0.4232192094747711 0 -0.40740092168416792 0.42105793323157059 0 -0.41817175533232598 0.4079259384384033 0 -0.40740092168416792 0.42105793323157059 0 -0.41817175533232598 0.4079259384384033 0 -0.40056783339182522 0.40266451620416432 0 -0.40740092168416792 0.42105793323157059 0 -0.39141025079866187 0.4194273830180888 0 -0.40056783339182522 0.40266451620416432 0 -0.39141025079866187 0.4194273830180888 0 -0.38496208336561749 0.40509956457582869 0 -0.40056783339182522 0.40266451620416432 0 -0.4121967680595458 0.43619843559028659 0 -0.40740092168416792 0.42105793323157059 0 -0.39665563574450918 0.43691211666370983 0 -0.39141025079866187 0.4194273830180888 0 -0.39665563574450918 0.43691211666370983 0 -0.38418451639569928 0.43033582443007279 0 -0.40740092168416792 0.42105793323157059 0 -0.39141025079866187 0.4194273830180888 0 -0.39665563574450918 0.43691211666370983 0 -0.38418451639569928 0.43033582443007279 0 -0.37936565408481532 0.41584650053120742 0 -0.37072224522095798 0.43489693342920849 0 -0.38276879612955012 0.44459618850815191 0 -0.39665563574450918 0.43691211666370983 0 -0.38418451639569928 0.43033582443007279 0 -0.38276879612955012 0.44459618850815191 0 -0.38418451639569928 0.43033582443007279 0 -0.37072224522095798 0.43489693342920849 0 -0.39141025079866187 0.4194273830180888 0 -0.37936565408481532 0.41584650053120742 0 -0.38496208336561749 0.40509956457582869 0 -0.39141025079866187 0.4194273830180888 0 -0.38418451639569928 0.43033582443007279 0 -0.37936565408481532 0.41584650053120742 0 -0.37936565408481532 0.41584650053120742 0 -0.38496208336561749 0.40509956457582869 0 -0.37364309642708898 0.40193696225851211 0 -0.38496208336561749 0.40509956457582869 0 -0.38534816161653163 0.39135014867069701 0 -0.37364309642708898 0.40193696225851211 0 -0.38496208336561749 0.40509956457582869 0 -0.38534816161653163 0.39135014867069701 0 -0.40056783339182522 0.40266451620416432 0 -0.38534816161653163 0.39135014867069701 0 -0.37099329502380768 0.39015446039340368 0 -0.37364309642708898 0.40193696225851211 0 -0.38534816161653163 0.39135014867069701 0 -0.3755985784824929 0.37579787132911568 0 -0.37099329502380768 0.39015446039340368 0 -0.38534816161653163 0.39135014867069701 0 -0.3755985784824929 0.37579787132911568 0 -0.39075065718988611 0.37401881401568438 0 -0.40030158480427352 0.38476489135855713 0 -0.39075065718988611 0.37401881401568438 0 -0.40712134522622873 0.3664241412867234 0 -0.38534816161653163 0.39135014867069701 0 -0.40030158480427352 0.38476489135855713 0 -0.39075065718988611 0.37401881401568438 0 -0.38534816161653163 0.39135014867069701 0 -0.40030158480427352 0.38476489135855713 0 -0.40056783339182522 0.40266451620416432 0 -0.40141919085682531 0.34751834522186331 0 -0.39359584612899728 0.36039362630622668 0 -0.40712134522622873 0.3664241412867234 0 -0.40141919085682531 0.34751834522186331 0 -0.39359584612899728 0.36039362630622668 0 -0.38438716020639291 0.3494828291239867 0 -0.39075065718988611 0.37401881401568438 0 -0.39359584612899728 0.36039362630622668 0 -0.40712134522622873 0.3664241412867234 0 -0.39075065718988611 0.37401881401568438 0 -0.39359584612899728 0.36039362630622668 0 -0.38077597659593188 0.366240408402697 0 -0.3755985784824929 0.37579787132911568 0 -0.39075065718988611 0.37401881401568438 0 -0.38077597659593188 0.366240408402697 0 -0.39359584612899728 0.36039362630622668 0 -0.38077597659593188 0.366240408402697 0 -0.38438716020639291 0.3494828291239867 0 -0.38077597659593188 0.366240408402697 0 -0.38438716020639291 0.3494828291239867 0 -0.36515844105624451 0.34618746438223252 0 -0.38764186009375212 0.33175849883606862 0 -0.36515844105624451 0.34618746438223252 0 -0.38438716020639291 0.3494828291239867 0 -0.38764186009375212 0.33175849883606862 0 -0.36515844105624451 0.34618746438223252 0 -0.38764186009375212 0.33175849883606862 0 -0.3776534193888279 0.31828686882629842 0 -0.37050849986341639 0.33054468298611428 0 -0.38764186009375212 0.33175849883606862 0 -0.3776534193888279 0.31828686882629842 0 -0.38999683108418282 0.31235023039345911 0 -0.38764186009375212 0.33175849883606862 0 -0.4101252791312594 0.31732953328990449 0 -0.38764186009375212 0.33175849883606862 0 -0.4101252791312594 0.31732953328990449 0 -0.38999683108418282 0.31235023039345911 0 -0.40141919085682531 0.34751834522186331 0 -0.38764186009375212 0.33175849883606862 0 -0.4094135462771728 0.33597165862935141 0 -0.40141919085682531 0.34751834522186331 0 -0.38438716020639291 0.3494828291239867 0 -0.38764186009375212 0.33175849883606862 0 -0.38764186009375212 0.33175849883606862 0 -0.4094135462771728 0.33597165862935141 0 -0.4101252791312594 0.31732953328990449 0 -0.4101252791312594 0.31732953328990449 0 -0.42572702971667531 0.34062973002827651 0 -0.42652183908130231 0.33512092130638488 0 -0.4094135462771728 0.33597165862935141 0 -0.4101252791312594 0.31732953328990449 0 -0.42572702971667531 0.34062973002827651 0 -0.4101252791312594 0.31732953328990449 0 -0.42572702971667531 0.34062973002827651 0 -0.4094135462771728 0.33597165862935141 0 -0.42572702971667531 0.34062973002827651 0 -0.41508852792846029 0.34971296787771161 0 -0.4101252791312594 0.31732953328990449 0 -0.42475404390387989 0.32001430385926299 0 -0.43027559599629328 0.30439786007308511 0 -0.4101252791312594 0.31732953328990449 0 -0.42475404390387989 0.32001430385926299 0 -0.42652183908130231 0.33512092130638488 0 -0.42475404390387989 0.32001430385926299 0 -0.43488065317417401 0.32018489005987932 0 -0.43027559599629328 0.30439786007308511 0 -0.42475404390387989 0.32001430385926299 0 -0.43488065317417401 0.32018489005987932 0 -0.42652183908130231 0.33512092130638488 0 -0.43488065317417401 0.32018489005987932 0 -0.42652183908130231 0.33512092130638488 0 -0.45101455938753487 0.33085446624827353 0 -0.42572702971667531 0.34062973002827651 0 -0.42652183908130231 0.33512092130638488 0 -0.44187468073406783 0.34382300181689318 0 -0.42572702971667531 0.34062973002827651 0 -0.42501138835674429 0.36146322985547369 0 -0.44132878030208827 0.36392992676665031 0 -0.42572702971667531 0.34062973002827651 0 -0.41508852792846029 0.34971296787771161 0 -0.42501138835674429 0.36146322985547369 0 -0.42572702971667531 0.34062973002827651 0 -0.44132878030208827 0.36392992676665031 0 -0.42572702971667531 0.34062973002827651 0 -0.44132878030208827 0.36392992676665031 0 -0.44187468073406783 0.34382300181689318 0 -0.40141919085682531 0.34751834522186331 0 -0.41508852792846029 0.34971296787771161 0 -0.40712134522622873 0.3664241412867234 0 -0.41508852792846029 0.34971296787771161 0 -0.40712134522622873 0.3664241412867234 0 -0.42501138835674429 0.36146322985547369 0 -0.40141919085682531 0.34751834522186331 0 -0.4094135462771728 0.33597165862935141 0 -0.41508852792846029 0.34971296787771161 0 -0.41854925254646241 0.38669387309712028 0 -0.40712134522622873 0.3664241412867234 0 -0.42501138835674429 0.36146322985547369 0 -0.43857778953731391 0.38250988396188079 0 -0.42501138835674429 0.36146322985547369 0 -0.44132878030208827 0.36392992676665031 0 -0.46327456469359929 0.38234372752853468 0 -0.44132878030208827 0.36392992676665031 0 -0.45916500237348662 0.35037299353781842 0 -0.46327456469359929 0.38234372752853468 0 -0.45916500237348662 0.35037299353781842 0 -0.48199014942986212 0.35469882767639732 0 -0.5 0.38719684198889309 0 -0.48199014942986212 0.35469882767639732 0 -0.50000000000000011 0.32232155613205082 0 -0.44132878030208827 0.36392992676665031 0 -0.44187468073406783 0.34382300181689318 0 -0.45916500237348662 0.35037299353781842 0 -0.5 0.38719684198889309 0 -0.46327456469359929 0.38234372752853468 0 -0.48199014942986212 0.35469882767639732 0 -0.45916500237348662 0.35037299353781842 0 -0.48199014942986212 0.35469882767639732 0 -0.47550727969376749 0.32658801119016212 0 -0.50000000000000011 0.32232155613205082 0 -0.47550727969376749 0.32658801119016212 0 -0.4772343114757836 0.29419514961640131 0 -0.48199014942986212 0.35469882767639732 0 -0.50000000000000011 0.32232155613205082 0 -0.47550727969376749 0.32658801119016212 0 -0.50000000000000011 0.32232155613205082 0 -0.47550727969376749 0.32658801119016212 0 -0.47550727969376749 0.32658801119016212 0 -0.45101455938753487 0.33085446624827353 0 -0.45809974609258841 0.30411185106359429 0 -0.45916500237348662 0.35037299353781842 0 -0.47550727969376749 0.32658801119016212 0 -0.45101455938753487 0.33085446624827353 0 -0.47550727969376749 0.32658801119016212 0 -0.45101455938753487 0.33085446624827353 0 -0.42652183908130231 0.33512092130638488 0 -0.45101455938753487 0.33085446624827353 0 -0.42652183908130231 0.33512092130638488 0 -0.44187468073406783 0.34382300181689318 0 -0.45101455938753487 0.33085446624827353 0 -0.44187468073406783 0.34382300181689318 0 -0.45916500237348662 0.35037299353781842 0 -0.45101455938753487 0.33085446624827353 0 -0.45101455938753487 0.33085446624827353 0 -0.44299280547403691 0.30986335546338761 0 -0.45809974609258841 0.30411185106359429 0 -0.43488065317417401 0.32018489005987932 0 -0.45101455938753487 0.33085446624827353 0 -0.44299280547403691 0.30986335546338761 0 -0.44299280547403691 0.30986335546338761 0 -0.44069347271959353 0.28976770987210537 0 -0.43027559599629328 0.30439786007308511 0 -0.44299280547403691 0.30986335546338761 0 -0.44069347271959353 0.28976770987210537 0 -0.45809974609258841 0.30411185106359429 0 -0.44069347271959353 0.28976770987210537 0 -0.45809974609258841 0.30411185106359429 0 -0.46054715982822431 0.27866134943703891 0 -0.45809974609258841 0.30411185106359429 0 -0.4772343114757836 0.29419514961640131 0 -0.46054715982822431 0.27866134943703891 0 -0.47550727969376749 0.32658801119016212 0 -0.45809974609258841 0.30411185106359429 0 -0.4772343114757836 0.29419514961640131 0 -0.4772343114757836 0.29419514961640131 0 -0.5 0.29605042793572878 0 -0.5 0.26977929973940662 0 -0.50000000000000011 0.32232155613205082 0 -0.4772343114757836 0.29419514961640131 0 -0.5 0.29605042793572878 0 -0.5 0.2435081715430846 0 -0.5 0.26977929973940662 0 -0.47850763920777439 0.26540613831084742 0 -0.4772343114757836 0.29419514961640131 0 -0.5 0.26977929973940662 0 -0.47850763920777439 0.26540613831084742 0 -0.4772343114757836 0.29419514961640131 0 -0.47850763920777439 0.26540613831084742 0 -0.46054715982822431 0.27866134943703891 0 -0.4697666247372328 0.246778541961896 0 -0.5 0.2435081715430846 0 -0.47850763920777439 0.26540613831084742 0 -0.4697666247372328 0.246778541961896 0 -0.47850763920777439 0.26540613831084742 0 -0.46070258907804629 0.26034453476876251 0 -0.47850763920777439 0.26540613831084742 0 -0.46070258907804629 0.26034453476876251 0 -0.46054715982822431 0.27866134943703891 0 -0.46070258907804629 0.26034453476876251 0 -0.46054715982822431 0.27866134943703891 0 -0.44203123618809359 0.26563477874830937 0 -0.44069347271959353 0.28976770987210537 0 -0.46054715982822431 0.27866134943703891 0 -0.44203123618809359 0.26563477874830937 0 -0.45227703132625979 0.24254031856665259 0 -0.46070258907804629 0.26034453476876251 0 -0.44203123618809359 0.26563477874830937 0 -0.45227703132625979 0.24254031856665259 0 -0.43492665015400073 0.24765803541183851 0 -0.44203123618809359 0.26563477874830937 0 -0.43492665015400073 0.24765803541183851 0 -0.41834394520908569 0.26410872700775978 0 -0.43492665015400073 0.24765803541183851 0 -0.44203123618809359 0.26563477874830937 0 -0.41834394520908569 0.26410872700775978 0 -0.41169286489136492 0.2420245503970109 0 -0.43492665015400073 0.24765803541183851 0 -0.41834394520908569 0.26410872700775978 0 -0.41169286489136492 0.2420245503970109 0 -0.41834394520908569 0.26410872700775978 0 -0.39748669628250699 0.25861498906765301 0 -0.41834394520908569 0.26410872700775978 0 -0.42782469240482851 0.27668183232996513 0 -0.40176124026416932 0.28055941860367939 0 -0.41834394520908569 0.26410872700775978 0 -0.40176124026416932 0.28055941860367939 0 -0.44069347271959353 0.28976770987210537 0 -0.44203123618809359 0.26563477874830937 0 -0.42782469240482851 0.27668183232996513 0 -0.44203123618809359 0.26563477874830937 0 -0.41834394520908569 0.26410872700775978 0 -0.42782469240482851 0.27668183232996513 0 -0.44069347271959353 0.28976770987210537 0 -0.43027559599629328 0.30439786007308511 0 -0.41980296564647263 0.29023245757927141 0 -0.44069347271959353 0.28976770987210537 0 -0.42782469240482851 0.27668183232996513 0 -0.41980296564647263 0.29023245757927141 0 -0.43488065317417401 0.32018489005987932 0 -0.44299280547403691 0.30986335546338761 0 -0.43027559599629328 0.30439786007308511 0 -0.4101252791312594 0.31732953328990449 0 -0.41980296564647263 0.29023245757927141 0 -0.40691512024385312 0.29260846357746451 0 -0.4101252791312594 0.31732953328990449 0 -0.43027559599629328 0.30439786007308511 0 -0.4101252791312594 0.31732953328990449 0 -0.43027559599629328 0.30439786007308511 0 -0.41980296564647263 0.29023245757927141 0 -0.41980296564647263 0.29023245757927141 0 -0.40691512024385312 0.29260846357746451 0 -0.40176124026416932 0.28055941860367939 0 -0.41980296564647263 0.29023245757927141 0 -0.40176124026416932 0.28055941860367939 0 -0.42782469240482851 0.27668183232996513 0 -0.41980296564647263 0.29023245757927141 0 -0.40176124026416932 0.28055941860367939 0 -0.40691512024385312 0.29260846357746451 0 -0.39381510993370522 0.29297135956710552 0 -0.40176124026416932 0.28055941860367939 0 -0.38074848687336921 0.30140489144791838 0 -0.40176124026416932 0.28055941860367939 0 -0.38458196104345699 0.28823100624759351 0 -0.38674508340967972 0.28116157805821579 0 -0.40176124026416932 0.28055941860367939 0 -0.39381510993370522 0.29297135956710552 0 -0.38074848687336921 0.30140489144791838 0 -0.40176124026416932 0.28055941860367939 0 -0.4101252791312594 0.31732953328990449 0 -0.39381510993370522 0.29297135956710552 0 -0.38999683108418282 0.31235023039345911 0 -0.4101252791312594 0.31732953328990449 0 -0.39381510993370522 0.29297135956710552 0 -0.4101252791312594 0.31732953328990449 0 -0.40691512024385312 0.29260846357746451 0 -0.39381510993370522 0.29297135956710552 0 -0.39381510993370522 0.29297135956710552 0 -0.38999683108418282 0.31235023039345911 0 -0.38074848687336921 0.30140489144791838 0 -0.3776534193888279 0.31828686882629842 0 -0.38999683108418282 0.31235023039345911 0 -0.38074848687336921 0.30140489144791838 0 -0.38074848687336921 0.30140489144791838 0 -0.38458196104345699 0.28823100624759351 0 -0.40176124026416932 0.28055941860367939 0 -0.38074848687336921 0.30140489144791838 0 -0.38458196104345699 0.28823100624759351 0 -0.37333762570022822 0.28578201313007079 0 -0.38458196104345699 0.28823100624759351 0 -0.38674508340967972 0.28116157805821579 0 -0.37333762570022822 0.28578201313007079 0 -0.3789358815528403 0.26832164312666501 0 -0.38674508340967972 0.28116157805821579 0 -0.40176124026416932 0.28055941860367939 0 -0.3789358815528403 0.26832164312666501 0 -0.38674508340967972 0.28116157805821579 0 -0.37333762570022822 0.28578201313007079 0 -0.3789358815528403 0.26832164312666501 0 -0.40176124026416932 0.28055941860367939 0 -0.3789358815528403 0.26832164312666501 0 -0.3808842698206959 0.25160229322625349 0 -0.39748669628250699 0.25861498906765301 0 -0.3789358815528403 0.26832164312666501 0 -0.3808842698206959 0.25160229322625349 0 -0.36720527405187098 0.25503297084541782 0 -0.39252296743933662 0.24234687501346749 0 -0.3808842698206959 0.25160229322625349 0 -0.39748669628250699 0.25861498906765301 0 -0.41834394520908569 0.26410872700775978 0 -0.39748669628250699 0.25861498906765301 0 -0.40176124026416932 0.28055941860367939 0 -0.3789358815528403 0.26832164312666501 0 -0.39748669628250699 0.25861498906765301 0 -0.40176124026416932 0.28055941860367939 0 -0.35358357991886169 0.2746022109346844 0 -0.35057556211364471 0.26587085300820162 0 -0.36157526963521047 0.27028486829581311 0 -0.35358357991886169 0.2746022109346844 0 -0.36361387767196579 0.28088852306980278 0 -0.353239095675425 0.28658574331738268 0 -0.35358357991886169 0.2746022109346844 0 -0.33938925907243778 0.28346298304764472 0 -0.34229072162927499 0.27047418496890252 0 -0.35358357991886169 0.2746022109346844 0 -0.35057556211364471 0.26587085300820162 0 -0.34229072162927499 0.27047418496890252 0 -0.35057556211364471 0.26587085300820162 0 -0.35611052284151062 0.25608386764965202 0 -0.33245751140863478 0.25832428509156391 0 -0.35611052284151062 0.25608386764965202 0 -0.33245751140863478 0.25832428509156391 0 -0.34100729123518558 0.2479862968857878 0 -0.35424623130922589 0.25148204210355629 0 -0.35611052284151062 0.25608386764965202 0 -0.34100729123518558 0.2479862968857878 0 -0.35611052284151062 0.25608386764965202 0 -0.35424623130922589 0.25148204210355629 0 -0.35611052284151062 0.25608386764965202 0 -0.36161226349133518 0.25054371540632331 0 -0.35057556211364471 0.26587085300820162 0 -0.35611052284151062 0.25608386764965202 0 -0.36157526963521047 0.27028486829581311 0 -0.3789358815528403 0.26832164312666501 0 -0.35611052284151062 0.25608386764965202 0 -0.36157526963521047 0.27028486829581311 0 -0.3789358815528403 0.26832164312666501 0 -0.35611052284151062 0.25608386764965202 0 -0.36720527405187098 0.25503297084541782 0 -0.3789358815528403 0.26832164312666501 0 -0.35611052284151062 0.25608386764965202 0 -0.35611052284151062 0.25608386764965202 0 -0.36161226349133518 0.25054371540632331 0 -0.36720527405187098 0.25503297084541782 0 -0.37189546908600152 0.24710649406950619 0 -0.36161226349133518 0.25054371540632331 0 -0.36720527405187098 0.25503297084541782 0 -0.35611052284151062 0.25608386764965202 0 -0.36720527405187098 0.25503297084541782 0 -0.37189546908600152 0.24710649406950619 0 -0.3808842698206959 0.25160229322625349 0 -0.36720527405187098 0.25503297084541782 0 -0.3789358815528403 0.26832164312666501 0 -0.36157526963521047 0.27028486829581311 0 -0.36361387767196579 0.28088852306980278 0 -0.3789358815528403 0.26832164312666501 0 -0.36361387767196579 0.28088852306980278 0 -0.37333762570022822 0.28578201313007079 0 -0.35358357991886169 0.2746022109346844 0 -0.36157526963521047 0.27028486829581311 0 -0.36361387767196579 0.28088852306980278 0 -0.38074848687336921 0.30140489144791838 0 -0.37333762570022822 0.28578201313007079 0 -0.36371088161998399 0.29257441393952582 0 -0.36361387767196579 0.28088852306980278 0 -0.37333762570022822 0.28578201313007079 0 -0.36371088161998399 0.29257441393952582 0 -0.36361387767196579 0.28088852306980278 0 -0.36371088161998399 0.29257441393952582 0 -0.353239095675425 0.28658574331738268 0 -0.38074848687336921 0.30140489144791838 0 -0.36244164012213881 0.30147756949009769 0 -0.35908300639477397 0.31062493190261697 0 -0.38074848687336921 0.30140489144791838 0 -0.36371088161998399 0.29257441393952582 0 -0.36244164012213881 0.30147756949009769 0 -0.38074848687336921 0.30140489144791838 0 -0.35908300639477397 0.31062493190261697 0 -0.3597357334825676 0.3222503642921557 0 -0.38074848687336921 0.30140489144791838 0 -0.3597357334825676 0.3222503642921557 0 -0.35908300639477397 0.31062493190261697 0 -0.3498507314449848 0.30013187745057213 0 -0.34878950318113078 0.31653944924074529 0 -0.3498507314449848 0.30013187745057213 0 -0.33775488379461249 0.31100124704768872 0 -0.34878950318113078 0.31653944924074529 0 -0.36371088161998399 0.29257441393952582 0 -0.36244164012213881 0.30147756949009769 0 -0.3498507314449848 0.30013187745057213 0 -0.36244164012213881 0.30147756949009769 0 -0.35908300639477397 0.31062493190261697 0 -0.3498507314449848 0.30013187745057213 0 -0.3498507314449848 0.30013187745057213 0 -0.353239095675425 0.28658574331738268 0 -0.33938925907243778 0.28346298304764472 0 -0.36371088161998399 0.29257441393952582 0 -0.3498507314449848 0.30013187745057213 0 -0.353239095675425 0.28658574331738268 0 -0.35358357991886169 0.2746022109346844 0 -0.353239095675425 0.28658574331738268 0 -0.33938925907243778 0.28346298304764472 0 -0.3498507314449848 0.30013187745057213 0 -0.33938925907243778 0.28346298304764472 0 -0.33776199486895753 0.29700106148158101 0 -0.33938925907243778 0.28346298304764472 0 -0.32405310516379482 0.29340813838041818 0 -0.32543772467701843 0.27758264407496569 0 -0.33938925907243778 0.28346298304764472 0 -0.33776199486895753 0.29700106148158101 0 -0.32405310516379482 0.29340813838041818 0 -0.33775488379461249 0.31100124704768872 0 -0.33776199486895753 0.29700106148158101 0 -0.32405310516379482 0.29340813838041818 0 -0.33775488379461249 0.31100124704768872 0 -0.32405310516379482 0.29340813838041818 0 -0.3498507314449848 0.30013187745057213 0 -0.33775488379461249 0.31100124704768872 0 -0.33776199486895753 0.29700106148158101 0 -0.30645845521945009 0.2944147547653102 0 -0.32048694059830729 0.31522650644318623 0 -0.33775488379461249 0.31100124704768872 0 -0.32405310516379482 0.29340813838041818 0 -0.32048694059830729 0.31522650644318623 0 -0.32405310516379482 0.29340813838041818 0 -0.30645845521945009 0.2944147547653102 0 -0.32048694059830729 0.31522650644318623 0 -0.32405310516379482 0.29340813838041818 0 -0.31741275079474252 0.2838471535456164 0 -0.30645845521945009 0.2944147547653102 0 -0.32405310516379482 0.29340813838041818 0 -0.31741275079474252 0.2838471535456164 0 -0.32543772467701843 0.27758264407496569 0 -0.3179490163397809 0.27303161846134061 0 -0.31392179065804682 0.26007999185160391 0 -0.30868615514695902 0.27614304648782001 0 -0.31741275079474252 0.2838471535456164 0 -0.3179490163397809 0.27303161846134061 0 -0.32543772467701843 0.27758264407496569 0 -0.31741275079474252 0.2838471535456164 0 -0.3179490163397809 0.27303161846134061 0 -0.30868615514695902 0.27614304648782001 0 -0.3179490163397809 0.27303161846134061 0 -0.32424117514177309 0.26702504947258271 0 -0.31392179065804682 0.26007999185160391 0 -0.32424117514177309 0.26702504947258271 0 -0.32543772467701843 0.27758264407496569 0 -0.33276327838582792 0.27137382933113191 0 -0.3179490163397809 0.27303161846134061 0 -0.32424117514177309 0.26702504947258271 0 -0.32543772467701843 0.27758264407496569 0 -0.33938925907243778 0.28346298304764472 0 -0.32543772467701843 0.27758264407496569 0 -0.33276327838582792 0.27137382933113191 0 -0.33276327838582792 0.27137382933113191 0 -0.34229072162927499 0.27047418496890252 0 -0.33245751140863478 0.25832428509156391 0 -0.33938925907243778 0.28346298304764472 0 -0.33276327838582792 0.27137382933113191 0 -0.34229072162927499 0.27047418496890252 0 -0.35057556211364471 0.26587085300820162 0 -0.34229072162927499 0.27047418496890252 0 -0.33245751140863478 0.25832428509156391 0 -0.34100729123518558 0.2479862968857878 0 -0.35611052284151062 0.25608386764965202 0 -0.33245751140863478 0.25832428509156391 0 -0.32424117514177309 0.26702504947258271 0 -0.33276327838582792 0.27137382933113191 0 -0.33245751140863478 0.25832428509156391 0 -0.32995983150266661 0.2491006168402228 0 -0.34100729123518558 0.2479862968857878 0 -0.33245751140863478 0.25832428509156391 0 -0.33245751140863478 0.25832428509156391 0 -0.32047046373798599 0.2502031592616149 0 -0.31392179065804682 0.26007999185160391 0 -0.32995983150266661 0.2491006168402228 0 -0.33245751140863478 0.25832428509156391 0 -0.32047046373798599 0.2502031592616149 0 -0.32424117514177309 0.26702504947258271 0 -0.33245751140863478 0.25832428509156391 0 -0.31392179065804682 0.26007999185160391 0 -0.33245751140863478 0.25832428509156391 0 -0.31392179065804682 0.26007999185160391 0 -0.32047046373798599 0.2502031592616149 0 -0.31392179065804682 0.26007999185160391 0 -0.30880449997575898 0.26056470253347458 0 -0.31392179065804682 0.26007999185160391 0 -0.30880449997575898 0.26056470253347458 0 -0.292429969840594 0.27360300308743352 0 -0.30600627897915322 0.24313128659167671 0 -0.32047046373798599 0.2502031592616149 0 -0.30880449997575898 0.26056470253347458 0 -0.30880449997575898 0.26056470253347458 0 -0.28515148854288302 0.26280511997538508 0 -0.30600627897915322 0.24313128659167671 0 -0.30880449997575898 0.26056470253347458 0 -0.28515148854288302 0.26280511997538508 0 -0.31392179065804682 0.26007999185160391 0 -0.30880449997575898 0.26056470253347458 0 -0.31392179065804682 0.26007999185160391 0 -0.30868615514695902 0.27614304648782001 0 -0.292429969840594 0.27360300308743352 0 -0.31392179065804682 0.26007999185160391 0 -0.292429969840594 0.27360300308743352 0 -0.30880449997575898 0.26056470253347458 0 -0.292429969840594 0.27360300308743352 0 -0.28515148854288302 0.26280511997538508 0 -0.292429969840594 0.27360300308743352 0 -0.28515148854288302 0.26280511997538508 0 -0.27579643056189268 0.26369123272809669 0 -0.292429969840594 0.27360300308743352 0 -0.28515148854288302 0.26280511997538508 0 -0.30600627897915322 0.24313128659167671 0 -0.28515148854288302 0.26280511997538508 0 -0.28008190405229821 0.25528421300084542 0 -0.28515148854288302 0.26280511997538508 0 -0.28008190405229821 0.25528421300084542 0 -0.27480113641271919 0.24745000839391201 0 -0.28008190405229821 0.25528421300084542 0 -0.27480113641271919 0.24745000839391201 0 -0.28008190405229821 0.25528421300084542 0 -0.26888491437513529 0.25524577252106961 0 -0.28008190405229821 0.25528421300084542 0 -0.26888491437513529 0.25524577252106961 0 -0.2679608402940209 0.26096637105753168 0 -0.2679608402940209 0.26096637105753168 0 -0.27579643056189268 0.26369123272809669 0 -0.27414233473857341 0.26876112726177642 0 -0.28008190405229821 0.25528421300084542 0 -0.2679608402940209 0.26096637105753168 0 -0.28515148854288302 0.26280511997538508 0 -0.27579643056189268 0.26369123272809669 0 -0.28008190405229821 0.25528421300084542 0 -0.2679608402940209 0.26096637105753168 0 -0.27579643056189268 0.26369123272809669 0 -0.28515148854288302 0.26280511997538508 0 -0.28008190405229821 0.25528421300084542 0 -0.27579643056189268 0.26369123272809669 0 -0.292429969840594 0.27360300308743352 0 -0.26945858862880367 0.28751427080601472 0 -0.292429969840594 0.27360300308743352 0 -0.27579643056189268 0.26369123272809669 0 -0.27414233473857341 0.26876112726177642 0 -0.292429969840594 0.27360300308743352 0 -0.26809210667985411 0.27567140986995531 0 -0.26945858862880367 0.28751427080601472 0 -0.292429969840594 0.27360300308743352 0 -0.27414233473857341 0.26876112726177642 0 -0.26809210667985411 0.27567140986995531 0 -0.27414233473857341 0.26876112726177642 0 -0.26809210667985411 0.27567140986995531 0 -0.2651422729171759 0.26868367973889268 0 -0.2679608402940209 0.26096637105753168 0 -0.27414233473857341 0.26876112726177642 0 -0.2651422729171759 0.26868367973889268 0 -0.26809210667985411 0.27567140986995531 0 -0.2651422729171759 0.26868367973889268 0 -0.25651199891513032 0.27291039641710119 0 -0.2651422729171759 0.26868367973889268 0 -0.25651199891513032 0.27291039641710119 0 -0.2591733696187517 0.26541039577412368 0 -0.26809210667985411 0.27567140986995531 0 -0.25651199891513032 0.27291039641710119 0 -0.25442206028344461 0.2837326948675355 0 -0.25651199891513032 0.27291039641710119 0 -0.25442206028344461 0.2837326948675355 0 -0.24276335887523151 0.27777865327294649 0 -0.25651199891513032 0.27291039641710119 0 -0.25072234302956592 0.26721670556117622 0 -0.2591733696187517 0.26541039577412368 0 -0.25651199891513032 0.27291039641710119 0 -0.25072234302956592 0.26721670556117622 0 -0.24276335887523151 0.27777865327294649 0 -0.27480113641271919 0.24745000839391201 0 -0.26888491437513529 0.25524577252106961 0 -0.2526957767415019 0.25728249763198752 0 -0.25072234302956592 0.26721670556117622 0 -0.25087986378790578 0.25674789430394418 0 -0.2526957767415019 0.25728249763198752 0 -0.25072234302956592 0.26721670556117622 0 -0.2526957767415019 0.25728249763198752 0 -0.2591733696187517 0.26541039577412368 0 -0.25072234302956592 0.26721670556117622 0 -0.25087986378790578 0.25674789430394418 0 -0.27480113641271919 0.24745000839391201 0 -0.2526957767415019 0.25728249763198752 0 -0.25115398850404869 0.2385295975885435 0 -0.25087986378790578 0.25674789430394418 0 -0.2526957767415019 0.25728249763198752 0 -0.26888491437513529 0.25524577252106961 0 -0.2679608402940209 0.26096637105753168 0 -0.2526957767415019 0.25728249763198752 0 -0.25087986378790578 0.25674789430394418 0 -0.2526957767415019 0.25728249763198752 0 -0.2679608402940209 0.26096637105753168 0 -0.2651422729171759 0.26868367973889268 0 -0.2591733696187517 0.26541039577412368 0 -0.2679608402940209 0.26096637105753168 0 -0.2526957767415019 0.25728249763198752 0 -0.2679608402940209 0.26096637105753168 0 -0.2526957767415019 0.25728249763198752 0 -0.2591733696187517 0.26541039577412368 0 -0.27492728626202412 0.30527173024187532 0 -0.26524168696868161 0.32324691437506969 0 -0.2464872074170133 0.30142553852459603 0 -0.26945858862880367 0.28751427080601472 0 -0.27492728626202412 0.30527173024187532 0 -0.2464872074170133 0.30142553852459603 0 -0.25442206028344461 0.2837326948675355 0 -0.26945858862880367 0.28751427080601472 0 -0.2464872074170133 0.30142553852459603 0 -0.26945858862880367 0.28751427080601472 0 -0.2464872074170133 0.30142553852459603 0 -0.26809210667985411 0.27567140986995531 0 -0.25442206028344461 0.2837326948675355 0 -0.26945858862880367 0.28751427080601472 0 -0.26945858862880367 0.28751427080601472 0 -0.27492728626202412 0.30527173024187532 0 -0.28829891122441098 0.29416465467179292 0 -0.27492728626202412 0.30527173024187532 0 -0.28829891122441098 0.29416465467179292 0 -0.28707580088896689 0.31641181231034449 0 -0.28829891122441098 0.29416465467179292 0 -0.30398315341818638 0.31124099926727322 0 -0.28707580088896689 0.31641181231034449 0 -0.292429969840594 0.27360300308743352 0 -0.28829891122441098 0.29416465467179292 0 -0.30645845521945009 0.2944147547653102 0 -0.292429969840594 0.27360300308743352 0 -0.26945858862880367 0.28751427080601472 0 -0.28829891122441098 0.29416465467179292 0 -0.30868615514695902 0.27614304648782001 0 -0.292429969840594 0.27360300308743352 0 -0.30645845521945009 0.2944147547653102 0 -0.31741275079474252 0.2838471535456164 0 -0.30868615514695902 0.27614304648782001 0 -0.30645845521945009 0.2944147547653102 0 -0.292429969840594 0.27360300308743352 0 -0.30645845521945009 0.2944147547653102 0 -0.28829891122441098 0.29416465467179292 0 -0.30645845521945009 0.2944147547653102 0 -0.30398315341818638 0.31124099926727322 0 -0.30645845521945009 0.2944147547653102 0 -0.30398315341818638 0.31124099926727322 0 -0.32048694059830729 0.31522650644318623 0 -0.30398315341818638 0.31124099926727322 0 -0.30654785769390291 0.32739671227590023 0 -0.32048694059830729 0.31522650644318623 0 -0.30398315341818638 0.31124099926727322 0 -0.30654785769390291 0.32739671227590023 0 -0.28707580088896689 0.31641181231034449 0 -0.30654785769390291 0.32739671227590023 0 -0.30490191782032611 0.34652374993192903 0 -0.32547824218805749 0.32771264854652982 0 -0.30654785769390291 0.32739671227590023 0 -0.2843969738117052 0.33861995186167188 0 -0.30490191782032611 0.34652374993192903 0 -0.30654785769390291 0.32739671227590023 0 -0.2843969738117052 0.33861995186167188 0 -0.28707580088896689 0.31641181231034449 0 -0.27492728626202412 0.30527173024187532 0 -0.28707580088896689 0.31641181231034449 0 -0.26524168696868161 0.32324691437506969 0 -0.2843969738117052 0.33861995186167188 0 -0.28707580088896689 0.31641181231034449 0 -0.26524168696868161 0.32324691437506969 0 -0.2843969738117052 0.33861995186167188 0 -0.26524168696868161 0.32324691437506969 0 -0.26139407846422352 0.3468715903468983 0 -0.26524168696868161 0.32324691437506969 0 -0.26139407846422352 0.3468715903468983 0 -0.23846256347585101 0.32840832937646591 0 -0.26524168696868161 0.32324691437506969 0 -0.23846256347585101 0.32840832937646591 0 -0.2464872074170133 0.30142553852459603 0 -0.26296197704498619 0.36420681253325943 0 -0.25615429711168258 0.36863696063373019 0 -0.25585680628613311 0.35531502858459979 0 -0.2647156005673143 0.37214377149211852 0 -0.25615429711168258 0.36863696063373019 0 -0.26104067519949731 0.37736947976940138 0 -0.26296197704498619 0.36420681253325943 0 -0.2647156005673143 0.37214377149211852 0 -0.25615429711168258 0.36863696063373019 0 -0.25615429711168258 0.36863696063373019 0 -0.25289352212915839 0.38146390075980963 0 -0.24607872666084529 0.37255635989223079 0 -0.25615429711168258 0.36863696063373019 0 -0.25585680628613311 0.35531502858459979 0 -0.2474112648444885 0.36340222027400892 0 -0.25585680628613311 0.35531502858459979 0 -0.26139407846422352 0.3468715903468983 0 -0.24388941846378159 0.35251212586360942 0 -0.25585680628613311 0.35531502858459979 0 -0.26445420611580328 0.35061554696267672 0 -0.26139407846422352 0.3468715903468983 0 -0.26296197704498619 0.36420681253325943 0 -0.25585680628613311 0.35531502858459979 0 -0.26445420611580328 0.35061554696267672 0 -0.26445420611580328 0.35061554696267672 0 -0.26139407846422352 0.3468715903468983 0 -0.28432559345259628 0.36533485131733018 0 -0.26139407846422352 0.3468715903468983 0 -0.28432559345259628 0.36533485131733018 0 -0.2843969738117052 0.33861995186167188 0 -0.26139407846422352 0.3468715903468983 0 -0.28432559345259628 0.36533485131733018 0 -0.26445420611580328 0.35061554696267672 0 -0.27358869144210168 0.37515064488059469 0 -0.26296197704498619 0.36420681253325943 0 -0.26445420611580328 0.35061554696267672 0 -0.27358869144210168 0.37515064488059469 0 -0.26445420611580328 0.35061554696267672 0 -0.28432559345259628 0.36533485131733018 0 -0.27358869144210168 0.37515064488059469 0 -0.26296197704498619 0.36420681253325943 0 -0.2647156005673143 0.37214377149211852 0 -0.27358869144210168 0.37515064488059469 0 -0.28432559345259628 0.36533485131733018 0 -0.28460827988692228 0.37642418503989622 0 -0.27358869144210168 0.37515064488059469 0 -0.28432559345259628 0.36533485131733018 0 -0.27358869144210168 0.37515064488059469 0 -0.28432559345259628 0.36533485131733018 0 -0.30694480677800168 0.38354666326192688 0 -0.2843969738117052 0.33861995186167188 0 -0.28432559345259628 0.36533485131733018 0 -0.30490191782032611 0.34652374993192903 0 -0.28432559345259628 0.36533485131733018 0 -0.30490191782032611 0.34652374993192903 0 -0.28432559345259628 0.36533485131733018 0 -0.30490191782032611 0.34652374993192903 0 -0.30966730532964021 0.36440478285434419 0 -0.28432559345259628 0.36533485131733018 0 -0.30966730532964021 0.36440478285434419 0 -0.30694480677800168 0.38354666326192688 0 -0.30966730532964021 0.36440478285434419 0 -0.32774435906701249 0.37019833653043249 0 -0.32513348895634608 0.35035906564370539 0 -0.30966730532964021 0.36440478285434419 0 -0.32774435906701249 0.37019833653043249 0 -0.30694480677800168 0.38354666326192688 0 -0.32774435906701249 0.37019833653043249 0 -0.34419641093227732 0.3706995331621617 0 -0.34854391135602258 0.3568500097989375 0 -0.32774435906701249 0.37019833653043249 0 -0.34854391135602258 0.3568500097989375 0 -0.32774435906701249 0.37019833653043249 0 -0.32513348895634608 0.35035906564370539 0 -0.34854391135602258 0.3568500097989375 0 -0.33451542597716438 0.33603825812106219 0 -0.34617791789969371 0.34187181845706588 0 -0.34854391135602258 0.3568500097989375 0 -0.32513348895634608 0.35035906564370539 0 -0.33451542597716438 0.33603825812106219 0 -0.34854391135602258 0.3568500097989375 0 -0.33451542597716438 0.33603825812106219 0 -0.34854391135602258 0.3568500097989375 0 -0.30490191782032611 0.34652374993192903 0 -0.30966730532964021 0.36440478285434419 0 -0.32513348895634608 0.35035906564370539 0 -0.30490191782032611 0.34652374993192903 0 -0.32547824218805749 0.32771264854652982 0 -0.30490191782032611 0.34652374993192903 0 -0.32513348895634608 0.35035906564370539 0 -0.32547824218805749 0.32771264854652982 0 -0.32048694059830729 0.31522650644318623 0 -0.33451542597716438 0.33603825812106219 0 -0.32048694059830729 0.31522650644318623 0 -0.32547824218805749 0.32771264854652982 0 -0.33451542597716438 0.33603825812106219 0 -0.30654785769390291 0.32739671227590023 0 -0.32048694059830729 0.31522650644318623 0 -0.32547824218805749 0.32771264854652982 0 -0.33775488379461249 0.31100124704768872 0 -0.33787842824590653 0.3237453090814153 0 -0.34956945429146852 0.32881938932840632 0 -0.32048694059830729 0.31522650644318623 0 -0.33787842824590653 0.3237453090814153 0 -0.33451542597716438 0.33603825812106219 0 -0.33775488379461249 0.31100124704768872 0 -0.32048694059830729 0.31522650644318623 0 -0.33787842824590653 0.3237453090814153 0 -0.32513348895634608 0.35035906564370539 0 -0.32547824218805749 0.32771264854652982 0 -0.33451542597716438 0.33603825812106219 0 -0.33787842824590653 0.3237453090814153 0 -0.33451542597716438 0.33603825812106219 0 -0.3420353066035583 0.33261869374698738 0 -0.33787842824590653 0.3237453090814153 0 -0.3420353066035583 0.33261869374698738 0 -0.34956945429146852 0.32881938932840632 0 -0.33451542597716438 0.33603825812106219 0 -0.3420353066035583 0.33261869374698738 0 -0.34617791789969371 0.34187181845706588 0 -0.34956945429146852 0.32881938932840632 0 -0.35145666242543022 0.32859435571495932 0 -0.35440849878261499 0.3530863504649347 0 -0.35145666242543022 0.32859435571495932 0 -0.36515844105624451 0.34618746438223252 0 -0.34617791789969371 0.34187181845706588 0 -0.34956945429146852 0.32881938932840632 0 -0.35440849878261499 0.3530863504649347 0 -0.35145666242543022 0.32859435571495932 0 -0.36515844105624451 0.34618746438223252 0 -0.35440849878261499 0.3530863504649347 0 -0.34956945429146852 0.32881938932840632 0 -0.35440849878261499 0.3530863504649347 0 -0.3420353066035583 0.33261869374698738 0 -0.34617791789969371 0.34187181845706588 0 -0.34956945429146852 0.32881938932840632 0 -0.35145666242543022 0.32859435571495932 0 -0.35615232041368949 0.32614811403653271 0 -0.36235304529568968 0.33424021859381647 0 -0.33775488379461249 0.31100124704768872 0 -0.35145666242543022 0.32859435571495932 0 -0.34878950318113078 0.31653944924074529 0 -0.33775488379461249 0.31100124704768872 0 -0.35145666242543022 0.32859435571495932 0 -0.33775488379461249 0.31100124704768872 0 -0.34956945429146852 0.32881938932840632 0 -0.35145666242543022 0.32859435571495932 0 -0.35145666242543022 0.32859435571495932 0 -0.34878950318113078 0.31653944924074529 0 -0.35370144104691131 0.32153946410907791 0 -0.35145666242543022 0.32859435571495932 0 -0.35615232041368949 0.32614811403653271 0 -0.35370144104691131 0.32153946410907791 0 -0.35615232041368949 0.32614811403653271 0 -0.35370144104691131 0.32153946410907791 0 -0.3597357334825676 0.3222503642921557 0 -0.35908300639477397 0.31062493190261697 0 -0.35370144104691131 0.32153946410907791 0 -0.3597357334825676 0.3222503642921557 0 -0.35908300639477397 0.31062493190261697 0 -0.34878950318113078 0.31653944924074529 0 -0.35370144104691131 0.32153946410907791 0 -0.3776534193888279 0.31828686882629842 0 -0.3597357334825676 0.3222503642921557 0 -0.37050849986341639 0.33054468298611428 0 -0.3776534193888279 0.31828686882629842 0 -0.38074848687336921 0.30140489144791838 0 -0.3597357334825676 0.3222503642921557 0 -0.35615232041368949 0.32614811403653271 0 -0.3597357334825676 0.3222503642921557 0 -0.36235304529568968 0.33424021859381647 0 -0.36235304529568968 0.33424021859381647 0 -0.37050849986341639 0.33054468298611428 0 -0.36515844105624451 0.34618746438223252 0 -0.38764186009375212 0.33175849883606862 0 -0.37050849986341639 0.33054468298611428 0 -0.36515844105624451 0.34618746438223252 0 -0.35145666242543022 0.32859435571495932 0 -0.36235304529568968 0.33424021859381647 0 -0.36515844105624451 0.34618746438223252 0 -0.3597357334825676 0.3222503642921557 0 -0.36235304529568968 0.33424021859381647 0 -0.37050849986341639 0.33054468298611428 0 -0.38077597659593188 0.366240408402697 0 -0.36515844105624451 0.34618746438223252 0 -0.36670577824171779 0.36106282429627651 0 -0.38077597659593188 0.366240408402697 0 -0.36515844105624451 0.34618746438223252 0 -0.36515844105624451 0.34618746438223252 0 -0.35440849878261499 0.3530863504649347 0 -0.36515844105624451 0.34618746438223252 0 -0.36670577824171779 0.36106282429627651 0 -0.35440849878261499 0.3530863504649347 0 -0.36670577824171779 0.36106282429627651 0 -0.35793808199708921 0.37078659249632262 0 -0.35440849878261499 0.3530863504649347 0 -0.3755985784824929 0.37579787132911568 0 -0.36670577824171779 0.36106282429627651 0 -0.35793808199708921 0.37078659249632262 0 -0.3755985784824929 0.37579787132911568 0 -0.38077597659593188 0.366240408402697 0 -0.36670577824171779 0.36106282429627651 0 -0.35793808199708921 0.37078659249632262 0 -0.35440849878261499 0.3530863504649347 0 -0.35793808199708921 0.37078659249632262 0 -0.34854391135602258 0.3568500097989375 0 -0.35440849878261499 0.3530863504649347 0 -0.35793808199708921 0.37078659249632262 0 -0.34854391135602258 0.3568500097989375 0 -0.35793808199708921 0.37078659249632262 0 -0.34419641093227732 0.3706995331621617 0 -0.34854391135602258 0.3568500097989375 0 -0.34854391135602258 0.3568500097989375 0 -0.35440849878261499 0.3530863504649347 0 -0.34617791789969371 0.34187181845706588 0 -0.34854391135602258 0.3568500097989375 0 -0.35440849878261499 0.3530863504649347 0 -0.34782678405348078 0.40098973435460239 0 -0.36219946973837741 0.39215670614061832 0 -0.36646085747966572 0.41352681978491379 0 -0.34782678405348078 0.40098973435460239 0 -0.36219946973837741 0.39215670614061832 0 -0.34255929130898521 0.38496319382295419 0 -0.35793808199708921 0.37078659249632262 0 -0.36219946973837741 0.39215670614061832 0 -0.34255929130898521 0.38496319382295419 0 -0.35793808199708921 0.37078659249632262 0 -0.34419641093227732 0.3706995331621617 0 -0.34255929130898521 0.38496319382295419 0 -0.35793808199708921 0.37078659249632262 0 -0.37099329502380768 0.39015446039340368 0 -0.36219946973837741 0.39215670614061832 0 -0.35793808199708921 0.37078659249632262 0 -0.37099329502380768 0.39015446039340368 0 -0.3755985784824929 0.37579787132911568 0 -0.35793808199708921 0.37078659249632262 0 -0.37099329502380768 0.39015446039340368 0 -0.35793808199708921 0.37078659249632262 0 -0.36219946973837741 0.39215670614061832 0 -0.36219946973837741 0.39215670614061832 0 -0.36646085747966572 0.41352681978491379 0 -0.36219946973837741 0.39215670614061832 0 -0.37364309642708898 0.40193696225851211 0 -0.36646085747966572 0.41352681978491379 0 -0.37099329502380768 0.39015446039340368 0 -0.36219946973837741 0.39215670614061832 0 -0.37364309642708898 0.40193696225851211 0 -0.37936565408481532 0.41584650053120742 0 -0.37364309642708898 0.40193696225851211 0 -0.36646085747966572 0.41352681978491379 0 -0.37936565408481532 0.41584650053120742 0 -0.36646085747966572 0.41352681978491379 0 -0.37072224522095798 0.43489693342920849 0 -0.37072224522095798 0.43489693342920849 0 -0.34946309907330803 0.41778017670677892 0 -0.36646085747966572 0.41352681978491379 0 -0.37072224522095798 0.43489693342920849 0 -0.36646085747966572 0.41352681978491379 0 -0.37072224522095798 0.43489693342920849 0 -0.34946309907330803 0.41778017670677892 0 -0.37072224522095798 0.43489693342920849 0 -0.37164114564722589 0.43950505823018959 0 -0.35145440997051791 0.43728563466036707 0 -0.34946309907330803 0.41778017670677892 0 -0.33403334625613679 0.42373634277696248 0 -0.37072224522095798 0.43489693342920849 0 -0.35145440997051791 0.43728563466036707 0 -0.34946309907330803 0.41778017670677892 0 -0.34782678405348078 0.40098973435460239 0 -0.36646085747966572 0.41352681978491379 0 -0.34946309907330803 0.41778017670677892 0 -0.34946309907330803 0.41778017670677892 0 -0.33403334625613679 0.42373634277696248 0 -0.32820395292565568 0.40066341998435168 0 -0.34782678405348078 0.40098973435460239 0 -0.34946309907330803 0.41778017670677892 0 -0.32820395292565568 0.40066341998435168 0 -0.34946309907330803 0.41778017670677892 0 -0.32820395292565568 0.40066341998435168 0 -0.33403334625613679 0.42373634277696248 0 -0.31964378236115232 0.42998280595358063 0 -0.33506809943550198 0.44028546021875942 0 -0.35145440997051791 0.43728563466036707 0 -0.33403334625613679 0.42373634277696248 0 -0.33506809943550198 0.44028546021875942 0 -0.33403334625613679 0.42373634277696248 0 -0.31964378236115232 0.42998280595358063 0 -0.32036673377068492 0.41642055913793752 0 -0.31964378236115232 0.42998280595358063 0 -0.32036673377068492 0.41642055913793752 0 -0.30871397076874102 0.42103250421748978 0 -0.32036673377068492 0.41642055913793752 0 -0.32820395292565568 0.40066341998435168 0 -0.30998625587686579 0.40779085146619642 0 -0.33403334625613679 0.42373634277696248 0 -0.32036673377068492 0.41642055913793752 0 -0.32820395292565568 0.40066341998435168 0 -0.32036673377068492 0.41642055913793752 0 -0.30871397076874102 0.42103250421748978 0 -0.30998625587686579 0.40779085146619642 0 -0.32820395292565568 0.40066341998435168 0 -0.30694480677800168 0.38354666326192688 0 -0.32820395292565568 0.40066341998435168 0 -0.30694480677800168 0.38354666326192688 0 -0.30608915915933088 0.39722578724017438 0 -0.32820395292565568 0.40066341998435168 0 -0.30608915915933088 0.39722578724017438 0 -0.30998625587686579 0.40779085146619642 0 -0.34782678405348078 0.40098973435460239 0 -0.32820395292565568 0.40066341998435168 0 -0.34255929130898521 0.38496319382295419 0 -0.32774435906701249 0.37019833653043249 0 -0.34419641093227732 0.3706995331621617 0 -0.34255929130898521 0.38496319382295419 0 -0.32774435906701249 0.37019833653043249 0 -0.32820395292565568 0.40066341998435168 0 -0.34255929130898521 0.38496319382295419 0 -0.32774435906701249 0.37019833653043249 0 -0.32820395292565568 0.40066341998435168 0 -0.30694480677800168 0.38354666326192688 0 -0.32774435906701249 0.37019833653043249 0 -0.30694480677800168 0.38354666326192688 0 -0.30694480677800168 0.38354666326192688 0 -0.29050150651510459 0.39409932042509022 0 -0.30694480677800168 0.38354666326192688 0 -0.30608915915933088 0.39722578724017438 0 -0.29050150651510459 0.39409932042509022 0 -0.30608915915933088 0.39722578724017438 0 -0.29764276246340271 0.40471390008320302 0 -0.29050150651510459 0.39409932042509022 0 -0.30608915915933088 0.39722578724017438 0 -0.29764276246340271 0.40471390008320302 0 -0.30998625587686579 0.40779085146619642 0 -0.29050150651510459 0.39409932042509022 0 -0.28254449750804778 0.39920581284165108 0 -0.29366450533654997 0.42153529095887948 0 -0.29050150651510459 0.39409932042509022 0 -0.28254449750804778 0.39920581284165108 0 -0.28960554850922549 0.38632774704288891 0 -0.29050150651510459 0.39409932042509022 0 -0.28254449750804778 0.39920581284165108 0 -0.28432559345259628 0.36533485131733018 0 -0.30694480677800168 0.38354666326192688 0 -0.28460827988692228 0.37642418503989622 0 -0.30694480677800168 0.38354666326192688 0 -0.29050150651510459 0.39409932042509022 0 -0.28960554850922549 0.38632774704288891 0 -0.28254449750804778 0.39920581284165108 0 -0.28960554850922549 0.38632774704288891 0 -0.27358869144210168 0.37515064488059469 0 -0.30694480677800168 0.38354666326192688 0 -0.28960554850922549 0.38632774704288891 0 -0.28460827988692228 0.37642418503989622 0 -0.28960554850922549 0.38632774704288891 0 -0.28460827988692228 0.37642418503989622 0 -0.27358869144210168 0.37515064488059469 0 -0.29050150651510459 0.39409932042509022 0 -0.28960554850922549 0.38632774704288891 0 -0.28254449750804778 0.39920581284165108 0 -0.27358869144210168 0.37515064488059469 0 -0.28254449750804778 0.39920581284165108 0 -0.27358869144210168 0.37515064488059469 0 -0.27080432087897233 0.38804367828142478 0 -0.2647156005673143 0.37214377149211852 0 -0.27358869144210168 0.37515064488059469 0 -0.26905999210271991 0.37929083148023418 0 -0.27358869144210168 0.37515064488059469 0 -0.26905999210271991 0.37929083148023418 0 -0.27080432087897233 0.38804367828142478 0 -0.27358869144210168 0.37515064488059469 0 -0.26905999210271991 0.37929083148023418 0 -0.26905999210271991 0.37929083148023418 0 -0.27080432087897233 0.38804367828142478 0 -0.26237996408661152 0.3853119344811145 0 -0.27080432087897233 0.38804367828142478 0 -0.26455128446569259 0.39558375919094618 0 -0.26237996408661152 0.3853119344811145 0 -0.28254449750804778 0.39920581284165108 0 -0.27080432087897233 0.38804367828142478 0 -0.27249833439072829 0.39763609219355323 0 -0.28254449750804778 0.39920581284165108 0 -0.27022957162352451 0.40710904326202962 0 -0.28254449750804778 0.39920581284165108 0 -0.27249833439072829 0.39763609219355323 0 -0.27022957162352451 0.40710904326202962 0 -0.27249833439072829 0.39763609219355323 0 -0.26455128446569259 0.39558375919094618 0 -0.27022957162352451 0.40710904326202962 0 -0.27080432087897233 0.38804367828142478 0 -0.27249833439072829 0.39763609219355323 0 -0.26455128446569259 0.39558375919094618 0 -0.26455128446569259 0.39558375919094618 0 -0.25570137623854589 0.39116782499720421 0 -0.26237996408661152 0.3853119344811145 0 -0.26455128446569259 0.39558375919094618 0 -0.25436400799410419 0.40431224891114392 0 -0.25570137623854589 0.39116782499720421 0 -0.26455128446569259 0.39558375919094618 0 -0.25436400799410419 0.40431224891114392 0 -0.27022957162352451 0.40710904326202962 0 -0.25436400799410419 0.40431224891114392 0 -0.25570137623854589 0.39116782499720421 0 -0.2459783912314211 0.39337372541214283 0 -0.25570137623854589 0.39116782499720421 0 -0.25289352212915839 0.38146390075980963 0 -0.2459783912314211 0.39337372541214283 0 -0.25570137623854589 0.39116782499720421 0 -0.25289352212915839 0.38146390075980963 0 -0.26237996408661152 0.3853119344811145 0 -0.25615429711168258 0.36863696063373019 0 -0.25289352212915839 0.38146390075980963 0 -0.26104067519949731 0.37736947976940138 0 -0.26905999210271991 0.37929083148023418 0 -0.26104067519949731 0.37736947976940138 0 -0.26237996408661152 0.3853119344811145 0 -0.2647156005673143 0.37214377149211852 0 -0.26905999210271991 0.37929083148023418 0 -0.26104067519949731 0.37736947976940138 0 -0.25289352212915839 0.38146390075980963 0 -0.26104067519949731 0.37736947976940138 0 -0.26237996408661152 0.3853119344811145 0 -0.26107361888621949 0.43128794427999267 0 -0.24854104391270471 0.41962470789505241 0 -0.24727883585019819 0.43734184407656129 0 -0.26107361888621949 0.43128794427999267 0 -0.26355077835852808 0.4174112163347381 0 -0.24854104391270471 0.41962470789505241 0 -0.25436400799410419 0.40431224891114392 0 -0.26355077835852808 0.4174112163347381 0 -0.27022957162352451 0.40710904326202962 0 -0.25436400799410419 0.40431224891114392 0 -0.26355077835852808 0.4174112163347381 0 -0.24854104391270471 0.41962470789505241 0 -0.26355077835852808 0.4174112163347381 0 -0.27373500722198152 0.41759813447425831 0 -0.27298221671628747 0.42623882659893098 0 -0.26355077835852808 0.4174112163347381 0 -0.27022957162352451 0.40710904326202962 0 -0.27373500722198152 0.41759813447425831 0 -0.28254449750804778 0.39920581284165108 0 -0.27022957162352451 0.40710904326202962 0 -0.28013166070318768 0.4141272085816935 0 -0.27022957162352451 0.40710904326202962 0 -0.27373500722198152 0.41759813447425831 0 -0.28013166070318768 0.4141272085816935 0 -0.27373500722198152 0.41759813447425831 0 -0.28013166070318768 0.4141272085816935 0 -0.28178080870837952 0.42310437759389857 0 -0.27298221671628747 0.42623882659893098 0 -0.28098914923009233 0.43014364374613301 0 -0.28178080870837952 0.42310437759389857 0 -0.27373500722198152 0.41759813447425831 0 -0.27298221671628747 0.42623882659893098 0 -0.28178080870837952 0.42310437759389857 0 -0.26107361888621949 0.43128794427999267 0 -0.26355077835852808 0.4174112163347381 0 -0.27298221671628747 0.42623882659893098 0 -0.26107361888621949 0.43128794427999267 0 -0.27298221671628747 0.42623882659893098 0 -0.27286236580827911 0.4392681897926195 0 -0.28098914923009233 0.43014364374613301 0 -0.28558094308081239 0.43820360254313812 0 -0.27286236580827911 0.4392681897926195 0 -0.27298221671628747 0.42623882659893098 0 -0.28098914923009233 0.43014364374613301 0 -0.27286236580827911 0.4392681897926195 0 -0.29173941183670288 0.42390322220207749 0 -0.29366450533654997 0.42153529095887948 0 -0.29682750415799902 0.44897126149266842 0 -0.29366450533654997 0.42153529095887948 0 -0.29682750415799902 0.44897126149266842 0 -0.29173941183670288 0.42390322220207749 0 -0.29682750415799902 0.44897126149266842 0 -0.28558094308081239 0.43820360254313812 0 -0.28098914923009233 0.43014364374613301 0 -0.29173941183670288 0.42390322220207749 0 -0.28558094308081239 0.43820360254313812 0 -0.28098914923009233 0.43014364374613301 0 -0.28178080870837952 0.42310437759389857 0 -0.29173941183670288 0.42390322220207749 0 -0.28254449750804778 0.39920581284165108 0 -0.28013166070318768 0.4141272085816935 0 -0.29173941183670288 0.42390322220207749 0 -0.29050150651510459 0.39409932042509022 0 -0.29366450533654997 0.42153529095887948 0 -0.28254449750804778 0.39920581284165108 0 -0.29173941183670288 0.42390322220207749 0 -0.29764276246340271 0.40471390008320302 0 -0.29366450533654997 0.42153529095887948 0 -0.29883358220712708 0.41550436914647743 0 -0.28254449750804778 0.39920581284165108 0 -0.29173941183670288 0.42390322220207749 0 -0.29366450533654997 0.42153529095887948 0 -0.29764276246340271 0.40471390008320302 0 -0.29050150651510459 0.39409932042509022 0 -0.29366450533654997 0.42153529095887948 0 -0.28013166070318768 0.4141272085816935 0 -0.28178080870837952 0.42310437759389857 0 -0.29173941183670288 0.42390322220207749 0 -0.29764276246340271 0.40471390008320302 0 -0.30283182427430949 0.41430483419071717 0 -0.29883358220712708 0.41550436914647743 0 -0.29764276246340271 0.40471390008320302 0 -0.30283182427430949 0.41430483419071717 0 -0.30998625587686579 0.40779085146619642 0 -0.30283182427430949 0.41430483419071717 0 -0.29883358220712708 0.41550436914647743 0 -0.30119523675424631 0.4214634513531097 0 -0.29366450533654997 0.42153529095887948 0 -0.29883358220712708 0.41550436914647743 0 -0.30119523675424631 0.4214634513531097 0 -0.30283182427430949 0.41430483419071717 0 -0.30119523675424631 0.4214634513531097 0 -0.30871397076874102 0.42103250421748978 0 -0.30283182427430949 0.41430483419071717 0 -0.30871397076874102 0.42103250421748978 0 -0.30998625587686579 0.40779085146619642 0 -0.31964378236115232 0.42998280595358063 0 -0.30871397076874102 0.42103250421748978 0 -0.30324426424688328 0.43373749351201779 0 -0.29366450533654997 0.42153529095887948 0 -0.30324426424688328 0.43373749351201779 0 -0.29682750415799902 0.44897126149266842 0 -0.29366450533654997 0.42153529095887948 0 -0.30119523675424631 0.4214634513531097 0 -0.30324426424688328 0.43373749351201779 0 -0.30119523675424631 0.4214634513531097 0 -0.30871397076874102 0.42103250421748978 0 -0.30324426424688328 0.43373749351201779 0 -0.30324426424688328 0.43373749351201779 0 -0.29682750415799902 0.44897126149266842 0 -0.3188763822421733 0.45067952885904772 0 -0.30910481895866532 0.46421427362097839 0 -0.29682750415799902 0.44897126149266842 0 -0.3188763822421733 0.45067952885904772 0 -0.29682750415799902 0.44897126149266842 0 -0.29999050297944801 0.47640723202645707 0 -0.30910481895866532 0.46421427362097839 0 -0.29682750415799902 0.44897126149266842 0 -0.29999050297944801 0.47640723202645707 0 -0.29682750415799902 0.44897126149266842 0 -0.27699652009337672 0.4564162269929708 0 -0.28762086667187359 0.47021143938726812 0 -0.29682750415799902 0.44897126149266842 0 -0.28762086667187359 0.47021143938726812 0 -0.29999050297944801 0.47640723202645707 0 -0.29682750415799902 0.44897126149266842 0 -0.28558094308081239 0.43820360254313812 0 -0.27699652009337672 0.4564162269929708 0 -0.28558094308081239 0.43820360254313812 0 -0.27286236580827911 0.4392681897926195 0 -0.27699652009337672 0.4564162269929708 0 -0.27286236580827911 0.4392681897926195 0 -0.27699652009337672 0.4564162269929708 0 -0.26122647267132021 0.44784288098205421 0 -0.27699652009337672 0.4564162269929708 0 -0.26147609420917173 0.46344535453163788 0 -0.27404815881938488 0.48109201654027223 0 -0.27699652009337672 0.4564162269929708 0 -0.26147609420917173 0.46344535453163788 0 -0.26122647267132021 0.44784288098205421 0 -0.26147609420917173 0.46344535453163788 0 -0.2478972671455244 0.47584603332476649 0 -0.24721205231625229 0.45602961481812587 0 -0.26147609420917173 0.46344535453163788 0 -0.26122647267132021 0.44784288098205421 0 -0.24721205231625229 0.45602961481812587 0 -0.26107361888621949 0.43128794427999267 0 -0.26122647267132021 0.44784288098205421 0 -0.24727883585019819 0.43734184407656129 0 -0.26122647267132021 0.44784288098205421 0 -0.24721205231625229 0.45602961481812587 0 -0.24727883585019819 0.43734184407656129 0 -0.26107361888621949 0.43128794427999267 0 -0.27286236580827911 0.4392681897926195 0 -0.26122647267132021 0.44784288098205421 0 -0.2605610192575718 0.48923451246625971 0 -0.27487482085338788 0.5 0 -0.24542383021198999 0.5 0 -0.2605610192575718 0.48923451246625971 0 -0.2478972671455244 0.47584603332476649 0 -0.24542383021198999 0.5 0 -0.27404815881938488 0.48109201654027223 0 -0.2478972671455244 0.47584603332476649 0 -0.26147609420917173 0.46344535453163788 0 -0.27404815881938488 0.48109201654027223 0 -0.2478972671455244 0.47584603332476649 0 -0.2605610192575718 0.48923451246625971 0 -0.27404815881938488 0.48109201654027223 0 -0.2478972671455244 0.47584603332476649 0 -0.27699652009337672 0.4564162269929708 0 -0.27404815881938488 0.48109201654027223 0 -0.28762086667187359 0.47021143938726812 0 -0.2605610192575718 0.48923451246625971 0 -0.27404815881938488 0.48109201654027223 0 -0.27487482085338788 0.5 0 -0.27404815881938488 0.48109201654027223 0 -0.27487482085338788 0.5 0 -0.2858531867696768 0.49004796026952913 0 -0.27487482085338788 0.5 0 -0.2858531867696768 0.49004796026952913 0 -0.30432581149478588 0.5 0 -0.27404815881938488 0.48109201654027223 0 -0.2858531867696768 0.49004796026952913 0 -0.30019905049324541 0.48633799975577791 0 -0.2858531867696768 0.49004796026952913 0 -0.30432581149478588 0.5 0 -0.30019905049324541 0.48633799975577791 0 -0.27404815881938488 0.48109201654027223 0 -0.28762086667187359 0.47021143938726812 0 -0.30019905049324541 0.48633799975577791 0 -0.28762086667187359 0.47021143938726812 0 -0.29999050297944801 0.47640723202645707 0 -0.30019905049324541 0.48633799975577791 0 -0.27404815881938488 0.48109201654027223 0 -0.30019905049324541 0.48633799975577791 0 -0.29999050297944801 0.47640723202645707 0 -0.30616369423860912 0.47997283575215538 0 -0.30019905049324541 0.48633799975577791 0 -0.29999050297944801 0.47640723202645707 0 -0.30616369423860912 0.47997283575215538 0 -0.31002987481414751 0.47445907367824341 0 -0.30616369423860912 0.47997283575215538 0 -0.30019905049324541 0.48633799975577791 0 -0.3144353486675957 0.48268703754814352 0 -0.30616369423860912 0.47997283575215538 0 -0.31002987481414751 0.47445907367824341 0 -0.3144353486675957 0.48268703754814352 0 -0.30910481895866532 0.46421427362097839 0 -0.29999050297944801 0.47640723202645707 0 -0.31002987481414751 0.47445907367824341 0 -0.30432581149478588 0.5 0 -0.30019905049324541 0.48633799975577791 0 -0.32634994216710589 0.49158398297128347 0 -0.30019905049324541 0.48633799975577791 0 -0.32634994216710589 0.49158398297128347 0 -0.30432581149478588 0.5 0 -0.32634994216710589 0.49158398297128347 0 -0.33377680213618388 0.5 0 -0.30019905049324541 0.48633799975577791 0 -0.32634994216710589 0.49158398297128347 0 -0.3144353486675957 0.48268703754814352 0 -0.32634994216710589 0.49158398297128347 0 -0.32396816518856503 0.48228657081810689 0 -0.3144353486675957 0.48268703754814352 0 -0.32634994216710589 0.49158398297128347 0 -0.33377680213618388 0.5 0 -0.34099394168778308 0.49045091956362741 0 -0.32634994216710589 0.49158398297128347 0 -0.34099394168778308 0.49045091956362741 0 -0.3330676988181252 0.47855265489839732 0 -0.3330676988181252 0.47855265489839732 0 -0.34582473644989392 0.46703921894786199 0 -0.34854747253991902 0.48211795994845619 0 -0.3330676988181252 0.47855265489839732 0 -0.33064222503293961 0.46431200326484001 0 -0.34582473644989392 0.46703921894786199 0 -0.34099394168778308 0.49045091956362741 0 -0.3330676988181252 0.47855265489839732 0 -0.34854747253991902 0.48211795994845619 0 -0.3330676988181252 0.47855265489839732 0 -0.31972576108535028 0.47129236851419842 0 -0.33064222503293961 0.46431200326484001 0 -0.3330676988181252 0.47855265489839732 0 -0.32396816518856503 0.48228657081810689 0 -0.31972576108535028 0.47129236851419842 0 -0.32634994216710589 0.49158398297128347 0 -0.3330676988181252 0.47855265489839732 0 -0.32396816518856503 0.48228657081810689 0 -0.32396816518856503 0.48228657081810689 0 -0.3144353486675957 0.48268703754814352 0 -0.31972576108535028 0.47129236851419842 0 -0.30910481895866532 0.46421427362097839 0 -0.31002987481414751 0.47445907367824341 0 -0.31972576108535028 0.47129236851419842 0 -0.31002987481414751 0.47445907367824341 0 -0.3144353486675957 0.48268703754814352 0 -0.31972576108535028 0.47129236851419842 0 -0.31972576108535028 0.47129236851419842 0 -0.3188763822421733 0.45067952885904772 0 -0.33064222503293961 0.46431200326484001 0 -0.30910481895866532 0.46421427362097839 0 -0.31972576108535028 0.47129236851419842 0 -0.3188763822421733 0.45067952885904772 0 -0.31964378236115232 0.42998280595358063 0 -0.30324426424688328 0.43373749351201779 0 -0.3188763822421733 0.45067952885904772 0 -0.31964378236115232 0.42998280595358063 0 -0.3188763822421733 0.45067952885904772 0 -0.33506809943550198 0.44028546021875942 0 -0.3188763822421733 0.45067952885904772 0 -0.33506809943550198 0.44028546021875942 0 -0.33571654656915523 0.45399624510469411 0 -0.33506809943550198 0.44028546021875942 0 -0.33571654656915523 0.45399624510469411 0 -0.34810264812480768 0.45259203841359108 0 -0.3188763822421733 0.45067952885904772 0 -0.33064222503293961 0.46431200326484001 0 -0.33571654656915523 0.45399624510469411 0 -0.33571654656915523 0.45399624510469411 0 -0.34582473644989392 0.46703921894786199 0 -0.34810264812480768 0.45259203841359108 0 -0.33064222503293961 0.46431200326484001 0 -0.33571654656915523 0.45399624510469411 0 -0.34582473644989392 0.46703921894786199 0 -0.34582473644989392 0.46703921894786199 0 -0.35879097492700451 0.45996424019837562 0 -0.3633047619024331 0.47480876337670469 0 -0.34582473644989392 0.46703921894786199 0 -0.35879097492700451 0.45996424019837562 0 -0.34810264812480768 0.45259203841359108 0 -0.35879097492700451 0.45996424019837562 0 -0.34810264812480768 0.45259203841359108 0 -0.3589555025833876 0.45153194667685831 0 -0.35145440997051791 0.43728563466036707 0 -0.33506809943550198 0.44028546021875942 0 -0.34810264812480768 0.45259203841359108 0 -0.35145440997051791 0.43728563466036707 0 -0.34810264812480768 0.45259203841359108 0 -0.3589555025833876 0.45153194667685831 0 -0.35145440997051791 0.43728563466036707 0 -0.3589555025833876 0.45153194667685831 0 -0.36374528312501431 0.4430647231370346 0 -0.37072224522095798 0.43489693342920849 0 -0.35145440997051791 0.43728563466036707 0 -0.36374528312501431 0.4430647231370346 0 -0.36374528312501431 0.4430647231370346 0 -0.36674225804357968 0.45106203235873937 0 -0.36862913830009858 0.44461720854489262 0 -0.3589555025833876 0.45153194667685831 0 -0.36374528312501431 0.4430647231370346 0 -0.36674225804357968 0.45106203235873937 0 -0.36674225804357968 0.45106203235873937 0 -0.37344320806865833 0.45221978757831571 0 -0.37378601693697477 0.44541067362674269 0 -0.36674225804357968 0.45106203235873937 0 -0.37378601693697477 0.44541067362674269 0 -0.36862913830009858 0.44461720854489262 0 -0.37072224522095798 0.43489693342920849 0 -0.36374528312501431 0.4430647231370346 0 -0.37164114564722589 0.43950505823018959 0 -0.36374528312501431 0.4430647231370346 0 -0.36862913830009858 0.44461720854489262 0 -0.37164114564722589 0.43950505823018959 0 -0.37378601693697477 0.44541067362674269 0 -0.36862913830009858 0.44461720854489262 0 -0.37164114564722589 0.43950505823018959 0 -0.37990903276478899 0.46812587243661352 0 -0.37015070789911669 0.4605010226726215 0 -0.3633047619024331 0.47480876337670469 0 -0.35879097492700451 0.45996424019837562 0 -0.37015070789911669 0.4605010226726215 0 -0.3633047619024331 0.47480876337670469 0 -0.35879097492700451 0.45996424019837562 0 -0.36674225804357968 0.45106203235873937 0 -0.37015070789911669 0.4605010226726215 0 -0.35879097492700451 0.45996424019837562 0 -0.3589555025833876 0.45153194667685831 0 -0.36674225804357968 0.45106203235873937 0 -0.37871401168823571 0.45682544008698073 0 -0.37344320806865833 0.45221978757831571 0 -0.37015070789911669 0.4605010226726215 0 -0.36674225804357968 0.45106203235873937 0 -0.37344320806865833 0.45221978757831571 0 -0.37015070789911669 0.4605010226726215 0 -0.37933533950595127 0.48722672784229137 0 -0.37990903276478899 0.46812587243661352 0 -0.3633047619024331 0.47480876337670469 0 -0.37933533950595127 0.48722672784229137 0 -0.3633047619024331 0.47480876337670469 0 -0.36322779277758172 0.5 0 -0.34099394168778308 0.49045091956362741 0 -0.36322779277758172 0.5 0 -0.34854747253991902 0.48211795994845619 0 -0.3633047619024331 0.47480876337670469 0 -0.36322779277758172 0.5 0 -0.34854747253991902 0.48211795994845619 0 -0.33377680213618388 0.5 0 -0.34099394168778308 0.49045091956362741 0 -0.36322779277758172 0.5 0 -0.34582473644989392 0.46703921894786199 0 -0.3633047619024331 0.47480876337670469 0 -0.34854747253991902 0.48211795994845619 0 -0.14500184137369951 0.47957240131308237 0 -0.1339801087900091 0.47376843835503102 0 -0.14863018693320329 0.46585811951033629 0 -0.14500184137369951 0.47957240131308237 0 -0.14863018693320329 0.46585811951033629 0 -0.15849162171699449 0.48079501686237691 0 -0.14500184137369951 0.47957240131308237 0 -0.14778363254397481 0.48580128165286413 0 -0.15849162171699449 0.48079501686237691 0 -0.15588760332791529 0.49368946278114539 0 -0.13175346375728969 0.48914824565485149 0 -0.15588760332791529 0.49368946278114539 0 -0.1276198676463991 0.5 0 -0.15707085828779671 0.5 0 -0.15588760332791529 0.49368946278114539 0 -0.14778363254397481 0.48580128165286413 0 -0.15849162171699449 0.48079501686237691 0 -0.15588760332791529 0.49368946278114539 0 -0.14778363254397481 0.48580128165286413 0 -0.13175346375728969 0.48914824565485149 0 -0.14500184137369951 0.47957240131308237 0 -0.14778363254397481 0.48580128165286413 0 -0.13175346375728969 0.48914824565485149 0 -0.15588760332791529 0.49368946278114539 0 -0.1276198676463991 0.5 0 -0.13175346375728969 0.48914824565485149 0 -0.13175346375728969 0.48914824565485149 0 -0.1339801087900091 0.47376843835503102 0 -0.1207793097759514 0.47637562759578478 0 -0.14500184137369951 0.47957240131308237 0 -0.13175346375728969 0.48914824565485149 0 -0.1339801087900091 0.47376843835503102 0 -0.1339801087900091 0.47376843835503102 0 -0.1235375556295443 0.4663256329931314 0 -0.1207793097759514 0.47637562759578478 0 -0.13602398984227779 0.4574625092625893 0 -0.1210539563454964 0.45007944702404551 0 -0.1235375556295443 0.4663256329931314 0 -0.1339801087900091 0.47376843835503102 0 -0.13602398984227779 0.4574625092625893 0 -0.14863018693320329 0.46585811951033629 0 -0.1339801087900091 0.47376843835503102 0 -0.13602398984227779 0.4574625092625893 0 -0.1235375556295443 0.4663256329931314 0 -0.13602398984227779 0.4574625092625893 0 -0.13556140962459221 0.44004108295519628 0 -0.1210539563454964 0.45007944702404551 0 -0.13602398984227779 0.4574625092625893 0 -0.13556140962459221 0.44004108295519628 0 -0.1543563717340711 0.44985151339775969 0 -0.13556140962459221 0.44004108295519628 0 -0.1543563717340711 0.44985151339775969 0 -0.15105516542398431 0.42953725198482912 0 -0.13602398984227779 0.4574625092625893 0 -0.1543563717340711 0.44985151339775969 0 -0.14863018693320329 0.46585811951033629 0 -0.1543563717340711 0.44985151339775969 0 -0.14863018693320329 0.46585811951033629 0 -0.16382559439963151 0.46722964806008449 0 -0.1543563717340711 0.44985151339775969 0 -0.16382559439963151 0.46722964806008449 0 -0.17512548971242739 0.45506437928133869 0 -0.1543563717340711 0.44985151339775969 0 -0.17512548971242739 0.45506437928133869 0 -0.17416066643033709 0.43526626572640248 0 -0.1543563717340711 0.44985151339775969 0 -0.17416066643033709 0.43526626572640248 0 -0.15105516542398431 0.42953725198482912 0 -0.17512548971242739 0.45506437928133869 0 -0.19527820029084891 0.45284935279354122 0 -0.17416066643033709 0.43526626572640248 0 -0.16382559439963151 0.46722964806008449 0 -0.17512548971242739 0.45506437928133869 0 -0.18400777143803029 0.46864087484301697 0 -0.17512548971242739 0.45506437928133869 0 -0.18400777143803029 0.46864087484301697 0 -0.19527820029084891 0.45284935279354122 0 -0.16382559439963151 0.46722964806008449 0 -0.18400777143803029 0.46864087484301697 0 -0.17243763321785499 0.48007312616103659 0 -0.18400777143803029 0.46864087484301697 0 -0.18587662494306101 0.48207424002743421 0 -0.17243763321785499 0.48007312616103659 0 -0.18587662494306101 0.48207424002743421 0 -0.17243763321785499 0.48007312616103659 0 -0.17832314087956089 0.48813350690210422 0 -0.16382559439963151 0.46722964806008449 0 -0.17243763321785499 0.48007312616103659 0 -0.15849162171699449 0.48079501686237691 0 -0.17243763321785499 0.48007312616103659 0 -0.15849162171699449 0.48079501686237691 0 -0.16879399513096691 0.48842547587632568 0 -0.14863018693320329 0.46585811951033629 0 -0.16382559439963151 0.46722964806008449 0 -0.15849162171699449 0.48079501686237691 0 -0.15588760332791529 0.49368946278114539 0 -0.18002174289854089 0.49823067990743941 0 -0.15588760332791529 0.49368946278114539 0 -0.15707085828779671 0.5 0 -0.18002174289854089 0.49823067990743941 0 -0.15588760332791529 0.49368946278114539 0 -0.16879399513096691 0.48842547587632568 0 -0.18002174289854089 0.49823067990743941 0 -0.15588760332791529 0.49368946278114539 0 -0.15849162171699449 0.48079501686237691 0 -0.16879399513096691 0.48842547587632568 0 -0.15707085828779671 0.5 0 -0.18652184892919429 0.5 0 -0.18002174289854089 0.49823067990743941 0 -0.16879399513096691 0.48842547587632568 0 -0.17832314087956089 0.48813350690210422 0 -0.18002174289854089 0.49823067990743941 0 -0.17243763321785499 0.48007312616103659 0 -0.16879399513096691 0.48842547587632568 0 -0.17832314087956089 0.48813350690210422 0 -0.18587662494306101 0.48207424002743421 0 -0.17832314087956089 0.48813350690210422 0 -0.1858090646879528 0.49149406508464177 0 -0.1858090646879528 0.49149406508464177 0 -0.18652184892919429 0.5 0 -0.18002174289854089 0.49823067990743941 0 -0.17832314087956089 0.48813350690210422 0 -0.1858090646879528 0.49149406508464177 0 -0.18002174289854089 0.49823067990743941 0 -0.1858090646879528 0.49149406508464177 0 -0.18652184892919429 0.5 0 -0.1983019657894069 0.4890318985862312 0 -0.18652184892919429 0.5 0 -0.1983019657894069 0.4890318985862312 0 -0.21597283957059199 0.5 0 -0.18587662494306101 0.48207424002743421 0 -0.1858090646879528 0.49149406508464177 0 -0.1983019657894069 0.4890318985862312 0 -0.18587662494306101 0.48207424002743421 0 -0.1983019657894069 0.4890318985862312 0 -0.1993919257382181 0.47173410334388921 0 -0.18400777143803029 0.46864087484301697 0 -0.18587662494306101 0.48207424002743421 0 -0.1993919257382181 0.47173410334388921 0 -0.1983019657894069 0.4890318985862312 0 -0.1993919257382181 0.47173410334388921 0 -0.22042343169006751 0.47836800891808579 0 -0.1983019657894069 0.4890318985862312 0 -0.21597283957059199 0.5 0 -0.22042343169006751 0.47836800891808579 0 -0.21597283957059199 0.5 0 -0.22042343169006751 0.47836800891808579 0 -0.24542383021198999 0.5 0 -0.22042343169006751 0.47836800891808579 0 -0.2478972671455244 0.47584603332476649 0 -0.23250957322122159 0.46211072907908091 0 -0.22042343169006751 0.47836800891808579 0 -0.2478972671455244 0.47584603332476649 0 -0.24542383021198999 0.5 0 -0.24721205231625229 0.45602961481812587 0 -0.23261532335618701 0.44418047075159661 0 -0.24727883585019819 0.43734184407656129 0 -0.24721205231625229 0.45602961481812587 0 -0.23250957322122159 0.46211072907908091 0 -0.23261532335618701 0.44418047075159661 0 -0.2478972671455244 0.47584603332476649 0 -0.24721205231625229 0.45602961481812587 0 -0.23250957322122159 0.46211072907908091 0 -0.22042343169006751 0.47836800891808579 0 -0.23250957322122159 0.46211072907908091 0 -0.21439979159807659 0.4561295175828296 0 -0.23250957322122159 0.46211072907908091 0 -0.23261532335618701 0.44418047075159661 0 -0.21439979159807659 0.4561295175828296 0 -0.23261532335618701 0.44418047075159661 0 -0.21439979159807659 0.4561295175828296 0 -0.2159684437725222 0.43670324529271509 0 -0.21439979159807659 0.4561295175828296 0 -0.19527820029084891 0.45284935279354122 0 -0.2159684437725222 0.43670324529271509 0 -0.1993919257382181 0.47173410334388921 0 -0.22042343169006751 0.47836800891808579 0 -0.21439979159807659 0.4561295175828296 0 -0.1993919257382181 0.47173410334388921 0 -0.21439979159807659 0.4561295175828296 0 -0.19527820029084891 0.45284935279354122 0 -0.18400777143803029 0.46864087484301697 0 -0.1993919257382181 0.47173410334388921 0 -0.19527820029084891 0.45284935279354122 0 -0.19527820029084891 0.45284935279354122 0 -0.19506658608518659 0.43301889444579528 0 -0.17416066643033709 0.43526626572640248 0 -0.19527820029084891 0.45284935279354122 0 -0.19506658608518659 0.43301889444579528 0 -0.2159684437725222 0.43670324529271509 0 -0.19506658608518659 0.43301889444579528 0 -0.20436471450745489 0.41893671198952448 0 -0.1854079437748489 0.41601402553056921 0 -0.20436471450745489 0.41893671198952448 0 -0.1973014019453225 0.40168082738200761 0 -0.1854079437748489 0.41601402553056921 0 -0.20436471450745489 0.41893671198952448 0 -0.22044741954907321 0.41807409052220618 0 -0.21354154182150439 0.40423127925063468 0 -0.20436471450745489 0.41893671198952448 0 -0.21354154182150439 0.40423127925063468 0 -0.1973014019453225 0.40168082738200761 0 -0.20436471450745489 0.41893671198952448 0 -0.2159684437725222 0.43670324529271509 0 -0.22044741954907321 0.41807409052220618 0 -0.19506658608518659 0.43301889444579528 0 -0.20436471450745489 0.41893671198952448 0 -0.2159684437725222 0.43670324529271509 0 -0.23261532335618701 0.44418047075159661 0 -0.2159684437725222 0.43670324529271509 0 -0.23325430677946149 0.42650450568007792 0 -0.2159684437725222 0.43670324529271509 0 -0.23325430677946149 0.42650450568007792 0 -0.22044741954907321 0.41807409052220618 0 -0.23325430677946149 0.42650450568007792 0 -0.22044741954907321 0.41807409052220618 0 -0.23406816143597661 0.40633547868119002 0 -0.22044741954907321 0.41807409052220618 0 -0.23406816143597661 0.40633547868119002 0 -0.21354154182150439 0.40423127925063468 0 -0.25436400799410419 0.40431224891114392 0 -0.23406816143597661 0.40633547868119002 0 -0.24854104391270471 0.41962470789505241 0 -0.23325430677946149 0.42650450568007792 0 -0.23406816143597661 0.40633547868119002 0 -0.24854104391270471 0.41962470789505241 0 -0.23325430677946149 0.42650450568007792 0 -0.24854104391270471 0.41962470789505241 0 -0.24727883585019819 0.43734184407656129 0 -0.23261532335618701 0.44418047075159661 0 -0.23325430677946149 0.42650450568007792 0 -0.24727883585019819 0.43734184407656129 0 -0.24066869885091591 0.38152798507970359 0 -0.23403233857894329 0.39025747515513742 0 -0.22947876036554329 0.38013989857096908 0 -0.24066869885091591 0.38152798507970359 0 -0.2459783912314211 0.39337372541214283 0 -0.23403233857894329 0.39025747515513742 0 -0.24066869885091591 0.38152798507970359 0 -0.22947876036554329 0.38013989857096908 0 -0.23507707570000011 0.3679906263958741 0 -0.25289352212915839 0.38146390075980963 0 -0.24066869885091591 0.38152798507970359 0 -0.24607872666084529 0.37255635989223079 0 -0.25289352212915839 0.38146390075980963 0 -0.24066869885091591 0.38152798507970359 0 -0.2459783912314211 0.39337372541214283 0 -0.25436400799410419 0.40431224891114392 0 -0.23406816143597661 0.40633547868119002 0 -0.2459783912314211 0.39337372541214283 0 -0.23406816143597661 0.40633547868119002 0 -0.2459783912314211 0.39337372541214283 0 -0.23403233857894329 0.39025747515513742 0 -0.23406816143597661 0.40633547868119002 0 -0.22048002009609219 0.3907611798379631 0 -0.23403233857894329 0.39025747515513742 0 -0.23406816143597661 0.40633547868119002 0 -0.22048002009609219 0.3907611798379631 0 -0.21354154182150439 0.40423127925063468 0 -0.22048002009609219 0.3907611798379631 0 -0.22947876036554329 0.38013989857096908 0 -0.21816034677223031 0.37186400999873009 0 -0.22048002009609219 0.3907611798379631 0 -0.23403233857894329 0.39025747515513742 0 -0.22947876036554329 0.38013989857096908 0 -0.1973014019453225 0.40168082738200761 0 -0.18232697691922389 0.38393696520838949 0 -0.1854079437748489 0.41601402553056921 0 -0.22048002009609219 0.3907611798379631 0 -0.2031992387550762 0.38423889804452238 0 -0.21816034677223031 0.37186400999873009 0 -0.22048002009609219 0.3907611798379631 0 -0.2031992387550762 0.38423889804452238 0 -0.21354154182150439 0.40423127925063468 0 -0.2031992387550762 0.38423889804452238 0 -0.21354154182150439 0.40423127925063468 0 -0.1973014019453225 0.40168082738200761 0 -0.2031992387550762 0.38423889804452238 0 -0.18232697691922389 0.38393696520838949 0 -0.193395000775309 0.35927299960760412 0 -0.2031992387550762 0.38423889804452238 0 -0.1973014019453225 0.40168082738200761 0 -0.18232697691922389 0.38393696520838949 0 -0.18232697691922389 0.38393696520838949 0 -0.1854079437748489 0.41601402553056921 0 -0.16538106774573991 0.41412536485907259 0 -0.18232697691922389 0.38393696520838949 0 -0.15370125064636939 0.37792896802226689 0 -0.15385989341448289 0.39683853197377539 0 -0.18232697691922389 0.38393696520838949 0 -0.16538106774573991 0.41412536485907259 0 -0.15385989341448289 0.39683853197377539 0 -0.1854079437748489 0.41601402553056921 0 -0.17416066643033709 0.43526626572640248 0 -0.16538106774573991 0.41412536485907259 0 -0.19506658608518659 0.43301889444579528 0 -0.1854079437748489 0.41601402553056921 0 -0.17416066643033709 0.43526626572640248 0 -0.17416066643033709 0.43526626572640248 0 -0.16538106774573991 0.41412536485907259 0 -0.15105516542398431 0.42953725198482912 0 -0.16538106774573991 0.41412536485907259 0 -0.13562271900123679 0.41450974575662641 0 -0.16538106774573991 0.41412536485907259 0 -0.15105516542398431 0.42953725198482912 0 -0.13562271900123679 0.41450974575662641 0 -0.16538106774573991 0.41412536485907259 0 -0.13562271900123679 0.41450974575662641 0 -0.15385989341448289 0.39683853197377539 0 -0.13556140962459221 0.44004108295519628 0 -0.15105516542398431 0.42953725198482912 0 -0.13562271900123679 0.41450974575662641 0 -0.13556140962459221 0.44004108295519628 0 -0.13562271900123679 0.41450974575662641 0 -0.1171136872491691 0.43493878815214759 0 -0.13562271900123679 0.41450974575662641 0 -0.1340432228732657 0.39160660414660009 0 -0.1196065179232934 0.39931417515004419 0 -0.1340432228732657 0.39160660414660009 0 -0.13478092132444111 0.37028542393035618 0 -0.1193748346214611 0.37931865153482169 0 -0.1340432228732657 0.39160660414660009 0 -0.15370125064636939 0.37792896802226689 0 -0.15385989341448289 0.39683853197377539 0 -0.1340432228732657 0.39160660414660009 0 -0.15370125064636939 0.37792896802226689 0 -0.13478092132444111 0.37028542393035618 0 -0.13562271900123679 0.41450974575662641 0 -0.1340432228732657 0.39160660414660009 0 -0.15385989341448289 0.39683853197377539 0 -0.1524031542694563 0.34534389736437537 0 -0.14895764551261259 0.36131785550736267 0 -0.13433632643026469 0.35135985965279848 0 -0.15370125064636939 0.37792896802226689 0 -0.14895764551261259 0.36131785550736267 0 -0.13478092132444111 0.37028542393035618 0 -0.13478092132444111 0.37028542393035618 0 -0.13433632643026469 0.35135985965279848 0 -0.11875348889851001 0.36127029296516272 0 -0.14895764551261259 0.36131785550736267 0 -0.13478092132444111 0.37028542393035618 0 -0.13433632643026469 0.35135985965279848 0 -0.13433632643026469 0.35135985965279848 0 -0.13515147851790321 0.33097529163643608 0 -0.11418077762639529 0.3422386269714992 0 -0.13690892879663319 0.30878461988928918 0 -0.11321448108480379 0.31932393730343023 0 -0.13515147851790321 0.33097529163643608 0 -0.13690892879663319 0.30878461988928918 0 -0.11321448108480379 0.31932393730343023 0 -0.13515147851790321 0.33097529163643608 0 -0.156503265388961 0.32179459991976339 0 -0.13690892879663319 0.30878461988928918 0 -0.1524031542694563 0.34534389736437537 0 -0.156503265388961 0.32179459991976339 0 -0.1524031542694563 0.34534389736437537 0 -0.13433632643026469 0.35135985965279848 0 -0.13515147851790321 0.33097529163643608 0 -0.1524031542694563 0.34534389736437537 0 -0.13515147851790321 0.33097529163643608 0 -0.156503265388961 0.32179459991976339 0 -0.1524031542694563 0.34534389736437537 0 -0.156503265388961 0.32179459991976339 0 -0.17720504940559109 0.33738682063000719 0 -0.156503265388961 0.32179459991976339 0 -0.17596575672275599 0.31456577167291971 0 -0.17720504940559109 0.33738682063000719 0 -0.17596575672275599 0.31456577167291971 0 -0.17720504940559109 0.33738682063000719 0 -0.18823716094616991 0.32371565231475002 0 -0.17596575672275599 0.31456577167291971 0 -0.18823716094616991 0.32371565231475002 0 -0.1886589381279862 0.31006162165081758 0 -0.17720504940559109 0.33738682063000719 0 -0.16799817958809371 0.36086458439000102 0 -0.193395000775309 0.35927299960760412 0 -0.1524031542694563 0.34534389736437537 0 -0.14895764551261259 0.36131785550736267 0 -0.16799817958809371 0.36086458439000102 0 -0.1524031542694563 0.34534389736437537 0 -0.17720504940559109 0.33738682063000719 0 -0.16799817958809371 0.36086458439000102 0 -0.18232697691922389 0.38393696520838949 0 -0.15370125064636939 0.37792896802226689 0 -0.16799817958809371 0.36086458439000102 0 -0.15370125064636939 0.37792896802226689 0 -0.14895764551261259 0.36131785550736267 0 -0.16799817958809371 0.36086458439000102 0 -0.18232697691922389 0.38393696520838949 0 -0.16799817958809371 0.36086458439000102 0 -0.193395000775309 0.35927299960760412 0 -0.18232697691922389 0.38393696520838949 0 -0.193395000775309 0.35927299960760412 0 -0.193395000775309 0.35927299960760412 0 -0.20446302463139401 0.33460903400681868 0 -0.193395000775309 0.35927299960760412 0 -0.22207119261389319 0.34883233995966689 0 -0.20446302463139401 0.33460903400681868 0 -0.2031992387550762 0.38423889804452238 0 -0.193395000775309 0.35927299960760412 0 -0.21816034677223031 0.37186400999873009 0 -0.193395000775309 0.35927299960760412 0 -0.21816034677223031 0.37186400999873009 0 -0.22207119261389319 0.34883233995966689 0 -0.21816034677223031 0.37186400999873009 0 -0.22207119261389319 0.34883233995966689 0 -0.23507707570000011 0.3679906263958741 0 -0.22947876036554329 0.38013989857096908 0 -0.21816034677223031 0.37186400999873009 0 -0.23507707570000011 0.3679906263958741 0 -0.22207119261389319 0.34883233995966689 0 -0.24388941846378159 0.35251212586360942 0 -0.23507707570000011 0.3679906263958741 0 -0.25585680628613311 0.35531502858459979 0 -0.24388941846378159 0.35251212586360942 0 -0.2474112648444885 0.36340222027400892 0 -0.25615429711168258 0.36863696063373019 0 -0.2474112648444885 0.36340222027400892 0 -0.24607872666084529 0.37255635989223079 0 -0.2474112648444885 0.36340222027400892 0 -0.24607872666084529 0.37255635989223079 0 -0.23507707570000011 0.3679906263958741 0 -0.24066869885091591 0.38152798507970359 0 -0.24607872666084529 0.37255635989223079 0 -0.23507707570000011 0.3679906263958741 0 -0.24388941846378159 0.35251212586360942 0 -0.2474112648444885 0.36340222027400892 0 -0.23507707570000011 0.3679906263958741 0 -0.26139407846422352 0.3468715903468983 0 -0.24388941846378159 0.35251212586360942 0 -0.23846256347585101 0.32840832937646591 0 -0.22207119261389319 0.34883233995966689 0 -0.24388941846378159 0.35251212586360942 0 -0.23846256347585101 0.32840832937646591 0 -0.26139407846422352 0.3468715903468983 0 -0.23846256347585101 0.32840832937646591 0 -0.22207119261389319 0.34883233995966689 0 -0.23846256347585101 0.32840832937646591 0 -0.22028028774174199 0.32947995161767157 0 -0.23846256347585101 0.32840832937646591 0 -0.21553104848747889 0.3099450684060332 0 -0.23846256347585101 0.32840832937646591 0 -0.22028028774174199 0.32947995161767157 0 -0.21553104848747889 0.3099450684060332 0 -0.23846256347585101 0.32840832937646591 0 -0.21553104848747889 0.3099450684060332 0 -0.2464872074170133 0.30142553852459603 0 -0.20446302463139401 0.33460903400681868 0 -0.19900286652560581 0.31700218825883791 0 -0.21553104848747889 0.3099450684060332 0 -0.22028028774174199 0.32947995161767157 0 -0.20446302463139401 0.33460903400681868 0 -0.21553104848747889 0.3099450684060332 0 -0.20446302463139401 0.33460903400681868 0 -0.21553104848747889 0.3099450684060332 0 -0.22207119261389319 0.34883233995966689 0 -0.22028028774174199 0.32947995161767157 0 -0.20446302463139401 0.33460903400681868 0 -0.17720504940559109 0.33738682063000719 0 -0.20446302463139401 0.33460903400681868 0 -0.18823716094616991 0.32371565231475002 0 -0.17720504940559109 0.33738682063000719 0 -0.193395000775309 0.35927299960760412 0 -0.20446302463139401 0.33460903400681868 0 -0.20446302463139401 0.33460903400681868 0 -0.19900286652560581 0.31700218825883791 0 -0.18823716094616991 0.32371565231475002 0 -0.19900286652560581 0.31700218825883791 0 -0.18823716094616991 0.32371565231475002 0 -0.1886589381279862 0.31006162165081758 0 -0.1886589381279862 0.31006162165081758 0 -0.19332899555190211 0.29920879487843938 0 -0.1981241604350002 0.3066795649157697 0 -0.19900286652560581 0.31700218825883791 0 -0.1886589381279862 0.31006162165081758 0 -0.1981241604350002 0.3066795649157697 0 -0.19332899555190211 0.29920879487843938 0 -0.20107779632910999 0.2983080628873519 0 -0.1981241604350002 0.3066795649157697 0 -0.20671799480685391 0.28895941902417238 0 -0.21322860532272681 0.2748375405719905 0 -0.1866245441707412 0.28667105736867038 0 -0.20107779632910999 0.2983080628873519 0 -0.20671799480685391 0.28895941902417238 0 -0.1866245441707412 0.28667105736867038 0 -0.19332899555190211 0.29920879487843938 0 -0.20107779632910999 0.2983080628873519 0 -0.1866245441707412 0.28667105736867038 0 -0.20107779632910999 0.2983080628873519 0 -0.1866245441707412 0.28667105736867038 0 -0.20107779632910999 0.2983080628873519 0 -0.20671799480685391 0.28895941902417238 0 -0.21314902166013339 0.29385126361284242 0 -0.20671799480685391 0.28895941902417238 0 -0.21314902166013339 0.29385126361284242 0 -0.21675834749793099 0.28466986207879091 0 -0.20671799480685391 0.28895941902417238 0 -0.21675834749793099 0.28466986207879091 0 -0.21322860532272681 0.2748375405719905 0 -0.21675834749793099 0.28466986207879091 0 -0.22565992117929329 0.28737390566786353 0 -0.21322860532272681 0.2748375405719905 0 -0.21314902166013339 0.29385126361284242 0 -0.21675834749793099 0.28466986207879091 0 -0.22565992117929329 0.28737390566786353 0 -0.21314902166013339 0.29385126361284242 0 -0.21553104848747889 0.3099450684060332 0 -0.22565992117929329 0.28737390566786353 0 -0.19900286652560581 0.31700218825883791 0 -0.1981241604350002 0.3066795649157697 0 -0.21553104848747889 0.3099450684060332 0 -0.20107779632910999 0.2983080628873519 0 -0.21314902166013339 0.29385126361284242 0 -0.21553104848747889 0.3099450684060332 0 -0.20107779632910999 0.2983080628873519 0 -0.1981241604350002 0.3066795649157697 0 -0.21553104848747889 0.3099450684060332 0 -0.20107779632910999 0.2983080628873519 0 -0.21553104848747889 0.3099450684060332 0 -0.21553104848747889 0.3099450684060332 0 -0.22565992117929329 0.28737390566786353 0 -0.2464872074170133 0.30142553852459603 0 -0.21553104848747889 0.3099450684060332 0 -0.22565992117929329 0.28737390566786353 0 -0.25442206028344461 0.2837326948675355 0 -0.2464872074170133 0.30142553852459603 0 -0.24276335887523151 0.27777865327294649 0 -0.22565992117929329 0.28737390566786353 0 -0.2464872074170133 0.30142553852459603 0 -0.24276335887523151 0.27777865327294649 0 -0.25087986378790578 0.25674789430394418 0 -0.22619871048427209 0.2494817824178984 0 -0.25087986378790578 0.25674789430394418 0 -0.23651596571347339 0.26318231442870949 0 -0.22619871048427209 0.2494817824178984 0 -0.25087986378790578 0.25674789430394418 0 -0.23651596571347339 0.26318231442870949 0 -0.23578879387110629 0.26480274292969319 0 -0.23651596571347339 0.26318231442870949 0 -0.23578879387110629 0.26480274292969319 0 -0.25087986378790578 0.25674789430394418 0 -0.23578879387110629 0.26480274292969319 0 -0.25072234302956592 0.26721670556117622 0 -0.25087986378790578 0.25674789430394418 0 -0.23578879387110629 0.26480274292969319 0 -0.25072234302956592 0.26721670556117622 0 -0.23578879387110629 0.26480274292969319 0 -0.24276335887523151 0.27777865327294649 0 -0.22565992117929329 0.28737390566786353 0 -0.23578879387110629 0.26480274292969319 0 -0.24276335887523151 0.27777865327294649 0 -0.22565992117929329 0.28737390566786353 0 -0.23578879387110629 0.26480274292969319 0 -0.23578879387110629 0.26480274292969319 0 -0.21322860532272681 0.2748375405719905 0 -0.23578879387110629 0.26480274292969319 0 -0.22677366722039011 0.25978380506331189 0 -0.21322860532272681 0.2748375405719905 0 -0.22565992117929329 0.28737390566786353 0 -0.23578879387110629 0.26480274292969319 0 -0.21322860532272681 0.2748375405719905 0 -0.22677366722039011 0.25978380506331189 0 -0.20737308125168041 0.2585266055519258 0 -0.22619871048427209 0.2494817824178984 0 -0.23651596571347339 0.26318231442870949 0 -0.23578879387110629 0.26480274292969319 0 -0.22677366722039011 0.25978380506331189 0 -0.23651596571347339 0.26318231442870949 0 -0.22677366722039011 0.25978380506331189 0 -0.22619871048427209 0.2494817824178984 0 -0.20737308125168041 0.2585266055519258 0 -0.22619871048427209 0.2494817824178984 0 -0.20151755718063619 0.24221567053186019 0 -0.22677366722039011 0.25978380506331189 0 -0.20737308125168041 0.2585266055519258 0 -0.21322860532272681 0.2748375405719905 0 -0.20737308125168041 0.2585266055519258 0 -0.20151755718063619 0.24221567053186019 0 -0.20737308125168041 0.2585266055519258 0 -0.21322860532272681 0.2748375405719905 0 -0.1973406778800694 0.26946936411618139 0 -0.20737308125168041 0.2585266055519258 0 -0.21322860532272681 0.2748375405719905 0 -0.21675834749793099 0.28466986207879091 0 -0.21322860532272681 0.2748375405719905 0 -0.21322860532272681 0.2748375405719905 0 -0.1973406778800694 0.26946936411618139 0 -0.1866245441707412 0.28667105736867038 0 -0.1973406778800694 0.26946936411618139 0 -0.1840269630753685 0.27477959386035078 0 -0.1866245441707412 0.28667105736867038 0 -0.21322860532272681 0.2748375405719905 0 -0.1866245441707412 0.28667105736867038 0 -0.1973406778800694 0.26946936411618139 0 -0.188980752047476 0.26596507219962351 0 -0.1840269630753685 0.27477959386035078 0 -0.20737308125168041 0.2585266055519258 0 -0.19229582140134549 0.25569309089097891 0 -0.20151755718063619 0.24221567053186019 0 -0.20737308125168041 0.2585266055519258 0 -0.1973406778800694 0.26946936411618139 0 -0.19229582140134549 0.25569309089097891 0 -0.1973406778800694 0.26946936411618139 0 -0.188980752047476 0.26596507219962351 0 -0.19229582140134549 0.25569309089097891 0 -0.19229582140134549 0.25569309089097891 0 -0.17843028292236829 0.26486067086699722 0 -0.17821722820922309 0.2500189837915241 0 -0.188980752047476 0.26596507219962351 0 -0.19229582140134549 0.25569309089097891 0 -0.17843028292236829 0.26486067086699722 0 -0.17843028292236829 0.26486067086699722 0 -0.16702091110509501 0.26138570850995507 0 -0.17821722820922309 0.2500189837915241 0 -0.16702091110509501 0.26138570850995507 0 -0.17821722820922309 0.2500189837915241 0 -0.16702091110509501 0.26138570850995507 0 -0.15666859752567 0.26085958200037979 0 -0.15596038998051381 0.27261457043805531 0 -0.16702091110509501 0.26138570850995507 0 -0.15666859752567 0.26085958200037979 0 -0.16027387467470561 0.24701005636414519 0 -0.16702091110509501 0.26138570850995507 0 -0.1640620264512444 0.27838028567796003 0 -0.16702091110509501 0.26138570850995507 0 -0.1640620264512444 0.27838028567796003 0 -0.1720560228764712 0.27494124314811819 0 -0.16702091110509501 0.26138570850995507 0 -0.1640620264512444 0.27838028567796003 0 -0.15596038998051381 0.27261457043805531 0 -0.1640620264512444 0.27838028567796003 0 -0.15596038998051381 0.27261457043805531 0 -0.15715377349574791 0.28104703741803788 0 -0.1640620264512444 0.27838028567796003 0 -0.15596038998051381 0.27261457043805531 0 -0.16702091110509501 0.26138570850995507 0 -0.15596038998051381 0.27261457043805531 0 -0.1640620264512444 0.27838028567796003 0 -0.1720560228764712 0.27494124314811819 0 -0.17990899270031091 0.28965814233552117 0 -0.1720560228764712 0.27494124314811819 0 -0.1866245441707412 0.28667105736867038 0 -0.17843028292236829 0.26486067086699722 0 -0.16702091110509501 0.26138570850995507 0 -0.1720560228764712 0.27494124314811819 0 -0.17843028292236829 0.26486067086699722 0 -0.1720560228764712 0.27494124314811819 0 -0.1840269630753685 0.27477959386035078 0 -0.188980752047476 0.26596507219962351 0 -0.17843028292236829 0.26486067086699722 0 -0.1840269630753685 0.27477959386035078 0 -0.1720560228764712 0.27494124314811819 0 -0.1840269630753685 0.27477959386035078 0 -0.1866245441707412 0.28667105736867038 0 -0.17990899270031091 0.28965814233552117 0 -0.1796932119222843 0.30234792660256998 0 -0.16060337650846401 0.29824530247515102 0 -0.1640620264512444 0.27838028567796003 0 -0.17990899270031091 0.28965814233552117 0 -0.1866245441707412 0.28667105736867038 0 -0.17990899270031091 0.28965814233552117 0 -0.19332899555190211 0.29920879487843938 0 -0.17990899270031091 0.28965814233552117 0 -0.19332899555190211 0.29920879487843938 0 -0.1866245441707412 0.28667105736867038 0 -0.17990899270031091 0.28965814233552117 0 -0.1720560228764712 0.27494124314811819 0 -0.1866245441707412 0.28667105736867038 0 -0.17990899270031091 0.28965814233552117 0 -0.17596575672275599 0.31456577167291971 0 -0.1796932119222843 0.30234792660256998 0 -0.16060337650846401 0.29824530247515102 0 -0.17596575672275599 0.31456577167291971 0 -0.1886589381279862 0.31006162165081758 0 -0.1796932119222843 0.30234792660256998 0 -0.19332899555190211 0.29920879487843938 0 -0.17990899270031091 0.28965814233552117 0 -0.1796932119222843 0.30234792660256998 0 -0.1886589381279862 0.31006162165081758 0 -0.19332899555190211 0.29920879487843938 0 -0.1796932119222843 0.30234792660256998 0 -0.156503265388961 0.32179459991976339 0 -0.17596575672275599 0.31456577167291971 0 -0.16060337650846401 0.29824530247515102 0 -0.156503265388961 0.32179459991976339 0 -0.16060337650846401 0.29824530247515102 0 -0.1640620264512444 0.27838028567796003 0 -0.17990899270031091 0.28965814233552117 0 -0.16060337650846401 0.29824530247515102 0 -0.15715377349574791 0.28104703741803788 0 -0.1640620264512444 0.27838028567796003 0 -0.16060337650846401 0.29824530247515102 0 -0.15715377349574791 0.28104703741803788 0 -0.16060337650846401 0.29824530247515102 0 -0.15242145705357019 0.28616209016181599 0 -0.17990899270031091 0.28965814233552117 0 -0.16060337650846401 0.29824530247515102 0 -0.1640620264512444 0.27838028567796003 0 -0.16060337650846401 0.29824530247515102 0 -0.16060337650846401 0.29824530247515102 0 -0.138928935362505 0.28990524329028738 0 -0.13884305858562809 0.29574925009047948 0 -0.16060337650846401 0.29824530247515102 0 -0.15242145705357019 0.28616209016181599 0 -0.138928935362505 0.28990524329028738 0 -0.15242145705357019 0.28616209016181599 0 -0.138928935362505 0.28990524329028738 0 -0.15596038998051381 0.27261457043805531 0 -0.14003579087064899 0.28799910676483381 0 -0.138928935362505 0.28990524329028738 0 -0.15596038998051381 0.27261457043805531 0 -0.16060337650846401 0.29824530247515102 0 -0.13690892879663319 0.30878461988928918 0 -0.13884305858562809 0.29574925009047948 0 -0.16060337650846401 0.29824530247515102 0 -0.13690892879663319 0.30878461988928918 0 -0.156503265388961 0.32179459991976339 0 -0.16060337650846401 0.29824530247515102 0 -0.13690892879663319 0.30878461988928918 0 -0.13690892879663319 0.30878461988928918 0 -0.12962216543482641 0.29660202756288839 0 -0.1182800420187211 0.29993304649521407 0 -0.13690892879663319 0.30878461988928918 0 -0.13884305858562809 0.29574925009047948 0 -0.12962216543482641 0.29660202756288839 0 -0.1386713864036217 0.28407485887292272 0 -0.14003579087064899 0.28799910676483381 0 -0.139029293451889 0.27973057393214312 0 -0.13578823928587089 0.28675970177612631 0 -0.13166890806152051 0.29041092689196091 0 -0.13163628255196039 0.28593664885887909 0 -0.13578823928587089 0.28675970177612631 0 -0.13794532540965701 0.28812420394336802 0 -0.13625444018949551 0.29027901900058339 0 -0.13578823928587089 0.28675970177612631 0 -0.13478632417432651 0.28197607046270018 0 -0.13163628255196039 0.28593664885887909 0 -0.13578823928587089 0.28675970177612631 0 -0.13478632417432651 0.28197607046270018 0 -0.1386713864036217 0.28407485887292272 0 -0.13478632417432651 0.28197607046270018 0 -0.1386713864036217 0.28407485887292272 0 -0.139029293451889 0.27973057393214312 0 -0.13578823928587089 0.28675970177612631 0 -0.1386713864036217 0.28407485887292272 0 -0.13794532540965701 0.28812420394336802 0 -0.1386713864036217 0.28407485887292272 0 -0.13794532540965701 0.28812420394336802 0 -0.14003579087064899 0.28799910676483381 0 -0.13794532540965701 0.28812420394336802 0 -0.14003579087064899 0.28799910676483381 0 -0.138928935362505 0.28990524329028738 0 -0.138928935362505 0.28990524329028738 0 -0.13884305858562809 0.29574925009047948 0 -0.13625444018949551 0.29027901900058339 0 -0.13884305858562809 0.29574925009047948 0 -0.13166890806152051 0.29041092689196091 0 -0.12962216543482641 0.29660202756288839 0 -0.13794532540965701 0.28812420394336802 0 -0.138928935362505 0.28990524329028738 0 -0.13625444018949551 0.29027901900058339 0 -0.13578823928587089 0.28675970177612631 0 -0.13625444018949551 0.29027901900058339 0 -0.13166890806152051 0.29041092689196091 0 -0.13884305858562809 0.29574925009047948 0 -0.13625444018949551 0.29027901900058339 0 -0.13166890806152051 0.29041092689196091 0 -0.13166890806152051 0.29041092689196091 0 -0.12962216543482641 0.29660202756288839 0 -0.12560003172313819 0.28864120573170632 0 -0.12560003172313819 0.28864120573170632 0 -0.13163628255196039 0.28593664885887909 0 -0.12926418581584259 0.28185935136525869 0 -0.13166890806152051 0.29041092689196091 0 -0.12560003172313819 0.28864120573170632 0 -0.13163628255196039 0.28593664885887909 0 -0.13478632417432651 0.28197607046270018 0 -0.13163628255196039 0.28593664885887909 0 -0.12926418581584259 0.28185935136525869 0 -0.12560003172313819 0.28864120573170632 0 -0.12926418581584259 0.28185935136525869 0 -0.1243397726513243 0.28091101446345451 0 -0.12926418581584259 0.28185935136525869 0 -0.12719742120368241 0.27622431691070187 0 -0.1243397726513243 0.28091101446345451 0 -0.12719742120368241 0.27622431691070187 0 -0.13174189245744311 0.27814938264496819 0 -0.13284349567031331 0.27252111830606401 0 -0.13478632417432651 0.28197607046270018 0 -0.12926418581584259 0.28185935136525869 0 -0.13174189245744311 0.27814938264496819 0 -0.12926418581584259 0.28185935136525869 0 -0.12719742120368241 0.27622431691070187 0 -0.13174189245744311 0.27814938264496819 0 -0.13478632417432651 0.28197607046270018 0 -0.13174189245744311 0.27814938264496819 0 -0.13558541857598461 0.27741590317648612 0 -0.13478632417432651 0.28197607046270018 0 -0.13558541857598461 0.27741590317648612 0 -0.139029293451889 0.27973057393214312 0 -0.13174189245744311 0.27814938264496819 0 -0.13558541857598461 0.27741590317648612 0 -0.13284349567031331 0.27252111830606401 0 -0.13558541857598461 0.27741590317648612 0 -0.1385477977785719 0.27261831641501488 0 -0.13284349567031331 0.27252111830606401 0 -0.13558541857598461 0.27741590317648612 0 -0.139029293451889 0.27973057393214312 0 -0.1385477977785719 0.27261831641501488 0 -0.13775429940086881 0.26895631644055651 0 -0.13424190121253951 0.26559818879236691 0 -0.14538400294204959 0.26508764224878162 0 -0.13775429940086881 0.26895631644055651 0 -0.1385477977785719 0.27261831641501488 0 -0.14538400294204959 0.26508764224878162 0 -0.13775429940086881 0.26895631644055651 0 -0.1385477977785719 0.27261831641501488 0 -0.13284349567031331 0.27252111830606401 0 -0.13775429940086881 0.26895631644055651 0 -0.13284349567031331 0.27252111830606401 0 -0.13424190121253951 0.26559818879236691 0 -0.13284349567031331 0.27252111830606401 0 -0.13424190121253951 0.26559818879236691 0 -0.12475280842514901 0.26909334592718781 0 -0.12719742120368241 0.27622431691070187 0 -0.13284349567031331 0.27252111830606401 0 -0.12475280842514901 0.26909334592718781 0 -0.12833242077256249 0.252952493068201 0 -0.13424190121253951 0.26559818879236691 0 -0.14538400294204959 0.26508764224878162 0 -0.12833242077256249 0.252952493068201 0 -0.14538400294204959 0.26508764224878162 0 -0.12833242077256249 0.252952493068201 0 -0.13424190121253951 0.26559818879236691 0 -0.12475280842514901 0.26909334592718781 0 -0.12833242077256249 0.252952493068201 0 -0.14538400294204959 0.26508764224878162 0 -0.1480904457365449 0.25349338098482838 0 -0.14538400294204959 0.26508764224878162 0 -0.1480904457365449 0.25349338098482838 0 -0.15199736613149101 0.26979419370491498 0 -0.14538400294204959 0.26508764224878162 0 -0.1480904457365449 0.25349338098482838 0 -0.15666859752567 0.26085958200037979 0 -0.1480904457365449 0.25349338098482838 0 -0.15199736613149101 0.26979419370491498 0 -0.1480904457365449 0.25349338098482838 0 -0.15199736613149101 0.26979419370491498 0 -0.15666859752567 0.26085958200037979 0 -0.1480904457365449 0.25349338098482838 0 -0.16027387467470561 0.24701005636414519 0 -0.14003579087064899 0.28799910676483381 0 -0.15596038998051381 0.27261457043805531 0 -0.15259873248914799 0.27230326974982361 0 -0.15666859752567 0.26085958200037979 0 -0.15199736613149101 0.26979419370491498 0 -0.15596038998051381 0.27261457043805531 0 -0.138928935362505 0.28990524329028738 0 -0.15596038998051381 0.27261457043805531 0 -0.14003579087064899 0.28799910676483381 0 -0.139029293451889 0.27973057393214312 0 -0.14538400294204959 0.26508764224878162 0 -0.14003579087064899 0.28799910676483381 0 -0.14538400294204959 0.26508764224878162 0 -0.15259873248914799 0.27230326974982361 0 -0.14003579087064899 0.28799910676483381 0 -0.14538400294204959 0.26508764224878162 0 -0.14538400294204959 0.26508764224878162 0 -0.15199736613149101 0.26979419370491498 0 -0.15259873248914799 0.27230326974982361 0 -0.14538400294204959 0.26508764224878162 0 -0.15199736613149101 0.26979419370491498 0 -0.15199736613149101 0.26979419370491498 0 -0.15259873248914799 0.27230326974982361 0 -0.15199736613149101 0.26979419370491498 0 -0.15596038998051381 0.27261457043805531 0 -0.15199736613149101 0.26979419370491498 0 -0.15596038998051381 0.27261457043805531 0 -0.15259873248914799 0.27230326974982361 0 -0.15715377349574791 0.28104703741803788 0 -0.15242145705357019 0.28616209016181599 0 -0.15596038998051381 0.27261457043805531 0 -0.139029293451889 0.27973057393214312 0 -0.1385477977785719 0.27261831641501488 0 -0.14538400294204959 0.26508764224878162 0 -0.1022221549633595 0.27157025854754779 0 -0.11025254227464321 0.2621337945841819 0 -0.1102612172904676 0.27491480971774113 0 -0.1022221549633595 0.27157025854754779 0 -0.0948533928506399 0.28087161967480712 0 -0.1102612172904676 0.27491480971774113 0 -0.1022221549633595 0.27157025854754779 0 -0.0948533928506399 0.28087161967480712 0 -0.09190218028501386 0.27287364738798747 0 -0.1022221549633595 0.27157025854754779 0 -0.085374697852045295 0.25727374079415088 0 -0.1022221549633595 0.27157025854754779 0 -0.1009787446750107 0.25848412922261088 0 -0.085374697852045295 0.25727374079415088 0 -0.1009787446750107 0.25848412922261088 0 -0.085374697852045295 0.25727374079415088 0 -0.099382531469479285 0.24470324452999001 0 -0.1009787446750107 0.25848412922261088 0 -0.10946817367181549 0.25274728236480859 0 -0.099382531469479285 0.24470324452999001 0 -0.1009787446750107 0.25848412922261088 0 -0.11025254227464321 0.2621337945841819 0 -0.10946817367181549 0.25274728236480859 0 -0.1022221549633595 0.27157025854754779 0 -0.1009787446750107 0.25848412922261088 0 -0.11025254227464321 0.2621337945841819 0 -0.12833242077256249 0.252952493068201 0 -0.12475280842514901 0.26909334592718781 0 -0.1102612172904676 0.27491480971774113 0 -0.12833242077256249 0.252952493068201 0 -0.1102612172904676 0.27491480971774113 0 -0.12833242077256249 0.252952493068201 0 -0.11025254227464321 0.2621337945841819 0 -0.10946817367181549 0.25274728236480859 0 -0.12833242077256249 0.252952493068201 0 -0.11025254227464321 0.2621337945841819 0 -0.1102612172904676 0.27491480971774113 0 -0.1102612172904676 0.27491480971774113 0 -0.1210335621323117 0.27663322274836261 0 -0.1189775975069739 0.28250705555914712 0 -0.12475280842514901 0.26909334592718781 0 -0.1102612172904676 0.27491480971774113 0 -0.1210335621323117 0.27663322274836261 0 -0.12719742120368241 0.27622431691070187 0 -0.12475280842514901 0.26909334592718781 0 -0.1210335621323117 0.27663322274836261 0 -0.12719742120368241 0.27622431691070187 0 -0.1210335621323117 0.27663322274836261 0 -0.1243397726513243 0.28091101446345451 0 -0.1210335621323117 0.27663322274836261 0 -0.1243397726513243 0.28091101446345451 0 -0.1189775975069739 0.28250705555914712 0 -0.12560003172313819 0.28864120573170632 0 -0.1189775975069739 0.28250705555914712 0 -0.11409873850938899 0.28753430881510239 0 -0.1102612172904676 0.27491480971774113 0 -0.11409873850938899 0.28753430881510239 0 -0.10677488796111061 0.29326713814598288 0 -0.12560003172313819 0.28864120573170632 0 -0.1243397726513243 0.28091101446345451 0 -0.1189775975069739 0.28250705555914712 0 -0.12962216543482641 0.29660202756288839 0 -0.12560003172313819 0.28864120573170632 0 -0.1182800420187211 0.29993304649521407 0 -0.12560003172313819 0.28864120573170632 0 -0.11409873850938899 0.28753430881510239 0 -0.1182800420187211 0.29993304649521407 0 -0.11409873850938899 0.28753430881510239 0 -0.1182800420187211 0.29993304649521407 0 -0.10677488796111061 0.29326713814598288 0 -0.1102612172904676 0.27491480971774113 0 -0.1189775975069739 0.28250705555914712 0 -0.11409873850938899 0.28753430881510239 0 -0.13690892879663319 0.30878461988928918 0 -0.1182800420187211 0.29993304649521407 0 -0.11321448108480379 0.31932393730343023 0 -0.1182800420187211 0.29993304649521407 0 -0.104886146059017 0.30587099623934411 0 -0.11321448108480379 0.31932393730343023 0 -0.1182800420187211 0.29993304649521407 0 -0.104886146059017 0.30587099623934411 0 -0.10677488796111061 0.29326713814598288 0 -0.104886146059017 0.30587099623934411 0 -0.092190013808372717 0.29687712636728142 0 -0.093140913504989792 0.31607545514970647 0 -0.104886146059017 0.30587099623934411 0 -0.10677488796111061 0.29326713814598288 0 -0.092190013808372717 0.29687712636728142 0 -0.0948533928506399 0.28087161967480712 0 -0.1102612172904676 0.27491480971774113 0 -0.092190013808372717 0.29687712636728142 0 -0.1102612172904676 0.27491480971774113 0 -0.092190013808372717 0.29687712636728142 0 -0.1102612172904676 0.27491480971774113 0 -0.10677488796111061 0.29326713814598288 0 -0.092190013808372717 0.29687712636728142 0 -0.0948533928506399 0.28087161967480712 0 -0.085970207784822533 0.28717271717716508 0 -0.083765600224156384 0.27889561964879572 0 -0.0948533928506399 0.28087161967480712 0 -0.085970207784822533 0.28717271717716508 0 -0.092190013808372717 0.29687712636728142 0 -0.085970207784822533 0.28717271717716508 0 -0.092190013808372717 0.29687712636728142 0 -0.079625774724197435 0.29312908714272351 0 -0.085970207784822533 0.28717271717716508 0 -0.07553938588377046 0.28384324325587978 0 -0.083765600224156384 0.27889561964879572 0 -0.085970207784822533 0.28717271717716508 0 -0.079625774724197435 0.29312908714272351 0 -0.07553938588377046 0.28384324325587978 0 -0.092190013808372717 0.29687712636728142 0 -0.074118810326277901 0.31883944301682149 0 -0.092190013808372717 0.29687712636728142 0 -0.081235188375612138 0.30614130023242458 0 -0.074118810326277901 0.31883944301682149 0 -0.092190013808372717 0.29687712636728142 0 -0.074118810326277901 0.31883944301682149 0 -0.093140913504989792 0.31607545514970647 0 -0.092190013808372717 0.29687712636728142 0 -0.079625774724197435 0.29312908714272351 0 -0.081235188375612138 0.30614130023242458 0 -0.081235188375612138 0.30614130023242458 0 -0.073168845355920928 0.30821155495798358 0 -0.066572969845086205 0.29189127189761871 0 -0.073168845355920928 0.30821155495798358 0 -0.066096604460002539 0.30381436801061501 0 -0.066572969845086205 0.29189127189761871 0 -0.081235188375612138 0.30614130023242458 0 -0.073168845355920928 0.30821155495798358 0 -0.074118810326277901 0.31883944301682149 0 -0.079625774724197435 0.29312908714272351 0 -0.081235188375612138 0.30614130023242458 0 -0.066572969845086205 0.29189127189761871 0 -0.081235188375612138 0.30614130023242458 0 -0.066572969845086205 0.29189127189761871 0 -0.066096604460002539 0.30381436801061501 0 -0.066572969845086205 0.29189127189761871 0 -0.061221682593323237 0.29921692369943792 0 -0.066096604460002539 0.30381436801061501 0 -0.066572969845086205 0.29189127189761871 0 -0.066096604460002539 0.30381436801061501 0 -0.065047648744271935 0.31248075799774561 0 -0.058263766070062978 0.30896228401909648 0 -0.073168845355920928 0.30821155495798358 0 -0.066096604460002539 0.30381436801061501 0 -0.065047648744271935 0.31248075799774561 0 -0.079625774724197435 0.29312908714272351 0 -0.07553938588377046 0.28384324325587978 0 -0.066572969845086205 0.29189127189761871 0 -0.07553938588377046 0.28384324325587978 0 -0.067550105292907753 0.26743424746918643 0 -0.083765600224156384 0.27889561964879572 0 -0.066572969845086205 0.29189127189761871 0 -0.067550105292907753 0.26743424746918643 0 -0.07553938588377046 0.28384324325587978 0 -0.066572969845086205 0.29189127189761871 0 -0.067550105292907753 0.26743424746918643 0 -0.067550105292907753 0.26743424746918643 0 -0.083765600224156384 0.27889561964879572 0 -0.085374697852045295 0.25727374079415088 0 -0.1022221549633595 0.27157025854754779 0 -0.09190218028501386 0.27287364738798747 0 -0.085374697852045295 0.25727374079415088 0 -0.083765600224156384 0.27889561964879572 0 -0.09190218028501386 0.27287364738798747 0 -0.085374697852045295 0.25727374079415088 0 -0.0948533928506399 0.28087161967480712 0 -0.083765600224156384 0.27889561964879572 0 -0.09190218028501386 0.27287364738798747 0 -0.085374697852045295 0.25727374079415088 0 -0.068527240740731007 0.24297722304075431 0 -0.067550105292907753 0.26743424746918643 0 -0.068527240740731007 0.24297722304075431 0 -0.067550105292907753 0.26743424746918643 0 -0.085374697852045295 0.25727374079415088 0 -0.068527240740731007 0.24297722304075431 0 -0.067550105292907753 0.26743424746918643 0 -0.044327189178686478 0.25476468049421103 0 -0.068527240740731007 0.24297722304075431 0 -0.04964301392621645 0.27543725772174832 0 -0.044327189178686478 0.25476468049421103 0 -0.066572969845086205 0.29189127189761871 0 -0.067550105292907753 0.26743424746918643 0 -0.04964301392621645 0.27543725772174832 0 -0.067550105292907753 0.26743424746918643 0 -0.04964301392621645 0.27543725772174832 0 -0.044327189178686478 0.25476468049421103 0 -0.04964301392621645 0.27543725772174832 0 -0.036046855827918133 0.27321120111252251 0 -0.041644191132442193 0.28277586727805742 0 -0.04964301392621645 0.27543725772174832 0 -0.034088453436826982 0.26031997330481099 0 -0.04964301392621645 0.27543725772174832 0 -0.036046855827918133 0.27321120111252251 0 -0.034088453436826982 0.26031997330481099 0 -0.036046855827918133 0.27321120111252251 0 -0.034088453436826982 0.26031997330481099 0 -0.024263941670138189 0.26950428240037161 0 -0.036046855827918133 0.27321120111252251 0 -0.0309618284244422 0.27937834606186951 0 -0.041644191132442193 0.28277586727805742 0 -0.04964301392621645 0.27543725772174832 0 -0.044327189178686478 0.25476468049421103 0 -0.034088453436826982 0.26031997330481099 0 -0.044327189178686478 0.25476468049421103 0 -0.034088453436826982 0.26031997330481099 0 -0.033265069700240638 0.24658948150263671 0 -0.034088453436826982 0.26031997330481099 0 -0.01915517585356951 0.2601414749888612 0 -0.018533892947438371 0.24520268888787281 0 -0.034088453436826982 0.26031997330481099 0 -0.033265069700240638 0.24658948150263671 0 -0.018533892947438371 0.24520268888787281 0 -0.034088453436826982 0.26031997330481099 0 -0.018533892947438371 0.24520268888787281 0 -0.034088453436826982 0.26031997330481099 0 -0.01915517585356951 0.2601414749888612 0 -0.024263941670138189 0.26950428240037161 0 -0.036046855827918133 0.27321120111252251 0 -0.024263941670138189 0.26950428240037161 0 -0.0309618284244422 0.27937834606186951 0 -0.024263941670138189 0.26950428240037161 0 -0.0309618284244422 0.27937834606186951 0 -0.020167434042389319 0.27955093173457862 0 -0.020167434042389319 0.27955093173457862 0 -0.015781408299130401 0.2713767431504322 0 -0.0117694169295436 0.28051066964197607 0 -0.024263941670138189 0.26950428240037161 0 -0.020167434042389319 0.27955093173457862 0 -0.015781408299130401 0.2713767431504322 0 -0.01915517585356951 0.2601414749888612 0 -0.024263941670138189 0.26950428240037161 0 -0.015781408299130401 0.2713767431504322 0 -0.015781408299130401 0.2713767431504322 0 -0.0074026472319425086 0.27362897429777261 0 -0.01030983536091132 0.26460222699089792 0 -0.015781408299130401 0.2713767431504322 0 -0.0117694169295436 0.28051066964197607 0 -0.0074026472319425086 0.27362897429777261 0 -0.0117694169295436 0.28051066964197607 0 -0.0074026472319425086 0.27362897429777261 0 -0.005272493492842977 0.28203212578046721 0 -0.0074026472319425086 0.27362897429777261 0 -0.0010589938020261389 0.27626584534435938 0 -0.005272493492842977 0.28203212578046721 0 -0.0074026472319425086 0.27362897429777261 0 -0.0010589938020261389 0.27626584534435938 0 -0.001815615808124528 0.26650856277061302 0 -0.0074026472319425086 0.27362897429777261 0 -0.001815615808124528 0.26650856277061302 0 -0.01030983536091132 0.26460222699089792 0 -0.001815615808124528 0.26650856277061302 0 -0.0064195805784558694 0.25571646301748818 0 -0.01030983536091132 0.26460222699089792 0 -0.001815615808124528 0.26650856277061302 0 -0.0064195805784558694 0.25571646301748818 0 0.0057197087398602716 0.25638837365480188 0 -0.01915517585356951 0.2601414749888612 0 -0.0064195805784558694 0.25571646301748818 0 -0.018533892947438371 0.24520268888787281 0 -0.01915517585356951 0.2601414749888612 0 -0.0064195805784558694 0.25571646301748818 0 -0.01030983536091132 0.26460222699089792 0 -0.01915517585356951 0.2601414749888612 0 -0.015781408299130401 0.2713767431504322 0 -0.01030983536091132 0.26460222699089792 0 -4.501939692783466e-05 0.29213092697448362 0 -0.0093308457135628173 0.31723321705050672 0 -0.00090435185522157874 0.29742975324218318 0 -0.0093308457135628173 0.31723321705050672 0 -0.00090435185522157874 0.29742975324218318 0 -4.501939692783466e-05 0.29213092697448362 0 -0.0093308457135628173 0.31723321705050672 0 -0.00090435185522157874 0.29742975324218318 0 -0.0093308457135628173 0.31723321705050672 0 0.0032755366433567402 0.31052339785774491 0 -0.01097401283892918 0.30235672840639682 0 -4.501939692783466e-05 0.29213092697448362 0 -0.0093308457135628173 0.31723321705050672 0 -0.01097401283892918 0.30235672840639682 0 -0.01014673300777501 0.29331154174685298 0 -0.017351074642216861 0.29618937019386782 0 -0.01097401283892918 0.30235672840639682 0 -0.020511920457932459 0.30650150330352482 0 -0.0093308457135628173 0.31723321705050672 0 -4.501939692783466e-05 0.29213092697448362 0 -0.0077871059267697121 0.28770929472373602 0 -0.01014673300777501 0.29331154174685298 0 -0.01097401283892918 0.30235672840639682 0 -4.501939692783466e-05 0.29213092697448362 0 -0.01014673300777501 0.29331154174685298 0 -0.0010589938020261389 0.27626584534435938 0 -4.501939692783466e-05 0.29213092697448362 0 -0.005272493492842977 0.28203212578046721 0 -4.501939692783466e-05 0.29213092697448362 0 -0.0077871059267697121 0.28770929472373602 0 -0.005272493492842977 0.28203212578046721 0 -0.020167434042389319 0.27955093173457862 0 -0.0117694169295436 0.28051066964197607 0 -0.01457645223403148 0.28817138843578072 0 -0.0117694169295436 0.28051066964197607 0 -0.0077871059267697121 0.28770929472373602 0 -0.005272493492842977 0.28203212578046721 0 -0.0117694169295436 0.28051066964197607 0 -0.0077871059267697121 0.28770929472373602 0 -0.01457645223403148 0.28817138843578072 0 -0.01457645223403148 0.28817138843578072 0 -0.01014673300777501 0.29331154174685298 0 -0.017351074642216861 0.29618937019386782 0 -0.0077871059267697121 0.28770929472373602 0 -0.01457645223403148 0.28817138843578072 0 -0.01014673300777501 0.29331154174685298 0 -0.017351074642216861 0.29618937019386782 0 -0.024561723210947451 0.28897421762046971 0 -0.02669768243711023 0.29690250867299839 0 -0.01457645223403148 0.28817138843578072 0 -0.017351074642216861 0.29618937019386782 0 -0.024561723210947451 0.28897421762046971 0 -0.020167434042389319 0.27955093173457862 0 -0.01457645223403148 0.28817138843578072 0 -0.024561723210947451 0.28897421762046971 0 -0.0309618284244422 0.27937834606186951 0 -0.024561723210947451 0.28897421762046971 0 -0.037615867485494607 0.29365276062372347 0 -0.0309618284244422 0.27937834606186951 0 -0.020167434042389319 0.27955093173457862 0 -0.024561723210947451 0.28897421762046971 0 -0.024561723210947451 0.28897421762046971 0 -0.02669768243711023 0.29690250867299839 0 -0.037615867485494607 0.29365276062372347 0 -0.02669768243711023 0.29690250867299839 0 -0.020511920457932459 0.30650150330352482 0 -0.032039372509475618 0.30413176351130727 0 -0.017351074642216861 0.29618937019386782 0 -0.02669768243711023 0.29690250867299839 0 -0.020511920457932459 0.30650150330352482 0 -0.01097401283892918 0.30235672840639682 0 -0.017351074642216861 0.29618937019386782 0 -0.020511920457932459 0.30650150330352482 0 -0.020511920457932459 0.30650150330352482 0 -0.02751972472131381 0.31161090479981501 0 -0.020086201914928312 0.31807096160142551 0 -0.020511920457932459 0.30650150330352482 0 -0.02751972472131381 0.31161090479981501 0 -0.032039372509475618 0.30413176351130727 0 -0.032039372509475618 0.30413176351130727 0 -0.041601448727098318 0.30509422923555318 0 -0.036459297991276923 0.31297100162527608 0 -0.02751972472131381 0.31161090479981501 0 -0.032039372509475618 0.30413176351130727 0 -0.036459297991276923 0.31297100162527608 0 -0.032039372509475618 0.30413176351130727 0 -0.041601448727098318 0.30509422923555318 0 -0.037615867485494607 0.29365276062372347 0 -0.02669768243711023 0.29690250867299839 0 -0.032039372509475618 0.30413176351130727 0 -0.037615867485494607 0.29365276062372347 0 -0.041601448727098318 0.30509422923555318 0 -0.037615867485494607 0.29365276062372347 0 -0.050097574730593251 0.302188488592462 0 -0.041601448727098318 0.30509422923555318 0 -0.050097574730593251 0.302188488592462 0 -0.047868055560717847 0.31478725444085248 0 -0.041601448727098318 0.30509422923555318 0 -0.047868055560717847 0.31478725444085248 0 -0.036459297991276923 0.31297100162527608 0 -0.037615867485494607 0.29365276062372347 0 -0.041644191132442193 0.28277586727805742 0 -0.053953389998140477 0.29219977087042209 0 -0.0309618284244422 0.27937834606186951 0 -0.037615867485494607 0.29365276062372347 0 -0.041644191132442193 0.28277586727805742 0 -0.066572969845086205 0.29189127189761871 0 -0.04964301392621645 0.27543725772174832 0 -0.04964301392621645 0.27543725772174832 0 -0.053953389998140477 0.29219977087042209 0 -0.037615867485494607 0.29365276062372347 0 -0.053953389998140477 0.29219977087042209 0 -0.050097574730593251 0.302188488592462 0 -0.04964301392621645 0.27543725772174832 0 -0.041644191132442193 0.28277586727805742 0 -0.053953389998140477 0.29219977087042209 0 -0.066572969845086205 0.29189127189761871 0 -0.04964301392621645 0.27543725772174832 0 -0.053953389998140477 0.29219977087042209 0 -0.066572969845086205 0.29189127189761871 0 -0.053953389998140477 0.29219977087042209 0 -0.061221682593323237 0.29921692369943792 0 -0.053953389998140477 0.29219977087042209 0 -0.061221682593323237 0.29921692369943792 0 -0.058263766070062978 0.30896228401909648 0 -0.053953389998140477 0.29219977087042209 0 -0.058263766070062978 0.30896228401909648 0 -0.053953389998140477 0.29219977087042209 0 -0.050097574730593251 0.302188488592462 0 -0.058263766070062978 0.30896228401909648 0 -0.050097574730593251 0.302188488592462 0 -0.058263766070062978 0.30896228401909648 0 -0.047868055560717847 0.31478725444085248 0 -0.066096604460002539 0.30381436801061501 0 -0.061221682593323237 0.29921692369943792 0 -0.058263766070062978 0.30896228401909648 0 -0.065047648744271935 0.31248075799774561 0 -0.055881847445631579 0.31629535315500218 0 -0.061722078161686039 0.32133897426926311 0 -0.065047648744271935 0.31248075799774561 0 -0.058263766070062978 0.30896228401909648 0 -0.055881847445631579 0.31629535315500218 0 -0.055881847445631579 0.31629535315500218 0 -0.061722078161686039 0.32133897426926311 0 -0.05409980297350582 0.32466931970999102 0 -0.05409980297350582 0.32466931970999102 0 -0.049568026895778487 0.33385983394629482 0 -0.046101122883906047 0.32564532480574881 0 -0.05409980297350582 0.32466931970999102 0 -0.047868055560717847 0.31478725444085248 0 -0.046101122883906047 0.32564532480574881 0 -0.058263766070062978 0.30896228401909648 0 -0.055881847445631579 0.31629535315500218 0 -0.047868055560717847 0.31478725444085248 0 -0.055881847445631579 0.31629535315500218 0 -0.05409980297350582 0.32466931970999102 0 -0.047868055560717847 0.31478725444085248 0 -0.05409980297350582 0.32466931970999102 0 -0.056047606844183029 0.34080175966636173 0 -0.049568026895778487 0.33385983394629482 0 -0.061722078161686039 0.32133897426926311 0 -0.05409980297350582 0.32466931970999102 0 -0.056047606844183029 0.34080175966636173 0 -0.056047606844183029 0.34080175966636173 0 -0.049568026895778487 0.33385983394629482 0 -0.043821607339640307 0.34614412260920652 0 -0.042671360252322002 0.33357333929136818 0 -0.037770931061080787 0.34073206010130352 0 -0.043821607339640307 0.34614412260920652 0 -0.049568026895778487 0.33385983394629482 0 -0.042671360252322002 0.33357333929136818 0 -0.043821607339640307 0.34614412260920652 0 -0.049568026895778487 0.33385983394629482 0 -0.042671360252322002 0.33357333929136818 0 -0.046101122883906047 0.32564532480574881 0 -0.042671360252322002 0.33357333929136818 0 -0.03233332036463827 0.32891804027125882 0 -0.038424639961939989 0.32249165002533842 0 -0.042671360252322002 0.33357333929136818 0 -0.03233332036463827 0.32891804027125882 0 -0.031319267981626348 0.33641107444308671 0 -0.042671360252322002 0.33357333929136818 0 -0.037770931061080787 0.34073206010130352 0 -0.031319267981626348 0.33641107444308671 0 -0.037770931061080787 0.34073206010130352 0 -0.031319267981626348 0.33641107444308671 0 -0.033271488670734518 0.3467997040615528 0 -0.047868055560717847 0.31478725444085248 0 -0.038424639961939989 0.32249165002533842 0 -0.036459297991276923 0.31297100162527608 0 -0.042671360252322002 0.33357333929136818 0 -0.046101122883906047 0.32564532480574881 0 -0.038424639961939989 0.32249165002533842 0 -0.047868055560717847 0.31478725444085248 0 -0.046101122883906047 0.32564532480574881 0 -0.038424639961939989 0.32249165002533842 0 -0.03233332036463827 0.32891804027125882 0 -0.038424639961939989 0.32249165002533842 0 -0.030070960669895761 0.31973516562072352 0 -0.02751972472131381 0.31161090479981501 0 -0.036459297991276923 0.31297100162527608 0 -0.030070960669895761 0.31973516562072352 0 -0.038424639961939989 0.32249165002533842 0 -0.036459297991276923 0.31297100162527608 0 -0.030070960669895761 0.31973516562072352 0 -0.02751972472131381 0.31161090479981501 0 -0.030070960669895761 0.31973516562072352 0 -0.020086201914928312 0.31807096160142551 0 -0.020511920457932459 0.30650150330352482 0 -0.020086201914928312 0.31807096160142551 0 -0.0093308457135628173 0.31723321705050672 0 -0.020086201914928312 0.31807096160142551 0 -0.024572013463304909 0.3267829854664604 0 -0.0153967339640542 0.33363107775136819 0 -0.030070960669895761 0.31973516562072352 0 -0.020086201914928312 0.31807096160142551 0 -0.024572013463304909 0.3267829854664604 0 -0.03233332036463827 0.32891804027125882 0 -0.030070960669895761 0.31973516562072352 0 -0.024572013463304909 0.3267829854664604 0 -0.019124866377017231 0.34370930429587832 0 -0.0153967339640542 0.33363107775136819 0 -0.023037701698988149 0.34944628585427417 0 -0.03233332036463827 0.32891804027125882 0 -0.024572013463304909 0.3267829854664604 0 -0.024839566207270208 0.33600561036544618 0 -0.0153967339640542 0.33363107775136819 0 -0.023037701698988149 0.34944628585427417 0 -0.024839566207270208 0.33600561036544618 0 -0.0153967339640542 0.33363107775136819 0 -0.023037701698988149 0.34944628585427417 0 -0.03233332036463827 0.32891804027125882 0 -0.031319267981626348 0.33641107444308671 0 -0.024839566207270208 0.33600561036544618 0 -0.031319267981626348 0.33641107444308671 0 -0.028080644199212971 0.3440450754131183 0 -0.033271488670734518 0.3467997040615528 0 -0.024839566207270208 0.33600561036544618 0 -0.023037701698988149 0.34944628585427417 0 -0.028080644199212971 0.3440450754131183 0 -0.031319267981626348 0.33641107444308671 0 -0.024839566207270208 0.33600561036544618 0 -0.028080644199212971 0.3440450754131183 0 -0.019124866377017231 0.34370930429587832 0 -0.0153967339640542 0.33363107775136819 0 -0.024572013463304909 0.3267829854664604 0 -0.024839566207270208 0.33600561036544618 0 -0.0153967339640542 0.33363107775136819 0 -0.0062323808828551224 0.33461536958361737 0 -0.01012069909096797 0.35061718579443291 0 0.0053448791358674261 0.3398377684093693 0 -0.019124866377017231 0.34370930429587832 0 -0.0062323808828551224 0.33461536958361737 0 -0.01012069909096797 0.35061718579443291 0 -0.0153967339640542 0.33363107775136819 0 -0.0062323808828551224 0.33461536958361737 0 -0.0093308457135628173 0.31723321705050672 0 -0.019124866377017231 0.34370930429587832 0 -0.0153967339640542 0.33363107775136819 0 -0.0062323808828551224 0.33461536958361737 0 -0.0062323808828551224 0.33461536958361737 0 -0.0093308457135628173 0.31723321705050672 0 0.0046366698239865469 0.32328774136327859 0 -0.0153967339640542 0.33363107775136819 0 -0.0093308457135628173 0.31723321705050672 0 -0.020086201914928312 0.31807096160142551 0 -0.0153967339640542 0.33363107775136819 0 -0.0093308457135628173 0.31723321705050672 0 -0.0093308457135628173 0.31723321705050672 0 0.0046366698239865469 0.32328774136327859 0 0.0032755366433567402 0.31052339785774491 0 -0.01015141446243099 0.37225082740078858 0 -0.0013866461761331409 0.35786357627480991 0 0.0016991597321124371 0.37954553274575858 0 -0.0013866461761331409 0.35786357627480991 0 -0.01688082976073484 0.36058331700264201 0 -0.025981249380106639 0.37268945321959879 0 -0.01015141446243099 0.37225082740078858 0 -0.0013866461761331409 0.35786357627480991 0 -0.025981249380106639 0.37268945321959879 0 -0.0013866461761331409 0.35786357627480991 0 -0.025981249380106639 0.37268945321959879 0 -0.0013866461761331409 0.35786357627480991 0 -0.01012069909096797 0.35061718579443291 0 0.0053448791358674261 0.3398377684093693 0 -0.0013866461761331409 0.35786357627480991 0 -0.01012069909096797 0.35061718579443291 0 -0.01688082976073484 0.36058331700264201 0 -0.01012069909096797 0.35061718579443291 0 -0.018761320567298331 0.35627379965855061 0 -0.01688082976073484 0.36058331700264201 0 -0.019124866377017231 0.34370930429587832 0 -0.018761320567298331 0.35627379965855061 0 -0.028918887040473278 0.37018539154124919 0 -0.019124866377017231 0.34370930429587832 0 -0.023037701698988149 0.34944628585427417 0 -0.028918887040473278 0.37018539154124919 0 -0.023037701698988149 0.34944628585427417 0 -0.03112162930027746 0.35642878076038331 0 -0.028918887040473278 0.37018539154124919 0 -0.019124866377017231 0.34370930429587832 0 -0.028918887040473278 0.37018539154124919 0 -0.019124866377017231 0.34370930429587832 0 -0.01012069909096797 0.35061718579443291 0 -0.018761320567298331 0.35627379965855061 0 -0.028958704941059388 0.34998962709534109 0 -0.03112162930027746 0.35642878076038331 0 -0.033271488670734518 0.3467997040615528 0 -0.023037701698988149 0.34944628585427417 0 -0.028958704941059388 0.34998962709534109 0 -0.028080644199212971 0.3440450754131183 0 -0.028958704941059388 0.34998962709534109 0 -0.028080644199212971 0.3440450754131183 0 -0.033271488670734518 0.3467997040615528 0 -0.023037701698988149 0.34944628585427417 0 -0.028958704941059388 0.34998962709534109 0 -0.03112162930027746 0.35642878076038331 0 -0.01015141446243099 0.37225082740078858 0 -0.025981249380106639 0.37268945321959879 0 -0.016635104969755551 0.37773279851226532 0 -0.018761320567298331 0.35627379965855061 0 -0.01688082976073484 0.36058331700264201 0 -0.028918887040473278 0.37018539154124919 0 -0.01688082976073484 0.36058331700264201 0 -0.025981249380106639 0.37268945321959879 0 -0.028918887040473278 0.37018539154124919 0 -0.028918887040473278 0.37018539154124919 0 -0.029983520936423341 0.37247799575402468 0 -0.028918887040473278 0.37018539154124919 0 -0.037976403362088178 0.3627640763159018 0 -0.043821607339640307 0.34614412260920652 0 -0.028918887040473278 0.37018539154124919 0 -0.029983520936423341 0.37247799575402468 0 -0.037976403362088178 0.3627640763159018 0 -0.029983520936423341 0.37247799575402468 0 -0.037976403362088178 0.3627640763159018 0 -0.029983520936423341 0.37247799575402468 0 -0.037976403362088178 0.3627640763159018 0 -0.034356909958003279 0.37864986700008813 0 -0.037976403362088178 0.3627640763159018 0 -0.042295846865674232 0.37177077488316529 0 -0.034356909958003279 0.37864986700008813 0 -0.037976403362088178 0.3627640763159018 0 -0.042295846865674232 0.37177077488316529 0 -0.051034344312188583 0.36475607933121901 0 -0.028918887040473278 0.37018539154124919 0 -0.043821607339640307 0.34614412260920652 0 -0.03112162930027746 0.35642878076038331 0 -0.028918887040473278 0.37018539154124919 0 -0.043821607339640307 0.34614412260920652 0 -0.056047606844183029 0.34080175966636173 0 -0.037976403362088178 0.3627640763159018 0 -0.043821607339640307 0.34614412260920652 0 -0.03112162930027746 0.35642878076038331 0 -0.033271488670734518 0.3467997040615528 0 -0.043821607339640307 0.34614412260920652 0 -0.037770931061080787 0.34073206010130352 0 -0.033271488670734518 0.3467997040615528 0 -0.043821607339640307 0.34614412260920652 0 -0.056047606844183029 0.34080175966636173 0 -0.037976403362088178 0.3627640763159018 0 -0.05494571745986454 0.35515977992729147 0 -0.056047606844183029 0.34080175966636173 0 -0.037976403362088178 0.3627640763159018 0 -0.05494571745986454 0.35515977992729147 0 -0.064025717328277137 0.35930088879272909 0 -0.065644515452585789 0.34817609553024581 0 -0.056047606844183029 0.34080175966636173 0 -0.05494571745986454 0.35515977992729147 0 -0.065644515452585789 0.34817609553024581 0 -0.037976403362088178 0.3627640763159018 0 -0.05494571745986454 0.35515977992729147 0 -0.051034344312188583 0.36475607933121901 0 -0.042295846865674232 0.37177077488316529 0 -0.04923138047971444 0.37294893489168313 0 -0.051034344312188583 0.36475607933121901 0 -0.04923138047971444 0.37294893489168313 0 -0.051034344312188583 0.36475607933121901 0 -0.059485772569637017 0.3705675222427845 0 -0.04923138047971444 0.37294893489168313 0 -0.059485772569637017 0.3705675222427845 0 -0.054557527940428667 0.38083585122769781 0 -0.05494571745986454 0.35515977992729147 0 -0.051034344312188583 0.36475607933121901 0 -0.064025717328277137 0.35930088879272909 0 -0.051034344312188583 0.36475607933121901 0 -0.059485772569637017 0.3705675222427845 0 -0.064025717328277137 0.35930088879272909 0 -0.068071478548525133 0.36868395153571271 0 -0.076653929993371062 0.37286978770400009 0 -0.064836848753324045 0.37878433425419622 0 -0.059485772569637017 0.3705675222427845 0 -0.068071478548525133 0.36868395153571271 0 -0.064836848753324045 0.37878433425419622 0 -0.072494028555561099 0.36128890774603151 0 -0.076653929993371062 0.37286978770400009 0 -0.080235211667710402 0.35162270788668748 0 -0.059485772569637017 0.3705675222427845 0 -0.068071478548525133 0.36868395153571271 0 -0.064025717328277137 0.35930088879272909 0 -0.068071478548525133 0.36868395153571271 0 -0.072494028555561099 0.36128890774603151 0 -0.064025717328277137 0.35930088879272909 0 -0.068071478548525133 0.36868395153571271 0 -0.072494028555561099 0.36128890774603151 0 -0.076653929993371062 0.37286978770400009 0 -0.09010156061686099 0.36325159007459018 0 -0.087516557329584188 0.37383258852793411 0 -0.080513225213100267 0.35765783985533639 0 -0.087516557329584188 0.37383258852793411 0 -0.080513225213100267 0.35765783985533639 0 -0.078309623362665046 0.38646817370353292 0 -0.076653929993371062 0.37286978770400009 0 -0.080513225213100267 0.35765783985533639 0 -0.078309623362665046 0.38646817370353292 0 -0.076653929993371062 0.37286978770400009 0 -0.080235211667710402 0.35162270788668748 0 -0.080513225213100267 0.35765783985533639 0 -0.078309623362665046 0.38646817370353292 0 -0.076653929993371062 0.37286978770400009 0 -0.080513225213100267 0.35765783985533639 0 -0.080235211667710402 0.35162270788668748 0 -0.09010156061686099 0.36325159007459018 0 -0.087516557329584188 0.37383258852793411 0 -0.096387334234153854 0.37498233386360869 0 -0.09010156061686099 0.36325159007459018 0 -0.086710704270879124 0.35486570113421362 0 -0.094166157631306341 0.35470042683994041 0 -0.088537366225417607 0.34709594101451341 0 -0.086710704270879124 0.35486570113421362 0 -0.094166157631306341 0.35470042683994041 0 -0.09010156061686099 0.36325159007459018 0 -0.086710704270879124 0.35486570113421362 0 -0.080513225213100267 0.35765783985533639 0 -0.086710704270879124 0.35486570113421362 0 -0.080513225213100267 0.35765783985533639 0 -0.080235211667710402 0.35162270788668748 0 -0.088537366225417607 0.34709594101451341 0 -0.086710704270879124 0.35486570113421362 0 -0.080235211667710402 0.35162270788668748 0 -0.080235211667710402 0.35162270788668748 0 -0.074321277380400744 0.34449801441377742 0 -0.082992509829041994 0.33994281591829523 0 -0.088537366225417607 0.34709594101451341 0 -0.080235211667710402 0.35162270788668748 0 -0.082992509829041994 0.33994281591829523 0 -0.074321277380400744 0.34449801441377742 0 -0.071344150076907017 0.35297732287389422 0 -0.065644515452585789 0.34817609553024581 0 -0.080235211667710402 0.35162270788668748 0 -0.074321277380400744 0.34449801441377742 0 -0.071344150076907017 0.35297732287389422 0 -0.072494028555561099 0.36128890774603151 0 -0.080235211667710402 0.35162270788668748 0 -0.071344150076907017 0.35297732287389422 0 -0.071344150076907017 0.35297732287389422 0 -0.064025717328277137 0.35930088879272909 0 -0.065644515452585789 0.34817609553024581 0 -0.072494028555561099 0.36128890774603151 0 -0.071344150076907017 0.35297732287389422 0 -0.064025717328277137 0.35930088879272909 0 -0.056047606844183029 0.34080175966636173 0 -0.069237353511010985 0.33732071294642918 0 -0.074118810326277901 0.31883944301682149 0 -0.056047606844183029 0.34080175966636173 0 -0.065644515452585789 0.34817609553024581 0 -0.069237353511010985 0.33732071294642918 0 -0.056047606844183029 0.34080175966636173 0 -0.074118810326277901 0.31883944301682149 0 -0.074321277380400744 0.34449801441377742 0 -0.065644515452585789 0.34817609553024581 0 -0.069237353511010985 0.33732071294642918 0 -0.069237353511010985 0.33732071294642918 0 -0.076054557551607518 0.33428825210493968 0 -0.074118810326277901 0.31883944301682149 0 -0.074321277380400744 0.34449801441377742 0 -0.076054557551607518 0.33428825210493968 0 -0.082992509829041994 0.33994281591829523 0 -0.074321277380400744 0.34449801441377742 0 -0.069237353511010985 0.33732071294642918 0 -0.076054557551607518 0.33428825210493968 0 -0.061722078161686039 0.32133897426926311 0 -0.056047606844183029 0.34080175966636173 0 -0.074118810326277901 0.31883944301682149 0 -0.065047648744271935 0.31248075799774561 0 -0.061722078161686039 0.32133897426926311 0 -0.074118810326277901 0.31883944301682149 0 -0.073168845355920928 0.30821155495798358 0 -0.065047648744271935 0.31248075799774561 0 -0.074118810326277901 0.31883944301682149 0 -0.093140913504989792 0.31607545514970647 0 -0.084530265690492531 0.3285677523784557 0 -0.096344537240545425 0.3336927957025152 0 -0.074118810326277901 0.31883944301682149 0 -0.093140913504989792 0.31607545514970647 0 -0.084530265690492531 0.3285677523784557 0 -0.076054557551607518 0.33428825210493968 0 -0.074118810326277901 0.31883944301682149 0 -0.084530265690492531 0.3285677523784557 0 -0.076054557551607518 0.33428825210493968 0 -0.082992509829041994 0.33994281591829523 0 -0.084530265690492531 0.3285677523784557 0 -0.082992509829041994 0.33994281591829523 0 -0.084530265690492531 0.3285677523784557 0 -0.096344537240545425 0.3336927957025152 0 -0.088537366225417607 0.34709594101451341 0 -0.082992509829041994 0.33994281591829523 0 -0.096344537240545425 0.3336927957025152 0 -0.096344537240545425 0.3336927957025152 0 -0.11418077762639529 0.3422386269714992 0 -0.099042112561174594 0.34601496470443538 0 -0.096344537240545425 0.3336927957025152 0 -0.11321448108480379 0.31932393730343023 0 -0.11418077762639529 0.3422386269714992 0 -0.088537366225417607 0.34709594101451341 0 -0.096344537240545425 0.3336927957025152 0 -0.099042112561174594 0.34601496470443538 0 -0.104886146059017 0.30587099623934411 0 -0.093140913504989792 0.31607545514970647 0 -0.11321448108480379 0.31932393730343023 0 -0.093140913504989792 0.31607545514970647 0 -0.096344537240545425 0.3336927957025152 0 -0.11321448108480379 0.31932393730343023 0 -0.13515147851790321 0.33097529163643608 0 -0.11321448108480379 0.31932393730343023 0 -0.11418077762639529 0.3422386269714992 0 -0.13433632643026469 0.35135985965279848 0 -0.11418077762639529 0.3422386269714992 0 -0.11875348889851001 0.36127029296516272 0 -0.11418077762639529 0.3422386269714992 0 -0.11875348889851001 0.36127029296516272 0 -0.1053726926719369 0.3544478877073497 0 -0.13478092132444111 0.37028542393035618 0 -0.11875348889851001 0.36127029296516272 0 -0.1193748346214611 0.37931865153482169 0 -0.11875348889851001 0.36127029296516272 0 -0.1074854360577784 0.37084542042970109 0 -0.1193748346214611 0.37931865153482169 0 -0.11875348889851001 0.36127029296516272 0 -0.1074854360577784 0.37084542042970109 0 -0.1053726926719369 0.3544478877073497 0 -0.1074854360577784 0.37084542042970109 0 -0.098915132781671355 0.36322933654747569 0 -0.1053726926719369 0.3544478877073497 0 -0.1074854360577784 0.37084542042970109 0 -0.096387334234153854 0.37498233386360869 0 -0.098915132781671355 0.36322933654747569 0 -0.09010156061686099 0.36325159007459018 0 -0.096387334234153854 0.37498233386360869 0 -0.098915132781671355 0.36322933654747569 0 -0.09010156061686099 0.36325159007459018 0 -0.098915132781671355 0.36322933654747569 0 -0.094166157631306341 0.35470042683994041 0 -0.098915132781671355 0.36322933654747569 0 -0.094166157631306341 0.35470042683994041 0 -0.1053726926719369 0.3544478877073497 0 -0.094166157631306341 0.35470042683994041 0 -0.099042112561174594 0.34601496470443538 0 -0.1053726926719369 0.3544478877073497 0 -0.088537366225417607 0.34709594101451341 0 -0.094166157631306341 0.35470042683994041 0 -0.099042112561174594 0.34601496470443538 0 -0.11418077762639529 0.3422386269714992 0 -0.099042112561174594 0.34601496470443538 0 -0.1053726926719369 0.3544478877073497 0 -0.10475084535841921 0.38991987109338599 0 -0.10586437025673349 0.41489412665418007 0 -0.09307808244169824 0.40012044659644119 0 -0.10475084535841921 0.38991987109338599 0 -0.09307808244169824 0.40012044659644119 0 -0.090860400224397189 0.38651051536125158 0 -0.096387334234153854 0.37498233386360869 0 -0.10475084535841921 0.38991987109338599 0 -0.090860400224397189 0.38651051536125158 0 -0.1074854360577784 0.37084542042970109 0 -0.096387334234153854 0.37498233386360869 0 -0.10475084535841921 0.38991987109338599 0 -0.1340432228732657 0.39160660414660009 0 -0.1193748346214611 0.37931865153482169 0 -0.1196065179232934 0.39931417515004419 0 -0.10475084535841921 0.38991987109338599 0 -0.1193748346214611 0.37931865153482169 0 -0.1196065179232934 0.39931417515004419 0 -0.1074854360577784 0.37084542042970109 0 -0.10475084535841921 0.38991987109338599 0 -0.1193748346214611 0.37931865153482169 0 -0.10475084535841921 0.38991987109338599 0 -0.1196065179232934 0.39931417515004419 0 -0.10586437025673349 0.41489412665418007 0 -0.13562271900123679 0.41450974575662641 0 -0.1171136872491691 0.43493878815214759 0 -0.10586437025673349 0.41489412665418007 0 -0.13562271900123679 0.41450974575662641 0 -0.10586437025673349 0.41489412665418007 0 -0.13562271900123679 0.41450974575662641 0 -0.1196065179232934 0.39931417515004419 0 -0.10586437025673349 0.41489412665418007 0 -0.1171136872491691 0.43493878815214759 0 -0.10586437025673349 0.41489412665418007 0 -0.1000437163130679 0.43848417810030171 0 -0.10586437025673349 0.41489412665418007 0 -0.091149667397137174 0.42781952175314752 0 -0.1000437163130679 0.43848417810030171 0 -0.10586437025673349 0.41489412665418007 0 -0.076106021512230213 0.41527850755172963 0 -0.09307808244169824 0.40012044659644119 0 -0.10586437025673349 0.41489412665418007 0 -0.076106021512230213 0.41527850755172963 0 -0.10586437025673349 0.41489412665418007 0 -0.091149667397137174 0.42781952175314752 0 -0.076106021512230213 0.41527850755172963 0 -0.086505026239451097 0.43728231981613208 0 -0.091149667397137174 0.42781952175314752 0 -0.1000437163130679 0.43848417810030171 0 -0.086505026239451097 0.43728231981613208 0 -0.091149667397137174 0.42781952175314752 0 -0.082033612582056742 0.42957677915957532 0 -0.091149667397137174 0.42781952175314752 0 -0.082033612582056742 0.42957677915957532 0 -0.076106021512230213 0.41527850755172963 0 -0.086505026239451097 0.43728231981613208 0 -0.082033612582056742 0.42957677915957532 0 -0.074373735179408484 0.43792676751729182 0 -0.066111259444932319 0.4354174963177414 0 -0.069491366644692493 0.41536394733862531 0 -0.082033612582056742 0.42957677915957532 0 -0.076106021512230213 0.41527850755172963 0 -0.074373735179408484 0.43792676751729182 0 -0.066111259444932319 0.4354174963177414 0 -0.076106021512230213 0.41527850755172963 0 -0.074373735179408484 0.43792676751729182 0 -0.066111259444932319 0.4354174963177414 0 -0.069491366644692493 0.41536394733862531 0 -0.058463373450948097 0.42381677415014302 0 -0.076106021512230213 0.41527850755172963 0 -0.074373735179408484 0.43792676751729182 0 -0.066111259444932319 0.4354174963177414 0 -0.076106021512230213 0.41527850755172963 0 -0.069491366644692493 0.41536394733862531 0 -0.076106021512230213 0.41527850755172963 0 -0.069491366644692493 0.41536394733862531 0 -0.073072648319031722 0.3941168675213127 0 -0.076106021512230213 0.41527850755172963 0 -0.069491366644692493 0.41536394733862531 0 -0.069491366644692493 0.41536394733862531 0 -0.073072648319031722 0.3941168675213127 0 -0.076106021512230213 0.41527850755172963 0 -0.078309623362665046 0.38646817370353292 0 -0.069491366644692493 0.41536394733862531 0 -0.073072648319031722 0.3941168675213127 0 -0.058188462088832132 0.40253343712763212 0 -0.076106021512230213 0.41527850755172963 0 -0.073072648319031722 0.3941168675213127 0 -0.078309623362665046 0.38646817370353292 0 -0.073072648319031722 0.3941168675213127 0 -0.058188462088832132 0.40253343712763212 0 -0.06165734836048279 0.39076371672510057 0 -0.076106021512230213 0.41527850755172963 0 -0.084588531885247661 0.39709441080323882 0 -0.078309623362665046 0.38646817370353292 0 -0.076106021512230213 0.41527850755172963 0 -0.084588531885247661 0.39709441080323882 0 -0.09307808244169824 0.40012044659644119 0 -0.084588531885247661 0.39709441080323882 0 -0.09307808244169824 0.40012044659644119 0 -0.090860400224397189 0.38651051536125158 0 -0.087516557329584188 0.37383258852793411 0 -0.096387334234153854 0.37498233386360869 0 -0.090860400224397189 0.38651051536125158 0 -0.084588531885247661 0.39709441080323882 0 -0.090860400224397189 0.38651051536125158 0 -0.078309623362665046 0.38646817370353292 0 -0.087516557329584188 0.37383258852793411 0 -0.090860400224397189 0.38651051536125158 0 -0.078309623362665046 0.38646817370353292 0 -0.076653929993371062 0.37286978770400009 0 -0.073072648319031722 0.3941168675213127 0 -0.069055193856552399 0.38413367655115238 0 -0.076653929993371062 0.37286978770400009 0 -0.073072648319031722 0.3941168675213127 0 -0.076653929993371062 0.37286978770400009 0 -0.073072648319031722 0.3941168675213127 0 -0.078309623362665046 0.38646817370353292 0 -0.073072648319031722 0.3941168675213127 0 -0.069055193856552399 0.38413367655115238 0 -0.06165734836048279 0.39076371672510057 0 -0.069055193856552399 0.38413367655115238 0 -0.064836848753324045 0.37878433425419622 0 -0.06165734836048279 0.39076371672510057 0 -0.076653929993371062 0.37286978770400009 0 -0.069055193856552399 0.38413367655115238 0 -0.064836848753324045 0.37878433425419622 0 -0.059485772569637017 0.3705675222427845 0 -0.064836848753324045 0.37878433425419622 0 -0.054557527940428667 0.38083585122769781 0 -0.064836848753324045 0.37878433425419622 0 -0.054557527940428667 0.38083585122769781 0 -0.06165734836048279 0.39076371672510057 0 -0.054557527940428667 0.38083585122769781 0 -0.06165734836048279 0.39076371672510057 0 -0.04891245101086867 0.39189197039406398 0 -0.054557527940428667 0.38083585122769781 0 -0.04891245101086867 0.39189197039406398 0 -0.044078893414308491 0.38133728730783922 0 -0.04923138047971444 0.37294893489168313 0 -0.054557527940428667 0.38083585122769781 0 -0.044078893414308491 0.38133728730783922 0 -0.058188462088832132 0.40253343712763212 0 -0.06165734836048279 0.39076371672510057 0 -0.04891245101086867 0.39189197039406398 0 -0.058188462088832132 0.40253343712763212 0 -0.04891245101086867 0.39189197039406398 0 -0.044350218289820893 0.40128569416870907 0 -0.04891245101086867 0.39189197039406398 0 -0.044350218289820893 0.40128569416870907 0 -0.035119244231161667 0.3919263254503374 0 -0.044350218289820893 0.40128569416870907 0 -0.035119244231161667 0.3919263254503374 0 -0.034235622300795389 0.40504648476626981 0 -0.042295846865674232 0.37177077488316529 0 -0.044078893414308491 0.38133728730783922 0 -0.034356909958003279 0.37864986700008813 0 -0.042295846865674232 0.37177077488316529 0 -0.04923138047971444 0.37294893489168313 0 -0.044078893414308491 0.38133728730783922 0 -0.04891245101086867 0.39189197039406398 0 -0.035119244231161667 0.3919263254503374 0 -0.044078893414308491 0.38133728730783922 0 -0.035119244231161667 0.3919263254503374 0 -0.044078893414308491 0.38133728730783922 0 -0.034356909958003279 0.37864986700008813 0 -0.029983520936423341 0.37247799575402468 0 -0.034356909958003279 0.37864986700008813 0 -0.019905199879993309 0.38472639296544192 0 -0.028918887040473278 0.37018539154124919 0 -0.029983520936423341 0.37247799575402468 0 -0.019905199879993309 0.38472639296544192 0 -0.028918887040473278 0.37018539154124919 0 -0.019905199879993309 0.38472639296544192 0 -0.025981249380106639 0.37268945321959879 0 -0.028918887040473278 0.37018539154124919 0 -0.019905199879993309 0.38472639296544192 0 -0.029983520936423341 0.37247799575402468 0 -0.019905199879993309 0.38472639296544192 0 -0.025981249380106639 0.37268945321959879 0 -0.016635104969755551 0.37773279851226532 0 -0.019905199879993309 0.38472639296544192 0 -0.035119244231161667 0.3919263254503374 0 -0.034356909958003279 0.37864986700008813 0 -0.019905199879993309 0.38472639296544192 0 -0.035119244231161667 0.3919263254503374 0 -0.019905199879993309 0.38472639296544192 0 -0.02338866201071246 0.40167223394549068 0 -0.019905199879993309 0.38472639296544192 0 -0.02338866201071246 0.40167223394549068 0 -0.016015075473542709 0.40029117329644509 0 -0.035119244231161667 0.3919263254503374 0 -0.034235622300795389 0.40504648476626981 0 -0.02338866201071246 0.40167223394549068 0 -0.02338866201071246 0.40167223394549068 0 -0.016015075473542709 0.40029117329644509 0 -0.01421804420639159 0.40849229722075342 0 -0.019905199879993309 0.38472639296544192 0 -0.0051115870550579026 0.40270538421380281 0 -0.019905199879993309 0.38472639296544192 0 -0.00654839579707347 0.40627376905409451 0 -0.019905199879993309 0.38472639296544192 0 -0.0051115870550579026 0.40270538421380281 0 -0.0058383104565521487 0.38842434075647703 0 -0.019905199879993309 0.38472639296544192 0 -0.016015075473542709 0.40029117329644509 0 -0.00654839579707347 0.40627376905409451 0 -0.019905199879993309 0.38472639296544192 0 -0.0051115870550579026 0.40270538421380281 0 -0.00654839579707347 0.40627376905409451 0 -0.016015075473542709 0.40029117329644509 0 -0.00654839579707347 0.40627376905409451 0 -0.01421804420639159 0.40849229722075342 0 -0.0051115870550579026 0.40270538421380281 0 -0.0058383104565521487 0.38842434075647703 0 0.0046286310766693031 0.39387987339415009 0 -0.0058383104565521487 0.38842434075647703 0 -0.010262283192800301 0.38074413332959922 0 0.0016991597321124371 0.37954553274575858 0 -0.01015141446243099 0.37225082740078858 0 -0.010262283192800301 0.38074413332959922 0 0.0016991597321124371 0.37954553274575858 0 -0.016635104969755551 0.37773279851226532 0 -0.019905199879993309 0.38472639296544192 0 -0.010262283192800301 0.38074413332959922 0 -0.01015141446243099 0.37225082740078858 0 -0.016635104969755551 0.37773279851226532 0 -0.010262283192800301 0.38074413332959922 0 -0.019905199879993309 0.38472639296544192 0 -0.0058383104565521487 0.38842434075647703 0 -0.010262283192800301 0.38074413332959922 0 -0.01507772493403029 0.42541439585725538 0 -0.013955642727995821 0.43605305908892272 0 -0.0049645001103141243 0.42800246128872799 0 -0.013955642727995821 0.43605305908892272 0 -0.0049645001103141243 0.42800246128872799 0 -0.00085659373153767517 0.43893874695334101 0 -0.01507772493403029 0.42541439585725538 0 -0.0049645001103141243 0.42800246128872799 0 -0.0026794566568588561 0.41622693950761008 0 -0.0049645001103141243 0.42800246128872799 0 -0.0026794566568588561 0.41622693950761008 0 0.0068084082858462366 0.42782114514274722 0 -0.0051115870550579026 0.40270538421380281 0 -0.00654839579707347 0.40627376905409451 0 0.0096820257698774989 0.42068437546216347 0 -0.00654839579707347 0.40627376905409451 0 -0.0026794566568588561 0.41622693950761008 0 0.0068084082858462366 0.42782114514274722 0 -0.0026794566568588561 0.41622693950761008 0 -0.024950093319470099 0.41593927545128212 0 -0.0026794566568588561 0.41622693950761008 0 -0.01421804420639159 0.40849229722075342 0 -0.024950093319470099 0.41593927545128212 0 -0.01507772493403029 0.42541439585725538 0 -0.0026794566568588561 0.41622693950761008 0 -0.024950093319470099 0.41593927545128212 0 -0.00654839579707347 0.40627376905409451 0 -0.0026794566568588561 0.41622693950761008 0 -0.01421804420639159 0.40849229722075342 0 -0.02338866201071246 0.40167223394549068 0 -0.01421804420639159 0.40849229722075342 0 -0.024950093319470099 0.41593927545128212 0 -0.034235622300795389 0.40504648476626981 0 -0.02338866201071246 0.40167223394549068 0 -0.024950093319470099 0.41593927545128212 0 -0.01507772493403029 0.42541439585725538 0 -0.024950093319470099 0.41593927545128212 0 -0.028838931855512558 0.43085024394973398 0 -0.01507772493403029 0.42541439585725538 0 -0.013955642727995821 0.43605305908892272 0 -0.028838931855512558 0.43085024394973398 0 -0.028838931855512558 0.43085024394973398 0 -0.047220729982081287 0.4156516113949541 0 -0.042209801009313402 0.44088508856626107 0 -0.024950093319470099 0.41593927545128212 0 -0.047220729982081287 0.4156516113949541 0 -0.024950093319470099 0.41593927545128212 0 -0.028838931855512558 0.43085024394973398 0 -0.047220729982081287 0.4156516113949541 0 -0.034235622300795389 0.40504648476626981 0 -0.024950093319470099 0.41593927545128212 0 -0.047220729982081287 0.4156516113949541 0 -0.044350218289820893 0.40128569416870907 0 -0.034235622300795389 0.40504648476626981 0 -0.047220729982081287 0.4156516113949541 0 -0.069491366644692493 0.41536394733862531 0 -0.047220729982081287 0.4156516113949541 0 -0.069491366644692493 0.41536394733862531 0 -0.058188462088832132 0.40253343712763212 0 -0.047220729982081287 0.4156516113949541 0 -0.069491366644692493 0.41536394733862531 0 -0.047220729982081287 0.4156516113949541 0 -0.058463373450948097 0.42381677415014302 0 -0.058188462088832132 0.40253343712763212 0 -0.044350218289820893 0.40128569416870907 0 -0.047220729982081287 0.4156516113949541 0 -0.047220729982081287 0.4156516113949541 0 -0.053994218696215873 0.43192493401550991 0 -0.042209801009313402 0.44088508856626107 0 -0.047220729982081287 0.4156516113949541 0 -0.053994218696215873 0.43192493401550991 0 -0.058463373450948097 0.42381677415014302 0 -0.066111259444932319 0.4354174963177414 0 -0.053994218696215873 0.43192493401550991 0 -0.055965929593804253 0.44385369964844962 0 -0.066111259444932319 0.4354174963177414 0 -0.053994218696215873 0.43192493401550991 0 -0.058463373450948097 0.42381677415014302 0 -0.066111259444932319 0.4354174963177414 0 -0.055965929593804253 0.44385369964844962 0 -0.062731152245172284 0.45547104529685728 0 -0.055965929593804253 0.44385369964844962 0 -0.050072281959076287 0.45227278029205281 0 -0.062731152245172284 0.45547104529685728 0 -0.055965929593804253 0.44385369964844962 0 -0.050072281959076287 0.45227278029205281 0 -0.042209801009313402 0.44088508856626107 0 -0.053994218696215873 0.43192493401550991 0 -0.055965929593804253 0.44385369964844962 0 -0.042209801009313402 0.44088508856626107 0 -0.059351045045412332 0.47552459427597321 0 -0.062731152245172284 0.45547104529685728 0 -0.051210073020453488 0.46384076045341921 0 -0.059351045045412332 0.47552459427597321 0 -0.062731152245172284 0.45547104529685728 0 -0.050072281959076287 0.45227278029205281 0 -0.051210073020453488 0.46384076045341921 0 -0.062731152245172284 0.45547104529685728 0 -0.038244453926638028 0.45731330749527688 0 -0.019407426997949132 0.46800857565709741 0 -0.039379236021681037 0.47176658496653351 0 -0.051210073020453488 0.46384076045341921 0 -0.038244453926638028 0.45731330749527688 0 -0.039379236021681037 0.47176658496653351 0 -0.050072281959076287 0.45227278029205281 0 -0.051210073020453488 0.46384076045341921 0 -0.038244453926638028 0.45731330749527688 0 -0.038244453926638028 0.45731330749527688 0 -0.042209801009313402 0.44088508856626107 0 -0.025381470488679839 0.44690805033303632 0 -0.050072281959076287 0.45227278029205281 0 -0.038244453926638028 0.45731330749527688 0 -0.042209801009313402 0.44088508856626107 0 -0.028838931855512558 0.43085024394973398 0 -0.042209801009313402 0.44088508856626107 0 -0.025381470488679839 0.44690805033303632 0 -0.013955642727995821 0.43605305908892272 0 -0.028838931855512558 0.43085024394973398 0 -0.025381470488679839 0.44690805033303632 0 -0.013955642727995821 0.43605305908892272 0 -0.025381470488679839 0.44690805033303632 0 -0.0099760964133002589 0.44888424519994929 0 -0.038244453926638028 0.45731330749527688 0 -0.025381470488679839 0.44690805033303632 0 -0.019407426997949132 0.46800857565709741 0 -0.025381470488679839 0.44690805033303632 0 -0.019407426997949132 0.46800857565709741 0 -0.0099760964133002589 0.44888424519994929 0 -0.019407426997949132 0.46800857565709741 0 -0.0062179193122818468 0.46262535980993602 0 -0.0099760964133002589 0.44888424519994929 0 -0.0062179193122818468 0.46262535980993602 0 -0.0099760964133002589 0.44888424519994929 0 0.0043144051270178176 0.45472756546099208 0 -0.00085659373153767517 0.43893874695334101 0 -0.0099760964133002589 0.44888424519994929 0 0.0043144051270178176 0.45472756546099208 0 -0.013955642727995821 0.43605305908892272 0 -0.00085659373153767517 0.43893874695334101 0 -0.0099760964133002589 0.44888424519994929 0 -0.0098159050808084292 0.5 0 -0.026393167945906709 0.48583184462959861 0 0.002158897103366377 0.47666983883055269 0 -0.019407426997949132 0.46800857565709741 0 -0.0062179193122818468 0.46262535980993602 0 0.002158897103366377 0.47666983883055269 0 -0.019407426997949132 0.46800857565709741 0 -0.026393167945906709 0.48583184462959861 0 0.002158897103366377 0.47666983883055269 0 -0.019407426997949132 0.46800857565709741 0 -0.026393167945906709 0.48583184462959861 0 -0.039379236021681037 0.47176658496653351 0 -0.019407426997949132 0.46800857565709741 0 -0.039379236021681037 0.47176658496653351 0 -0.0098159050808084292 0.5 0 -0.026393167945906709 0.48583184462959861 0 -0.039266895722206097 0.5 0 -0.026393167945906709 0.48583184462959861 0 -0.039266895722206097 0.5 0 -0.044432924828494549 0.48360045523529888 0 -0.026393167945906709 0.48583184462959861 0 -0.044432924828494549 0.48360045523529888 0 -0.039379236021681037 0.47176658496653351 0 -0.051210073020453488 0.46384076045341921 0 -0.039379236021681037 0.47176658496653351 0 -0.059351045045412332 0.47552459427597321 0 -0.039379236021681037 0.47176658496653351 0 -0.059351045045412332 0.47552459427597321 0 -0.044432924828494549 0.48360045523529888 0 -0.039379236021681037 0.47176658496653351 0 -0.059351045045412332 0.47552459427597321 0 -0.044432924828494549 0.48360045523529888 0 -0.059351045045412332 0.47552459427597321 0 -0.057774279407266552 0.48487925230438927 0 -0.059351045045412332 0.47552459427597321 0 -0.057774279407266552 0.48487925230438927 0 -0.039266895722206097 0.5 0 -0.044432924828494549 0.48360045523529888 0 -0.057774279407266552 0.48487925230438927 0 -0.039266895722206097 0.5 0 -0.057774279407266552 0.48487925230438927 0 -0.068717886363603764 0.5 0 -0.057774279407266552 0.48487925230438927 0 -0.068717886363603764 0.5 0 -0.07139197772522568 0.48654405317995369 0 -0.068717886363603764 0.5 0 -0.07139197772522568 0.48654405317995369 0 -0.098168877005001431 0.5 0 -0.07139197772522568 0.48654405317995369 0 -0.083485184616038557 0.48006581140226368 0 -0.098168877005001431 0.5 0 -0.083485184616038557 0.48006581140226368 0 -0.08979005424190642 0.46304604339360572 0 -0.1070060965162494 0.46802879244735263 0 -0.059351045045412332 0.47552459427597321 0 -0.07139197772522568 0.48654405317995369 0 -0.083485184616038557 0.48006581140226368 0 -0.059351045045412332 0.47552459427597321 0 -0.083485184616038557 0.48006581140226368 0 -0.059351045045412332 0.47552459427597321 0 -0.083485184616038557 0.48006581140226368 0 -0.072641448846587145 0.460575027482854 0 -0.059351045045412332 0.47552459427597321 0 -0.057774279407266552 0.48487925230438927 0 -0.07139197772522568 0.48654405317995369 0 -0.059351045045412332 0.47552459427597321 0 -0.072641448846587145 0.460575027482854 0 -0.062731152245172284 0.45547104529685728 0 -0.066111259444932319 0.4354174963177414 0 -0.062731152245172284 0.45547104529685728 0 -0.074373735179408484 0.43792676751729182 0 -0.072641448846587145 0.460575027482854 0 -0.074373735179408484 0.43792676751729182 0 -0.08695534114225098 0.45027946888079862 0 -0.072641448846587145 0.460575027482854 0 -0.062731152245172284 0.45547104529685728 0 -0.074373735179408484 0.43792676751729182 0 -0.072641448846587145 0.460575027482854 0 -0.074373735179408484 0.43792676751729182 0 -0.066111259444932319 0.4354174963177414 0 -0.062731152245172284 0.45547104529685728 0 -0.086505026239451097 0.43728231981613208 0 -0.074373735179408484 0.43792676751729182 0 -0.08695534114225098 0.45027946888079862 0 -0.086505026239451097 0.43728231981613208 0 -0.08695534114225098 0.45027946888079862 0 -0.1000437163130679 0.43848417810030171 0 -0.083485184616038557 0.48006581140226368 0 -0.072641448846587145 0.460575027482854 0 -0.08979005424190642 0.46304604339360572 0 -0.072641448846587145 0.460575027482854 0 -0.08695534114225098 0.45027946888079862 0 -0.08979005424190642 0.46304604339360572 0 -0.08979005424190642 0.46304604339360572 0 -0.1070060965162494 0.46802879244735263 0 -0.1045359519538876 0.45162414842253629 0 -0.08695534114225098 0.45027946888079862 0 -0.08979005424190642 0.46304604339360572 0 -0.1045359519538876 0.45162414842253629 0 -0.08695534114225098 0.45027946888079862 0 -0.1045359519538876 0.45162414842253629 0 -0.1000437163130679 0.43848417810030171 0 -0.1171136872491691 0.43493878815214759 0 -0.1045359519538876 0.45162414842253629 0 -0.1000437163130679 0.43848417810030171 0 -0.1171136872491691 0.43493878815214759 0 -0.1045359519538876 0.45162414842253629 0 -0.1210539563454964 0.45007944702404551 0 -0.13556140962459221 0.44004108295519628 0 -0.1171136872491691 0.43493878815214759 0 -0.1210539563454964 0.45007944702404551 0 -0.1070060965162494 0.46802879244735263 0 -0.1210539563454964 0.45007944702404551 0 -0.1235375556295443 0.4663256329931314 0 -0.1070060965162494 0.46802879244735263 0 -0.1045359519538876 0.45162414842253629 0 -0.1210539563454964 0.45007944702404551 0 -0.1070060965162494 0.46802879244735263 0 -0.1207793097759514 0.47637562759578478 0 -0.1076193241866641 0.48460702852855758 0 -0.13175346375728969 0.48914824565485149 0 -0.1207793097759514 0.47637562759578478 0 -0.1076193241866641 0.48460702852855758 0 -0.1070060965162494 0.46802879244735263 0 -0.1235375556295443 0.4663256329931314 0 -0.1207793097759514 0.47637562759578478 0 -0.1276198676463991 0.5 0 -0.098168877005001431 0.5 0 -0.1076193241866641 0.48460702852855758 0 -0.1276198676463991 0.5 0 -0.13175346375728969 0.48914824565485149 0 -0.1076193241866641 0.48460702852855758 0 -0.13175346375728969 0.48914824565485149 0 -0.1076193241866641 0.48460702852855758 0 -0.083485184616038557 0.48006581140226368 0 -0.098168877005001431 0.5 0 -0.1076193241866641 0.48460702852855758 0 -0.083485184616038557 0.48006581140226368 0 -0.1076193241866641 0.48460702852855758 0 -0.083485184616038557 0.48006581140226368 0 -0.1070060965162494 0.46802879244735263 0 -0.1076193241866641 0.48460702852855758 0 -0.16291591837663261 0.09072456451739927 0 -0.16337967940438439 0.080238656699262501 0 -0.17846052024954409 0.085815934380399805 0 -0.16291591837663261 0.09072456451739927 0 -0.16337967940438439 0.080238656699262501 0 -0.15003080809215569 0.08409523066823836 0 -0.1570456579919487 0.066331894536380748 0 -0.17476264976523301 0.071018410928231634 0 -0.17035575221229959 0.058470148226551028 0 -0.17476264976523301 0.071018410928231634 0 -0.15072850053835651 0.069539143002043391 0 -0.16337967940438439 0.080238656699262501 0 -0.17476264976523301 0.071018410928231634 0 -0.15072850053835651 0.069539143002043391 0 -0.1570456579919487 0.066331894536380748 0 -0.17476264976523301 0.071018410928231634 0 -0.15072850053835651 0.069539143002043391 0 -0.17476264976523301 0.071018410928231634 0 -0.17846052024954409 0.085815934380399805 0 -0.19175150680220571 0.075306105309989546 0 -0.17476264976523301 0.071018410928231634 0 -0.19879679899210961 0.072497678854419934 0 -0.17476264976523301 0.071018410928231634 0 -0.17035575221229959 0.058470148226551028 0 -0.18736245529492149 0.062290225335229092 0 -0.17476264976523301 0.071018410928231634 0 -0.18736245529492149 0.062290225335229092 0 -0.19879679899210961 0.072497678854419934 0 -0.16337967940438439 0.080238656699262501 0 -0.17476264976523301 0.071018410928231634 0 -0.17846052024954409 0.085815934380399805 0 -0.17846052024954409 0.085815934380399805 0 -0.1873528755410932 0.098516536583886469 0 -0.19357428176136859 0.086703775342432024 0 -0.17846052024954409 0.085815934380399805 0 -0.1873528755410932 0.098516536583886469 0 -0.1704656894384021 0.10778789052988021 0 -0.1873528755410932 0.098516536583886469 0 -0.1704656894384021 0.10778789052988021 0 -0.19031642460930229 0.117392510386436 0 -0.1704656894384021 0.10778789052988021 0 -0.19031642460930229 0.117392510386436 0 -0.16822649156373681 0.13343210287057619 0 -0.1704656894384021 0.10778789052988021 0 -0.14976048667201519 0.1224066337179356 0 -0.16822649156373681 0.13343210287057619 0 -0.1704656894384021 0.10778789052988021 0 -0.1549179814870052 0.10402155530601551 0 -0.14976048667201519 0.1224066337179356 0 -0.16291591837663261 0.09072456451739927 0 -0.1704656894384021 0.10778789052988021 0 -0.1549179814870052 0.10402155530601551 0 -0.16291591837663261 0.09072456451739927 0 -0.17846052024954409 0.085815934380399805 0 -0.1704656894384021 0.10778789052988021 0 -0.1549179814870052 0.10402155530601551 0 -0.14037461147854871 0.097017337523242916 0 -0.15003080809215569 0.08409523066823836 0 -0.1549179814870052 0.10402155530601551 0 -0.13129448178029141 0.1113811645652984 0 -0.14037461147854871 0.097017337523242916 0 -0.1549179814870052 0.10402155530601551 0 -0.14976048667201519 0.1224066337179356 0 -0.13129448178029141 0.1113811645652984 0 -0.14976048667201519 0.1224066337179356 0 -0.13129448178029141 0.1113811645652984 0 -0.14976048667201519 0.1224066337179356 0 -0.13129448178029141 0.1113811645652984 0 -0.1357926887496792 0.12519306973963851 0 -0.13129448178029141 0.1113811645652984 0 -0.1357926887496792 0.12519306973963851 0 -0.1234209741501253 0.123579871801461 0 -0.13129448178029141 0.1113811645652984 0 -0.14037461147854871 0.097017337523242916 0 -0.12605659733652211 0.098383887347947896 0 -0.14037461147854871 0.097017337523242916 0 -0.12605659733652211 0.098383887347947896 0 -0.13018217052453371 0.089911949302351371 0 -0.13018217052453371 0.089911949302351371 0 -0.13728814913483661 0.076362868187552752 0 -0.117379344710743 0.086470655259734588 0 -0.13728814913483661 0.076362868187552752 0 -0.117379344710743 0.086470655259734588 0 -0.14037461147854871 0.097017337523242916 0 -0.13018217052453371 0.089911949302351371 0 -0.13728814913483661 0.076362868187552752 0 -0.13728814913483661 0.076362868187552752 0 -0.13086536968558871 0.073375436390601317 0 -0.117379344710743 0.086470655259734588 0 -0.14037461147854871 0.097017337523242916 0 -0.13728814913483661 0.076362868187552752 0 -0.16291591837663261 0.09072456451739927 0 -0.1549179814870052 0.10402155530601551 0 -0.15003080809215569 0.08409523066823836 0 -0.14037461147854871 0.097017337523242916 0 -0.15003080809215569 0.08409523066823836 0 -0.13728814913483661 0.076362868187552752 0 -0.1570456579919487 0.066331894536380748 0 -0.15072850053835651 0.069539143002043391 0 -0.15113200072984781 0.060526302131311299 0 -0.15072850053835651 0.069539143002043391 0 -0.15113200072984781 0.060526302131311299 0 -0.14361674179495401 0.061073776766224393 0 -0.1570456579919487 0.066331894536380748 0 -0.15072850053835651 0.069539143002043391 0 -0.16337967940438439 0.080238656699262501 0 -0.15003080809215569 0.08409523066823836 0 -0.15072850053835651 0.069539143002043391 0 -0.15003080809215569 0.08409523066823836 0 -0.15072850053835651 0.069539143002043391 0 -0.13728814913483661 0.076362868187552752 0 -0.15072850053835651 0.069539143002043391 0 -0.1361342290707146 0.068640886213986563 0 -0.13728814913483661 0.076362868187552752 0 -0.15072850053835651 0.069539143002043391 0 -0.13728814913483661 0.076362868187552752 0 -0.15072850053835651 0.069539143002043391 0 -0.1361342290707146 0.068640886213986563 0 -0.14361674179495401 0.061073776766224393 0 -0.15072850053835651 0.069539143002043391 0 -0.1361342290707146 0.068640886213986563 0 -0.1361342290707146 0.068640886213986563 0 -0.13728814913483661 0.076362868187552752 0 -0.1361342290707146 0.068640886213986563 0 -0.13728814913483661 0.076362868187552752 0 -0.13086536968558871 0.073375436390601317 0 -0.1361342290707146 0.068640886213986563 0 -0.13086536968558871 0.073375436390601317 0 -0.1240288775116101 0.07416428352189007 0 -0.1361342290707146 0.068640886213986563 0 -0.13248998063129111 0.044253737024540447 0 -0.14361674179495401 0.061073776766224393 0 -0.1361342290707146 0.068640886213986563 0 -0.13248998063129111 0.044253737024540447 0 -0.1234520288619631 0.056789454041839237 0 -0.1361342290707146 0.068640886213986563 0 -0.13248998063129111 0.044253737024540447 0 -0.13248998063129111 0.044253737024540447 0 -0.12884573219186721 0.01986658783509444 0 -0.13248998063129111 0.044253737024540447 0 -0.12884573219186721 0.01986658783509444 0 -0.12097966538823469 0.03382201584410828 0 -0.13248998063129111 0.044253737024540447 0 -0.15243519549292231 0.033058690161477902 0 -0.12884573219186721 0.01986658783509444 0 -0.15243519549292231 0.033058690161477902 0 -0.14669883199084771 0.052758155964914032 0 -0.15757027133313189 0.052928540386993912 0 -0.13248998063129111 0.044253737024540447 0 -0.15243519549292231 0.033058690161477902 0 -0.14669883199084771 0.052758155964914032 0 -0.13248998063129111 0.044253737024540447 0 -0.14361674179495401 0.061073776766224393 0 -0.14669883199084771 0.052758155964914032 0 -0.15113200072984781 0.060526302131311299 0 -0.14669883199084771 0.052758155964914032 0 -0.15757027133313189 0.052928540386993912 0 -0.1570456579919487 0.066331894536380748 0 -0.15113200072984781 0.060526302131311299 0 -0.15757027133313189 0.052928540386993912 0 -0.15113200072984781 0.060526302131311299 0 -0.14361674179495401 0.061073776766224393 0 -0.14669883199084771 0.052758155964914032 0 -0.1270076602408961 0.0054890085451015942 0 -0.12884573219186721 0.01986658783509444 0 -0.14417465242012609 0.01060061176279063 0 -0.14422967234624631 -0.01310578201341526 0 -0.1270076602408961 0.0054890085451015942 0 -0.14417465242012609 0.01060061176279063 0 -0.15243519549292231 0.033058690161477902 0 -0.12884573219186721 0.01986658783509444 0 -0.14417465242012609 0.01060061176279063 0 -0.15243519549292231 0.033058690161477902 0 -0.14417465242012609 0.01060061176279063 0 -0.161915684297986 0.0081328403297782435 0 -0.14422967234624631 -0.01310578201341526 0 -0.14417465242012609 0.01060061176279063 0 -0.161915684297986 0.0081328403297782435 0 -0.16333232793836591 -0.0057482787726198551 0 -0.161915684297986 0.0081328403297782435 0 -0.17752245030844591 0.0069133390987278784 0 -0.16333232793836591 -0.0057482787726198551 0 -0.17752245030844591 0.0069133390987278784 0 -0.16333232793836591 -0.0057482787726198551 0 -0.17383021784488911 -0.00087598240050870343 0 -0.17752245030844591 0.0069133390987278784 0 -0.161915684297986 0.0081328403297782435 0 -0.1796016962497255 0.029371462672971849 0 -0.15243519549292231 0.033058690161477902 0 -0.161915684297986 0.0081328403297782435 0 -0.1796016962497255 0.029371462672971849 0 -0.1796016962497255 0.029371462672971849 0 -0.17752245030844591 0.0069133390987278784 0 -0.1878364961859606 0.021177344258382639 0 -0.1796016962497255 0.029371462672971849 0 -0.1910787450263538 0.034607330933971933 0 -0.1878364961859606 0.021177344258382639 0 -0.17383021784488911 -0.00087598240050870343 0 -0.1878364961859606 0.021177344258382639 0 -0.17383021784488911 -0.00087598240050870343 0 -0.17752245030844591 0.0069133390987278784 0 -0.1878364961859606 0.021177344258382639 0 -0.17383021784488911 -0.00087598240050870343 0 -0.19104630947942389 0.01047380165000469 0 -0.1878364961859606 0.021177344258382639 0 -0.161915684297986 0.0081328403297782435 0 -0.1796016962497255 0.029371462672971849 0 -0.17752245030844591 0.0069133390987278784 0 -0.17035575221229959 0.058470148226551028 0 -0.15757027133313189 0.052928540386993912 0 -0.1678490263996463 0.044630170896506033 0 -0.1570456579919487 0.066331894536380748 0 -0.17035575221229959 0.058470148226551028 0 -0.15757027133313189 0.052928540386993912 0 -0.15243519549292231 0.033058690161477902 0 -0.1796016962497255 0.029371462672971849 0 -0.1678490263996463 0.044630170896506033 0 -0.15243519549292231 0.033058690161477902 0 -0.15757027133313189 0.052928540386993912 0 -0.1678490263996463 0.044630170896506033 0 -0.1796016962497255 0.029371462672971849 0 -0.18049132767161161 0.04907441842948472 0 -0.1972877082014651 0.050610085016165568 0 -0.1796016962497255 0.029371462672971849 0 -0.1678490263996463 0.044630170896506033 0 -0.18049132767161161 0.04907441842948472 0 -0.17035575221229959 0.058470148226551028 0 -0.18049132767161161 0.04907441842948472 0 -0.18736245529492149 0.062290225335229092 0 -0.17035575221229959 0.058470148226551028 0 -0.1678490263996463 0.044630170896506033 0 -0.18049132767161161 0.04907441842948472 0 -0.18736245529492149 0.062290225335229092 0 -0.1972877082014651 0.050610085016165568 0 -0.19879679899210961 0.072497678854419934 0 -0.18049132767161161 0.04907441842948472 0 -0.18736245529492149 0.062290225335229092 0 -0.1972877082014651 0.050610085016165568 0 -0.1972877082014651 0.050610085016165568 0 -0.20184277452703209 0.043230670917273888 0 -0.20620530067410839 0.05009960582179529 0 -0.2016831788684835 0.033603599416646562 0 -0.20001254092635881 0.040348910432808187 0 -0.1878364961859606 0.021177344258382639 0 -0.1910787450263538 0.034607330933971933 0 -0.20001254092635881 0.040348910432808187 0 -0.1878364961859606 0.021177344258382639 0 -0.1972877082014651 0.050610085016165568 0 -0.1910787450263538 0.034607330933971933 0 -0.20001254092635881 0.040348910432808187 0 -0.1796016962497255 0.029371462672971849 0 -0.1972877082014651 0.050610085016165568 0 -0.1910787450263538 0.034607330933971933 0 -0.1796016962497255 0.029371462672971849 0 -0.1972877082014651 0.050610085016165568 0 -0.2016831788684835 0.033603599416646562 0 -0.20001254092635881 0.040348910432808187 0 -0.20184277452703209 0.043230670917273888 0 -0.1972877082014651 0.050610085016165568 0 -0.20001254092635881 0.040348910432808187 0 -0.20184277452703209 0.043230670917273888 0 -0.20001254092635881 0.040348910432808187 0 -0.20184277452703209 0.043230670917273888 0 -0.2016831788684835 0.033603599416646562 0 -0.20184277452703209 0.043230670917273888 0 -0.2123200482575435 0.056733397183288112 0 -0.2016831788684835 0.033603599416646562 0 -0.21849186022854031 0.037197087861506488 0 -0.2123200482575435 0.056733397183288112 0 -0.20184277452703209 0.043230670917273888 0 -0.20620530067410839 0.05009960582179529 0 -0.2016831788684835 0.033603599416646562 0 -0.2123200482575435 0.056733397183288112 0 -0.1972877082014651 0.050610085016165568 0 -0.2123200482575435 0.056733397183288112 0 -0.21497372015320571 0.071848707359358471 0 -0.1972877082014651 0.050610085016165568 0 -0.21497372015320571 0.071848707359358471 0 -0.20184277452703209 0.043230670917273888 0 -0.2123200482575435 0.056733397183288112 0 -0.1972877082014651 0.050610085016165568 0 -0.2123200482575435 0.056733397183288112 0 -0.20620530067410839 0.05009960582179529 0 -0.20184277452703209 0.043230670917273888 0 -0.2123200482575435 0.056733397183288112 0 -0.20620530067410839 0.05009960582179529 0 -0.19104630947942389 0.01047380165000469 0 -0.20488257029654081 0.018121545491211699 0 -0.20987163203899811 0.0031202334755927319 0 -0.19771232677283049 -0.0035869177676293379 0 -0.19104630947942389 0.01047380165000469 0 -0.20987163203899811 0.0031202334755927319 0 -0.2016831788684835 0.033603599416646562 0 -0.19104630947942389 0.01047380165000469 0 -0.2016831788684835 0.033603599416646562 0 -0.19104630947942389 0.01047380165000469 0 -0.1878364961859606 0.021177344258382639 0 -0.20001254092635881 0.040348910432808187 0 -0.1878364961859606 0.021177344258382639 0 -0.2016831788684835 0.033603599416646562 0 -0.19104630947942389 0.01047380165000469 0 -0.20488257029654081 0.018121545491211699 0 -0.2016831788684835 0.033603599416646562 0 -0.21849186022854031 0.037197087861506488 0 -0.20488257029654081 0.018121545491211699 0 -0.21849186022854031 0.037197087861506488 0 -0.20488257029654081 0.018121545491211699 0 -0.22426682123207159 0.019484797504832611 0 -0.20488257029654081 0.018121545491211699 0 -0.20987163203899811 0.0031202334755927319 0 -0.22426682123207159 0.019484797504832611 0 -0.20987163203899811 0.0031202334755927319 0 -0.22426682123207159 0.019484797504832611 0 -0.22661941181265161 -0.002192526522613961 0 -0.20987163203899811 0.0031202334755927319 0 -0.22426682123207159 0.019484797504832611 0 -0.22661941181265161 -0.002192526522613961 0 -0.22426682123207159 0.019484797504832611 0 -0.2380175016831092 0.0123456433636914 0 -0.22426682123207159 0.019484797504832611 0 -0.2380175016831092 0.0123456433636914 0 -0.23866201042514501 0.035849361534072498 0 -0.22426682123207159 0.019484797504832611 0 -0.23866201042514501 0.035849361534072498 0 -0.21849186022854031 0.037197087861506488 0 -0.22426682123207159 0.019484797504832611 0 -0.23866201042514501 0.035849361534072498 0 -0.25079421002476948 0.02110945866695265 0 -0.2380175016831092 0.0123456433636914 0 -0.23866201042514501 0.035849361534072498 0 -0.25079421002476948 0.02110945866695265 0 -0.2380175016831092 0.0123456433636914 0 -0.24960084376701569 0.0020560893945085678 0 -0.22661941181265161 -0.002192526522613961 0 -0.2380175016831092 0.0123456433636914 0 -0.24960084376701569 0.0020560893945085678 0 -0.22824038651476419 0.05335240730260643 0 -0.23621911950869531 0.062217690453898543 0 -0.22310878996075351 0.070637531953475802 0 -0.21849186022854031 0.037197087861506488 0 -0.2123200482575435 0.056733397183288112 0 -0.22824038651476419 0.05335240730260643 0 -0.2123200482575435 0.056733397183288112 0 -0.22824038651476419 0.05335240730260643 0 -0.22310878996075351 0.070637531953475802 0 -0.21849186022854031 0.037197087861506488 0 -0.22824038651476419 0.05335240730260643 0 -0.23866201042514501 0.035849361534072498 0 -0.25305719961821771 0.052213925563313057 0 -0.23866201042514501 0.035849361534072498 0 -0.22824038651476419 0.05335240730260643 0 -0.23866201042514501 0.035849361534072498 0 -0.24011014373187911 0.053785701792500737 0 -0.25305719961821771 0.052213925563313057 0 -0.23866201042514501 0.035849361534072498 0 -0.24011014373187911 0.053785701792500737 0 -0.24011014373187911 0.053785701792500737 0 -0.23621911950869531 0.062217690453898543 0 -0.2443720025925735 0.06529512410861317 0 -0.22824038651476419 0.05335240730260643 0 -0.24011014373187911 0.053785701792500737 0 -0.23621911950869531 0.062217690453898543 0 -0.25305719961821771 0.052213925563313057 0 -0.24011014373187911 0.053785701792500737 0 -0.2443720025925735 0.06529512410861317 0 -0.25305719961821771 0.052213925563313057 0 -0.2443720025925735 0.06529512410861317 0 -0.243513844780578 0.067599561642452954 0 -0.23971439066569139 0.081524441277506354 0 -0.22310878996075351 0.070637531953475802 0 -0.25138779661809041 0.077660573920342188 0 -0.243513844780578 0.067599561642452954 0 -0.23971439066569139 0.081524441277506354 0 -0.23621911950869531 0.062217690453898543 0 -0.2443720025925735 0.06529512410861317 0 -0.243513844780578 0.067599561642452954 0 -0.25138779661809041 0.077660573920342188 0 -0.24825070137420599 0.08822620104569498 0 -0.23971439066569139 0.081524441277506354 0 -0.24825070137420599 0.08822620104569498 0 -0.23971439066569139 0.081524441277506354 0 -0.23449629070043099 0.085313325418152952 0 -0.23971439066569139 0.081524441277506354 0 -0.23449629070043099 0.085313325418152952 0 -0.23449629070043099 0.085313325418152952 0 -0.21240635765486671 0.1013529179022945 0 -0.23449629070043099 0.085313325418152952 0 -0.2246038731091422 0.083444488034001257 0 -0.21240635765486671 0.1013529179022945 0 -0.23971439066569139 0.081524441277506354 0 -0.23449629070043099 0.085313325418152952 0 -0.22310878996075351 0.070637531953475802 0 -0.23449629070043099 0.085313325418152952 0 -0.2246038731091422 0.083444488034001257 0 -0.22310878996075351 0.070637531953475802 0 -0.23621911950869531 0.062217690453898543 0 -0.243513844780578 0.067599561642452954 0 -0.22310878996075351 0.070637531953475802 0 -0.243513844780578 0.067599561642452954 0 -0.22310878996075351 0.070637531953475802 0 -0.23449629070043099 0.085313325418152952 0 -0.22310878996075351 0.070637531953475802 0 -0.2246038731091422 0.083444488034001257 0 -0.22310878996075351 0.070637531953475802 0 -0.21899584936740971 0.071249879801787222 0 -0.2246038731091422 0.083444488034001257 0 -0.21899584936740971 0.071249879801787222 0 -0.21840413418618079 0.075968192765451997 0 -0.2246038731091422 0.083444488034001257 0 -0.21899584936740971 0.071249879801787222 0 -0.22310878996075351 0.070637531953475802 0 -0.21899584936740971 0.071249879801787222 0 -0.21497372015320571 0.071848707359358471 0 -0.19175150680220571 0.075306105309989546 0 -0.2123200482575435 0.056733397183288112 0 -0.22310878996075351 0.070637531953475802 0 -0.2123200482575435 0.056733397183288112 0 -0.21899584936740971 0.071249879801787222 0 -0.21497372015320571 0.071848707359358471 0 -0.2123200482575435 0.056733397183288112 0 -0.22310878996075351 0.070637531953475802 0 -0.21899584936740971 0.071249879801787222 0 -0.21497372015320571 0.071848707359358471 0 -0.20274122729919231 0.079789711305644676 0 -0.19175150680220571 0.075306105309989546 0 -0.2123200482575435 0.056733397183288112 0 -0.21899584936740971 0.071249879801787222 0 -0.1972877082014651 0.050610085016165568 0 -0.21497372015320571 0.071848707359358471 0 -0.19879679899210961 0.072497678854419934 0 -0.21497372015320571 0.071848707359358471 0 -0.20947709227975311 0.079926416133435041 0 -0.20274122729919231 0.079789711305644676 0 -0.21497372015320571 0.071848707359358471 0 -0.21840413418618079 0.075968192765451997 0 -0.20947709227975311 0.079926416133435041 0 -0.21899584936740971 0.071249879801787222 0 -0.21497372015320571 0.071848707359358471 0 -0.21899584936740971 0.071249879801787222 0 -0.21497372015320571 0.071848707359358471 0 -0.21840413418618079 0.075968192765451997 0 -0.21497372015320571 0.071848707359358471 0 -0.21840413418618079 0.075968192765451997 0 -0.2246038731091422 0.083444488034001257 0 -0.21207508340843381 0.086642395812071699 0 -0.21240635765486671 0.1013529179022945 0 -0.2246038731091422 0.083444488034001257 0 -0.21840413418618079 0.075968192765451997 0 -0.21207508340843381 0.086642395812071699 0 -0.21840413418618079 0.075968192765451997 0 -0.21207508340843381 0.086642395812071699 0 -0.20947709227975311 0.079926416133435041 0 -0.21207508340843381 0.086642395812071699 0 -0.20392953549942849 0.085163552383008989 0 -0.1999424264124155 0.095961948068354924 0 -0.21207508340843381 0.086642395812071699 0 -0.20947709227975311 0.079926416133435041 0 -0.20392953549942849 0.085163552383008989 0 -0.20947709227975311 0.079926416133435041 0 -0.20392953549942849 0.085163552383008989 0 -0.20274122729919231 0.079789711305644676 0 -0.20392953549942849 0.085163552383008989 0 -0.20274122729919231 0.079789711305644676 0 -0.19357428176136859 0.086703775342432024 0 -0.20274122729919231 0.079789711305644676 0 -0.19357428176136859 0.086703775342432024 0 -0.19175150680220571 0.075306105309989546 0 -0.20392953549942849 0.085163552383008989 0 -0.19357428176136859 0.086703775342432024 0 -0.1999424264124155 0.095961948068354924 0 -0.1873528755410932 0.098516536583886469 0 -0.19357428176136859 0.086703775342432024 0 -0.1999424264124155 0.095961948068354924 0 -0.17846052024954409 0.085815934380399805 0 -0.19357428176136859 0.086703775342432024 0 -0.19175150680220571 0.075306105309989546 0 -0.21497372015320571 0.071848707359358471 0 -0.19879679899210961 0.072497678854419934 0 -0.19175150680220571 0.075306105309989546 0 -0.17476264976523301 0.071018410928231634 0 -0.19879679899210961 0.072497678854419934 0 -0.19175150680220571 0.075306105309989546 0 -0.19031642460930229 0.117392510386436 0 -0.19733843187670891 0.12871387769867759 0 -0.20988795176242289 0.1256141521184749 0 -0.1873528755410932 0.098516536583886469 0 -0.19031642460930229 0.117392510386436 0 -0.1999424264124155 0.095961948068354924 0 -0.19031642460930229 0.117392510386436 0 -0.1999424264124155 0.095961948068354924 0 -0.21240635765486671 0.1013529179022945 0 -0.19031642460930229 0.117392510386436 0 -0.21240635765486671 0.1013529179022945 0 -0.21207508340843381 0.086642395812071699 0 -0.1999424264124155 0.095961948068354924 0 -0.21240635765486671 0.1013529179022945 0 -0.21240635765486671 0.1013529179022945 0 -0.23265503599376611 0.11313427291354911 0 -0.20988795176242289 0.1256141521184749 0 -0.19031642460930229 0.117392510386436 0 -0.21240635765486671 0.1013529179022945 0 -0.20988795176242289 0.1256141521184749 0 -0.23265503599376611 0.11313427291354911 0 -0.2324670395148723 0.13065909379496099 0 -0.20988795176242289 0.1256141521184749 0 -0.23449629070043099 0.085313325418152952 0 -0.21240635765486671 0.1013529179022945 0 -0.23265503599376611 0.11313427291354911 0 -0.25260679664020508 0.108653481505861 0 -0.24825070137420599 0.08822620104569498 0 -0.23449629070043099 0.085313325418152952 0 -0.25260679664020508 0.108653481505861 0 -0.23449629070043099 0.085313325418152952 0 -0.23265503599376611 0.11313427291354911 0 -0.25260679664020508 0.108653481505861 0 -0.23449629070043099 0.085313325418152952 0 -0.25283421434561532 0.1268619838062256 0 -0.25260679664020508 0.108653481505861 0 -0.23265503599376611 0.11313427291354911 0 -0.25283421434561532 0.1268619838062256 0 -0.23265503599376611 0.11313427291354911 0 -0.2324670395148723 0.13065909379496099 0 -0.25283421434561532 0.1268619838062256 0 -0.2324670395148723 0.13065909379496099 0 -0.24100269607741179 0.14240694245720351 0 -0.2324670395148723 0.13065909379496099 0 -0.22595529939514519 0.14527811767935159 0 -0.20988795176242289 0.1256141521184749 0 -0.2324670395148723 0.13065909379496099 0 -0.22595529939514519 0.14527811767935159 0 -0.24100269607741179 0.14240694245720351 0 -0.22595529939514519 0.14527811767935159 0 -0.231173454867457 0.16202761462623419 0 -0.2161659760239108 0.1571711028809758 0 -0.22595529939514519 0.14527811767935159 0 -0.23955977618318039 0.15372156563469869 0 -0.231173454867457 0.16202761462623419 0 -0.25240248588498698 0.15555460702842641 0 -0.25283421434561532 0.1268619838062256 0 -0.24100269607741179 0.14240694245720351 0 -0.22595529939514519 0.14527811767935159 0 -0.23955977618318039 0.15372156563469869 0 -0.24100269607741179 0.14240694245720351 0 -0.25240248588498698 0.15555460702842641 0 -0.23955977618318039 0.15372156563469869 0 -0.24100269607741179 0.14240694245720351 0 -0.24235471514056489 0.16675301891298269 0 -0.23610400162376599 0.17860541561789761 0 -0.231173454867457 0.16202761462623419 0 -0.2519707574243587 0.18424723025062709 0 -0.25240248588498698 0.15555460702842641 0 -0.24235471514056489 0.16675301891298269 0 -0.25240248588498698 0.15555460702842641 0 -0.23955977618318039 0.15372156563469869 0 -0.24235471514056489 0.16675301891298269 0 -0.23955977618318039 0.15372156563469869 0 -0.24235471514056489 0.16675301891298269 0 -0.231173454867457 0.16202761462623419 0 -0.2519707574243587 0.18424723025062709 0 -0.24235471514056489 0.16675301891298269 0 -0.23610400162376599 0.17860541561789761 0 -0.2519707574243587 0.18424723025062709 0 -0.23610400162376599 0.17860541561789761 0 -0.23963364661427169 0.19527779984438889 0 -0.23610400162376599 0.17860541561789761 0 -0.2211179472188729 0.1818129210740452 0 -0.23963364661427169 0.19527779984438889 0 -0.23610400162376599 0.17860541561789761 0 -0.2211179472188729 0.1818129210740452 0 -0.22189042035864859 0.16893882617463721 0 -0.23610400162376599 0.17860541561789761 0 -0.231173454867457 0.16202761462623419 0 -0.22189042035864859 0.16893882617463721 0 -0.231173454867457 0.16202761462623419 0 -0.22189042035864859 0.16893882617463721 0 -0.2161659760239108 0.1571711028809758 0 -0.22189042035864859 0.16893882617463721 0 -0.2161659760239108 0.1571711028809758 0 -0.20489072205923611 0.16507707667403329 0 -0.2161659760239108 0.1571711028809758 0 -0.20489072205923611 0.16507707667403329 0 -0.2072829483320919 0.1545002447345129 0 -0.20489072205923611 0.16507707667403329 0 -0.19914235509069861 0.1501350058169679 0 -0.2072829483320919 0.1545002447345129 0 -0.2211179472188729 0.1818129210740452 0 -0.20489072205923611 0.16507707667403329 0 -0.20504160676702721 0.18158451549648541 0 -0.2211179472188729 0.1818129210740452 0 -0.22189042035864859 0.16893882617463721 0 -0.20489072205923611 0.16507707667403329 0 -0.2211179472188729 0.1818129210740452 0 -0.20489072205923611 0.16507707667403329 0 -0.20504160676702721 0.18158451549648541 0 -0.19115173822744411 0.17181833587142931 0 -0.19454295315371051 0.18946628614312361 0 -0.19115173822744411 0.17181833587142931 0 -0.19454295315371051 0.18946628614312361 0 -0.19115173822744411 0.17181833587142931 0 -0.19454295315371051 0.18946628614312361 0 -0.17968951108412001 0.1814122587150144 0 -0.20489072205923611 0.16507707667403329 0 -0.20504160676702721 0.18158451549648541 0 -0.19115173822744411 0.17181833587142931 0 -0.19115173822744411 0.17181833587142931 0 -0.19360844840922831 0.16045416448983871 0 -0.18776052330117871 0.15417038559973481 0 -0.19115173822744411 0.17181833587142931 0 -0.18776052330117871 0.15417038559973481 0 -0.20489072205923611 0.16507707667403329 0 -0.1886634968995993 0.1483412322740213 0 -0.20489072205923611 0.16507707667403329 0 -0.19360844840922831 0.16045416448983871 0 -0.1886634968995993 0.1483412322740213 0 -0.20489072205923611 0.16507707667403329 0 -0.19115173822744411 0.17181833587142931 0 -0.19360844840922831 0.16045416448983871 0 -0.19360844840922831 0.16045416448983871 0 -0.18776052330117871 0.15417038559973481 0 -0.1886634968995993 0.1483412322740213 0 -0.20489072205923611 0.16507707667403329 0 -0.19914235509069861 0.1501350058169679 0 -0.1886634968995993 0.1483412322740213 0 -0.19914235509069861 0.1501350058169679 0 -0.19723391393107531 0.14016167174830929 0 -0.20893274015452229 0.14561779356607471 0 -0.1886634968995993 0.1483412322740213 0 -0.19723391393107531 0.14016167174830929 0 -0.18699030830802491 0.1379467647833901 0 -0.19914235509069861 0.1501350058169679 0 -0.1886634968995993 0.1483412322740213 0 -0.19723391393107531 0.14016167174830929 0 -0.18962755066146281 0.1316787672372205 0 -0.19723391393107531 0.14016167174830929 0 -0.18699030830802491 0.1379467647833901 0 -0.18962755066146281 0.1316787672372205 0 -0.19733843187670891 0.12871387769867759 0 -0.19723391393107531 0.14016167174830929 0 -0.19031642460930229 0.117392510386436 0 -0.18962755066146281 0.1316787672372205 0 -0.19733843187670891 0.12871387769867759 0 -0.19733843187670891 0.12871387769867759 0 -0.19723391393107531 0.14016167174830929 0 -0.20988795176242289 0.1256141521184749 0 -0.19723391393107531 0.14016167174830929 0 -0.20988795176242289 0.1256141521184749 0 -0.20893274015452229 0.14561779356607471 0 -0.22595529939514519 0.14527811767935159 0 -0.20988795176242289 0.1256141521184749 0 -0.20893274015452229 0.14561779356607471 0 -0.22595529939514519 0.14527811767935159 0 -0.2161659760239108 0.1571711028809758 0 -0.20893274015452229 0.14561779356607471 0 -0.19914235509069861 0.1501350058169679 0 -0.2072829483320919 0.1545002447345129 0 -0.20893274015452229 0.14561779356607471 0 -0.2161659760239108 0.1571711028809758 0 -0.2072829483320919 0.1545002447345129 0 -0.20893274015452229 0.14561779356607471 0 -0.22619871048427209 0.2494817824178984 0 -0.22789496513657831 0.23577570879183099 0 -0.2127637768604009 0.2383622165187792 0 -0.22619871048427209 0.2494817824178984 0 -0.22789496513657831 0.23577570879183099 0 -0.23919820965916641 0.24251427591582181 0 -0.25087986378790578 0.25674789430394418 0 -0.22619871048427209 0.2494817824178984 0 -0.23919820965916641 0.24251427591582181 0 -0.25115398850404869 0.2385295975885435 0 -0.25087986378790578 0.25674789430394418 0 -0.23919820965916641 0.24251427591582181 0 -0.25115398850404869 0.2385295975885435 0 -0.23919820965916641 0.24251427591582181 0 -0.2398635203830283 0.23203639647689159 0 -0.22789496513657831 0.23577570879183099 0 -0.23919820965916641 0.24251427591582181 0 -0.2398635203830283 0.23203639647689159 0 -0.25142811322019359 0.22031130087314299 0 -0.2398635203830283 0.23203639647689159 0 -0.23109295602321339 0.2232556622098272 0 -0.25142811322019359 0.22031130087314299 0 -0.25115398850404869 0.2385295975885435 0 -0.2398635203830283 0.23203639647689159 0 -0.22789496513657831 0.23577570879183099 0 -0.2398635203830283 0.23203639647689159 0 -0.23109295602321339 0.2232556622098272 0 -0.22789496513657831 0.23577570879183099 0 -0.2201894495562873 0.22854053071464159 0 -0.2127637768604009 0.2383622165187792 0 -0.22789496513657831 0.23577570879183099 0 -0.23109295602321339 0.2232556622098272 0 -0.2201894495562873 0.22854053071464159 0 -0.23109295602321339 0.2232556622098272 0 -0.2201894495562873 0.22854053071464159 0 -0.21900262371711149 0.21821147767884799 0 -0.23246639319803289 0.2100296292964694 0 -0.21350467317587191 0.1997479577197962 0 -0.21900262371711149 0.21821147767884799 0 -0.23246639319803289 0.2100296292964694 0 -0.21350467317587191 0.1997479577197962 0 -0.23246639319803289 0.2100296292964694 0 -0.22958005343520599 0.20094359512141219 0 -0.21350467317587191 0.1997479577197962 0 -0.23246639319803289 0.2100296292964694 0 -0.23562076162652479 0.2043867231980134 0 -0.22958005343520599 0.20094359512141219 0 -0.23109295602321339 0.2232556622098272 0 -0.21900262371711149 0.21821147767884799 0 -0.23246639319803289 0.2100296292964694 0 -0.25153902896373131 0.21293985347282809 0 -0.23963364661427169 0.19527779984438889 0 -0.25153902896373131 0.21293985347282809 0 -0.241504189914752 0.20702032248625979 0 -0.23963364661427169 0.19527779984438889 0 -0.25142811322019359 0.22031130087314299 0 -0.23109295602321339 0.2232556622098272 0 -0.23246639319803289 0.2100296292964694 0 -0.25142811322019359 0.22031130087314299 0 -0.23246639319803289 0.2100296292964694 0 -0.25142811322019359 0.22031130087314299 0 -0.23246639319803289 0.2100296292964694 0 -0.241504189914752 0.20702032248625979 0 -0.25153902896373131 0.21293985347282809 0 -0.25142811322019359 0.22031130087314299 0 -0.241504189914752 0.20702032248625979 0 -0.23246639319803289 0.2100296292964694 0 -0.241504189914752 0.20702032248625979 0 -0.23562076162652479 0.2043867231980134 0 -0.241504189914752 0.20702032248625979 0 -0.23562076162652479 0.2043867231980134 0 -0.2373451723785098 0.1985487654740572 0 -0.241504189914752 0.20702032248625979 0 -0.2373451723785098 0.1985487654740572 0 -0.23963364661427169 0.19527779984438889 0 -0.25153902896373131 0.21293985347282809 0 -0.2519707574243587 0.18424723025062709 0 -0.23963364661427169 0.19527779984438889 0 -0.2211179472188729 0.1818129210740452 0 -0.22532550134464449 0.19493584234366701 0 -0.21350467317587191 0.1997479577197962 0 -0.22958005343520599 0.20094359512141219 0 -0.22532550134464449 0.19493584234366701 0 -0.21350467317587191 0.1997479577197962 0 -0.2211179472188729 0.1818129210740452 0 -0.2373451723785098 0.1985487654740572 0 -0.22532550134464449 0.19493584234366701 0 -0.2211179472188729 0.1818129210740452 0 -0.2373451723785098 0.1985487654740572 0 -0.2211179472188729 0.1818129210740452 0 -0.2373451723785098 0.1985487654740572 0 -0.23963364661427169 0.19527779984438889 0 -0.2373451723785098 0.1985487654740572 0 -0.22958005343520599 0.20094359512141219 0 -0.22532550134464449 0.19493584234366701 0 -0.23562076162652479 0.2043867231980134 0 -0.2373451723785098 0.1985487654740572 0 -0.22958005343520599 0.20094359512141219 0 -0.20504160676702721 0.18158451549648541 0 -0.21350467317587191 0.1997479577197962 0 -0.19454295315371051 0.18946628614312361 0 -0.21350467317587191 0.1997479577197962 0 -0.19454295315371051 0.18946628614312361 0 -0.2211179472188729 0.1818129210740452 0 -0.20504160676702721 0.18158451549648541 0 -0.21350467317587191 0.1997479577197962 0 -0.19454295315371051 0.18946628614312361 0 -0.19807688060182141 0.20785691523154221 0 -0.19454295315371051 0.18946628614312361 0 -0.19807688060182141 0.20785691523154221 0 -0.18851822126012349 0.2060051928818995 0 -0.19454295315371051 0.18946628614312361 0 -0.18851822126012349 0.2060051928818995 0 -0.17968951108412001 0.1814122587150144 0 -0.21350467317587191 0.1997479577197962 0 -0.19454295315371051 0.18946628614312361 0 -0.19807688060182141 0.20785691523154221 0 -0.18851822126012349 0.2060051928818995 0 -0.19734693143613241 0.23059812704878269 0 -0.19807688060182141 0.20785691523154221 0 -0.20794506803525009 0.21549550560431591 0 -0.20163730674671429 0.22624245235320731 0 -0.19807688060182141 0.20785691523154221 0 -0.20163730674671429 0.22624245235320731 0 -0.19807688060182141 0.20785691523154221 0 -0.18851822126012349 0.2060051928818995 0 -0.20163730674671429 0.22624245235320731 0 -0.21900262371711149 0.21821147767884799 0 -0.21350467317587191 0.1997479577197962 0 -0.20794506803525009 0.21549550560431591 0 -0.21350467317587191 0.1997479577197962 0 -0.19807688060182141 0.20785691523154221 0 -0.20794506803525009 0.21549550560431591 0 -0.21900262371711149 0.21821147767884799 0 -0.20794506803525009 0.21549550560431591 0 -0.2106026478591124 0.22761087875741459 0 -0.2201894495562873 0.22854053071464159 0 -0.21900262371711149 0.21821147767884799 0 -0.2106026478591124 0.22761087875741459 0 -0.2201894495562873 0.22854053071464159 0 -0.2106026478591124 0.22761087875741459 0 -0.2127637768604009 0.2383622165187792 0 -0.2106026478591124 0.22761087875741459 0 -0.20163730674671429 0.22624245235320731 0 -0.20336257449096051 0.2353637718994688 0 -0.2106026478591124 0.22761087875741459 0 -0.20336257449096051 0.2353637718994688 0 -0.2127637768604009 0.2383622165187792 0 -0.20794506803525009 0.21549550560431591 0 -0.2106026478591124 0.22761087875741459 0 -0.20163730674671429 0.22624245235320731 0 -0.18851822126012349 0.2060051928818995 0 -0.20163730674671429 0.22624245235320731 0 -0.19734693143613241 0.23059812704878269 0 -0.18851822126012349 0.2060051928818995 0 -0.1885758086857148 0.2237798710586836 0 -0.19734693143613241 0.23059812704878269 0 -0.1885758086857148 0.2237798710586836 0 -0.19521300902135211 0.23276452769943781 0 -0.19734693143613241 0.23059812704878269 0 -0.20163730674671429 0.22624245235320731 0 -0.20336257449096051 0.2353637718994688 0 -0.20163730674671429 0.22624245235320731 0 -0.19850114182968071 0.23381325356866969 0 -0.20336257449096051 0.2353637718994688 0 -0.19521300902135211 0.23276452769943781 0 -0.19850114182968071 0.23381325356866969 0 -0.19521300902135211 0.23276452769943781 0 -0.19734693143613241 0.23059812704878269 0 -0.19850114182968071 0.23381325356866969 0 -0.19521300902135211 0.23276452769943781 0 -0.19734693143613241 0.23059812704878269 0 -0.19734693143613241 0.23059812704878269 0 -0.19850114182968071 0.23381325356866969 0 -0.20163730674671429 0.22624245235320731 0 -0.19734693143613241 0.23059812704878269 0 -0.19850114182968071 0.23381325356866969 0 -0.20163730674671429 0.22624245235320731 0 -0.19734693143613241 0.23059812704878269 0 -0.19850114182968071 0.23381325356866969 0 -0.20336257449096051 0.2353637718994688 0 -0.19850114182968071 0.23381325356866969 0 -0.20151755718063619 0.24221567053186019 0 -0.18941354531335161 0.23865225907309329 0 -0.20151755718063619 0.24221567053186019 0 -0.18941354531335161 0.23865225907309329 0 -0.19850114182968071 0.23381325356866969 0 -0.20151755718063619 0.24221567053186019 0 -0.2037327567297374 0.23729020767055839 0 -0.19229582140134549 0.25569309089097891 0 -0.20151755718063619 0.24221567053186019 0 -0.18941354531335161 0.23865225907309329 0 -0.19850114182968071 0.23381325356866969 0 -0.20151755718063619 0.24221567053186019 0 -0.19850114182968071 0.23381325356866969 0 -0.20336257449096051 0.2353637718994688 0 -0.2037327567297374 0.23729020767055839 0 -0.19521300902135211 0.23276452769943781 0 -0.18941354531335161 0.23865225907309329 0 -0.19521300902135211 0.23276452769943781 0 -0.19850114182968071 0.23381325356866969 0 -0.18941354531335161 0.23865225907309329 0 -0.22619871048427209 0.2494817824178984 0 -0.20151755718063619 0.24221567053186019 0 -0.2127637768604009 0.2383622165187792 0 -0.22619871048427209 0.2494817824178984 0 -0.20151755718063619 0.24221567053186019 0 -0.20336257449096051 0.2353637718994688 0 -0.2037327567297374 0.23729020767055839 0 -0.2127637768604009 0.2383622165187792 0 -0.20151755718063619 0.24221567053186019 0 -0.2037327567297374 0.23729020767055839 0 -0.2127637768604009 0.2383622165187792 0 -0.20336257449096051 0.2353637718994688 0 -0.2127637768604009 0.2383622165187792 0 -0.20336257449096051 0.2353637718994688 0 -0.2037327567297374 0.23729020767055839 0 -0.16027387467470561 0.24701005636414519 0 -0.1718778084837603 0.2334897521091612 0 -0.15398921356777029 0.22822336400546159 0 -0.16702091110509501 0.26138570850995507 0 -0.16027387467470561 0.24701005636414519 0 -0.1718778084837603 0.2334897521091612 0 -0.16702091110509501 0.26138570850995507 0 -0.1718778084837603 0.2334897521091612 0 -0.18941354531335161 0.23865225907309329 0 -0.17821722820922309 0.2500189837915241 0 -0.1718778084837603 0.2334897521091612 0 -0.19229582140134549 0.25569309089097891 0 -0.18941354531335161 0.23865225907309329 0 -0.17821722820922309 0.2500189837915241 0 -0.18941354531335161 0.23865225907309329 0 -0.1718778084837603 0.2334897521091612 0 -0.16702091110509501 0.26138570850995507 0 -0.17821722820922309 0.2500189837915241 0 -0.1718778084837603 0.2334897521091612 0 -0.18941354531335161 0.23865225907309329 0 -0.17821722820922309 0.2500189837915241 0 -0.19521300902135211 0.23276452769943781 0 -0.173225073025253 0.22575163660461281 0 -0.19521300902135211 0.23276452769943781 0 -0.18941354531335161 0.23865225907309329 0 -0.173225073025253 0.22575163660461281 0 -0.1885758086857148 0.2237798710586836 0 -0.19521300902135211 0.23276452769943781 0 -0.173225073025253 0.22575163660461281 0 -0.18941354531335161 0.23865225907309329 0 -0.1718778084837603 0.2334897521091612 0 -0.173225073025253 0.22575163660461281 0 -0.1718778084837603 0.2334897521091612 0 -0.173225073025253 0.22575163660461281 0 -0.1718778084837603 0.2334897521091612 0 -0.15398921356777029 0.22822336400546159 0 -0.173225073025253 0.22575163660461281 0 -0.1553936322049794 0.2200644291942174 0 -0.15398921356777029 0.22822336400546159 0 -0.1718778084837603 0.2334897521091612 0 -0.173225073025253 0.22575163660461281 0 -0.15398921356777029 0.22822336400546159 0 -0.173225073025253 0.22575163660461281 0 -0.1553936322049794 0.2200644291942174 0 -0.173225073025253 0.22575163660461281 0 -0.16765685511579109 0.21462351801415641 0 -0.1553936322049794 0.2200644291942174 0 -0.16993616699201919 0.20239057840744601 0 -0.16039016168190001 0.20080203260945681 0 -0.1553936322049794 0.2200644291942174 0 -0.16993616699201919 0.20239057840744601 0 -0.1553936322049794 0.2200644291942174 0 -0.16039016168190001 0.20080203260945681 0 -0.1553936322049794 0.2200644291942174 0 -0.16765685511579109 0.21462351801415641 0 -0.16993616699201919 0.20239057840744601 0 -0.1553936322049794 0.2200644291942174 0 -0.18851822126012349 0.2060051928818995 0 -0.1885758086857148 0.2237798710586836 0 -0.173225073025253 0.22575163660461281 0 -0.173225073025253 0.22575163660461281 0 -0.16765685511579109 0.21462351801415641 0 -0.17814688037363041 0.19748286489727099 0 -0.18851822126012349 0.2060051928818995 0 -0.173225073025253 0.22575163660461281 0 -0.17814688037363041 0.19748286489727099 0 -0.173225073025253 0.22575163660461281 0 -0.17814688037363041 0.19748286489727099 0 -0.16765685511579109 0.21462351801415641 0 -0.17814688037363041 0.19748286489727099 0 -0.16993616699201919 0.20239057840744601 0 -0.17814688037363041 0.19748286489727099 0 -0.1659414729446036 0.18971522731621759 0 -0.17968951108412001 0.1814122587150144 0 -0.18851822126012349 0.2060051928818995 0 -0.17968951108412001 0.1814122587150144 0 -0.18851822126012349 0.2060051928818995 0 -0.17814688037363041 0.19748286489727099 0 -0.17968951108412001 0.1814122587150144 0 -0.1659414729446036 0.18971522731621759 0 -0.16039016168190001 0.20080203260945681 0 -0.149992399716178 0.18682666357827099 0 -0.17814688037363041 0.19748286489727099 0 -0.1659414729446036 0.18971522731621759 0 -0.16993616699201919 0.20239057840744601 0 -0.1659414729446036 0.18971522731621759 0 -0.16993616699201919 0.20239057840744601 0 -0.16039016168190001 0.20080203260945681 0 -0.1478418888973064 0.19965630950198859 0 -0.13284069856261191 0.18986698280368169 0 -0.149992399716178 0.18682666357827099 0 -0.16039016168190001 0.20080203260945681 0 -0.1478418888973064 0.19965630950198859 0 -0.149992399716178 0.18682666357827099 0 -0.1478418888973064 0.19965630950198859 0 -0.13284069856261191 0.18986698280368169 0 -0.13881066169593251 0.21477541224286689 0 -0.13284069856261191 0.18986698280368169 0 -0.13881066169593251 0.21477541224286689 0 -0.13284069856261191 0.18986698280368169 0 -0.1263117160296999 0.2042517149607273 0 -0.13881066169593251 0.21477541224286689 0 -0.1263117160296999 0.2042517149607273 0 -0.13881066169593251 0.21477541224286689 0 -0.1178282951894513 0.21757761841948969 0 -0.16039016168190001 0.20080203260945681 0 -0.15220289560476999 0.2104580579158854 0 -0.1553936322049794 0.2200644291942174 0 -0.13881066169593251 0.21477541224286689 0 -0.1553936322049794 0.2200644291942174 0 -0.13881066169593251 0.21477541224286689 0 -0.15220289560476999 0.2104580579158854 0 -0.1553936322049794 0.2200644291942174 0 -0.1478418888973064 0.19965630950198859 0 -0.13881066169593251 0.21477541224286689 0 -0.15220289560476999 0.2104580579158854 0 -0.16039016168190001 0.20080203260945681 0 -0.1478418888973064 0.19965630950198859 0 -0.15220289560476999 0.2104580579158854 0 -0.13881066169593251 0.21477541224286689 0 -0.1553936322049794 0.2200644291942174 0 -0.14112619712697971 0.22443650220443601 0 -0.1553936322049794 0.2200644291942174 0 -0.15398921356777029 0.22822336400546159 0 -0.1553936322049794 0.2200644291942174 0 -0.14971549833744721 0.22696518564359569 0 -0.14112619712697971 0.22443650220443601 0 -0.1553936322049794 0.2200644291942174 0 -0.15398921356777029 0.22822336400546159 0 -0.14971549833744721 0.22696518564359569 0 -0.1553936322049794 0.2200644291942174 0 -0.14971549833744721 0.22696518564359569 0 -0.15398921356777029 0.22822336400546159 0 -0.14971549833744721 0.22696518564359569 0 -0.1435330965808187 0.2344787895476384 0 -0.15398921356777029 0.22822336400546159 0 -0.14971549833744721 0.22696518564359569 0 -0.14112619712697971 0.22443650220443601 0 -0.1435330965808187 0.2344787895476384 0 -0.14971549833744721 0.22696518564359569 0 -0.14112619712697971 0.22443650220443601 0 -0.1435330965808187 0.2344787895476384 0 -0.14971549833744721 0.22696518564359569 0 -0.1435330965808187 0.2344787895476384 0 -0.14971549833744721 0.22696518564359569 0 -0.14112619712697971 0.22443650220443601 0 -0.13881066169593251 0.21477541224286689 0 -0.14112619712697971 0.22443650220443601 0 -0.1178282951894513 0.21757761841948969 0 -0.14112619712697971 0.22443650220443601 0 -0.1268196666794357 0.23317502235961329 0 -0.1435330965808187 0.2344787895476384 0 -0.14112619712697971 0.22443650220443601 0 -0.1268196666794357 0.23317502235961329 0 -0.1178282951894513 0.21757761841948969 0 -0.13881066169593251 0.21477541224286689 0 -0.14112619712697971 0.22443650220443601 0 -0.14112619712697971 0.22443650220443601 0 -0.1178282951894513 0.21757761841948969 0 -0.12833242077256249 0.252952493068201 0 -0.1480904457365449 0.25349338098482838 0 -0.1435330965808187 0.2344787895476384 0 -0.12833242077256249 0.252952493068201 0 -0.1268196666794357 0.23317502235961329 0 -0.1435330965808187 0.2344787895476384 0 -0.12833242077256249 0.252952493068201 0 -0.1435330965808187 0.2344787895476384 0 -0.1480904457365449 0.25349338098482838 0 -0.15398921356777029 0.22822336400546159 0 -0.1435330965808187 0.2344787895476384 0 -0.1480904457365449 0.25349338098482838 0 -0.1435330965808187 0.2344787895476384 0 -0.1480904457365449 0.25349338098482838 0 -0.16027387467470561 0.24701005636414519 0 -0.15398921356777029 0.22822336400546159 0 -0.1480904457365449 0.25349338098482838 0 -0.15398921356777029 0.22822336400546159 0 -0.16578571832940411 0.1426823589822295 0 -0.17328445896899461 0.14474790900949089 0 -0.17273761470675991 0.1620473088486227 0 -0.16578571832940411 0.1426823589822295 0 -0.16095556816685361 0.15534667148465611 0 -0.17273761470675991 0.1620473088486227 0 -0.16578571832940411 0.1426823589822295 0 -0.17273761470675991 0.1620473088486227 0 -0.16578571832940411 0.1426823589822295 0 -0.16095556816685361 0.15534667148465611 0 -0.15176220805957991 0.1453868877676322 0 -0.16578571832940411 0.1426823589822295 0 -0.16822649156373681 0.13343210287057619 0 -0.15176220805957991 0.1453868877676322 0 -0.16822649156373681 0.13343210287057619 0 -0.15176220805957991 0.1453868877676322 0 -0.14976048667201519 0.1224066337179356 0 -0.16822649156373681 0.13343210287057619 0 -0.16578571832940411 0.1426823589822295 0 -0.16822649156373681 0.13343210287057619 0 -0.17328445896899461 0.14474790900949089 0 -0.19031642460930229 0.117392510386436 0 -0.16822649156373681 0.13343210287057619 0 -0.19031642460930229 0.117392510386436 0 -0.16822649156373681 0.13343210287057619 0 -0.1724362717399624 0.1316053878740093 0 -0.1886634968995993 0.1483412322740213 0 -0.1724362717399624 0.1316053878740093 0 -0.16822649156373681 0.13343210287057619 0 -0.17961868711401149 0.14023402355438219 0 -0.17328445896899461 0.14474790900949089 0 -0.19031642460930229 0.117392510386436 0 -0.18962755066146281 0.1316787672372205 0 -0.1724362717399624 0.1316053878740093 0 -0.1886634968995993 0.1483412322740213 0 -0.1724362717399624 0.1316053878740093 0 -0.18699030830802491 0.1379467647833901 0 -0.16822649156373681 0.13343210287057619 0 -0.17961868711401149 0.14023402355438219 0 -0.1724362717399624 0.1316053878740093 0 -0.16822649156373681 0.13343210287057619 0 -0.17961868711401149 0.14023402355438219 0 -0.1886634968995993 0.1483412322740213 0 -0.17961868711401149 0.14023402355438219 0 -0.1724362717399624 0.1316053878740093 0 -0.18962755066146281 0.1316787672372205 0 -0.1724362717399624 0.1316053878740093 0 -0.18699030830802491 0.1379467647833901 0 -0.1886634968995993 0.1483412322740213 0 -0.17961868711401149 0.14023402355438219 0 -0.17964142240867231 0.15031086434495769 0 -0.17328445896899461 0.14474790900949089 0 -0.17964142240867231 0.15031086434495769 0 -0.17273761470675991 0.1620473088486227 0 -0.17961868711401149 0.14023402355438219 0 -0.17328445896899461 0.14474790900949089 0 -0.17964142240867231 0.15031086434495769 0 -0.18776052330117871 0.15417038559973481 0 -0.1886634968995993 0.1483412322740213 0 -0.17964142240867231 0.15031086434495769 0 -0.18776052330117871 0.15417038559973481 0 -0.17964142240867231 0.15031086434495769 0 -0.18088962755702939 0.1576707547554323 0 -0.19115173822744411 0.17181833587142931 0 -0.18776052330117871 0.15417038559973481 0 -0.18341894981150689 0.16415446022841401 0 -0.18341894981150689 0.16415446022841401 0 -0.17273761470675991 0.1620473088486227 0 -0.17968951108412001 0.1814122587150144 0 -0.18776052330117871 0.15417038559973481 0 -0.18088962755702939 0.1576707547554323 0 -0.18341894981150689 0.16415446022841401 0 -0.17273761470675991 0.1620473088486227 0 -0.17968951108412001 0.1814122587150144 0 -0.17964142240867231 0.15031086434495769 0 -0.18088962755702939 0.1576707547554323 0 -0.17273761470675991 0.1620473088486227 0 -0.18088962755702939 0.1576707547554323 0 -0.18341894981150689 0.16415446022841401 0 -0.17273761470675991 0.1620473088486227 0 -0.19115173822744411 0.17181833587142931 0 -0.18341894981150689 0.16415446022841401 0 -0.17968951108412001 0.1814122587150144 0 -0.19454295315371051 0.18946628614312361 0 -0.17968951108412001 0.1814122587150144 0 -0.1659414729446036 0.18971522731621759 0 -0.15749371781977209 0.16937696568985 0 -0.149992399716178 0.18682666357827099 0 -0.17968951108412001 0.1814122587150144 0 -0.15749371781977209 0.16937696568985 0 -0.1659414729446036 0.18971522731621759 0 -0.17968951108412001 0.1814122587150144 0 -0.15749371781977209 0.16937696568985 0 -0.17273761470675991 0.1620473088486227 0 -0.17968951108412001 0.1814122587150144 0 -0.15749371781977209 0.16937696568985 0 -0.16095556816685361 0.15534667148465611 0 -0.17273761470675991 0.1620473088486227 0 -0.15749371781977209 0.16937696568985 0 -0.15749371781977209 0.16937696568985 0 -0.13529792455542289 0.15734167266468799 0 -0.16095556816685361 0.15534667148465611 0 -0.15749371781977209 0.16937696568985 0 -0.13529792455542289 0.15734167266468799 0 -0.15749371781977209 0.16937696568985 0 -0.1414032339715903 0.17256677540364071 0 -0.13529792455542289 0.15734167266468799 0 -0.13284069856261191 0.18986698280368169 0 -0.149992399716178 0.18682666357827099 0 -0.1414032339715903 0.17256677540364071 0 -0.15749371781977209 0.16937696568985 0 -0.149992399716178 0.18682666357827099 0 -0.1414032339715903 0.17256677540364071 0 -0.13284069856261191 0.18986698280368169 0 -0.1414032339715903 0.17256677540364071 0 -0.12687073542929311 0.16495855336449611 0 -0.13284069856261191 0.18986698280368169 0 -0.12687073542929311 0.16495855336449611 0 -0.13529792455542289 0.15734167266468799 0 -0.12687073542929311 0.16495855336449611 0 -0.1139427801417465 0.17284773205965301 0 -0.1414032339715903 0.17256677540364071 0 -0.13529792455542289 0.15734167266468799 0 -0.12687073542929311 0.16495855336449611 0 -0.13529792455542289 0.15734167266468799 0 -0.1350676331758939 0.14239803272918369 0 -0.1246017505341515 0.145168212325712 0 -0.1350676331758939 0.14239803272918369 0 -0.1246207508181562 0.13812068819029191 0 -0.1246017505341515 0.145168212325712 0 -0.13529792455542289 0.15734167266468799 0 -0.1350676331758939 0.14239803272918369 0 -0.15176220805957991 0.1453868877676322 0 -0.16095556816685361 0.15534667148465611 0 -0.13529792455542289 0.15734167266468799 0 -0.15176220805957991 0.1453868877676322 0 -0.13529792455542289 0.15734167266468799 0 -0.15176220805957991 0.1453868877676322 0 -0.1350676331758939 0.14239803272918369 0 -0.15176220805957991 0.1453868877676322 0 -0.1445088133338705 0.13450345499379501 0 -0.16822649156373681 0.13343210287057619 0 -0.15176220805957991 0.1453868877676322 0 -0.1445088133338705 0.13450345499379501 0 -0.14976048667201519 0.1224066337179356 0 -0.16822649156373681 0.13343210287057619 0 -0.1445088133338705 0.13450345499379501 0 -0.14976048667201519 0.1224066337179356 0 -0.1445088133338705 0.13450345499379501 0 -0.1357926887496792 0.12519306973963851 0 -0.1445088133338705 0.13450345499379501 0 -0.1357926887496792 0.12519306973963851 0 -0.1307214012637273 0.13323082456127819 0 -0.1350676331758939 0.14239803272918369 0 -0.1445088133338705 0.13450345499379501 0 -0.1307214012637273 0.13323082456127819 0 -0.1307214012637273 0.13323082456127819 0 -0.1246207508181562 0.13812068819029191 0 -0.1197120296650608 0.13355431571302681 0 -0.1350676331758939 0.14239803272918369 0 -0.1307214012637273 0.13323082456127819 0 -0.1246207508181562 0.13812068819029191 0 -0.1357926887496792 0.12519306973963851 0 -0.1307214012637273 0.13323082456127819 0 -0.1234209741501253 0.123579871801461 0 -0.1307214012637273 0.13323082456127819 0 -0.1197120296650608 0.13355431571302681 0 -0.1234209741501253 0.123579871801461 0 -0.1197120296650608 0.13355431571302681 0 -0.1126556527405233 0.12871284881070069 0 -0.1234209741501253 0.123579871801461 0 -0.1246207508181562 0.13812068819029191 0 -0.1197120296650608 0.13355431571302681 0 -0.11817742616274 0.13947646441915021 0 -0.1133744705337453 0.13577163915940871 0 -0.1060402747983247 0.13258963729908729 0 -0.1105234149679698 0.143908114382337 0 -0.11817742616274 0.13947646441915021 0 -0.1133744705337453 0.13577163915940871 0 -0.1105234149679698 0.143908114382337 0 -0.1197120296650608 0.13355431571302681 0 -0.11817742616274 0.13947646441915021 0 -0.1133744705337453 0.13577163915940871 0 -0.1197120296650608 0.13355431571302681 0 -0.1133744705337453 0.13577163915940871 0 -0.1126556527405233 0.12871284881070069 0 -0.1133744705337453 0.13577163915940871 0 -0.1126556527405233 0.12871284881070069 0 -0.1060402747983247 0.13258963729908729 0 -0.10716860221959749 0.14370725316545771 0 -0.085748905380516993 0.13047455609998551 0 -0.091689491084771896 0.14481088499665631 0 -0.1060402747983247 0.13258963729908729 0 -0.085748905380516993 0.13047455609998551 0 -0.1017340578322285 0.122134937427861 0 -0.1105234149679698 0.143908114382337 0 -0.085748905380516993 0.13047455609998551 0 -0.10716860221959749 0.14370725316545771 0 -0.1105234149679698 0.143908114382337 0 -0.085748905380516993 0.13047455609998551 0 -0.1126556527405233 0.12871284881070069 0 -0.1060402747983247 0.13258963729908729 0 -0.1017340578322285 0.122134937427861 0 -0.1060402747983247 0.13258963729908729 0 -0.1105234149679698 0.143908114382337 0 -0.085748905380516993 0.13047455609998551 0 -0.10716860221959749 0.14370725316545771 0 -0.088508326882423327 0.15999973218993629 0 -0.091689491084771896 0.14481088499665631 0 -0.10716860221959749 0.14370725316545771 0 -0.11020507659510489 0.15349000645079799 0 -0.088508326882423327 0.15999973218993629 0 -0.10716860221959749 0.14370725316545771 0 -0.088508326882423327 0.15999973218993629 0 -0.10716860221959749 0.14370725316545771 0 -0.11020507659510489 0.15349000645079799 0 -0.1105234149679698 0.143908114382337 0 -0.13529792455542289 0.15734167266468799 0 -0.1105234149679698 0.143908114382337 0 -0.13529792455542289 0.15734167266468799 0 -0.11020507659510489 0.15349000645079799 0 -0.1105234149679698 0.143908114382337 0 -0.13529792455542289 0.15734167266468799 0 -0.1105234149679698 0.143908114382337 0 -0.1246017505341515 0.145168212325712 0 -0.11817742616274 0.13947646441915021 0 -0.1105234149679698 0.143908114382337 0 -0.1246017505341515 0.145168212325712 0 -0.1246207508181562 0.13812068819029191 0 -0.11817742616274 0.13947646441915021 0 -0.1246017505341515 0.145168212325712 0 -0.13529792455542289 0.15734167266468799 0 -0.11020507659510489 0.15349000645079799 0 -0.109527114350112 0.16249325985157179 0 -0.13529792455542289 0.15734167266468799 0 -0.1139427801417465 0.17284773205965301 0 -0.13529792455542289 0.15734167266468799 0 -0.109527114350112 0.16249325985157179 0 -0.1139427801417465 0.17284773205965301 0 -0.13284069856261191 0.18986698280368169 0 -0.1139427801417465 0.17284773205965301 0 -0.1130069198172507 0.19726942905545211 0 -0.13284069856261191 0.18986698280368169 0 -0.12687073542929311 0.16495855336449611 0 -0.1139427801417465 0.17284773205965301 0 -0.1139427801417465 0.17284773205965301 0 -0.101467825284001 0.17133275801606451 0 -0.092587635728070827 0.1883537914546192 0 -0.1139427801417465 0.17284773205965301 0 -0.1130069198172507 0.19726942905545211 0 -0.092587635728070827 0.1883537914546192 0 -0.1139427801417465 0.17284773205965301 0 -0.092587635728070827 0.1883537914546192 0 -0.11020507659510489 0.15349000645079799 0 -0.109527114350112 0.16249325985157179 0 -0.088508326882423327 0.15999973218993629 0 -0.109527114350112 0.16249325985157179 0 -0.101467825284001 0.17133275801606451 0 -0.088508326882423327 0.15999973218993629 0 -0.109527114350112 0.16249325985157179 0 -0.1139427801417465 0.17284773205965301 0 -0.101467825284001 0.17133275801606451 0 -0.101467825284001 0.17133275801606451 0 -0.088508326882423327 0.15999973218993629 0 -0.083750817809620584 0.17276348477594791 0 -0.088508326882423327 0.15999973218993629 0 -0.083750817809620584 0.17276348477594791 0 -0.069848051545249187 0.1762922112144148 0 -0.088508326882423327 0.15999973218993629 0 -0.069848051545249187 0.1762922112144148 0 -0.101467825284001 0.17133275801606451 0 -0.078849178388706115 0.1852532393040722 0 -0.101467825284001 0.17133275801606451 0 -0.078849178388706115 0.1852532393040722 0 -0.092587635728070827 0.1883537914546192 0 -0.101467825284001 0.17133275801606451 0 -0.083750817809620584 0.17276348477594791 0 -0.078849178388706115 0.1852532393040722 0 -0.078849178388706115 0.1852532393040722 0 -0.069848051545249187 0.1762922112144148 0 -0.06377848669032303 0.18817288465585569 0 -0.083750817809620584 0.17276348477594791 0 -0.078849178388706115 0.1852532393040722 0 -0.069848051545249187 0.1762922112144148 0 -0.088508326882423327 0.15999973218993629 0 -0.069848051545249187 0.1762922112144148 0 -0.073303301373764507 0.16407732898479679 0 -0.066792883845325696 0.16177622056438939 0 -0.072335425274864237 0.1514718561692634 0 -0.052713674139319093 0.15721446630884989 0 -0.088508326882423327 0.15999973218993629 0 -0.073303301373764507 0.16407732898479679 0 -0.072335425274864237 0.1514718561692634 0 -0.073303301373764507 0.16407732898479679 0 -0.066792883845325696 0.16177622056438939 0 -0.072335425274864237 0.1514718561692634 0 -0.069848051545249187 0.1762922112144148 0 -0.073303301373764507 0.16407732898479679 0 -0.068094426605651945 0.17084064147021799 0 -0.068094426605651945 0.17084064147021799 0 -0.066792883845325696 0.16177622056438939 0 -0.059343527355541187 0.16522463537537249 0 -0.073303301373764507 0.16407732898479679 0 -0.068094426605651945 0.17084064147021799 0 -0.066792883845325696 0.16177622056438939 0 -0.072335425274864237 0.1514718561692634 0 -0.072028454931854599 0.1368261768274914 0 -0.056912429293975178 0.13714179573575361 0 -0.072028454931854599 0.1368261768274914 0 -0.085748905380516993 0.13047455609998551 0 -0.060974395793064282 0.11704099781763409 0 -0.072028454931854599 0.1368261768274914 0 -0.056912429293975178 0.13714179573575361 0 -0.060974395793064282 0.11704099781763409 0 -0.072028454931854599 0.1368261768274914 0 -0.085748905380516993 0.13047455609998551 0 -0.091689491084771896 0.14481088499665631 0 -0.072335425274864237 0.1514718561692634 0 -0.072028454931854599 0.1368261768274914 0 -0.091689491084771896 0.14481088499665631 0 -0.088508326882423327 0.15999973218993629 0 -0.072335425274864237 0.1514718561692634 0 -0.091689491084771896 0.14481088499665631 0 -0.099382531469479285 0.24470324452999001 0 -0.11228830242510079 0.24153432860216831 0 -0.10426367779170349 0.2270597158083246 0 -0.099382531469479285 0.24470324452999001 0 -0.10426367779170349 0.2270597158083246 0 -0.085548321179496734 0.23157260685311501 0 -0.10946817367181549 0.25274728236480859 0 -0.099382531469479285 0.24470324452999001 0 -0.11228830242510079 0.24153432860216831 0 -0.12833242077256249 0.252952493068201 0 -0.11228830242510079 0.24153432860216831 0 -0.12833242077256249 0.252952493068201 0 -0.1268196666794357 0.23317502235961329 0 -0.11228830242510079 0.24153432860216831 0 -0.12833242077256249 0.252952493068201 0 -0.10946817367181549 0.25274728236480859 0 -0.11228830242510079 0.24153432860216831 0 -0.1268196666794357 0.23317502235961329 0 -0.10426367779170349 0.2270597158083246 0 -0.1178282951894513 0.21757761841948969 0 -0.1268196666794357 0.23317502235961329 0 -0.11228830242510079 0.24153432860216831 0 -0.10426367779170349 0.2270597158083246 0 -0.10426367779170349 0.2270597158083246 0 -0.0945303932519235 0.2107187346345416 0 -0.085548321179496734 0.23157260685311501 0 -0.0945303932519235 0.2107187346345416 0 -0.1178282951894513 0.21757761841948969 0 -0.1130069198172507 0.19726942905545211 0 -0.0945303932519235 0.2107187346345416 0 -0.1178282951894513 0.21757761841948969 0 -0.10426367779170349 0.2270597158083246 0 -0.0945303932519235 0.2107187346345416 0 -0.1178282951894513 0.21757761841948969 0 -0.1263117160296999 0.2042517149607273 0 -0.1178282951894513 0.21757761841948969 0 -0.1130069198172507 0.19726942905545211 0 -0.13284069856261191 0.18986698280368169 0 -0.1263117160296999 0.2042517149607273 0 -0.1130069198172507 0.19726942905545211 0 -0.0945303932519235 0.2107187346345416 0 -0.1130069198172507 0.19726942905545211 0 -0.092587635728070827 0.1883537914546192 0 -0.0945303932519235 0.2107187346345416 0 -0.092587635728070827 0.1883537914546192 0 -0.071232491314397212 0.2038598508495881 0 -0.078849178388706115 0.1852532393040722 0 -0.092587635728070827 0.1883537914546192 0 -0.071232491314397212 0.2038598508495881 0 -0.092587635728070827 0.1883537914546192 0 -0.071232491314397212 0.2038598508495881 0 -0.078849178388706115 0.1852532393040722 0 -0.056230531493411173 0.1991737205920798 0 -0.078849178388706115 0.1852532393040722 0 -0.06377848669032303 0.18817288465585569 0 -0.056230531493411173 0.1991737205920798 0 -0.078849178388706115 0.1852532393040722 0 -0.070582202368024594 0.19154295481297051 0 -0.056230531493411173 0.1991737205920798 0 -0.078849178388706115 0.1852532393040722 0 -0.070582202368024594 0.19154295481297051 0 -0.071232491314397212 0.2038598508495881 0 -0.070582202368024594 0.19154295481297051 0 -0.067674138395800387 0.2028122745828585 0 -0.056230531493411173 0.1991737205920798 0 -0.070582202368024594 0.19154295481297051 0 -0.067674138395800387 0.2028122745828585 0 -0.071232491314397212 0.2038598508495881 0 -0.070582202368024594 0.19154295481297051 0 -0.071232491314397212 0.2038598508495881 0 -0.071232491314397212 0.2038598508495881 0 -0.069291606587026544 0.22384567457758309 0 -0.059695348422104923 0.2122370184055912 0 -0.071232491314397212 0.2038598508495881 0 -0.078145904221191817 0.2146183881136435 0 -0.069291606587026544 0.22384567457758309 0 -0.071232491314397212 0.2038598508495881 0 -0.069291606587026544 0.22384567457758309 0 -0.067674138395800387 0.2028122745828585 0 -0.071232491314397212 0.2038598508495881 0 -0.071232491314397212 0.2038598508495881 0 -0.059695348422104923 0.2122370184055912 0 -0.061405121329818617 0.2049829824105551 0 -0.071232491314397212 0.2038598508495881 0 -0.059695348422104923 0.2122370184055912 0 -0.067674138395800387 0.2028122745828585 0 -0.071232491314397212 0.2038598508495881 0 -0.061405121329818617 0.2049829824105551 0 -0.0945303932519235 0.2107187346345416 0 -0.071232491314397212 0.2038598508495881 0 -0.0945303932519235 0.2107187346345416 0 -0.071232491314397212 0.2038598508495881 0 -0.078145904221191817 0.2146183881136435 0 -0.0945303932519235 0.2107187346345416 0 -0.078145904221191817 0.2146183881136435 0 -0.085548321179496734 0.23157260685311501 0 -0.078145904221191817 0.2146183881136435 0 -0.085548321179496734 0.23157260685311501 0 -0.069291606587026544 0.22384567457758309 0 -0.069291606587026544 0.22384567457758309 0 -0.068527240740731007 0.24297722304075431 0 -0.069291606587026544 0.22384567457758309 0 -0.068527240740731007 0.24297722304075431 0 -0.051111390212177019 0.22819837453994571 0 -0.085548321179496734 0.23157260685311501 0 -0.069291606587026544 0.22384567457758309 0 -0.068527240740731007 0.24297722304075431 0 -0.085374697852045295 0.25727374079415088 0 -0.085548321179496734 0.23157260685311501 0 -0.068527240740731007 0.24297722304075431 0 -0.085374697852045295 0.25727374079415088 0 -0.099382531469479285 0.24470324452999001 0 -0.085548321179496734 0.23157260685311501 0 -0.044327189178686478 0.25476468049421103 0 -0.039011364431154973 0.2340921032666741 0 -0.044327189178686478 0.25476468049421103 0 -0.033265069700240638 0.24658948150263671 0 -0.039011364431154973 0.2340921032666741 0 -0.044327189178686478 0.25476468049421103 0 -0.050655538879475992 0.24062712206401571 0 -0.039011364431154973 0.2340921032666741 0 -0.033265069700240638 0.24658948150263671 0 -0.039011364431154973 0.2340921032666741 0 -0.025633525508839541 0.23158855814307941 0 -0.044327189178686478 0.25476468049421103 0 -0.068527240740731007 0.24297722304075431 0 -0.050655538879475992 0.24062712206401571 0 -0.068527240740731007 0.24297722304075431 0 -0.050655538879475992 0.24062712206401571 0 -0.051111390212177019 0.22819837453994571 0 -0.068527240740731007 0.24297722304075431 0 -0.051111390212177019 0.22819837453994571 0 -0.050655538879475992 0.24062712206401571 0 -0.051111390212177019 0.22819837453994571 0 -0.039011364431154973 0.2340921032666741 0 -0.069291606587026544 0.22384567457758309 0 -0.051111390212177019 0.22819837453994571 0 -0.059695348422104923 0.2122370184055912 0 -0.039011364431154973 0.2340921032666741 0 -0.03010754112114164 0.21525092451799749 0 -0.025633525508839541 0.23158855814307941 0 -0.051111390212177019 0.22819837453994571 0 -0.039011364431154973 0.2340921032666741 0 -0.033611884598115337 0.2130942018800864 0 -0.039011364431154973 0.2340921032666741 0 -0.033611884598115337 0.2130942018800864 0 -0.03010754112114164 0.21525092451799749 0 -0.039011364431154973 0.2340921032666741 0 -0.033611884598115337 0.2130942018800864 0 -0.051111390212177019 0.22819837453994571 0 -0.033611884598115337 0.2130942018800864 0 -0.051111390212177019 0.22819837453994571 0 -0.033611884598115337 0.2130942018800864 0 -0.04909255092021067 0.21411958505038881 0 -0.033611884598115337 0.2130942018800864 0 -0.056230531493411173 0.1991737205920798 0 -0.033611884598115337 0.2130942018800864 0 -0.045852631986365147 0.20899877552702409 0 -0.056230531493411173 0.1991737205920798 0 -0.033611884598115337 0.2130942018800864 0 -0.043389423292625483 0.20343244549360789 0 -0.056230531493411173 0.1991737205920798 0 -0.033611884598115337 0.2130942018800864 0 -0.03010754112114164 0.21525092451799749 0 -0.033611884598115337 0.2130942018800864 0 -0.032527500870901248 0.2088771692633726 0 -0.033611884598115337 0.2130942018800864 0 -0.030464898393038242 0.2106780487787703 0 -0.03010754112114164 0.21525092451799749 0 -0.033611884598115337 0.2130942018800864 0 -0.030464898393038242 0.2106780487787703 0 -0.032527500870901248 0.2088771692633726 0 -0.030464898393038242 0.2106780487787703 0 -0.033611884598115337 0.2130942018800864 0 -0.032527500870901248 0.2088771692633726 0 -0.030464898393038242 0.2106780487787703 0 -0.033611884598115337 0.2130942018800864 0 -0.032527500870901248 0.2088771692633726 0 -0.043389423292625483 0.20343244549360789 0 -0.032527500870901248 0.2088771692633726 0 -0.030547737348978331 0.20117811667172139 0 -0.033611884598115337 0.2130942018800864 0 -0.045852631986365147 0.20899877552702409 0 -0.04909255092021067 0.21411958505038881 0 -0.04909255092021067 0.21411958505038881 0 -0.059695348422104923 0.2122370184055912 0 -0.055107844296782761 0.20774423074024589 0 -0.051111390212177019 0.22819837453994571 0 -0.04909255092021067 0.21411958505038881 0 -0.059695348422104923 0.2122370184055912 0 -0.061405121329818617 0.2049829824105551 0 -0.055107844296782761 0.20774423074024589 0 -0.056230531493411173 0.1991737205920798 0 -0.059695348422104923 0.2122370184055912 0 -0.061405121329818617 0.2049829824105551 0 -0.055107844296782761 0.20774423074024589 0 -0.045852631986365147 0.20899877552702409 0 -0.04909255092021067 0.21411958505038881 0 -0.055107844296782761 0.20774423074024589 0 -0.045852631986365147 0.20899877552702409 0 -0.055107844296782761 0.20774423074024589 0 -0.056230531493411173 0.1991737205920798 0 -0.043389423292625483 0.20343244549360789 0 -0.056230531493411173 0.1991737205920798 0 -0.051187776208075027 0.19258469023889341 0 -0.067674138395800387 0.2028122745828585 0 -0.061405121329818617 0.2049829824105551 0 -0.056230531493411173 0.1991737205920798 0 -0.06377848669032303 0.18817288465585569 0 -0.056230531493411173 0.1991737205920798 0 -0.051187776208075027 0.19258469023889341 0 -0.051187776208075027 0.19258469023889341 0 -0.03964612276765199 0.19729796843744479 0 -0.044321476642653818 0.18655189757579249 0 -0.032527500870901248 0.2088771692633726 0 -0.043389423292625483 0.20343244549360789 0 -0.051187776208075027 0.19258469023889341 0 -0.030547737348978331 0.20117811667172139 0 -0.020548526679655819 0.20226315368136741 0 -0.044321476642653818 0.18655189757579249 0 -0.032527500870901248 0.2088771692633726 0 -0.051187776208075027 0.19258469023889341 0 -0.020548526679655819 0.20226315368136741 0 -0.044321476642653818 0.18655189757579249 0 -0.032527500870901248 0.2088771692633726 0 -0.051187776208075027 0.19258469023889341 0 -0.03964612276765199 0.19729796843744479 0 -0.032527500870901248 0.2088771692633726 0 -0.03964612276765199 0.19729796843744479 0 -0.030547737348978331 0.20117811667172139 0 -0.03964612276765199 0.19729796843744479 0 -0.030547737348978331 0.20117811667172139 0 -0.044321476642653818 0.18655189757579249 0 -0.024315232437064248 0.18770602052726501 0 -0.020548526679655819 0.20226315368136741 0 -0.044321476642653818 0.18655189757579249 0 -0.024315232437064248 0.18770602052726501 0 -0.020548526679655819 0.20226315368136741 0 -0.00080617046592665331 0.18551006481824811 0 -0.020548526679655819 0.20226315368136741 0 -0.0015602628643092611 0.2010491387064765 0 -0.00080617046592665331 0.18551006481824811 0 -0.020548526679655819 0.20226315368136741 0 -0.00080617046592665331 0.18551006481824811 0 -0.020548526679655819 0.20226315368136741 0 -0.015165059484511989 0.21437998450664261 0 0.00056179698415907697 0.21621471215728191 0 -0.020548526679655819 0.20226315368136741 0 -0.0015602628643092611 0.2010491387064765 0 0.00056179698415907697 0.21621471215728191 0 -0.020548526679655819 0.20226315368136741 0 0.00056179698415907697 0.21621471215728191 0 -0.015165059484511989 0.21437998450664261 0 -0.030464898393038242 0.2106780487787703 0 -0.010208609849512841 0.2283640234091508 0 -0.030464898393038242 0.2106780487787703 0 -0.03010754112114164 0.21525092451799749 0 -0.010208609849512841 0.2283640234091508 0 -0.020548526679655819 0.20226315368136741 0 -0.015165059484511989 0.21437998450664261 0 -0.030464898393038242 0.2106780487787703 0 -0.032527500870901248 0.2088771692633726 0 -0.030547737348978331 0.20117811667172139 0 -0.030464898393038242 0.2106780487787703 0 -0.030547737348978331 0.20117811667172139 0 -0.020548526679655819 0.20226315368136741 0 -0.030464898393038242 0.2106780487787703 0 -0.020548526679655819 0.20226315368136741 0 -0.030464898393038242 0.2106780487787703 0 -0.030464898393038242 0.2106780487787703 0 -0.010208609849512841 0.2283640234091508 0 -0.03010754112114164 0.21525092451799749 0 -0.025633525508839541 0.23158855814307941 0 -0.010208609849512841 0.2283640234091508 0 -0.010208609849512841 0.2283640234091508 0 0.0071314278210166913 0.23026998457289971 0 0.00056179698415907697 0.21621471215728191 0 -0.015165059484511989 0.21437998450664261 0 -0.010208609849512841 0.2283640234091508 0 0.00056179698415907697 0.21621471215728191 0 -0.010208609849512841 0.2283640234091508 0 0.01004767869401268 0.2460499980395312 0 -0.010208609849512841 0.2283640234091508 0 -0.0043330685824554648 0.2434028898310768 0 -0.018533892947438371 0.24520268888787281 0 -0.010208609849512841 0.2283640234091508 0 -0.0043330685824554648 0.2434028898310768 0 0.01004767869401268 0.2460499980395312 0 -0.0064195805784558694 0.25571646301748818 0 -0.0043330685824554648 0.2434028898310768 0 0.0012536845682404041 0.25038943113572448 0 -0.0064195805784558694 0.25571646301748818 0 -0.0043330685824554648 0.2434028898310768 0 -0.018533892947438371 0.24520268888787281 0 -0.025633525508839541 0.23158855814307941 0 -0.010208609849512841 0.2283640234091508 0 -0.018533892947438371 0.24520268888787281 0 -0.033265069700240638 0.24658948150263671 0 -0.025633525508839541 0.23158855814307941 0 -0.018533892947438371 0.24520268888787281 0 -0.052713674139319093 0.15721446630884989 0 -0.026538288433657641 0.1494711149202336 0 -0.043330406469540408 0.14090762155185829 0 -0.052713674139319093 0.15721446630884989 0 -0.026538288433657641 0.1494711149202336 0 -0.043330406469540408 0.14090762155185829 0 -0.03402210071942291 0.12691558099056749 0 -0.026538288433657641 0.1494711149202336 0 -0.043330406469540408 0.14090762155185829 0 -0.03402210071942291 0.12691558099056749 0 -0.048669579240668358 0.12651899353191401 0 -0.048669579240668358 0.12651899353191401 0 -0.056912429293975178 0.13714179573575361 0 -0.060974395793064282 0.11704099781763409 0 -0.043330406469540408 0.14090762155185829 0 -0.048669579240668358 0.12651899353191401 0 -0.056912429293975178 0.13714179573575361 0 -0.072335425274864237 0.1514718561692634 0 -0.056912429293975178 0.13714179573575361 0 -0.052713674139319093 0.15721446630884989 0 -0.043330406469540408 0.14090762155185829 0 -0.056912429293975178 0.13714179573575361 0 -0.052713674139319093 0.15721446630884989 0 -0.068094426605651945 0.17084064147021799 0 -0.059343527355541187 0.16522463537537249 0 -0.052063653983060398 0.1726645625156579 0 -0.052713674139319093 0.15721446630884989 0 -0.052063653983060398 0.1726645625156579 0 -0.036485223467600768 0.16995788846552351 0 -0.066792883845325696 0.16177622056438939 0 -0.059343527355541187 0.16522463537537249 0 -0.052713674139319093 0.15721446630884989 0 -0.059343527355541187 0.16522463537537249 0 -0.052713674139319093 0.15721446630884989 0 -0.052063653983060398 0.1726645625156579 0 -0.068094426605651945 0.17084064147021799 0 -0.052063653983060398 0.1726645625156579 0 -0.044321476642653818 0.18655189757579249 0 -0.068094426605651945 0.17084064147021799 0 -0.044321476642653818 0.18655189757579249 0 -0.069848051545249187 0.1762922112144148 0 -0.051187776208075027 0.19258469023889341 0 -0.069848051545249187 0.1762922112144148 0 -0.068094426605651945 0.17084064147021799 0 -0.044321476642653818 0.18655189757579249 0 -0.069848051545249187 0.1762922112144148 0 -0.051187776208075027 0.19258469023889341 0 -0.044321476642653818 0.18655189757579249 0 -0.069848051545249187 0.1762922112144148 0 -0.06377848669032303 0.18817288465585569 0 -0.051187776208075027 0.19258469023889341 0 -0.024315232437064248 0.18770602052726501 0 -0.044321476642653818 0.18655189757579249 0 -0.034234845184032907 0.18039278526497651 0 -0.044321476642653818 0.18655189757579249 0 -0.041776299819336983 0.17739178345548759 0 -0.034234845184032907 0.18039278526497651 0 -0.052063653983060398 0.1726645625156579 0 -0.044321476642653818 0.18655189757579249 0 -0.041776299819336983 0.17739178345548759 0 -0.052063653983060398 0.1726645625156579 0 -0.041776299819336983 0.17739178345548759 0 -0.036485223467600768 0.16995788846552351 0 -0.041776299819336983 0.17739178345548759 0 -0.034234845184032907 0.18039278526497651 0 -0.036485223467600768 0.16995788846552351 0 -0.052713674139319093 0.15721446630884989 0 -0.036485223467600768 0.16995788846552351 0 -0.026538288433657641 0.1494711149202336 0 -0.023536808986761089 0.1645663484568565 0 -0.0065513981512488537 0.1625384461529791 0 -0.026538288433657641 0.1494711149202336 0 -0.036485223467600768 0.16995788846552351 0 -0.023536808986761089 0.1645663484568565 0 -0.026538288433657641 0.1494711149202336 0 -0.023536808986761089 0.1645663484568565 0 -0.02131396633352502 0.17671135233233601 0 -0.0065513981512488537 0.1625384461529791 0 -0.036485223467600768 0.16995788846552351 0 -0.023536808986761089 0.1645663484568565 0 -0.02131396633352502 0.17671135233233601 0 -0.024315232437064248 0.18770602052726501 0 -0.034234845184032907 0.18039278526497651 0 -0.02131396633352502 0.17671135233233601 0 -0.034234845184032907 0.18039278526497651 0 -0.036485223467600768 0.16995788846552351 0 -0.02131396633352502 0.17671135233233601 0 -0.02131396633352502 0.17671135233233601 0 -0.00080617046592665331 0.18551006481824811 0 -0.0065513981512488537 0.1625384461529791 0 -0.024315232437064248 0.18770602052726501 0 -0.02131396633352502 0.17671135233233601 0 -0.00080617046592665331 0.18551006481824811 0 -0.0065513981512488537 0.1625384461529791 0 -0.00036290272799637669 0.1417277635316174 0 -0.026538288433657641 0.1494711149202336 0 -0.00036290272799637669 0.1417277635316174 0 -0.026538288433657641 0.1494711149202336 0 -0.03402210071942291 0.12691558099056749 0 -0.026538288433657641 0.1494711149202336 0 -0.01571508551452671 0.12532791281846131 0 -0.00036290272799637669 0.1417277635316174 0 -0.01571508551452671 0.12532791281846131 0 -9.545565130723651e-05 0.11508968561245959 0 -0.00036290272799637669 0.1417277635316174 0 -0.026538288433657641 0.1494711149202336 0 -0.01571508551452671 0.12532791281846131 0 -0.01571508551452671 0.12532791281846131 0 -9.545565130723651e-05 0.11508968561245959 0 -0.013373285204542191 0.107678814602365 0 -0.013373285204542191 0.107678814602365 0 -0.019623352293370821 0.094198957442108655 0 -0.001369140142595633 0.093026309473403332 0 -9.545565130723651e-05 0.11508968561245959 0 -0.013373285204542191 0.107678814602365 0 -0.001369140142595633 0.093026309473403332 0 -0.019623352293370821 0.094198957442108655 0 -0.033989978043761152 0.093765861506473452 0 -0.032425789964394013 0.1099889869462113 0 -0.013373285204542191 0.107678814602365 0 -0.019623352293370821 0.094198957442108655 0 -0.032425789964394013 0.1099889869462113 0 -0.03402210071942291 0.12691558099056749 0 -0.01571508551452671 0.12532791281846131 0 -0.032425789964394013 0.1099889869462113 0 -0.01571508551452671 0.12532791281846131 0 -0.013373285204542191 0.107678814602365 0 -0.032425789964394013 0.1099889869462113 0 -0.01481028442791074 0.069409371252489929 0 -0.0027143546311693642 0.070219084288717995 0 -0.0078308139493440121 0.060774731025119197 0 -0.01481028442791074 0.069409371252489929 0 -0.017676766441697331 0.059018118145828163 0 -0.0078308139493440121 0.060774731025119197 0 -0.0027143546311693642 0.070219084288717995 0 -0.0078308139493440121 0.060774731025119197 0 0.0040037955735182217 0.057029855989315897 0 -0.0027143546311693642 0.070219084288717995 0 -0.01365458971907384 0.081337511962930778 0 -0.0021053623162286439 0.081401419193926253 0 -0.01481028442791074 0.069409371252489929 0 -0.0027143546311693642 0.070219084288717995 0 -0.01365458971907384 0.081337511962930778 0 -0.019623352293370821 0.094198957442108655 0 -0.01365458971907384 0.081337511962930778 0 -0.001369140142595633 0.093026309473403332 0 -0.01365458971907384 0.081337511962930778 0 -0.0021053623162286439 0.081401419193926253 0 -0.001369140142595633 0.093026309473403332 0 -0.019623352293370821 0.094198957442108655 0 -0.01365458971907384 0.081337511962930778 0 -0.025828149556433321 0.083814636732945313 0 -0.019623352293370821 0.094198957442108655 0 -0.025828149556433321 0.083814636732945313 0 -0.033989978043761152 0.093765861506473452 0 -0.025828149556433321 0.083814636732945313 0 -0.02663291642327989 0.071369356908096523 0 -0.038279544030812657 0.082678350868152062 0 -0.01365458971907384 0.081337511962930778 0 -0.025828149556433321 0.083814636732945313 0 -0.02663291642327989 0.071369356908096523 0 -0.01481028442791074 0.069409371252489929 0 -0.01365458971907384 0.081337511962930778 0 -0.02663291642327989 0.071369356908096523 0 -0.02663291642327989 0.071369356908096523 0 -0.031659465535110773 0.057457550367877842 0 -0.017676766441697331 0.059018118145828163 0 -0.01481028442791074 0.069409371252489929 0 -0.02663291642327989 0.071369356908096523 0 -0.017676766441697331 0.059018118145828163 0 -0.02663291642327989 0.071369356908096523 0 -0.043372856185006241 0.070759379612528969 0 -0.038279544030812657 0.082678350868152062 0 -0.02663291642327989 0.071369356908096523 0 -0.043372856185006241 0.070759379612528969 0 -0.031659465535110773 0.057457550367877842 0 -0.043372856185006241 0.070759379612528969 0 -0.038279544030812657 0.082678350868152062 0 -0.051270384955859498 0.081932840837577445 0 -0.025828149556433321 0.083814636732945313 0 -0.038279544030812657 0.082678350868152062 0 -0.033989978043761152 0.093765861506473452 0 -0.038279544030812657 0.082678350868152062 0 -0.051270384955859498 0.081932840837577445 0 -0.048582979020535898 0.094428029611290709 0 -0.038279544030812657 0.082678350868152062 0 -0.033989978043761152 0.093765861506473452 0 -0.048582979020535898 0.094428029611290709 0 -0.051270384955859498 0.081932840837577445 0 -0.062309755148544518 0.069057856443548477 0 -0.064829584546039529 0.093535692987696109 0 -0.051270384955859498 0.081932840837577445 0 -0.048582979020535898 0.094428029611290709 0 -0.064829584546039529 0.093535692987696109 0 -0.043372856185006241 0.070759379612528969 0 -0.051270384955859498 0.081932840837577445 0 -0.062309755148544518 0.069057856443548477 0 -0.043372856185006241 0.070759379612528969 0 -0.062309755148544518 0.069057856443548477 0 -0.048524814106501959 0.053837743638689192 0 -0.03402210071942291 0.12691558099056749 0 -0.049425842632731219 0.11022563698913181 0 -0.03402210071942291 0.12691558099056749 0 -0.048669579240668358 0.12651899353191401 0 -0.049425842632731219 0.11022563698913181 0 -0.03402210071942291 0.12691558099056749 0 -0.032425789964394013 0.1099889869462113 0 -0.049425842632731219 0.11022563698913181 0 -0.041084840557403843 0.1022186968402936 0 -0.048582979020535898 0.094428029611290709 0 -0.049425842632731219 0.11022563698913181 0 -0.033989978043761152 0.093765861506473452 0 -0.032425789964394013 0.1099889869462113 0 -0.041084840557403843 0.1022186968402936 0 -0.032425789964394013 0.1099889869462113 0 -0.041084840557403843 0.1022186968402936 0 -0.049425842632731219 0.11022563698913181 0 -0.033989978043761152 0.093765861506473452 0 -0.041084840557403843 0.1022186968402936 0 -0.048582979020535898 0.094428029611290709 0 -0.048582979020535898 0.094428029611290709 0 -0.049425842632731219 0.11022563698913181 0 -0.064829584546039529 0.093535692987696109 0 -0.049425842632731219 0.11022563698913181 0 -0.063833165792666569 0.1065376868040359 0 -0.064829584546039529 0.093535692987696109 0 -0.049425842632731219 0.11022563698913181 0 -0.064829584546039529 0.093535692987696109 0 -0.060974395793064282 0.11704099781763409 0 -0.049425842632731219 0.11022563698913181 0 -0.063833165792666569 0.1065376868040359 0 -0.048669579240668358 0.12651899353191401 0 -0.060974395793064282 0.11704099781763409 0 -0.049425842632731219 0.11022563698913181 0 -0.060974395793064282 0.11704099781763409 0 -0.077561735862555242 0.10668622940409769 0 -0.063833165792666569 0.1065376868040359 0 -0.085748905380516993 0.13047455609998551 0 -0.060974395793064282 0.11704099781763409 0 -0.060974395793064282 0.11704099781763409 0 -0.087980165222925427 0.1164035866408622 0 -0.077561735862555242 0.10668622940409769 0 -0.085748905380516993 0.13047455609998551 0 -0.087980165222925427 0.1164035866408622 0 -0.1017340578322285 0.122134937427861 0 -0.085748905380516993 0.13047455609998551 0 -0.060974395793064282 0.11704099781763409 0 -0.087980165222925427 0.1164035866408622 0 -0.087980165222925427 0.1164035866408622 0 -0.077561735862555242 0.10668622940409769 0 -0.097470540286649116 0.096578442331916134 0 -0.077561735862555242 0.10668622940409769 0 -0.082678826881108961 0.092104525101713158 0 -0.097470540286649116 0.096578442331916134 0 -0.077561735862555242 0.10668622940409769 0 -0.097470540286649116 0.096578442331916134 0 -0.077561735862555242 0.10668622940409769 0 -0.064829584546039529 0.093535692987696109 0 -0.082678826881108961 0.092104525101713158 0 -0.077561735862555242 0.10668622940409769 0 -0.063833165792666569 0.1065376868040359 0 -0.064829584546039529 0.093535692987696109 0 -0.064829584546039529 0.093535692987696109 0 -0.080233326459347817 0.076845748986260454 0 -0.062309755148544518 0.069057856443548477 0 -0.064829584546039529 0.093535692987696109 0 -0.080233326459347817 0.076845748986260454 0 -0.064829584546039529 0.093535692987696109 0 -0.080233326459347817 0.076845748986260454 0 -0.082678826881108961 0.092104525101713158 0 -0.062309755148544518 0.069057856443548477 0 -0.080233326459347817 0.076845748986260454 0 -0.079771931984021133 0.054355563683354563 0 -0.080233326459347817 0.076845748986260454 0 -0.095637068372656064 0.060155804984824847 0 -0.080233326459347817 0.076845748986260454 0 -0.095637068372656064 0.060155804984824847 0 -0.079771931984021133 0.054355563683354563 0 -0.080233326459347817 0.076845748986260454 0 -0.098792047137850225 0.079988806423420697 0 -0.095637068372656064 0.060155804984824847 0 -0.080233326459347817 0.076845748986260454 0 -0.082678826881108961 0.092104525101713158 0 -0.098792047137850225 0.079988806423420697 0 -0.082678826881108961 0.092104525101713158 0 -0.098792047137850225 0.079988806423420697 0 -0.097470540286649116 0.096578442331916134 0 -0.098792047137850225 0.079988806423420697 0 -0.117379344710743 0.086470655259734588 0 -0.097470540286649116 0.096578442331916134 0 -0.117379344710743 0.086470655259734588 0 -0.097470540286649116 0.096578442331916134 0 -0.098792047137850225 0.079988806423420697 0 -0.1123866051516131 0.067179253515651571 0 -0.095637068372656064 0.060155804984824847 0 -0.1361342290707146 0.068640886213986563 0 -0.1123866051516131 0.067179253515651571 0 -0.1240288775116101 0.07416428352189007 0 -0.1361342290707146 0.068640886213986563 0 -0.1123866051516131 0.067179253515651571 0 -0.1234520288619631 0.056789454041839237 0 -0.1123866051516131 0.067179253515651571 0 -0.1240288775116101 0.07416428352189007 0 -0.117379344710743 0.086470655259734588 0 -0.098792047137850225 0.079988806423420697 0 -0.1123866051516131 0.067179253515651571 0 -0.117379344710743 0.086470655259734588 0 -0.1361342290707146 0.068640886213986563 0 -0.1123866051516131 0.067179253515651571 0 -0.13086536968558871 0.073375436390601317 0 -0.1240288775116101 0.07416428352189007 0 -0.117379344710743 0.086470655259734588 0 -0.12605659733652211 0.098383887347947896 0 -0.13018217052453371 0.089911949302351371 0 -0.117379344710743 0.086470655259734588 0 -0.13129448178029141 0.1113811645652984 0 -0.1128284768885677 0.10035569541266121 0 -0.11873080033281221 0.1131594122025715 0 -0.12605659733652211 0.098383887347947896 0 -0.117379344710743 0.086470655259734588 0 -0.1128284768885677 0.10035569541266121 0 -0.13129448178029141 0.1113811645652984 0 -0.1128284768885677 0.10035569541266121 0 -0.13129448178029141 0.1113811645652984 0 -0.12605659733652211 0.098383887347947896 0 -0.1128284768885677 0.10035569541266121 0 -0.1128284768885677 0.10035569541266121 0 -0.11873080033281221 0.1131594122025715 0 -0.1100789182510251 0.11342039025334801 0 -0.13129448178029141 0.1113811645652984 0 -0.11873080033281221 0.1131594122025715 0 -0.1234209741501253 0.123579871801461 0 -0.11873080033281221 0.1131594122025715 0 -0.1234209741501253 0.123579871801461 0 -0.113014036499193 0.12109383606837019 0 -0.1126556527405233 0.12871284881070069 0 -0.1234209741501253 0.123579871801461 0 -0.113014036499193 0.12109383606837019 0 -0.11873080033281221 0.1131594122025715 0 -0.113014036499193 0.12109383606837019 0 -0.1100789182510251 0.11342039025334801 0 -0.1100789182510251 0.11342039025334801 0 -0.1019431005189075 0.10984971087700619 0 -0.1017340578322285 0.122134937427861 0 -0.113014036499193 0.12109383606837019 0 -0.1100789182510251 0.11342039025334801 0 -0.1017340578322285 0.122134937427861 0 -0.1126556527405233 0.12871284881070069 0 -0.113014036499193 0.12109383606837019 0 -0.1017340578322285 0.122134937427861 0 -0.087980165222925427 0.1164035866408622 0 -0.1019431005189075 0.10984971087700619 0 -0.1017340578322285 0.122134937427861 0 -0.087980165222925427 0.1164035866408622 0 -0.1019431005189075 0.10984971087700619 0 -0.097470540286649116 0.096578442331916134 0 -0.117379344710743 0.086470655259734588 0 -0.1128284768885677 0.10035569541266121 0 -0.097470540286649116 0.096578442331916134 0 -0.1128284768885677 0.10035569541266121 0 -0.1100789182510251 0.11342039025334801 0 -0.1019431005189075 0.10984971087700619 0 -0.1128284768885677 0.10035569541266121 0 -0.1019431005189075 0.10984971087700619 0 -0.097470540286649116 0.096578442331916134 0 -0.097589560114274554 0.01275818687758217 0 -0.1097856481355473 0.024083799103619769 0 -0.090645867357890264 0.024421879267212249 0 -0.1097856481355473 0.024083799103619769 0 -0.092563636030198543 0.042678589662137938 0 -0.090645867357890264 0.024421879267212249 0 -0.109004284113599 0.0029875152561677238 0 -0.097589560114274554 0.01275818687758217 0 -0.09076148652287061 0.00039294385896961791 0 -0.109004284113599 0.0029875152561677238 0 -0.097589560114274554 0.01275818687758217 0 -0.1097856481355473 0.024083799103619769 0 -0.1198072775707657 -0.0035428438909860371 0 -0.1270076602408961 0.0054890085451015942 0 -0.109004284113599 0.0029875152561677238 0 -0.1270076602408961 0.0054890085451015942 0 -0.1097856481355473 0.024083799103619769 0 -0.1270076602408961 0.0054890085451015942 0 -0.109004284113599 0.0029875152561677238 0 -0.1097856481355473 0.024083799103619769 0 -0.1270076602408961 0.0054890085451015942 0 -0.12884573219186721 0.01986658783509444 0 -0.1097856481355473 0.024083799103619769 0 -0.12884573219186721 0.01986658783509444 0 -0.1097856481355473 0.024083799103619769 0 -0.12097966538823469 0.03382201584410828 0 -0.1097856481355473 0.024083799103619769 0 -0.12097966538823469 0.03382201584410828 0 -0.11279730059423319 0.047083939413178441 0 -0.13248998063129111 0.044253737024540447 0 -0.12097966538823469 0.03382201584410828 0 -0.11279730059423319 0.047083939413178441 0 -0.13248998063129111 0.044253737024540447 0 -0.11279730059423319 0.047083939413178441 0 -0.1234520288619631 0.056789454041839237 0 -0.1123866051516131 0.067179253515651571 0 -0.11279730059423319 0.047083939413178441 0 -0.1234520288619631 0.056789454041839237 0 -0.1123866051516131 0.067179253515651571 0 -0.11279730059423319 0.047083939413178441 0 -0.095637068372656064 0.060155804984824847 0 -0.11279730059423319 0.047083939413178441 0 -0.095637068372656064 0.060155804984824847 0 -0.092563636030198543 0.042678589662137938 0 -0.1097856481355473 0.024083799103619769 0 -0.092563636030198543 0.042678589662137938 0 -0.1097856481355473 0.024083799103619769 0 -0.11279730059423319 0.047083939413178441 0 -0.092563636030198543 0.042678589662137938 0 -0.092563636030198543 0.042678589662137938 0 -0.079771931984021133 0.054355563683354563 0 -0.075256511061819201 0.033146715666499398 0 -0.092563636030198543 0.042678589662137938 0 -0.075256511061819201 0.033146715666499398 0 -0.090645867357890264 0.024421879267212249 0 -0.095637068372656064 0.060155804984824847 0 -0.092563636030198543 0.042678589662137938 0 -0.079771931984021133 0.054355563683354563 0 -0.062309755148544518 0.069057856443548477 0 -0.079771931984021133 0.054355563683354563 0 -0.064398150410977587 0.05007736547261981 0 -0.064398150410977587 0.05007736547261981 0 -0.075256511061819201 0.033146715666499398 0 -0.053972768980153921 0.034130833509787482 0 -0.079771931984021133 0.054355563683354563 0 -0.064398150410977587 0.05007736547261981 0 -0.075256511061819201 0.033146715666499398 0 -0.075256511061819201 0.033146715666499398 0 -0.064298030373779277 0.01580995302798709 0 -0.080667001448385595 0.012446851468453181 0 -0.075256511061819201 0.033146715666499398 0 -0.064298030373779277 0.01580995302798709 0 -0.053972768980153921 0.034130833509787482 0 -0.097589560114274554 0.01275818687758217 0 -0.090645867357890264 0.024421879267212249 0 -0.080667001448385595 0.012446851468453181 0 -0.075256511061819201 0.033146715666499398 0 -0.090645867357890264 0.024421879267212249 0 -0.080667001448385595 0.012446851468453181 0 -0.072867677892725358 -0.0056960314549651548 0 -0.09076148652287061 0.00039294385896961791 0 -0.080667001448385595 0.012446851468453181 0 -0.097589560114274554 0.01275818687758217 0 -0.09076148652287061 0.00039294385896961791 0 -0.080667001448385595 0.012446851468453181 0 -0.072867677892725358 -0.0056960314549651548 0 -0.064298030373779277 0.01580995302798709 0 -0.080667001448385595 0.012446851468453181 0 -0.072867677892725358 -0.0056960314549651548 0 -0.064298030373779277 0.01580995302798709 0 -0.056754197590857008 0.0022484061051966271 0 -0.056754197590857008 0.0022484061051966271 0 -0.050077776808385571 0.01883949071433207 0 -0.039511076852245842 0.0034204325671171889 0 -0.064298030373779277 0.01580995302798709 0 -0.056754197590857008 0.0022484061051966271 0 -0.050077776808385571 0.01883949071433207 0 -0.064298030373779277 0.01580995302798709 0 -0.050077776808385571 0.01883949071433207 0 -0.053972768980153921 0.034130833509787482 0 -0.050077776808385571 0.01883949071433207 0 -0.036063631271118141 0.023080953117398599 0 -0.053972768980153921 0.034130833509787482 0 -0.050077776808385571 0.01883949071433207 0 -0.036063631271118141 0.023080953117398599 0 -0.039511076852245842 0.0034204325671171889 0 -0.036063631271118141 0.023080953117398599 0 -0.039511076852245842 0.0034204325671171889 0 -0.02922259017720269 0.011592874327646951 0 -0.039511076852245842 0.0034204325671171889 0 -0.027135101676566669 0.00097548958815388644 0 -0.02922259017720269 0.011592874327646951 0 -0.062309755148544518 0.069057856443548477 0 -0.064398150410977587 0.05007736547261981 0 -0.048524814106501959 0.053837743638689192 0 -0.064398150410977587 0.05007736547261981 0 -0.048524814106501959 0.053837743638689192 0 -0.053972768980153921 0.034130833509787482 0 -0.036063631271118141 0.023080953117398599 0 -0.053972768980153921 0.034130833509787482 0 -0.035435888379218752 0.041543476425772607 0 -0.048524814106501959 0.053837743638689192 0 -0.053972768980153921 0.034130833509787482 0 -0.035435888379218752 0.041543476425772607 0 -0.048524814106501959 0.053837743638689192 0 -0.035435888379218752 0.041543476425772607 0 -0.031659465535110773 0.057457550367877842 0 -0.043372856185006241 0.070759379612528969 0 -0.048524814106501959 0.053837743638689192 0 -0.031659465535110773 0.057457550367877842 0 -0.035435888379218752 0.041543476425772607 0 -0.031659465535110773 0.057457550367877842 0 -0.019942309010701469 0.04625465066973198 0 -0.031659465535110773 0.057457550367877842 0 -0.017676766441697331 0.059018118145828163 0 -0.019942309010701469 0.04625465066973198 0 -0.036063631271118141 0.023080953117398599 0 -0.035435888379218752 0.041543476425772607 0 -0.020702075672625789 0.03150682309497084 0 -0.035435888379218752 0.041543476425772607 0 -0.019942309010701469 0.04625465066973198 0 -0.020702075672625789 0.03150682309497084 0 -0.019942309010701469 0.04625465066973198 0 -0.020702075672625789 0.03150682309497084 0 -0.0072171044046684214 0.037505046313161143 0 -0.0072171044046684214 0.037505046313161143 0 -0.006962553630887762 0.050496889670781309 0 0.0022149064860116372 0.04407084923788545 0 -0.019942309010701469 0.04625465066973198 0 -0.0072171044046684214 0.037505046313161143 0 -0.006962553630887762 0.050496889670781309 0 -0.017676766441697331 0.059018118145828163 0 -0.019942309010701469 0.04625465066973198 0 -0.006962553630887762 0.050496889670781309 0 -0.006962553630887762 0.050496889670781309 0 0.0040037955735182217 0.057029855989315897 0 0.0022149064860116372 0.04407084923788545 0 -0.006962553630887762 0.050496889670781309 0 -0.0078308139493440121 0.060774731025119197 0 0.0040037955735182217 0.057029855989315897 0 -0.017676766441697331 0.059018118145828163 0 -0.006962553630887762 0.050496889670781309 0 -0.0078308139493440121 0.060774731025119197 0 -0.020419375651676681 0.0067369574427317332 0 -0.020991326224326579 0.01824307176821811 0 -0.011002681221868321 0.011548500244333239 0 -0.020691166216051309 -0.0040443791037982563 0 -0.020419375651676681 0.0067369574427317332 0 -0.027135101676566669 0.00097548958815388644 0 -0.020691166216051309 -0.0040443791037982563 0 -0.020419375651676681 0.0067369574427317332 0 -0.01243404289280208 0.0024010229120926809 0 -0.020419375651676681 0.0067369574427317332 0 -0.027135101676566669 0.00097548958815388644 0 -0.02922259017720269 0.011592874327646951 0 -0.020419375651676681 0.0067369574427317332 0 -0.02922259017720269 0.011592874327646951 0 -0.020991326224326579 0.01824307176821811 0 -0.036063631271118141 0.023080953117398599 0 -0.02922259017720269 0.011592874327646951 0 -0.020991326224326579 0.01824307176821811 0 -0.036063631271118141 0.023080953117398599 0 -0.020702075672625789 0.03150682309497084 0 -0.020991326224326579 0.01824307176821811 0 -0.020702075672625789 0.03150682309497084 0 -0.020991326224326579 0.01824307176821811 0 -0.0091133395240997391 0.02343754540277259 0 -0.020991326224326579 0.01824307176821811 0 -0.0091133395240997391 0.02343754540277259 0 -0.011002681221868321 0.011548500244333239 0 -0.020702075672625789 0.03150682309497084 0 -0.0072171044046684214 0.037505046313161143 0 -0.0091133395240997391 0.02343754540277259 0 -0.0072171044046684214 0.037505046313161143 0 -0.0091133395240997391 0.02343754540277259 0 0.0051685400355623761 0.029825520168575939 0 -0.0091133395240997391 0.02343754540277259 0 0.00079270169857894972 0.014600932552028441 0 0.0051685400355623761 0.029825520168575939 0 -0.0091133395240997391 0.02343754540277259 0 -0.011002681221868321 0.011548500244333239 0 0.00079270169857894972 0.014600932552028441 0 -0.011002681221868321 0.011548500244333239 0 -0.0036174073565606751 0.0035994414650109569 0 0.00079270169857894972 0.014600932552028441 0 -0.01190346157300424 -0.0036268694762264472 0 -0.01243404289280208 0.0024010229120926809 0 -0.0036174073565606751 0.0035994414650109569 0 -0.011002681221868321 0.011548500244333239 0 -0.01243404289280208 0.0024010229120926809 0 -0.0036174073565606751 0.0035994414650109569 0 -0.020419375651676681 0.0067369574427317332 0 -0.011002681221868321 0.011548500244333239 0 -0.01243404289280208 0.0024010229120926809 0 -0.0036174073565606751 0.0035994414650109569 0 0.0048101977232623471 0.0047236435778324742 0 0.0024568228245273188 -0.0058992493484748354 0 -0.0036174073565606751 0.0035994414650109569 0 0.0048101977232623471 0.0047236435778324742 0 0.00079270169857894972 0.014600932552028441 0 0.01391193333841664 0.0059217649024471616 0 0.019587949351128071 0.002405934079128156 0 0.01057394725604094 -0.00023765587989192039 0 0.0048101977232623471 0.0047236435778324742 0 0.01391193333841664 0.0059217649024471616 0 0.01057394725604094 -0.00023765587989192039 0 0.0048101977232623471 0.0047236435778324742 0 0.01391193333841664 0.0059217649024471616 0 0.011959205258540471 0.01613561241694738 0 0.0048101977232623471 0.0047236435778324742 0 0.00079270169857894972 0.014600932552028441 0 0.011959205258540471 0.01613561241694738 0 0.00079270169857894972 0.014600932552028441 0 0.0051685400355623761 0.029825520168575939 0 0.011959205258540471 0.01613561241694738 0 0.0051685400355623761 0.029825520168575939 0 0.011959205258540471 0.01613561241694738 0 0.017688740233385451 0.027718441924381759 0 0.017688740233385451 0.027718441924381759 0 0.025202892310900601 0.013747747124600669 0 0.03565331525629916 0.026040841738459861 0 0.017688740233385451 0.027718441924381759 0 0.025202892310900601 0.013747747124600669 0 0.011959205258540471 0.01613561241694738 0 0.017688740233385451 0.027718441924381759 0 0.025202892310900601 0.013747747124600669 0 0.017688740233385451 0.027718441924381759 0 0.029723580255492831 0.038645317601412023 0 0.03565331525629916 0.026040841738459861 0 0.025202892310900601 0.013747747124600669 0 0.019587949351128071 0.002405934079128156 0 0.032717044388414128 -0.00022294767518126881 0 0.025202892310900601 0.013747747124600669 0 0.032717044388414128 -0.00022294767518126881 0 0.01391193333841664 0.0059217649024471616 0 0.025202892310900601 0.013747747124600669 0 0.019587949351128071 0.002405934079128156 0 0.01391193333841664 0.0059217649024471616 0 0.011959205258540471 0.01613561241694738 0 0.025202892310900601 0.013747747124600669 0 0.014725755390087979 0.05988872561090311 0 0.0040037955735182217 0.057029855989315897 0 0.0084598163284994223 0.068541811941015274 0 0.0040037955735182217 0.057029855989315897 0 0.0022149064860116372 0.04407084923788545 0 0.016081854856533771 0.045496934047592953 0 0.014725755390087979 0.05988872561090311 0 0.0040037955735182217 0.057029855989315897 0 0.016081854856533771 0.045496934047592953 0 0.0051685400355623761 0.029825520168575939 0 0.017688740233385451 0.027718441924381759 0 0.016081854856533771 0.045496934047592953 0 0.0051685400355623761 0.029825520168575939 0 0.0022149064860116372 0.04407084923788545 0 0.016081854856533771 0.045496934047592953 0 -0.0072171044046684214 0.037505046313161143 0 0.0051685400355623761 0.029825520168575939 0 0.0022149064860116372 0.04407084923788545 0 0.017688740233385451 0.027718441924381759 0 0.029723580255492831 0.038645317601412023 0 0.016081854856533771 0.045496934047592953 0 0.029723580255492831 0.038645317601412023 0 0.016081854856533771 0.045496934047592953 0 0.028783184660528659 0.049245094146927119 0 0.014725755390087979 0.05988872561090311 0 0.016081854856533771 0.045496934047592953 0 0.024719626459390749 0.058296603512639787 0 0.016081854856533771 0.045496934047592953 0 0.028783184660528659 0.049245094146927119 0 0.024719626459390749 0.058296603512639787 0 0.028783184660528659 0.049245094146927119 0 0.024719626459390749 0.058296603512639787 0 0.032803486467401118 0.062600452766418832 0 0.038669884907369723 0.050733787445938157 0 0.05258951456807387 0.05169063567814064 0 0.045911161873339962 0.062727861856346739 0 0.038669884907369723 0.050733787445938157 0 0.032803486467401118 0.062600452766418832 0 0.045911161873339962 0.062727861856346739 0 0.028783184660528659 0.049245094146927119 0 0.038669884907369723 0.050733787445938157 0 0.032803486467401118 0.062600452766418832 0 0.029723580255492831 0.038645317601412023 0 0.038669884907369723 0.050733787445938157 0 0.046526987001704691 0.037730952096819308 0 0.029723580255492831 0.038645317601412023 0 0.046526987001704691 0.037730952096819308 0 0.03565331525629916 0.026040841738459861 0 0.038669884907369723 0.050733787445938157 0 0.046526987001704691 0.037730952096819308 0 0.05258951456807387 0.05169063567814064 0 0.029723580255492831 0.038645317601412023 0 0.028783184660528659 0.049245094146927119 0 0.038669884907369723 0.050733787445938157 0 0.046526987001704691 0.037730952096819308 0 0.057810347756094019 0.032818473269482978 0 0.060335016372712477 0.043590078158158171 0 0.046526987001704691 0.037730952096819308 0 0.060335016372712477 0.043590078158158171 0 0.05258951456807387 0.05169063567814064 0 0.060335016372712477 0.043590078158158171 0 0.05258951456807387 0.05169063567814064 0 0.067620817058947486 0.053112721762684993 0 0.05258951456807387 0.05169063567814064 0 0.056985589483321802 0.061895971095616807 0 0.067620817058947486 0.053112721762684993 0 0.05258951456807387 0.05169063567814064 0 0.056985589483321802 0.061895971095616807 0 0.045911161873339962 0.062727861856346739 0 0.038685914346674913 0.01435605241597772 0 0.050579644772147568 0.020256215414396681 0 0.047025321839654959 0.0052983043102026676 0 0.038685914346674913 0.01435605241597772 0 0.047025321839654959 0.0052983043102026676 0 0.032717044388414128 -0.00022294767518126881 0 0.047025321839654959 0.0052983043102026676 0 0.032717044388414128 -0.00022294767518126881 0 0.025202892310900601 0.013747747124600669 0 0.038685914346674913 0.01435605241597772 0 0.032717044388414128 -0.00022294767518126881 0 0.046526987001704691 0.037730952096819308 0 0.03565331525629916 0.026040841738459861 0 0.050579644772147568 0.020256215414396681 0 0.025202892310900601 0.013747747124600669 0 0.038685914346674913 0.01435605241597772 0 0.03565331525629916 0.026040841738459861 0 0.038685914346674913 0.01435605241597772 0 0.03565331525629916 0.026040841738459861 0 0.050579644772147568 0.020256215414396681 0 0.046526987001704691 0.037730952096819308 0 0.057810347756094019 0.032818473269482978 0 0.050579644772147568 0.020256215414396681 0 0.050579644772147568 0.020256215414396681 0 0.061333599290895623 0.01081955629558679 0 0.069667576587648106 0.022869576678334599 0 0.057810347756094019 0.032818473269482978 0 0.050579644772147568 0.020256215414396681 0 0.069667576587648106 0.022869576678334599 0 0.050579644772147568 0.020256215414396681 0 0.061333599290895623 0.01081955629558679 0 0.047025321839654959 0.0052983043102026676 0 0.061333599290895623 0.01081955629558679 0 0.047025321839654959 0.0052983043102026676 0 0.047025321839654959 0.0052983043102026676 0 0.058975878380341823 0.001701104691348615 0 0.054587243132687133 -0.005030141054661607 0 0.061333599290895623 0.01081955629558679 0 0.047025321839654959 0.0052983043102026676 0 0.058975878380341823 0.001701104691348615 0 0.061333599290895623 0.01081955629558679 0 0.071151040616473218 0.01167590153895965 0 0.067610423712539836 -0.0020604952949755742 0 0.061333599290895623 0.01081955629558679 0 0.058975878380341823 0.001701104691348615 0 0.067610423712539836 -0.0020604952949755742 0 0.061333599290895623 0.01081955629558679 0 0.071151040616473218 0.01167590153895965 0 0.069667576587648106 0.022869576678334599 0 0.071151040616473218 0.01167590153895965 0 0.077845831092297979 0.0053110267895053499 0 0.080482693348288614 0.014568849222610661 0 0.071151040616473218 0.01167590153895965 0 0.077845831092297979 0.0053110267895053499 0 0.067610423712539836 -0.0020604952949755742 0 0.077845831092297979 0.0053110267895053499 0 0.087218838477258864 0.0060413693734897092 0 0.082087524036717277 -0.0047761931783755667 0 0.077845831092297979 0.0053110267895053499 0 0.080482693348288614 0.014568849222610661 0 0.087218838477258864 0.0060413693734897092 0 0.093467574477248905 0.014576589189992949 0 0.087218838477258864 0.0060413693734897092 0 0.093940628788715563 0.0062886560966533469 0 0.080482693348288614 0.014568849222610661 0 0.093467574477248905 0.014576589189992949 0 0.087218838477258864 0.0060413693734897092 0 0.087218838477258864 0.0060413693734897092 0 0.091567309821212278 -0.00098424470217601612 0 0.082087524036717277 -0.0047761931783755667 0 0.087218838477258864 0.0060413693734897092 0 0.093940628788715563 0.0062886560966533469 0 0.091567309821212278 -0.00098424470217601612 0 0.083792157369909637 0.025507174681269961 0 0.084903606594731146 0.037104062313560587 0 0.094044238409064965 0.028749247639736301 0 0.093467574477248905 0.014576589189992949 0 0.083792157369909637 0.025507174681269961 0 0.094044238409064965 0.028749247639736301 0 0.080482693348288614 0.014568849222610661 0 0.093467574477248905 0.014576589189992949 0 0.083792157369909637 0.025507174681269961 0 0.083792157369909637 0.025507174681269961 0 0.069667576587648106 0.022869576678334599 0 0.072472801880598778 0.037748199181885787 0 0.071151040616473218 0.01167590153895965 0 0.080482693348288614 0.014568849222610661 0 0.069667576587648106 0.022869576678334599 0 0.080482693348288614 0.014568849222610661 0 0.083792157369909637 0.025507174681269961 0 0.069667576587648106 0.022869576678334599 0 0.057810347756094019 0.032818473269482978 0 0.069667576587648106 0.022869576678334599 0 0.072472801880598778 0.037748199181885787 0 0.072472801880598778 0.037748199181885787 0 0.067620817058947486 0.053112721762684993 0 0.084669073271429876 0.048933405206894903 0 0.057810347756094019 0.032818473269482978 0 0.060335016372712477 0.043590078158158171 0 0.072472801880598778 0.037748199181885787 0 0.060335016372712477 0.043590078158158171 0 0.072472801880598778 0.037748199181885787 0 0.067620817058947486 0.053112721762684993 0 0.067620817058947486 0.053112721762684993 0 0.07947165422696667 0.062320335567148347 0 0.084669073271429876 0.048933405206894903 0 0.056985589483321802 0.061895971095616807 0 0.067620817058947486 0.053112721762684993 0 0.066670073305173272 0.066205739247031492 0 0.067620817058947486 0.053112721762684993 0 0.07947165422696667 0.062320335567148347 0 0.066670073305173272 0.066205739247031492 0 0.07947165422696667 0.062320335567148347 0 0.084669073271429876 0.048933405206894903 0 0.093172461482427194 0.061247082398517928 0 0.084669073271429876 0.048933405206894903 0 0.093172461482427194 0.061247082398517928 0 0.098954138379694301 0.051670318212385567 0 0.084669073271429876 0.048933405206894903 0 0.096520985913679413 0.040753916676947263 0 0.098954138379694301 0.051670318212385567 0 0.083792157369909637 0.025507174681269961 0 0.072472801880598778 0.037748199181885787 0 0.084903606594731146 0.037104062313560587 0 0.072472801880598778 0.037748199181885787 0 0.084669073271429876 0.048933405206894903 0 0.084903606594731146 0.037104062313560587 0 0.084669073271429876 0.048933405206894903 0 0.084903606594731146 0.037104062313560587 0 0.096520985913679413 0.040753916676947263 0 0.084903606594731146 0.037104062313560587 0 0.096520985913679413 0.040753916676947263 0 0.094044238409064965 0.028749247639736301 0 0.096520985913679413 0.040753916676947263 0 0.1038815709591706 0.033472877315628681 0 0.1145259151899127 0.047886133546214682 0 0.096520985913679413 0.040753916676947263 0 0.098954138379694301 0.051670318212385567 0 0.1145259151899127 0.047886133546214682 0 0.096520985913679413 0.040753916676947263 0 0.1038815709591706 0.033472877315628681 0 0.094044238409064965 0.028749247639736301 0 0.093172461482427194 0.061247082398517928 0 0.098954138379694301 0.051670318212385567 0 0.1058822560410223 0.059531053233353101 0 0.098954138379694301 0.051670318212385567 0 0.1058822560410223 0.059531053233353101 0 0.1145259151899127 0.047886133546214682 0 0.1145259151899127 0.047886133546214682 0 0.1204297969431717 0.055002002505404941 0 0.11688028196426919 0.067996556043338652 0 0.1145259151899127 0.047886133546214682 0 0.11688028196426919 0.067996556043338652 0 0.1058822560410223 0.059531053233353101 0 0.1145259151899127 0.047886133546214682 0 0.11688028196426919 0.067996556043338652 0 0.1145259151899127 0.047886133546214682 0 0.1204297969431717 0.055002002505404941 0 0.1233698590855634 0.042628228609694438 0 0.1204297969431717 0.055002002505404941 0 0.1233698590855634 0.042628228609694438 0 0.13035972252529171 0.049554185983596108 0 0.1204297969431717 0.055002002505404941 0 0.1216352587087912 0.064169241606271743 0 0.13146749193025431 0.061236951587981828 0 0.1204297969431717 0.055002002505404941 0 0.1216352587087912 0.064169241606271743 0 0.11688028196426919 0.067996556043338652 0 0.1038815709591706 0.033472877315628681 0 0.1145259151899127 0.047886133546214682 0 0.11217154841555491 0.027775711049090879 0 0.1145259151899127 0.047886133546214682 0 0.1233698590855634 0.042628228609694438 0 0.11217154841555491 0.027775711049090879 0 0.1145259151899127 0.047886133546214682 0 0.11217154841555491 0.027775711049090879 0 0.1233698590855634 0.042628228609694438 0 0.1247153688863379 0.032319924216542117 0 0.11217154841555491 0.027775711049090879 0 0.11217154841555491 0.027775711049090879 0 0.109817181641197 0.0076652885519670694 0 0.11217154841555491 0.027775711049090879 0 0.109817181641197 0.0076652885519670694 0 0.10812138201279491 0.01289087608560582 0 0.11217154841555491 0.027775711049090879 0 0.1178869899404274 0.01995347206273506 0 0.109817181641197 0.0076652885519670694 0 0.1247153688863379 0.032319924216542117 0 0.11217154841555491 0.027775711049090879 0 0.1178869899404274 0.01995347206273506 0 0.1178869899404274 0.01995347206273506 0 0.1184305648778739 0.01290641700843608 0 0.12676122497650619 0.017213734322898421 0 0.1247153688863379 0.032319924216542117 0 0.1178869899404274 0.01995347206273506 0 0.12676122497650619 0.017213734322898421 0 0.1184305648778739 0.01290641700843608 0 0.1204873325010313 0.0058500305137734162 0 0.12676122497650619 0.017213734322898421 0 0.1204873325010313 0.0058500305137734162 0 0.109817181641197 0.0076652885519670694 0 0.1133883428256052 -0.0027087516383113128 0 0.1178869899404274 0.01995347206273506 0 0.1184305648778739 0.01290641700843608 0 0.109817181641197 0.0076652885519670694 0 0.1184305648778739 0.01290641700843608 0 0.1204873325010313 0.0058500305137734162 0 0.109817181641197 0.0076652885519670694 0 0.109817181641197 0.0076652885519670694 0 0.10812138201279491 0.01289087608560582 0 0.1053836954224675 -0.016695027662019871 0 0.10812138201279491 0.01289087608560582 0 0.10106372335802399 0.014728277582015999 0 0.10052077007441119 0.0092462673863109666 0 0.10812138201279491 0.01289087608560582 0 0.10052077007441119 0.0092462673863109666 0 0.10157561452540199 -0.00040726733682942259 0 0.096890073032441237 0.0023318467723570822 0 0.10052077007441119 0.0092462673863109666 0 0.10157561452540199 -0.00040726733682942259 0 0.093940628788715563 0.0062886560966533469 0 0.096890073032441237 0.0023318467723570822 0 0.10052077007441119 0.0092462673863109666 0 0.093940628788715563 0.0062886560966533469 0 0.096890073032441237 0.0023318467723570822 0 0.091567309821212278 -0.00098424470217601612 0 0.093467574477248905 0.014576589189992949 0 0.093940628788715563 0.0062886560966533469 0 0.10052077007441119 0.0092462673863109666 0 0.093467574477248905 0.014576589189992949 0 0.10106372335802399 0.014728277582015999 0 0.10052077007441119 0.0092462673863109666 0 0.093467574477248905 0.014576589189992949 0 0.094044238409064965 0.028749247639736301 0 0.1021451668676408 0.02219937766615426 0 0.093467574477248905 0.014576589189992949 0 0.10106372335802399 0.014728277582015999 0 0.1021451668676408 0.02219937766615426 0 0.1038815709591706 0.033472877315628681 0 0.094044238409064965 0.028749247639736301 0 0.1021451668676408 0.02219937766615426 0 0.1038815709591706 0.033472877315628681 0 0.11217154841555491 0.027775711049090879 0 0.1021451668676408 0.02219937766615426 0 0.11217154841555491 0.027775711049090879 0 0.10812138201279491 0.01289087608560582 0 0.1021451668676408 0.02219937766615426 0 0.10812138201279491 0.01289087608560582 0 0.10106372335802399 0.014728277582015999 0 0.1021451668676408 0.02219937766615426 0 0.098461373215836534 0.101273008079914 0 0.099730951134802265 0.1121174307168149 0 0.1212986478806161 0.1057371520678589 0 0.099730951134802265 0.1121174307168149 0 0.1123984680180381 0.1195378682208748 0 0.1008769106930586 0.1347098478196766 0 0.099730951134802265 0.1121174307168149 0 0.1123984680180381 0.1195378682208748 0 0.1212986478806161 0.1057371520678589 0 0.1123984680180381 0.1195378682208748 0 0.12349701806390299 0.1245150900138474 0 0.1212986478806161 0.1057371520678589 0 0.12349701806390299 0.1245150900138474 0 0.1212986478806161 0.1057371520678589 0 0.098461373215836534 0.101273008079914 0 0.1212986478806161 0.1057371520678589 0 0.1187594920426856 0.084048306794060085 0 0.1212986478806161 0.1057371520678589 0 0.1187594920426856 0.084048306794060085 0 0.1212986478806161 0.1057371520678589 0 0.1187594920426856 0.084048306794060085 0 0.12794602954063461 0.095459697576126851 0 0.099730951134802265 0.1121174307168149 0 0.1212986478806161 0.1057371520678589 0 0.1212986478806161 0.1057371520678589 0 0.12756651237084651 0.1038829567658382 0 0.1187594920426856 0.084048306794060085 0 0.11688028196426919 0.067996556043338652 0 0.094834488196198358 0.085741371485866552 0 0.1187594920426856 0.084048306794060085 0 0.1216352587087912 0.064169241606271743 0 0.11688028196426919 0.067996556043338652 0 0.1187594920426856 0.084048306794060085 0 0.1216352587087912 0.064169241606271743 0 0.13146749193025431 0.061236951587981828 0 0.1187594920426856 0.084048306794060085 0 0.11688028196426919 0.067996556043338652 0 0.1216352587087912 0.064169241606271743 0 0.11688028196426919 0.067996556043338652 0 0.1058822560410223 0.059531053233353101 0 0.11688028196426919 0.067996556043338652 0 0.10014931022427841 0.069703778417480794 0 0.11688028196426919 0.067996556043338652 0 0.094834488196198358 0.085741371485866552 0 0.11688028196426919 0.067996556043338652 0 0.10014931022427841 0.069703778417480794 0 0.094834488196198358 0.085741371485866552 0 0.10014931022427841 0.069703778417480794 0 0.094834488196198358 0.085741371485866552 0 0.086990441328530413 0.072966947331261967 0 0.093172461482427194 0.061247082398517928 0 0.1058822560410223 0.059531053233353101 0 0.10014931022427841 0.069703778417480794 0 0.098461373215836534 0.101273008079914 0 0.1187594920426856 0.084048306794060085 0 0.094834488196198358 0.085741371485866552 0 0.098461373215836534 0.101273008079914 0 0.1187594920426856 0.084048306794060085 0 0.094834488196198358 0.085741371485866552 0 0.086990441328530413 0.072966947331261967 0 0.077597958347435464 0.08420956350754133 0 0.094834488196198358 0.085741371485866552 0 0.077597958347435464 0.08420956350754133 0 0.072788694428129047 0.1034861869283963 0 0.07947165422696667 0.062320335567148347 0 0.093172461482427194 0.061247082398517928 0 0.086990441328530413 0.072966947331261967 0 0.093172461482427194 0.061247082398517928 0 0.10014931022427841 0.069703778417480794 0 0.086990441328530413 0.072966947331261967 0 0.086990441328530413 0.072966947331261967 0 0.076716775493876455 0.074579552611016939 0 0.077597958347435464 0.08420956350754133 0 0.07947165422696667 0.062320335567148347 0 0.086990441328530413 0.072966947331261967 0 0.076716775493876455 0.074579552611016939 0 0.07947165422696667 0.062320335567148347 0 0.076716775493876455 0.074579552611016939 0 0.066670073305173272 0.066205739247031492 0 0.076716775493876455 0.074579552611016939 0 0.066670073305173272 0.066205739247031492 0 0.065574280834596196 0.079037610840034606 0 0.077597958347435464 0.08420956350754133 0 0.065832723187041697 0.090381047998325512 0 0.072788694428129047 0.1034861869283963 0 0.076716775493876455 0.074579552611016939 0 0.077597958347435464 0.08420956350754133 0 0.065574280834596196 0.079037610840034606 0 0.077597958347435464 0.08420956350754133 0 0.065574280834596196 0.079037610840034606 0 0.065832723187041697 0.090381047998325512 0 0.065832723187041697 0.090381047998325512 0 0.072788694428129047 0.1034861869283963 0 0.057332245753243777 0.095081478281562479 0 0.072788694428129047 0.1034861869283963 0 0.058970370776360123 0.103474469679578 0 0.057332245753243777 0.095081478281562479 0 0.098461373215836534 0.101273008079914 0 0.094834488196198358 0.085741371485866552 0 0.072788694428129047 0.1034861869283963 0 0.094834488196198358 0.085741371485866552 0 0.072788694428129047 0.1034861869283963 0 0.098461373215836534 0.101273008079914 0 0.072788694428129047 0.1034861869283963 0 0.078163254388987469 0.11849770936576789 0 0.099730951134802265 0.1121174307168149 0 0.078163254388987469 0.11849770936576789 0 0.088120035262332058 0.12856528371976361 0 0.098461373215836534 0.101273008079914 0 0.078163254388987469 0.11849770936576789 0 0.098461373215836534 0.101273008079914 0 0.099730951134802265 0.1121174307168149 0 0.078163254388987469 0.11849770936576789 0 0.099730951134802265 0.1121174307168149 0 0.078163254388987469 0.11849770936576789 0 0.078163254388987469 0.11849770936576789 0 0.051987868683326333 0.12624106075438479 0 0.072788694428129047 0.1034861869283963 0 0.078163254388987469 0.11849770936576789 0 0.050742900660059757 0.121231002370926 0 0.072788694428129047 0.1034861869283963 0 0.050742900660059757 0.121231002370926 0 0.054532454792133533 0.11016327345807329 0 0.078163254388987469 0.11849770936576789 0 0.050742900660059757 0.121231002370926 0 0.051987868683326333 0.12624106075438479 0 0.072788694428129047 0.1034861869283963 0 0.050742900660059757 0.121231002370926 0 0.050742900660059757 0.121231002370926 0 0.040523164831600379 0.1195611200108887 0 0.051987868683326333 0.12624106075438479 0 0.047887877780297843 0.11503873945742731 0 0.054532454792133533 0.11016327345807329 0 0.04504369297842567 0.1093194749618247 0 0.050742900660059757 0.121231002370926 0 0.047887877780297843 0.11503873945742731 0 0.054532454792133533 0.11016327345807329 0 0.072788694428129047 0.1034861869283963 0 0.054532454792133533 0.11016327345807329 0 0.058970370776360123 0.103474469679578 0 0.054532454792133533 0.11016327345807329 0 0.058970370776360123 0.103474469679578 0 0.051163950392121849 0.1027828165449156 0 0.058970370776360123 0.103474469679578 0 0.057332245753243777 0.095081478281562479 0 0.051163950392121849 0.1027828165449156 0 0.057332245753243777 0.095081478281562479 0 0.048192621140614282 0.095079704623173805 0 0.051163950392121849 0.1027828165449156 0 0.054532454792133533 0.11016327345807329 0 0.051163950392121849 0.1027828165449156 0 0.04504369297842567 0.1093194749618247 0 0.051163950392121849 0.1027828165449156 0 0.04504369297842567 0.1093194749618247 0 0.038520517300792319 0.10037413187539899 0 0.048192621140614282 0.095079704623173805 0 0.051163950392121849 0.1027828165449156 0 0.038520517300792319 0.10037413187539899 0 0.048192621140614282 0.095079704623173805 0 0.038520517300792319 0.10037413187539899 0 0.041146211844238723 0.089861234673020707 0 0.038520517300792319 0.10037413187539899 0 0.041146211844238723 0.089861234673020707 0 0.028511241058810682 0.091945867645633297 0 0.04504369297842567 0.1093194749618247 0 0.038520517300792319 0.10037413187539899 0 0.032569766384176697 0.11042611548834461 0 0.038520517300792319 0.10037413187539899 0 0.032569766384176697 0.11042611548834461 0 0.023665470332340979 0.1027655685590755 0 0.032569766384176697 0.11042611548834461 0 0.040523164831600379 0.1195611200108887 0 0.02917425319539399 0.12076198050781491 0 0.040523164831600379 0.1195611200108887 0 0.02917425319539399 0.12076198050781491 0 0.025812482977664919 0.13398441214300111 0 0.050742900660059757 0.121231002370926 0 0.047887877780297843 0.11503873945742731 0 0.040523164831600379 0.1195611200108887 0 0.047887877780297843 0.11503873945742731 0 0.04504369297842567 0.1093194749618247 0 0.040523164831600379 0.1195611200108887 0 0.04504369297842567 0.1093194749618247 0 0.032569766384176697 0.11042611548834461 0 0.040523164831600379 0.1195611200108887 0 0.056985589483321802 0.061895971095616807 0 0.053070900657720889 0.072805468432977138 0 0.045911161873339962 0.062727861856346739 0 0.056985589483321802 0.061895971095616807 0 0.066670073305173272 0.066205739247031492 0 0.053070900657720889 0.072805468432977138 0 0.066670073305173272 0.066205739247031492 0 0.065574280834596196 0.079037610840034606 0 0.053070900657720889 0.072805468432977138 0 0.053070900657720889 0.072805468432977138 0 0.053557254016329443 0.086044293243315237 0 0.04444686012432774 0.081617031393485071 0 0.065574280834596196 0.079037610840034606 0 0.053070900657720889 0.072805468432977138 0 0.053557254016329443 0.086044293243315237 0 0.065574280834596196 0.079037610840034606 0 0.065832723187041697 0.090381047998325512 0 0.053557254016329443 0.086044293243315237 0 0.065832723187041697 0.090381047998325512 0 0.057332245753243777 0.095081478281562479 0 0.053557254016329443 0.086044293243315237 0 0.048192621140614282 0.095079704623173805 0 0.053557254016329443 0.086044293243315237 0 0.041146211844238723 0.089861234673020707 0 0.057332245753243777 0.095081478281562479 0 0.048192621140614282 0.095079704623173805 0 0.053557254016329443 0.086044293243315237 0 0.041146211844238723 0.089861234673020707 0 0.033860882250687258 0.083626991080633234 0 0.028511241058810682 0.091945867645633297 0 0.053557254016329443 0.086044293243315237 0 0.041146211844238723 0.089861234673020707 0 0.04444686012432774 0.081617031393485071 0 0.041146211844238723 0.089861234673020707 0 0.033860882250687258 0.083626991080633234 0 0.04444686012432774 0.081617031393485071 0 0.033860882250687258 0.083626991080633234 0 0.04444686012432774 0.081617031393485071 0 0.040587874293746537 0.072916002928030729 0 0.053070900657720889 0.072805468432977138 0 0.04444686012432774 0.081617031393485071 0 0.040587874293746537 0.072916002928030729 0 0.033860882250687258 0.083626991080633234 0 0.040587874293746537 0.072916002928030729 0 0.02978343665049818 0.075137588441946485 0 0.040587874293746537 0.072916002928030729 0 0.032803486467401118 0.062600452766418832 0 0.02978343665049818 0.075137588441946485 0 0.053070900657720889 0.072805468432977138 0 0.040587874293746537 0.072916002928030729 0 0.045911161873339962 0.062727861856346739 0 0.040587874293746537 0.072916002928030729 0 0.032803486467401118 0.062600452766418832 0 0.045911161873339962 0.062727861856346739 0 0.014725755390087979 0.05988872561090311 0 0.024719626459390749 0.058296603512639787 0 0.02036368373249775 0.070078422563951581 0 0.032803486467401118 0.062600452766418832 0 0.02036368373249775 0.070078422563951581 0 0.02978343665049818 0.075137588441946485 0 0.024719626459390749 0.058296603512639787 0 0.032803486467401118 0.062600452766418832 0 0.02036368373249775 0.070078422563951581 0 0.02036368373249775 0.070078422563951581 0 0.02978343665049818 0.075137588441946485 0 0.022305971976077012 0.082110844747890183 0 0.02036368373249775 0.070078422563951581 0 0.022305971976077012 0.082110844747890183 0 0.0093435276278285694 0.079881005833793775 0 0.033860882250687258 0.083626991080633234 0 0.022305971976077012 0.082110844747890183 0 0.028511241058810682 0.091945867645633297 0 0.033860882250687258 0.083626991080633234 0 0.02978343665049818 0.075137588441946485 0 0.022305971976077012 0.082110844747890183 0 0.022305971976077012 0.082110844747890183 0 0.028511241058810682 0.091945867645633297 0 0.013887311517661569 0.091543924073343774 0 -0.001369140142595633 0.093026309473403332 0 0.013887311517661569 0.091543924073343774 0 0.0093435276278285694 0.079881005833793775 0 -0.0021053623162286439 0.081401419193926253 0 -0.001369140142595633 0.093026309473403332 0 0.0093435276278285694 0.079881005833793775 0 0.022305971976077012 0.082110844747890183 0 0.013887311517661569 0.091543924073343774 0 0.0093435276278285694 0.079881005833793775 0 0.02036368373249775 0.070078422563951581 0 0.0093435276278285694 0.079881005833793775 0 0.0084598163284994223 0.068541811941015274 0 -0.0027143546311693642 0.070219084288717995 0 -0.0021053623162286439 0.081401419193926253 0 0.0093435276278285694 0.079881005833793775 0 -0.0027143546311693642 0.070219084288717995 0 0.0093435276278285694 0.079881005833793775 0 0.0084598163284994223 0.068541811941015274 0 -0.0027143546311693642 0.070219084288717995 0 0.0040037955735182217 0.057029855989315897 0 0.0084598163284994223 0.068541811941015274 0 0.014725755390087979 0.05988872561090311 0 0.02036368373249775 0.070078422563951581 0 0.0084598163284994223 0.068541811941015274 0 0.032569766384176697 0.11042611548834461 0 0.01808860634162144 0.11889216058808109 0 0.023665470332340979 0.1027655685590755 0 0.01808860634162144 0.11889216058808109 0 0.02917425319539399 0.12076198050781491 0 0.025812482977664919 0.13398441214300111 0 0.032569766384176697 0.11042611548834461 0 0.01808860634162144 0.11889216058808109 0 0.02917425319539399 0.12076198050781491 0 0.01808860634162144 0.11889216058808109 0 0.023665470332340979 0.1027655685590755 0 0.011424316535686841 0.103820897176401 0 0.038520517300792319 0.10037413187539899 0 0.028511241058810682 0.091945867645633297 0 0.023665470332340979 0.1027655685590755 0 0.013887311517661569 0.091543924073343774 0 0.023665470332340979 0.1027655685590755 0 0.011424316535686841 0.103820897176401 0 0.028511241058810682 0.091945867645633297 0 0.013887311517661569 0.091543924073343774 0 0.023665470332340979 0.1027655685590755 0 -9.545565130723651e-05 0.11508968561245959 0 -0.001369140142595633 0.093026309473403332 0 0.011424316535686841 0.103820897176401 0 -0.001369140142595633 0.093026309473403332 0 0.013887311517661569 0.091543924073343774 0 0.011424316535686841 0.103820897176401 0 -9.545565130723651e-05 0.11508968561245959 0 0.01808860634162144 0.11889216058808109 0 0.011424316535686841 0.103820897176401 0 -0.00036290272799637669 0.1417277635316174 0 0.025812482977664919 0.13398441214300111 0 -0.00036290272799637669 0.1417277635316174 0 0.01808860634162144 0.11889216058808109 0 0.025812482977664919 0.13398441214300111 0 -0.00036290272799637669 0.1417277635316174 0 -9.545565130723651e-05 0.11508968561245959 0 0.01808860634162144 0.11889216058808109 0 0.025812482977664919 0.13398441214300111 0 0.015302581961550319 0.1518022969749466 0 0.038678541961530158 0.15200388709200771 0 -0.00036290272799637669 0.1417277635316174 0 0.025812482977664919 0.13398441214300111 0 0.015302581961550319 0.1518022969749466 0 -0.0065513981512488537 0.1625384461529791 0 -0.00036290272799637669 0.1417277635316174 0 0.015302581961550319 0.1518022969749466 0 0.018936185747801749 0.1687569759551279 0 0.014551848704186351 0.20020862416900859 0 0.037098285869612169 0.19172176667039151 0 -0.0065513981512488537 0.1625384461529791 0 0.015302581961550319 0.1518022969749466 0 0.018936185747801749 0.1687569759551279 0 -0.00080617046592665331 0.18551006481824811 0 0.018936185747801749 0.1687569759551279 0 0.014551848704186351 0.20020862416900859 0 -0.00080617046592665331 0.18551006481824811 0 -0.0065513981512488537 0.1625384461529791 0 0.018936185747801749 0.1687569759551279 0 -0.00080617046592665331 0.18551006481824811 0 0.018936185747801749 0.1687569759551279 0 0.015302581961550319 0.1518022969749466 0 0.018936185747801749 0.1687569759551279 0 0.038678541961530158 0.15200388709200771 0 0.018936185747801749 0.1687569759551279 0 0.038678541961530158 0.15200388709200771 0 0.018936185747801749 0.1687569759551279 0 0.046384112186247141 0.16661947659436849 0 0.038678541961530158 0.15200388709200771 0 0.046384112186247141 0.16661947659436849 0 0.055004714227587362 0.1514283342290953 0 0.038678541961530158 0.15200388709200771 0 0.046384112186247141 0.16661947659436849 0 0.037098285869612169 0.19172176667039151 0 0.018936185747801749 0.1687569759551279 0 0.046384112186247141 0.16661947659436849 0 0.037098285869612169 0.19172176667039151 0 0.046384112186247141 0.16661947659436849 0 0.06020334698685606 0.17615245443818561 0 0.037098285869612169 0.19172176667039151 0 0.06020334698685606 0.17615245443818561 0 0.057666808875999273 0.16219102454876089 0 0.069677802366185065 0.15672359253277371 0 0.046384112186247141 0.16661947659436849 0 0.057666808875999273 0.16219102454876089 0 0.055004714227587362 0.1514283342290953 0 0.046384112186247141 0.16661947659436849 0 0.06020334698685606 0.17615245443818561 0 0.057666808875999273 0.16219102454876089 0 0.057666808875999273 0.16219102454876089 0 0.055004714227587362 0.1514283342290953 0 0.069677802366185065 0.15672359253277371 0 0.055004714227587362 0.1514283342290953 0 0.058420898175258557 0.13525079822888761 0 0.038678541961530158 0.15200388709200771 0 0.058420898175258557 0.13525079822888761 0 0.04406101643207469 0.13794717552835301 0 0.038678541961530158 0.15200388709200771 0 0.055004714227587362 0.1514283342290953 0 0.058420898175258557 0.13525079822888761 0 0.066031415799516713 0.14444506397051729 0 0.058420898175258557 0.13525079822888761 0 0.038678541961530158 0.15200388709200771 0 0.058420898175258557 0.13525079822888761 0 0.051987868683326333 0.12624106075438479 0 0.04406101643207469 0.13794717552835301 0 0.040523164831600379 0.1195611200108887 0 0.025812482977664919 0.13398441214300111 0 0.051987868683326333 0.12624106075438479 0 0.025812482977664919 0.13398441214300111 0 0.051987868683326333 0.12624106075438479 0 0.04406101643207469 0.13794717552835301 0 0.025812482977664919 0.13398441214300111 0 0.051987868683326333 0.12624106075438479 0 0.025812482977664919 0.13398441214300111 0 0.04406101643207469 0.13794717552835301 0 0.038678541961530158 0.15200388709200771 0 0.030467515956601039 0.24774395088406731 0 0.018526633236342169 0.24192634682243749 0 0.040033691600889473 0.23650642683457171 0 0.030467515956601039 0.24774395088406731 0 0.018526633236342169 0.24192634682243749 0 0.020945845084855509 0.25415764331182761 0 0.018526633236342169 0.24192634682243749 0 0.01004767869401268 0.2460499980395312 0 0.0057197087398602716 0.25638837365480188 0 -0.010208609849512841 0.2283640234091508 0 0.01004767869401268 0.2460499980395312 0 0.0071314278210166913 0.23026998457289971 0 0.018526633236342169 0.24192634682243749 0 0.01004767869401268 0.2460499980395312 0 0.0071314278210166913 0.23026998457289971 0 -0.0043330685824554648 0.2434028898310768 0 0.01004767869401268 0.2460499980395312 0 0.0012536845682404041 0.25038943113572448 0 0.018526633236342169 0.24192634682243749 0 0.0071314278210166913 0.23026998457289971 0 0.013840057388997519 0.22028167092212811 0 0.0071314278210166913 0.23026998457289971 0 0.013840057388997519 0.22028167092212811 0 0.00056179698415907697 0.21621471215728191 0 0.018526633236342169 0.24192634682243749 0 0.027812459552977158 0.2168240567464145 0 0.018526633236342169 0.24192634682243749 0 0.013840057388997519 0.22028167092212811 0 0.027812459552977158 0.2168240567464145 0 0.018526633236342169 0.24192634682243749 0 0.027812459552977158 0.2168240567464145 0 0.040033691600889473 0.23650642683457171 0 0.013840057388997519 0.22028167092212811 0 0.027812459552977158 0.2168240567464145 0 0.014551848704186351 0.20020862416900859 0 -0.0015602628643092611 0.2010491387064765 0 0.00056179698415907697 0.21621471215728191 0 0.014551848704186351 0.20020862416900859 0 0.013840057388997519 0.22028167092212811 0 0.00056179698415907697 0.21621471215728191 0 0.014551848704186351 0.20020862416900859 0 -0.0015602628643092611 0.2010491387064765 0 -0.00080617046592665331 0.18551006481824811 0 0.014551848704186351 0.20020862416900859 0 0.027812459552977158 0.2168240567464145 0 0.014551848704186351 0.20020862416900859 0 0.037098285869612169 0.19172176667039151 0 0.037098285869612169 0.19172176667039151 0 0.059105729572145417 0.2001321618613533 0 0.046537857297330378 0.21402133494381559 0 0.06020334698685606 0.17615245443818561 0 0.037098285869612169 0.19172176667039151 0 0.059105729572145417 0.2001321618613533 0 0.059105729572145417 0.2001321618613533 0 0.046537857297330378 0.21402133494381559 0 0.06088778720315037 0.2259057062896149 0 0.027812459552977158 0.2168240567464145 0 0.037098285869612169 0.19172176667039151 0 0.027812459552977158 0.2168240567464145 0 0.037098285869612169 0.19172176667039151 0 0.046537857297330378 0.21402133494381559 0 0.027812459552977158 0.2168240567464145 0 0.046537857297330378 0.21402133494381559 0 0.040033691600889473 0.23650642683457171 0 0.046537857297330378 0.21402133494381559 0 0.06088778720315037 0.2259057062896149 0 0.040033691600889473 0.23650642683457171 0 0.06088778720315037 0.2259057062896149 0 0.055010650704319597 0.24584136736710169 0 0.040033691600889473 0.23650642683457171 0 0.030467515956601039 0.24774395088406731 0 0.040033691600889473 0.23650642683457171 0 0.042345457215367442 0.25898809975177373 0 0.055010650704319597 0.24584136736710169 0 0.040033691600889473 0.23650642683457171 0 0.042345457215367442 0.25898809975177373 0 0.091121925685512209 0.23981708687531289 0 0.072037619681666235 0.24489848484308671 0 0.082096508033023236 0.263412377189987 0 0.091121925685512209 0.23981708687531289 0 0.072037619681666235 0.24489848484308671 0 0.077677808080868799 0.22791753816310509 0 0.06088778720315037 0.2259057062896149 0 0.055010650704319597 0.24584136736710169 0 0.072037619681666235 0.24489848484308671 0 0.06088778720315037 0.2259057062896149 0 0.072037619681666235 0.24489848484308671 0 0.077677808080868799 0.22791753816310509 0 0.06088778720315037 0.2259057062896149 0 0.077677808080868799 0.22791753816310509 0 0.077166167295064342 0.20886874574435829 0 0.091121925685512209 0.23981708687531289 0 0.077677808080868799 0.22791753816310509 0 0.1001473433380001 0.2162217965606385 0 0.077677808080868799 0.22791753816310509 0 0.077166167295064342 0.20886874574435829 0 0.1001473433380001 0.2162217965606385 0 0.077166167295064342 0.20886874574435829 0 0.09084708818394116 0.19687151128807101 0 0.1001473433380001 0.2162217965606385 0 0.059105729572145417 0.2001321618613533 0 0.06088778720315037 0.2259057062896149 0 0.077166167295064342 0.20886874574435829 0 0.06020334698685606 0.17615245443818561 0 0.059105729572145417 0.2001321618613533 0 0.075888542567759815 0.18732810591666371 0 0.059105729572145417 0.2001321618613533 0 0.077166167295064342 0.20886874574435829 0 0.075888542567759815 0.18732810591666371 0 0.077166167295064342 0.20886874574435829 0 0.09084708818394116 0.19687151128807101 0 0.075888542567759815 0.18732810591666371 0 0.09084708818394116 0.19687151128807101 0 0.075888542567759815 0.18732810591666371 0 0.0923522089236022 0.17897014083689841 0 0.09084708818394116 0.19687151128807101 0 0.10917276099048789 0.19262650624596411 0 0.0923522089236022 0.17897014083689841 0 0.09084708818394116 0.19687151128807101 0 0.10917276099048789 0.19262650624596411 0 0.1001473433380001 0.2162217965606385 0 0.10917276099048789 0.19262650624596411 0 0.1349245558641794 0.1844407421103155 0 0.12582442383595879 0.21375262309230411 0 0.10917276099048789 0.19262650624596411 0 0.1001473433380001 0.2162217965606385 0 0.12582442383595879 0.21375262309230411 0 0.10917276099048789 0.19262650624596411 0 0.1001473433380001 0.2162217965606385 0 0.091121925685512209 0.23981708687531289 0 0.1001473433380001 0.2162217965606385 0 0.1113971971903429 0.23083828334454551 0 0.091121925685512209 0.23981708687531289 0 0.1001473433380001 0.2162217965606385 0 0.1001473433380001 0.2162217965606385 0 0.1113971971903429 0.23083828334454551 0 0.12582442383595879 0.21375262309230411 0 0.1113971971903429 0.23083828334454551 0 0.12737001399432599 0.2350171290031898 0 0.12582442383595879 0.21375262309230411 0 0.1113971971903429 0.23083828334454551 0 0.1125222790979172 0.24938278119128249 0 0.12737001399432599 0.2350171290031898 0 0.091121925685512209 0.23981708687531289 0 0.1125222790979172 0.24938278119128249 0 0.097108688912541458 0.25457928013682479 0 0.091121925685512209 0.23981708687531289 0 0.1113971971903429 0.23083828334454551 0 0.1125222790979172 0.24938278119128249 0 0.080475257176957152 0.13939670641544821 0 0.09203600747431831 0.1566290626499599 0 0.1008769106930586 0.1347098478196766 0 0.080475257176957152 0.13939670641544821 0 0.069677802366185065 0.15672359253277371 0 0.09203600747431831 0.1566290626499599 0 0.078163254388987469 0.11849770936576789 0 0.088120035262332058 0.12856528371976361 0 0.080475257176957152 0.13939670641544821 0 0.088120035262332058 0.12856528371976361 0 0.080475257176957152 0.13939670641544821 0 0.1008769106930586 0.1347098478196766 0 0.078163254388987469 0.11849770936576789 0 0.058420898175258557 0.13525079822888761 0 0.070772706385180018 0.13439756949515541 0 0.078163254388987469 0.11849770936576789 0 0.058420898175258557 0.13525079822888761 0 0.078163254388987469 0.11849770936576789 0 0.058420898175258557 0.13525079822888761 0 0.051987868683326333 0.12624106075438479 0 0.078163254388987469 0.11849770936576789 0 0.080475257176957152 0.13939670641544821 0 0.070772706385180018 0.13439756949515541 0 0.080475257176957152 0.13939670641544821 0 0.070772706385180018 0.13439756949515541 0 0.066031415799516713 0.14444506397051729 0 0.058420898175258557 0.13525079822888761 0 0.070772706385180018 0.13439756949515541 0 0.066031415799516713 0.14444506397051729 0 0.080475257176957152 0.13939670641544821 0 0.066031415799516713 0.14444506397051729 0 0.069677802366185065 0.15672359253277371 0 0.055004714227587362 0.1514283342290953 0 0.066031415799516713 0.14444506397051729 0 0.069677802366185065 0.15672359253277371 0 0.06020334698685606 0.17615245443818561 0 0.078031581663744298 0.1711606712748962 0 0.069677802366185065 0.15672359253277371 0 0.06020334698685606 0.17615245443818561 0 0.078031581663744298 0.1711606712748962 0 0.075888542567759815 0.18732810591666371 0 0.078031581663744298 0.1711606712748962 0 0.075888542567759815 0.18732810591666371 0 0.0923522089236022 0.17897014083689841 0 0.078031581663744298 0.1711606712748962 0 0.0923522089236022 0.17897014083689841 0 0.09203600747431831 0.1566290626499599 0 0.078031581663744298 0.1711606712748962 0 0.069677802366185065 0.15672359253277371 0 0.09203600747431831 0.1566290626499599 0 0.09203600747431831 0.1566290626499599 0 0.1095009938747914 0.17050799922861551 0 0.11839594946802209 0.1508670222009888 0 0.0923522089236022 0.17897014083689841 0 0.09203600747431831 0.1566290626499599 0 0.1095009938747914 0.17050799922861551 0 0.10917276099048789 0.19262650624596411 0 0.0923522089236022 0.17897014083689841 0 0.1095009938747914 0.17050799922861551 0 0.1095009938747914 0.17050799922861551 0 0.12887580100952131 0.1664594433040972 0 0.1349245558641794 0.1844407421103155 0 0.10917276099048789 0.19262650624596411 0 0.1095009938747914 0.17050799922861551 0 0.1349245558641794 0.1844407421103155 0 0.1095009938747914 0.17050799922861551 0 0.11839594946802209 0.1508670222009888 0 0.12887580100952131 0.1664594433040972 0 0.09203600747431831 0.1566290626499599 0 0.11839594946802209 0.1508670222009888 0 0.1008769106930586 0.1347098478196766 0 0.099730951134802265 0.1121174307168149 0 0.088120035262332058 0.12856528371976361 0 0.1008769106930586 0.1347098478196766 0 0.11839594946802209 0.1508670222009888 0 0.1166090161192762 0.13443758207393761 0 0.13457443098473601 0.13348359250328851 0 0.12349701806390299 0.1245150900138474 0 0.1166090161192762 0.13443758207393761 0 0.13457443098473601 0.13348359250328851 0 0.1123984680180381 0.1195378682208748 0 0.1008769106930586 0.1347098478196766 0 0.1166090161192762 0.13443758207393761 0 0.11839594946802209 0.1508670222009888 0 0.1008769106930586 0.1347098478196766 0 0.1166090161192762 0.13443758207393761 0 0.1123984680180381 0.1195378682208748 0 0.12349701806390299 0.1245150900138474 0 0.1166090161192762 0.13443758207393761 0 0.13457443098473601 0.13348359250328851 0 0.1559357110147748 0.1370992726444111 0 0.15107741427417851 0.11934751352569729 0 0.13457443098473601 0.13348359250328851 0 0.1559357110147748 0.1370992726444111 0 0.1431639226944231 0.15472553885866719 0 0.1559357110147748 0.1370992726444111 0 0.1431639226944231 0.15472553885866719 0 0.1635831945742833 0.15985143265254231 0 0.11839594946802209 0.1508670222009888 0 0.13457443098473601 0.13348359250328851 0 0.1431639226944231 0.15472553885866719 0 0.11839594946802209 0.1508670222009888 0 0.1431639226944231 0.15472553885866719 0 0.12887580100952131 0.1664594433040972 0 0.12887580100952131 0.1664594433040972 0 0.1349245558641794 0.1844407421103155 0 0.15100980184191501 0.17352328833438971 0 0.1349245558641794 0.1844407421103155 0 0.15100980184191501 0.17352328833438971 0 0.16128730354904311 0.19286923208905959 0 0.1431639226944231 0.15472553885866719 0 0.12887580100952131 0.1664594433040972 0 0.15100980184191501 0.17352328833438971 0 0.1431639226944231 0.15472553885866719 0 0.15100980184191501 0.17352328833438971 0 0.1635831945742833 0.15985143265254231 0 0.15100980184191501 0.17352328833438971 0 0.1635831945742833 0.15985143265254231 0 0.17745476359229531 0.17611929600565851 0 0.15100980184191501 0.17352328833438971 0 0.17745476359229531 0.17611929600565851 0 0.16128730354904311 0.19286923208905959 0 0.17745476359229531 0.17611929600565851 0 0.16128730354904311 0.19286923208905959 0 0.17745476359229531 0.17611929600565851 0 0.1936222236355474 0.15936935992225751 0 0.1906734982338073 0.18555530684197449 0 0.17745476359229531 0.17611929600565851 0 0.1836237556933718 0.2004701905746617 0 0.1906734982338073 0.18555530684197449 0 0.1635831945742833 0.15985143265254231 0 0.17745476359229531 0.17611929600565851 0 0.17839388790020799 0.15500916637422779 0 0.17745476359229531 0.17611929600565851 0 0.17839388790020799 0.15500916637422779 0 0.1936222236355474 0.15936935992225751 0 0.17745476359229531 0.17611929600565851 0 0.1936222236355474 0.15936935992225751 0 0.17839388790020799 0.15500916637422779 0 0.19031327409976431 0.13999789072300839 0 0.1936222236355474 0.15936935992225751 0 0.17839388790020799 0.15500916637422779 0 0.1720428894555619 0.14213411036255921 0 0.19031327409976431 0.13999789072300839 0 0.1720428894555619 0.14213411036255921 0 0.19031327409976431 0.13999789072300839 0 0.17182667185582151 0.1201681408548069 0 0.19031327409976431 0.13999789072300839 0 0.19602929382425541 0.12119549501190161 0 0.17182667185582151 0.1201681408548069 0 0.1559357110147748 0.1370992726444111 0 0.15107741427417851 0.11934751352569729 0 0.17182667185582151 0.1201681408548069 0 0.1559357110147748 0.1370992726444111 0 0.1720428894555619 0.14213411036255921 0 0.17182667185582151 0.1201681408548069 0 0.1559357110147748 0.1370992726444111 0 0.1635831945742833 0.15985143265254231 0 0.1720428894555619 0.14213411036255921 0 0.1635831945742833 0.15985143265254231 0 0.17839388790020799 0.15500916637422779 0 0.1720428894555619 0.14213411036255921 0 0.14133206126170589 0.25001069905194012 0 0.1517893413470236 0.2271551117050781 0 0.16432584004148529 0.24062447961538569 0 0.14133206126170589 0.25001069905194012 0 0.12737001399432599 0.2350171290031898 0 0.1517893413470236 0.2271551117050781 0 0.1125222790979172 0.24938278119128249 0 0.14133206126170589 0.25001069905194012 0 0.12737001399432599 0.2350171290031898 0 0.12737001399432599 0.2350171290031898 0 0.1517893413470236 0.2271551117050781 0 0.12582442383595879 0.21375262309230411 0 0.12737001399432599 0.2350171290031898 0 0.1517893413470236 0.2271551117050781 0 0.1517893413470236 0.2271551117050781 0 0.14906144479098191 0.20794090809485269 0 0.12582442383595879 0.21375262309230411 0 0.1349245558641794 0.1844407421103155 0 0.14906144479098191 0.20794090809485269 0 0.12582442383595879 0.21375262309230411 0 0.1349245558641794 0.1844407421103155 0 0.14906144479098191 0.20794090809485269 0 0.16128730354904311 0.19286923208905959 0 0.17745476359229531 0.17611929600565851 0 0.16128730354904311 0.19286923208905959 0 0.1836237556933718 0.2004701905746617 0 0.1836237556933718 0.2004701905746617 0 0.17620866869972121 0.21929309440696629 0 0.20062799605241791 0.21143107710885151 0 0.16128730354904311 0.19286923208905959 0 0.1836237556933718 0.2004701905746617 0 0.17620866869972121 0.21929309440696629 0 0.1517893413470236 0.2271551117050781 0 0.14906144479098191 0.20794090809485269 0 0.17620866869972121 0.21929309440696629 0 0.14906144479098191 0.20794090809485269 0 0.16128730354904311 0.19286923208905959 0 0.17620866869972121 0.21929309440696629 0 0.1517893413470236 0.2271551117050781 0 0.17620866869972121 0.21929309440696629 0 0.16432584004148529 0.24062447961538569 0 0.1517893413470236 0.2271551117050781 0 0.17620866869972121 0.21929309440696629 0 0.17620866869972121 0.21929309440696629 0 0.18184759709716819 0.23516008637747271 0 0.18865550570012271 0.22619966867795879 0 0.17620866869972121 0.21929309440696629 0 0.18184759709716819 0.23516008637747271 0 0.16432584004148529 0.24062447961538569 0 0.18184759709716819 0.23516008637747271 0 0.17858821144581949 0.2493729017097541 0 0.16432584004148529 0.24062447961538569 0 0.18184759709716819 0.23516008637747271 0 0.17858821144581949 0.2493729017097541 0 0.19593776095118459 0.238914416818547 0 0.17858821144581949 0.2493729017097541 0 0.19593776095118459 0.238914416818547 0 0.17858821144581949 0.2493729017097541 0 0.16432584004148529 0.24062447961538569 0 0.16123866194045569 0.25983138660096339 0 0.20811563217553661 0.2388596092279883 0 0.20237997148191059 0.24939831330470491 0 0.22018070489453781 0.24096094808464219 0 0.20811563217553661 0.2388596092279883 0 0.20930978410487711 0.22692076136152051 0 0.22018070489453781 0.24096094808464219 0 0.20811563217553661 0.2388596092279883 0 0.19593776095118459 0.238914416818547 0 0.20930978410487711 0.22692076136152051 0 0.20811563217553661 0.2388596092279883 0 0.20237997148191059 0.24939831330470491 0 0.19593776095118459 0.238914416818547 0 0.20237997148191059 0.24939831330470491 0 0.19593776095118459 0.238914416818547 0 0.19282534313631669 0.25715223097465112 0 0.17858821144581949 0.2493729017097541 0 0.19593776095118459 0.238914416818547 0 0.19282534313631669 0.25715223097465112 0 0.19593776095118459 0.238914416818547 0 0.19282534313631669 0.25715223097465112 0 0.19593776095118459 0.238914416818547 0 0.18865550570012271 0.22619966867795879 0 0.20062799605241791 0.21143107710885151 0 0.19593776095118459 0.238914416818547 0 0.20062799605241791 0.21143107710885151 0 0.19593776095118459 0.238914416818547 0 0.20930978410487711 0.22692076136152051 0 0.20062799605241791 0.21143107710885151 0 0.17620866869972121 0.21929309440696629 0 0.18865550570012271 0.22619966867795879 0 0.20062799605241791 0.21143107710885151 0 0.18184759709716819 0.23516008637747271 0 0.19593776095118459 0.238914416818547 0 0.18865550570012271 0.22619966867795879 0 0.20930978410487711 0.22692076136152051 0 0.20062799605241791 0.21143107710885151 0 0.22452169232541599 0.2203751723493679 0 0.20930978410487711 0.22692076136152051 0 0.22452169232541599 0.2203751723493679 0 0.22018070489453781 0.24096094808464219 0 0.20062799605241791 0.21143107710885151 0 0.22273570372444579 0.20431330610604789 0 0.22452169232541599 0.2203751723493679 0 0.20062799605241791 0.21143107710885151 0 0.22273570372444579 0.20431330610604789 0 0.20062799605241791 0.21143107710885151 0 0.20330080480670559 0.19576923726761461 0 0.22273570372444579 0.20431330610604789 0 0.20062799605241791 0.21143107710885151 0 0.20330080480670559 0.19576923726761461 0 0.17620866869972121 0.21929309440696629 0 0.20062799605241791 0.21143107710885151 0 0.1836237556933718 0.2004701905746617 0 0.20062799605241791 0.21143107710885151 0 0.20330080480670559 0.19576923726761461 0 0.1836237556933718 0.2004701905746617 0 0.20330080480670559 0.19576923726761461 0 0.1906734982338073 0.18555530684197449 0 0.20330080480670559 0.19576923726761461 0 0.21719066893649519 0.18941320266217901 0 0.22273570372444579 0.20431330610604789 0 0.20330080480670559 0.19576923726761461 0 0.20597361356099481 0.18010739742637791 0 0.20330080480670559 0.19576923726761461 0 0.21719066893649519 0.18941320266217901 0 0.20597361356099481 0.18010739742637791 0 0.22986581310700799 0.1918038030371523 0 0.244843411396472 0.19719553510323951 0 0.22273570372444579 0.20431330610604789 0 0.244843411396472 0.19719553510323951 0 0.22273570372444579 0.20431330610604789 0 0.21719066893649519 0.18941320266217901 0 0.22986581310700799 0.1918038030371523 0 0.22273570372444579 0.20431330610604789 0 0.21719066893649519 0.18941320266217901 0 0.22986581310700799 0.1918038030371523 0 0.2248991822672102 0.1838061617748728 0 0.22986581310700799 0.1918038030371523 0 0.244843411396472 0.19719553510323951 0 0.23315883549058139 0.17900349801511159 0 0.244843411396472 0.19719553510323951 0 0.2430509576257906 0.1782428790590608 0 0.25573313105287498 0.19368949404512251 0 0.244843411396472 0.19719553510323951 0 0.23315883549058139 0.17900349801511159 0 0.244843411396472 0.19719553510323951 0 0.23738913598904171 0.20508291136455389 0 0.22273570372444579 0.20431330610604789 0 0.244843411396472 0.19719553510323951 0 0.24759964644662921 0.20563296174650381 0 0.25051184467687082 0.19976735916025609 0 0.244843411396472 0.19719553510323951 0 0.23738913598904171 0.20508291136455389 0 0.24759964644662921 0.20563296174650381 0 0.23738913598904171 0.20508291136455389 0 0.24210461977438091 0.2167855311437476 0 0.22452169232541599 0.2203751723493679 0 0.23738913598904171 0.20508291136455389 0 0.24759964644662921 0.20563296174650381 0 0.24210461977438091 0.2167855311437476 0 0.24210461977438091 0.2167855311437476 0 0.2551345362036832 0.22495942205538511 0 0.25176131172314981 0.2140080222830662 0 0.24759964644662921 0.20563296174650381 0 0.24210461977438091 0.2167855311437476 0 0.25176131172314981 0.2140080222830662 0 0.23738913598904171 0.20508291136455389 0 0.22273570372444579 0.20431330610604789 0 0.22452169232541599 0.2203751723493679 0 0.22452169232541599 0.2203751723493679 0 0.23711205839069119 0.22920270105853049 0 0.22018070489453781 0.24096094808464219 0 0.24361873875543821 0.24293243165950959 0 0.2551345362036832 0.22495942205538511 0 0.23711205839069119 0.22920270105853049 0 0.24361873875543821 0.24293243165950959 0 0.2551345362036832 0.22495942205538511 0 0.24210461977438091 0.2167855311437476 0 0.23711205839069119 0.22920270105853049 0 0.2551345362036832 0.22495942205538511 0 0.24210461977438091 0.2167855311437476 0 0.22452169232541599 0.2203751723493679 0 0.23711205839069119 0.22920270105853049 0 0.23711205839069119 0.22920270105853049 0 0.24361873875543821 0.24293243165950959 0 0.22018070489453781 0.24096094808464219 0 0.24361873875543821 0.24293243165950959 0 0.22018070489453781 0.24096094808464219 0 0.24361873875543821 0.24293243165950959 0 0.22018070489453781 0.24096094808464219 0 0.22912935102857809 0.26554640224584047 0 0.20978968367879949 0.14261942383885651 0 0.1936222236355474 0.15936935992225751 0 0.20951480209695619 0.15642435221631601 0 0.20978968367879949 0.14261942383885651 0 0.20951480209695619 0.15642435221631601 0 0.22147425958469041 0.16081146092698401 0 0.20978968367879949 0.14261942383885651 0 0.22147425958469041 0.16081146092698401 0 0.22202307126592341 0.1432965668560994 0 0.20978968367879949 0.14261942383885651 0 0.22147425958469041 0.16081146092698401 0 0.20978968367879949 0.14261942383885651 0 0.21091711479334679 0.1240402284623067 0 0.19602929382425541 0.12119549501190161 0 0.20978968367879949 0.14261942383885651 0 0.22202307126592341 0.1432965668560994 0 0.2201966269851322 0.1318375425329302 0 0.20978968367879949 0.14261942383885651 0 0.2201966269851322 0.1318375425329302 0 0.20978968367879949 0.14261942383885651 0 0.2201966269851322 0.1318375425329302 0 0.21091711479334679 0.1240402284623067 0 0.20978968367879949 0.14261942383885651 0 0.19031327409976431 0.13999789072300839 0 0.19602929382425541 0.12119549501190161 0 0.20978968367879949 0.14261942383885651 0 0.19602929382425541 0.12119549501190161 0 0.20978968367879949 0.14261942383885651 0 0.19031327409976431 0.13999789072300839 0 0.1936222236355474 0.15936935992225751 0 0.20978968367879949 0.14261942383885651 0 0.1936222236355474 0.15936935992225751 0 0.20330080480670559 0.19576923726761461 0 0.1906734982338073 0.18555530684197449 0 0.20597361356099481 0.18010739742637791 0 0.1936222236355474 0.15936935992225751 0 0.1906734982338073 0.18555530684197449 0 0.20597361356099481 0.18010739742637791 0 0.20597361356099481 0.18010739742637791 0 0.21034657090549999 0.16596043404225999 0 0.21938141153475629 0.17500414338504819 0 0.21719066893649519 0.18941320266217901 0 0.20597361356099481 0.18010739742637791 0 0.21938141153475629 0.17500414338504819 0 0.1936222236355474 0.15936935992225751 0 0.20597361356099481 0.18010739742637791 0 0.21034657090549999 0.16596043404225999 0 0.1936222236355474 0.15936935992225751 0 0.20951480209695619 0.15642435221631601 0 0.21034657090549999 0.16596043404225999 0 0.21034657090549999 0.16596043404225999 0 0.22147425958469041 0.16081146092698401 0 0.21938141153475629 0.17500414338504819 0 0.20951480209695619 0.15642435221631601 0 0.21034657090549999 0.16596043404225999 0 0.22147425958469041 0.16081146092698401 0 0.22147425958469041 0.16081146092698401 0 0.23315883549058139 0.17900349801511159 0 0.22147425958469041 0.16081146092698401 0 0.23036878419870649 0.16279626407299891 0 0.23315883549058139 0.17900349801511159 0 0.22147425958469041 0.16081146092698401 0 0.21938141153475629 0.17500414338504819 0 0.23315883549058139 0.17900349801511159 0 0.23036878419870649 0.16279626407299891 0 0.2384962917417528 0.15334468447276489 0 0.22819042612952589 0.15290883038891279 0 0.22147425958469041 0.16081146092698401 0 0.23036878419870649 0.16279626407299891 0 0.22819042612952589 0.15290883038891279 0 0.21719066893649519 0.18941320266217901 0 0.2248991822672102 0.1838061617748728 0 0.21938141153475629 0.17500414338504819 0 0.2248991822672102 0.1838061617748728 0 0.21938141153475629 0.17500414338504819 0 0.23315883549058139 0.17900349801511159 0 0.22986581310700799 0.1918038030371523 0 0.2248991822672102 0.1838061617748728 0 0.23315883549058139 0.17900349801511159 0 0.23036878419870649 0.16279626407299891 0 0.23315883549058139 0.17900349801511159 0 0.2430509576257906 0.1782428790590608 0 0.244843411396472 0.19719553510323951 0 0.23315883549058139 0.17900349801511159 0 0.2430509576257906 0.1782428790590608 0 0.2430509576257906 0.1782428790590608 0 0.24880186532544779 0.17141868754398379 0 0.2533764568832888 0.1801615451987901 0 0.2430509576257906 0.1782428790590608 0 0.25573313105287498 0.19368949404512251 0 0.23036878419870649 0.16279626407299891 0 0.24272211009073899 0.16514967366366889 0 0.2384962917417528 0.15334468447276489 0 0.23036878419870649 0.16279626407299891 0 0.2430509576257906 0.1782428790590608 0 0.23036878419870649 0.16279626407299891 0 0.2430509576257906 0.1782428790590608 0 0.24272211009073899 0.16514967366366889 0 0.2430509576257906 0.1782428790590608 0 0.24272211009073899 0.16514967366366889 0 0.24880186532544779 0.17141868754398379 0 0.24272211009073899 0.16514967366366889 0 0.24880186532544779 0.17141868754398379 0 0.25270998014602059 0.15868141745007261 0 0.24272211009073899 0.16514967366366889 0 0.2384962917417528 0.15334468447276489 0 0.25270998014602059 0.15868141745007261 0 0.24718136849428871 0.14582163936673781 0 0.2384962917417528 0.15334468447276489 0 0.25270998014602059 0.15868141745007261 0 0.24718136849428871 0.14582163936673781 0 0.2385232097084978 0.14199121985749319 0 0.2384962917417528 0.15334468447276489 0 0.2385232097084978 0.14199121985749319 0 0.2384962917417528 0.15334468447276489 0 0.23061240142562989 0.14553014674219611 0 0.22147425958469041 0.16081146092698401 0 0.22819042612952589 0.15290883038891279 0 0.22202307126592341 0.1432965668560994 0 0.2384962917417528 0.15334468447276489 0 0.22819042612952589 0.15290883038891279 0 0.23061240142562989 0.14553014674219611 0 0.22819042612952589 0.15290883038891279 0 0.23061240142562989 0.14553014674219611 0 0.22202307126592341 0.1432965668560994 0 0.23061240142562989 0.14553014674219611 0 0.22202307126592341 0.1432965668560994 0 0.23352565258962579 0.1331854303952397 0 0.2201966269851322 0.1318375425329302 0 0.22788252506564299 0.12548793427679289 0 0.2193381225776877 0.118050034410165 0 0.22202307126592341 0.1432965668560994 0 0.2201966269851322 0.1318375425329302 0 0.23352565258962579 0.1331854303952397 0 0.2385232097084978 0.14199121985749319 0 0.23061240142562989 0.14553014674219611 0 0.23352565258962579 0.1331854303952397 0 0.23352565258962579 0.1331854303952397 0 0.22788252506564299 0.12548793427679289 0 0.2348660637694194 0.1213961821613693 0 0.2201966269851322 0.1318375425329302 0 0.23352565258962579 0.1331854303952397 0 0.22788252506564299 0.12548793427679289 0 0.23352565258962579 0.1331854303952397 0 0.24770667845891439 0.1326561328647054 0 0.243398868573273 0.1239299872959108 0 0.23352565258962579 0.1331854303952397 0 0.243398868573273 0.1239299872959108 0 0.2348660637694194 0.1213961821613693 0 0.2385232097084978 0.14199121985749319 0 0.23352565258962579 0.1331854303952397 0 0.24770667845891439 0.1326561328647054 0 0.24718136849428871 0.14582163936673781 0 0.2385232097084978 0.14199121985749319 0 0.24770667845891439 0.1326561328647054 0 0.24770667845891439 0.1326561328647054 0 0.243398868573273 0.1239299872959108 0 0.25118777109297968 0.1185556191124543 0 0.243398868573273 0.1239299872959108 0 0.23917810013929361 0.11288580384505049 0 0.25118777109297968 0.1185556191124543 0 0.23917810013929361 0.11288580384505049 0 0.24734493670419361 0.1068835534419868 0 0.25118777109297968 0.1185556191124543 0 0.243398868573273 0.1239299872959108 0 0.23917810013929361 0.11288580384505049 0 0.2348660637694194 0.1213961821613693 0 0.24639972969286381 0.097120955784311389 0 0.24929952472796879 0.09277626672631184 0 0.25088998798156009 0.095610935489149285 0 0.24639972969286381 0.097120955784311389 0 0.24734493670419361 0.1068835534419868 0 0.23796673874010549 0.1012477745571275 0 0.24639972969286381 0.097120955784311389 0 0.24734493670419361 0.1068835534419868 0 0.25388215962848382 0.1019767303477439 0 0.23917810013929361 0.11288580384505049 0 0.23796673874010549 0.1012477745571275 0 0.22889824236009271 0.10461778154546821 0 0.23917810013929361 0.11288580384505049 0 0.24734493670419361 0.1068835534419868 0 0.23796673874010549 0.1012477745571275 0 0.24639972969286381 0.097120955784311389 0 0.23796673874010549 0.1012477745571275 0 0.23853307607999741 0.091969533431423833 0 0.23796673874010549 0.1012477745571275 0 0.2301580205500966 0.094696501859706517 0 0.23853307607999741 0.091969533431423833 0 0.23796673874010549 0.1012477745571275 0 0.2301580205500966 0.094696501859706517 0 0.22889824236009271 0.10461778154546821 0 0.22889824236009271 0.10461778154546821 0 0.21991254506158059 0.1077591151145008 0 0.22006592189047411 0.097879233684030287 0 0.22889824236009271 0.10461778154546821 0 0.21991254506158059 0.1077591151145008 0 0.22834593316228621 0.1150328085588911 0 0.2301580205500966 0.094696501859706517 0 0.22889824236009271 0.10461778154546821 0 0.22006592189047411 0.097879233684030287 0 0.22788252506564299 0.12548793427679289 0 0.2348660637694194 0.1213961821613693 0 0.22834593316228621 0.1150328085588911 0 0.23917810013929361 0.11288580384505049 0 0.2348660637694194 0.1213961821613693 0 0.22834593316228621 0.1150328085588911 0 0.23917810013929361 0.11288580384505049 0 0.22889824236009271 0.10461778154546821 0 0.22834593316228621 0.1150328085588911 0 0.21991254506158059 0.1077591151145008 0 0.22834593316228621 0.1150328085588911 0 0.2193381225776877 0.118050034410165 0 0.22788252506564299 0.12548793427679289 0 0.22834593316228621 0.1150328085588911 0 0.2193381225776877 0.118050034410165 0 0.21091711479334679 0.1240402284623067 0 0.2092318469008593 0.10649864651768 0 0.19602929382425541 0.12119549501190161 0 0.2201966269851322 0.1318375425329302 0 0.2193381225776877 0.118050034410165 0 0.21091711479334679 0.1240402284623067 0 0.2193381225776877 0.118050034410165 0 0.21091711479334679 0.1240402284623067 0 0.2092318469008593 0.10649864651768 0 0.21991254506158059 0.1077591151145008 0 0.2193381225776877 0.118050034410165 0 0.2092318469008593 0.10649864651768 0 0.22006592189047411 0.097879233684030287 0 0.2092318469008593 0.10649864651768 0 0.21007663751274461 0.086697043322975384 0 0.2092318469008593 0.10649864651768 0 0.1943724519524932 0.089560820961977719 0 0.21007663751274461 0.086697043322975384 0 0.21991254506158059 0.1077591151145008 0 0.22006592189047411 0.097879233684030287 0 0.2092318469008593 0.10649864651768 0 0.19544664957414881 0.1046517011729084 0 0.19602929382425541 0.12119549501190161 0 0.1821530056189872 0.1013518422000743 0 0.2092318469008593 0.10649864651768 0 0.19544664957414881 0.1046517011729084 0 0.1943724519524932 0.089560820961977719 0 0.19544664957414881 0.1046517011729084 0 0.1943724519524932 0.089560820961977719 0 0.1821530056189872 0.1013518422000743 0 0.2092318469008593 0.10649864651768 0 0.19544664957414881 0.1046517011729084 0 0.19602929382425541 0.12119549501190161 0 0.19703378471119851 0.065467235301583576 0 0.1861834325969168 0.057801002324011509 0 0.18421724494272379 0.075608041328628736 0 0.19581965143904889 0.077835504636232025 0 0.19703378471119851 0.065467235301583576 0 0.20747764169280999 0.073440976479560341 0 0.19581965143904889 0.077835504636232025 0 0.19703378471119851 0.065467235301583576 0 0.18421724494272379 0.075608041328628736 0 0.19581965143904889 0.077835504636232025 0 0.1943724519524932 0.089560820961977719 0 0.1823756312024169 0.087634068271237153 0 0.19581965143904889 0.077835504636232025 0 0.1943724519524932 0.089560820961977719 0 0.21007663751274461 0.086697043322975384 0 0.19581965143904889 0.077835504636232025 0 0.21007663751274461 0.086697043322975384 0 0.20747764169280999 0.073440976479560341 0 0.22006592189047411 0.097879233684030287 0 0.21007663751274461 0.086697043322975384 0 0.22326785469775079 0.08650030796022623 0 0.21007663751274461 0.086697043322975384 0 0.20747764169280999 0.073440976479560341 0 0.22027647920991381 0.075102962463963016 0 0.21007663751274461 0.086697043322975384 0 0.22027647920991381 0.075102962463963016 0 0.22326785469775079 0.08650030796022623 0 0.19703378471119851 0.065467235301583576 0 0.20747764169280999 0.073440976479560341 0 0.21418165559114419 0.062102136673047682 0 0.20747764169280999 0.073440976479560341 0 0.22027647920991381 0.075102962463963016 0 0.21418165559114419 0.062102136673047682 0 0.22913774980391871 0.070344279624347306 0 0.23408212777602089 0.076515097859691225 0 0.21418165559114419 0.062102136673047682 0 0.22027647920991381 0.075102962463963016 0 0.23408212777602089 0.076515097859691225 0 0.21418165559114419 0.062102136673047682 0 0.23408212777602089 0.076515097859691225 0 0.21418165559114419 0.062102136673047682 0 0.22027647920991381 0.075102962463963016 0 0.23408212777602089 0.076515097859691225 0 0.22746068780396109 0.081020687065960897 0 0.2301580205500966 0.094696501859706517 0 0.22006592189047411 0.097879233684030287 0 0.22326785469775079 0.08650030796022623 0 0.22027647920991381 0.075102962463963016 0 0.22326785469775079 0.08650030796022623 0 0.22746068780396109 0.081020687065960897 0 0.22326785469775079 0.08650030796022623 0 0.22746068780396109 0.081020687065960897 0 0.23221628953215931 0.085964379979963146 0 0.23408212777602089 0.076515097859691225 0 0.22746068780396109 0.081020687065960897 0 0.23221628953215931 0.085964379979963146 0 0.2301580205500966 0.094696501859706517 0 0.22326785469775079 0.08650030796022623 0 0.23221628953215931 0.085964379979963146 0 0.2301580205500966 0.094696501859706517 0 0.23221628953215931 0.085964379979963146 0 0.23853307607999741 0.091969533431423833 0 0.23408212777602089 0.076515097859691225 0 0.24594137967901089 0.08882087318617525 0 0.25398259996089712 0.090928059046335205 0 0.23408212777602089 0.076515097859691225 0 0.24405622954033299 0.080224300494273634 0 0.25398259996089712 0.090928059046335205 0 0.23408212777602089 0.076515097859691225 0 0.25398259996089712 0.090928059046335205 0 0.23853307607999741 0.091969533431423833 0 0.2376932182667971 0.085817471114313371 0 0.24594137967901089 0.08882087318617525 0 0.23221628953215931 0.085964379979963146 0 0.23853307607999741 0.091969533431423833 0 0.2376932182667971 0.085817471114313371 0 0.23408212777602089 0.076515097859691225 0 0.23221628953215931 0.085964379979963146 0 0.2376932182667971 0.085817471114313371 0 0.23408212777602089 0.076515097859691225 0 0.2376932182667971 0.085817471114313371 0 0.24594137967901089 0.08882087318617525 0 0.24405622954033299 0.080224300494273634 0 0.25225342751038088 0.087010082367358924 0 0.2517554421642465 0.080550414852398958 0 0.24594137967901089 0.08882087318617525 0 0.24929952472796879 0.09277626672631184 0 0.25398259996089712 0.090928059046335205 0 0.24639972969286381 0.097120955784311389 0 0.24594137967901089 0.08882087318617525 0 0.24929952472796879 0.09277626672631184 0 0.24639972969286381 0.097120955784311389 0 0.23853307607999741 0.091969533431423833 0 0.24594137967901089 0.08882087318617525 0 0.22913774980391871 0.070344279624347306 0 0.23408212777602089 0.076515097859691225 0 0.25161164891901211 0.072730534538392233 0 0.22913774980391871 0.070344279624347306 0 0.24158377186862559 0.061289070425846068 0 0.25161164891901211 0.072730534538392233 0 0.22913774980391871 0.070344279624347306 0 0.25161164891901211 0.072730534538392233 0 0.23408212777602089 0.076515097859691225 0 0.24405622954033299 0.080224300494273634 0 0.25161164891901211 0.072730534538392233 0 0.24405622954033299 0.080224300494273634 0 0.25161164891901211 0.072730534538392233 0 0.2517554421642465 0.080550414852398958 0 0.24158377186862559 0.061289070425846068 0 0.25474285378151401 0.060042326012909437 0 0.25161164891901211 0.072730534538392233 0 0.24158377186862559 0.061289070425846068 0 0.24680145086798089 0.048182382784922581 0 0.22901707995378351 0.053692632194744842 0 0.24158377186862559 0.061289070425846068 0 0.24680145086798089 0.048182382784922581 0 0.25474285378151401 0.060042326012909437 0 0.24680145086798089 0.048182382784922581 0 0.23495575517601749 0.039988453898542137 0 0.22901707995378351 0.053692632194744842 0 0.24680145086798089 0.048182382784922581 0 0.23495575517601749 0.039988453898542137 0 0.24324226348344821 0.029690765515171861 0 0.23495575517601749 0.039988453898542137 0 0.24324226348344821 0.029690765515171861 0 0.2301429422871232 0.031188644715111059 0 0.23495575517601749 0.039988453898542137 0 0.22380382404125049 0.03974292224734087 0 0.22901707995378351 0.053692632194744842 0 0.23495575517601749 0.039988453898542137 0 0.22380382404125049 0.03974292224734087 0 0.2301429422871232 0.031188644715111059 0 0.22380382404125049 0.03974292224734087 0 0.2301429422871232 0.031188644715111059 0 0.21975587505297539 0.029328081146163719 0 0.22913774980391871 0.070344279624347306 0 0.22901707995378351 0.053692632194744842 0 0.21418165559114419 0.062102136673047682 0 0.22913774980391871 0.070344279624347306 0 0.24158377186862559 0.061289070425846068 0 0.22901707995378351 0.053692632194744842 0 0.22380382404125049 0.03974292224734087 0 0.22901707995378351 0.053692632194744842 0 0.21659119702428711 0.049272007271079277 0 0.22901707995378351 0.053692632194744842 0 0.21418165559114419 0.062102136673047682 0 0.21659119702428711 0.049272007271079277 0 0.23277634814028031 0.01252197371701085 0 0.2606787272139568 0.001980303172608151 0 0.2280713860586738 0.018470539750626961 0 0.23277634814028031 0.01252197371701085 0 0.25126880305074312 0.01387743523983893 0 0.23277634814028031 0.01252197371701085 0 0.25126880305074312 0.01387743523983893 0 0.2606787272139568 0.001980303172608151 0 0.24488347523265111 0.00476263714914716 0 0.23277634814028031 0.01252197371701085 0 0.2606787272139568 0.001980303172608151 0 0.24488347523265111 0.00476263714914716 0 0.23277634814028031 0.01252197371701085 0 0.23230624884787579 0.00086340406273482527 0 0.2280713860586738 0.018470539750626961 0 0.25126880305074312 0.01387743523983893 0 0.24324226348344821 0.029690765515171861 0 0.2280713860586738 0.018470539750626961 0 0.25126880305074312 0.01387743523983893 0 0.2280713860586738 0.018470539750626961 0 0.23277634814028031 0.01252197371701085 0 0.20487396906660441 0.023063644261414992 0 0.23277634814028031 0.01252197371701085 0 0.20487396906660441 0.023063644261414992 0 0.24324226348344821 0.029690765515171861 0 0.2301429422871232 0.031188644715111059 0 0.2280713860586738 0.018470539750626961 0 0.2301429422871232 0.031188644715111059 0 0.21975587505297539 0.029328081146163719 0 0.2280713860586738 0.018470539750626961 0 0.23277634814028031 0.01252197371701085 0 0.23230624884787579 0.00086340406273482527 0 0.21729458140653729 0.00043280060133069059 0 0.21729458140653729 0.00043280060133069059 0 0.20487396906660441 0.023063644261414992 0 0.20179196345325179 0.01358810655218742 0 0.21729458140653729 0.00043280060133069059 0 0.20179196345325179 0.01358810655218742 0 0.19158345893234341 -0.00083487295755481524 0 0.23277634814028031 0.01252197371701085 0 0.21729458140653729 0.00043280060133069059 0 0.20487396906660441 0.023063644261414992 0 0.21729458140653729 0.00043280060133069059 0 0.20179196345325179 0.01358810655218742 0 0.21975587505297539 0.029328081146163719 0 0.2280713860586738 0.018470539750626961 0 0.20487396906660441 0.023063644261414992 0 0.2280713860586738 0.018470539750626961 0 0.20487396906660441 0.023063644261414992 0 0.21975587505297539 0.029328081146163719 0 0.20487396906660441 0.023063644261414992 0 0.2103986258721301 0.036590490448162351 0 0.20487396906660441 0.023063644261414992 0 0.20179196345325179 0.01358810655218742 0 0.1862893454999659 0.02674341250304375 0 0.20487396906660441 0.023063644261414992 0 0.17919134011335561 0.032766681139542987 0 0.1862893454999659 0.02674341250304375 0 0.20487396906660441 0.023063644261414992 0 0.17919134011335561 0.032766681139542987 0 0.20487396906660441 0.023063644261414992 0 0.1981375120854553 0.036925936929841453 0 0.17919134011335561 0.032766681139542987 0 0.20487396906660441 0.023063644261414992 0 0.1862893454999659 0.02674341250304375 0 0.20179196345325179 0.01358810655218742 0 0.1862893454999659 0.02674341250304375 0 0.20179196345325179 0.01358810655218742 0 0.18770445891216059 0.012243459946126391 0 0.1862893454999659 0.02674341250304375 0 0.20179196345325179 0.01358810655218742 0 0.18770445891216059 0.012243459946126391 0 0.19158345893234341 -0.00083487295755481524 0 0.20444759928401751 0.049935252833695418 0 0.21418165559114419 0.062102136673047682 0 0.1942811834062674 0.047689175486404292 0 0.21418165559114419 0.062102136673047682 0 0.1942811834062674 0.047689175486404292 0 0.20444759928401751 0.049935252833695418 0 0.21418165559114419 0.062102136673047682 0 0.21659119702428711 0.049272007271079277 0 0.22380382404125049 0.03974292224734087 0 0.21659119702428711 0.049272007271079277 0 0.2103986258721301 0.036590490448162351 0 0.22380382404125049 0.03974292224734087 0 0.21975587505297539 0.029328081146163719 0 0.2103986258721301 0.036590490448162351 0 0.20487396906660441 0.023063644261414992 0 0.2103986258721301 0.036590490448162351 0 0.1981375120854553 0.036925936929841453 0 0.20444759928401751 0.049935252833695418 0 0.2103986258721301 0.036590490448162351 0 0.1981375120854553 0.036925936929841453 0 0.20444759928401751 0.049935252833695418 0 0.21659119702428711 0.049272007271079277 0 0.2103986258721301 0.036590490448162351 0 0.1981375120854553 0.036925936929841453 0 0.1942811834062674 0.047689175486404292 0 0.17919134011335561 0.032766681139542987 0 0.20444759928401751 0.049935252833695418 0 0.1981375120854553 0.036925936929841453 0 0.1942811834062674 0.047689175486404292 0 0.19703378471119851 0.065467235301583576 0 0.21418165559114419 0.062102136673047682 0 0.1942811834062674 0.047689175486404292 0 0.19703378471119851 0.065467235301583576 0 0.1942811834062674 0.047689175486404292 0 0.1861834325969168 0.057801002324011509 0 0.20444759928401751 0.049935252833695418 0 0.1942811834062674 0.047689175486404292 0 0.1942811834062674 0.047689175486404292 0 0.1861834325969168 0.057801002324011509 0 0.17710358540988541 0.050987995864936693 0 0.1861834325969168 0.057801002324011509 0 0.1736382153757674 0.061032122104872237 0 0.17710358540988541 0.050987995864936693 0 0.1942811834062674 0.047689175486404292 0 0.17556753532615721 0.034135774294036518 0 0.16835590986166449 0.041961476528279362 0 0.1942811834062674 0.047689175486404292 0 0.17556753532615721 0.034135774294036518 0 0.1942811834062674 0.047689175486404292 0 0.17710358540988541 0.050987995864936693 0 0.16835590986166449 0.041961476528279362 0 0.1942811834062674 0.047689175486404292 0 0.17919134011335561 0.032766681139542987 0 0.17556753532615721 0.034135774294036518 0 0.1942811834062674 0.047689175486404292 0 0.16835590986166449 0.041961476528279362 0 0.17919134011335561 0.032766681139542987 0 0.17556753532615721 0.034135774294036518 0 0.16985387917408251 0.02999764613362951 0 0.17556753532615721 0.034135774294036518 0 0.16835590986166449 0.041961476528279362 0 0.17919134011335561 0.032766681139542987 0 0.17556753532615721 0.034135774294036518 0 0.17556753532615721 0.034135774294036518 0 0.16985387917408251 0.02999764613362951 0 0.17710358540988541 0.050987995864936693 0 0.16835590986166449 0.041961476528279362 0 0.1630591858088109 0.046456202881115863 0 0.17556753532615721 0.034135774294036518 0 0.1598361174740357 0.040079189504456568 0 0.16985387917408251 0.02999764613362951 0 0.16835590986166449 0.041961476528279362 0 0.1598361174740357 0.040079189504456568 0 0.17556753532615721 0.034135774294036518 0 0.16835590986166449 0.041961476528279362 0 0.1598361174740357 0.040079189504456568 0 0.17556753532615721 0.034135774294036518 0 0.1598361174740357 0.040079189504456568 0 0.16835590986166449 0.041961476528279362 0 0.1630591858088109 0.046456202881115863 0 0.15823050613881121 0.032299081984747118 0 0.1598361174740357 0.040079189504456568 0 0.16985387917408251 0.02999764613362951 0 0.15823050613881121 0.032299081984747118 0 0.1598361174740357 0.040079189504456568 0 0.1581624545571266 0.039709425330939213 0 0.16835590986166449 0.041961476528279362 0 0.1630591858088109 0.046456202881115863 0 0.1598361174740357 0.040079189504456568 0 0.1630591858088109 0.046456202881115863 0 0.1581624545571266 0.039709425330939213 0 0.1630591858088109 0.046456202881115863 0 0.1598361174740357 0.040079189504456568 0 0.1581624545571266 0.039709425330939213 0 0.1598361174740357 0.040079189504456568 0 0.1581624545571266 0.039709425330939213 0 0.1736382153757674 0.061032122104872237 0 0.1630591858088109 0.046456202881115863 0 0.15904439019135649 0.061485469409662298 0 0.1736382153757674 0.061032122104872237 0 0.1630591858088109 0.046456202881115863 0 0.1736382153757674 0.061032122104872237 0 0.17710358540988541 0.050987995864936693 0 0.1630591858088109 0.046456202881115863 0 0.18770445891216059 0.012243459946126391 0 0.17338990426021511 0.0089353632906695613 0 0.19158345893234341 -0.00083487295755481524 0 0.1862893454999659 0.02674341250304375 0 0.16985387917408251 0.02999764613362951 0 0.17338990426021511 0.0089353632906695613 0 0.1862893454999659 0.02674341250304375 0 0.16985387917408251 0.02999764613362951 0 0.18770445891216059 0.012243459946126391 0 0.17338990426021511 0.0089353632906695613 0 0.1862893454999659 0.02674341250304375 0 0.17919134011335561 0.032766681139542987 0 0.1862893454999659 0.02674341250304375 0 0.16985387917408251 0.02999764613362951 0 0.17919134011335561 0.032766681139542987 0 0.1862893454999659 0.02674341250304375 0 0.17338990426021511 0.0089353632906695613 0 0.16985387917408251 0.02999764613362951 0 0.15010025361353191 0.015691038940858298 0 0.16985387917408251 0.02999764613362951 0 0.15010025361353191 0.015691038940858298 0 0.15823050613881121 0.032299081984747118 0 0.16985387917408251 0.02999764613362951 0 0.15010025361353191 0.015691038940858298 0 0.15823050613881121 0.032299081984747118 0 0.16985387917408251 0.02999764613362951 0 0.17338990426021511 0.0089353632906695613 0 0.15010025361353191 0.015691038940858298 0 0.1564263838336292 -0.0027420855689384242 0 0.15010025361353191 0.015691038940858298 0 0.13034662805298211 0.001384431748086113 0 0.1564263838336292 -0.0027420855689384242 0 0.15010025361353191 0.015691038940858298 0 0.1442545413050548 0.020546928539512361 0 0.13034662805298211 0.001384431748086113 0 0.15823050613881121 0.032299081984747118 0 0.1581624545571266 0.039709425330939213 0 0.1442545413050548 0.020546928539512361 0 0.15823050613881121 0.032299081984747118 0 0.15010025361353191 0.015691038940858298 0 0.1442545413050548 0.020546928539512361 0 0.1581624545571266 0.039709425330939213 0 0.1442545413050548 0.020546928539512361 0 0.1442545413050548 0.020546928539512361 0 0.1342925117224078 0.026523815463173409 0 0.12676122497650619 0.017213734322898421 0 0.1442545413050548 0.020546928539512361 0 0.1342925117224078 0.026523815463173409 0 0.1414389117217322 0.036014674773740693 0 0.1247153688863379 0.032319924216542117 0 0.1342925117224078 0.026523815463173409 0 0.12676122497650619 0.017213734322898421 0 0.1204873325010313 0.0058500305137734162 0 0.12676122497650619 0.017213734322898421 0 0.13034662805298211 0.001384431748086113 0 0.15010025361353191 0.015691038940858298 0 0.13034662805298211 0.001384431748086113 0 0.1442545413050548 0.020546928539512361 0 0.12676122497650619 0.017213734322898421 0 0.13034662805298211 0.001384431748086113 0 0.1442545413050548 0.020546928539512361 0 0.13034662805298211 0.001384431748086113 0 0.1630591858088109 0.046456202881115863 0 0.14287491086969389 0.046487225592935687 0 0.14090933892574789 0.065252254837587467 0 0.1630591858088109 0.046456202881115863 0 0.15904439019135649 0.061485469409662298 0 0.14090933892574789 0.065252254837587467 0 0.1630591858088109 0.046456202881115863 0 0.14090933892574789 0.065252254837587467 0 0.1581624545571266 0.039709425330939213 0 0.14287491086969389 0.046487225592935687 0 0.1630591858088109 0.046456202881115863 0 0.1581624545571266 0.039709425330939213 0 0.14287491086969389 0.046487225592935687 0 0.1581624545571266 0.039709425330939213 0 0.1414389117217322 0.036014674773740693 0 0.1581624545571266 0.039709425330939213 0 0.1442545413050548 0.020546928539512361 0 0.1414389117217322 0.036014674773740693 0 0.1581624545571266 0.039709425330939213 0 0.1414389117217322 0.036014674773740693 0 0.14287491086969389 0.046487225592935687 0 0.14287491086969389 0.046487225592935687 0 0.13255175461772381 0.041400847835301818 0 0.13035972252529171 0.049554185983596108 0 0.1414389117217322 0.036014674773740693 0 0.14287491086969389 0.046487225592935687 0 0.13255175461772381 0.041400847835301818 0 0.1247153688863379 0.032319924216542117 0 0.1342925117224078 0.026523815463173409 0 0.1414389117217322 0.036014674773740693 0 0.1247153688863379 0.032319924216542117 0 0.1414389117217322 0.036014674773740693 0 0.1247153688863379 0.032319924216542117 0 0.1414389117217322 0.036014674773740693 0 0.13255175461772381 0.041400847835301818 0 0.1233698590855634 0.042628228609694438 0 0.1247153688863379 0.032319924216542117 0 0.13255175461772381 0.041400847835301818 0 0.1233698590855634 0.042628228609694438 0 0.13255175461772381 0.041400847835301818 0 0.13035972252529171 0.049554185983596108 0 0.14287491086969389 0.046487225592935687 0 0.13146749193025431 0.061236951587981828 0 0.14090933892574789 0.065252254837587467 0 0.14287491086969389 0.046487225592935687 0 0.13035972252529171 0.049554185983596108 0 0.13146749193025431 0.061236951587981828 0 0.1204297969431717 0.055002002505404941 0 0.13035972252529171 0.049554185983596108 0 0.13146749193025431 0.061236951587981828 0 0.1187594920426856 0.084048306794060085 0 0.14090933892574789 0.065252254837587467 0 0.1187594920426856 0.084048306794060085 0 0.13146749193025431 0.061236951587981828 0 0.14090933892574789 0.065252254837587467 0 0.15904439019135649 0.061485469409662298 0 0.14090933892574789 0.065252254837587467 0 0.15857082065509981 0.073201297815073701 0 0.14090933892574789 0.065252254837587467 0 0.1493850129384863 0.082218106326044746 0 0.15857082065509981 0.073201297815073701 0 0.14090933892574789 0.065252254837587467 0 0.1493850129384863 0.082218106326044746 0 0.13657330076777369 0.085740179789636856 0 0.1493850129384863 0.082218106326044746 0 0.15857082065509981 0.073201297815073701 0 0.15727970626839219 0.092526106863925761 0 0.1493850129384863 0.082218106326044746 0 0.14518078515227351 0.092612993564770263 0 0.15727970626839219 0.092526106863925761 0 0.1493850129384863 0.082218106326044746 0 0.14518078515227351 0.092612993564770263 0 0.13657330076777369 0.085740179789636856 0 0.14518078515227351 0.092612993564770263 0 0.13657330076777369 0.085740179789636856 0 0.1367800607067477 0.098144868473837521 0 0.13657330076777369 0.085740179789636856 0 0.12794602954063461 0.095459697576126851 0 0.1367800607067477 0.098144868473837521 0 0.1187594920426856 0.084048306794060085 0 0.13657330076777369 0.085740179789636856 0 0.12794602954063461 0.095459697576126851 0 0.1187594920426856 0.084048306794060085 0 0.14090933892574789 0.065252254837587467 0 0.13657330076777369 0.085740179789636856 0 0.12794602954063461 0.095459697576126851 0 0.12756651237084651 0.1038829567658382 0 0.1367800607067477 0.098144868473837521 0 0.1212986478806161 0.1057371520678589 0 0.12794602954063461 0.095459697576126851 0 0.12756651237084651 0.1038829567658382 0 0.1212986478806161 0.1057371520678589 0 0.12756651237084651 0.1038829567658382 0 0.13500994611942579 0.11446706490779859 0 0.12756651237084651 0.1038829567658382 0 0.13631059106924689 0.1052326491294702 0 0.13500994611942579 0.11446706490779859 0 0.13631059106924689 0.1052326491294702 0 0.1367800607067477 0.098144868473837521 0 0.14588584507996749 0.1044357063704065 0 0.13631059106924689 0.1052326491294702 0 0.13500994611942579 0.11446706490779859 0 0.14588584507996749 0.1044357063704065 0 0.12756651237084651 0.1038829567658382 0 0.13631059106924689 0.1052326491294702 0 0.1367800607067477 0.098144868473837521 0 0.13457443098473601 0.13348359250328851 0 0.13500994611942579 0.11446706490779859 0 0.15107741427417851 0.11934751352569729 0 0.12349701806390299 0.1245150900138474 0 0.1212986478806161 0.1057371520678589 0 0.13500994611942579 0.11446706490779859 0 0.12349701806390299 0.1245150900138474 0 0.13457443098473601 0.13348359250328851 0 0.13500994611942579 0.11446706490779859 0 0.13500994611942579 0.11446706490779859 0 0.15107741427417851 0.11934751352569729 0 0.14588584507996749 0.1044357063704065 0 0.15107741427417851 0.11934751352569729 0 0.14588584507996749 0.1044357063704065 0 0.15798309099555741 0.1068851941250684 0 0.14518078515227351 0.092612993564770263 0 0.1367800607067477 0.098144868473837521 0 0.14588584507996749 0.1044357063704065 0 0.14588584507996749 0.1044357063704065 0 0.15798309099555741 0.1068851941250684 0 0.15727970626839219 0.092526106863925761 0 0.14518078515227351 0.092612993564770263 0 0.14588584507996749 0.1044357063704065 0 0.15727970626839219 0.092526106863925761 0 0.15798309099555741 0.1068851941250684 0 0.16935130295947401 0.096298263617024565 0 0.15727970626839219 0.092526106863925761 0 0.15798309099555741 0.1068851941250684 0 0.16935130295947401 0.096298263617024565 0 0.17182667185582151 0.1201681408548069 0 0.15107741427417851 0.11934751352569729 0 0.15798309099555741 0.1068851941250684 0 0.17182667185582151 0.1201681408548069 0 0.19602929382425541 0.12119549501190161 0 0.17182667185582151 0.1201681408548069 0 0.1821530056189872 0.1013518422000743 0 0.16935130295947401 0.096298263617024565 0 0.17182667185582151 0.1201681408548069 0 0.1821530056189872 0.1013518422000743 0 0.16935130295947401 0.096298263617024565 0 0.1821530056189872 0.1013518422000743 0 0.1823756312024169 0.087634068271237153 0 0.1943724519524932 0.089560820961977719 0 0.1821530056189872 0.1013518422000743 0 0.1823756312024169 0.087634068271237153 0 0.16935130295947401 0.096298263617024565 0 0.1823756312024169 0.087634068271237153 0 0.17052123575811559 0.083705254822905972 0 0.1823756312024169 0.087634068271237153 0 0.18421724494272379 0.075608041328628736 0 0.17052123575811559 0.083705254822905972 0 0.19581965143904889 0.077835504636232025 0 0.1823756312024169 0.087634068271237153 0 0.18421724494272379 0.075608041328628736 0 0.1861834325969168 0.057801002324011509 0 0.1736382153757674 0.061032122104872237 0 0.18421724494272379 0.075608041328628736 0 0.1736382153757674 0.061032122104872237 0 0.18421724494272379 0.075608041328628736 0 0.17052123575811559 0.083705254822905972 0 0.1736382153757674 0.061032122104872237 0 0.18421724494272379 0.075608041328628736 0 0.1736382153757674 0.061032122104872237 0 0.15857082065509981 0.073201297815073701 0 0.17052123575811559 0.083705254822905972 0 0.1736382153757674 0.061032122104872237 0 0.15904439019135649 0.061485469409662298 0 0.15857082065509981 0.073201297815073701 0 0.15857082065509981 0.073201297815073701 0 0.15727970626839219 0.092526106863925761 0 0.17052123575811559 0.083705254822905972 0 0.16935130295947401 0.096298263617024565 0 0.15727970626839219 0.092526106863925761 0 0.17052123575811559 0.083705254822905972 0 0.10959910650366279 0.47464618373203038 0 0.08698622773984746 0.46500280966533558 0 0.092633610958140572 0.48381766744793148 0 0.1079880574847826 0.5 0 0.10959910650366279 0.47464618373203038 0 0.092633610958140572 0.48381766744793148 0 0.1079880574847826 0.5 0 0.10959910650366279 0.47464618373203038 0 0.12989459617232979 0.48138448289014879 0 0.10959910650366279 0.47464618373203038 0 0.104415467728808 0.45552366093969882 0 0.13567667893806831 0.46214848144906773 0 0.1175391651047667 0.44141589212313309 0 0.104415467728808 0.45552366093969882 0 0.13567667893806831 0.46214848144906773 0 0.1175391651047667 0.44141589212313309 0 0.104415467728808 0.45552366093969882 0 0.092600605198941116 0.42561491275051389 0 0.10959910650366279 0.47464618373203038 0 0.104415467728808 0.45552366093969882 0 0.08698622773984746 0.46500280966533558 0 0.104415467728808 0.45552366093969882 0 0.08698622773984746 0.46500280966533558 0 0.082073125638814803 0.44738006954584908 0 0.104415467728808 0.45552366093969882 0 0.082073125638814803 0.44738006954584908 0 0.092600605198941116 0.42561491275051389 0 0.082073125638814803 0.44738006954584908 0 0.064784792644329764 0.45568008953519401 0 0.06157853488214763 0.43507887483850333 0 0.08698622773984746 0.46500280966533558 0 0.064784792644329764 0.45568008953519401 0 0.068547009081590976 0.47871548878911119 0 0.08698622773984746 0.46500280966533558 0 0.082073125638814803 0.44738006954584908 0 0.064784792644329764 0.45568008953519401 0 0.08698622773984746 0.46500280966533558 0 0.068547009081590976 0.47871548878911119 0 0.092633610958140572 0.48381766744793148 0 0.068547009081590976 0.47871548878911119 0 0.092633610958140572 0.48381766744793148 0 0.078537066843384851 0.5 0 0.1079880574847826 0.5 0 0.092633610958140572 0.48381766744793148 0 0.078537066843384851 0.5 0 0.068547009081590976 0.47871548878911119 0 0.078537066843384851 0.5 0 0.049086076201987072 0.5 0 0.068547009081590976 0.47871548878911119 0 0.049086076201987072 0.5 0 0.046781511490601731 0.47034750604651809 0 0.046781511490601731 0.47034750604651809 0 0.028248353660726651 0.48098347699858179 0 0.023580197947088832 0.4579000401158384 0 0.049086076201987072 0.5 0 0.046781511490601731 0.47034750604651809 0 0.028248353660726651 0.48098347699858179 0 0.049086076201987072 0.5 0 0.019635085560589242 0.5 0 0.028248353660726651 0.48098347699858179 0 0.019635085560589242 0.5 0 0.028248353660726651 0.48098347699858179 0 0.002158897103366377 0.47666983883055269 0 0.028248353660726651 0.48098347699858179 0 0.002158897103366377 0.47666983883055269 0 0.023580197947088832 0.4579000401158384 0 -0.0098159050808084292 0.5 0 0.019635085560589242 0.5 0 0.002158897103366377 0.47666983883055269 0 0.0126338634495201 0.4381440055387073 0 0.0043144051270178176 0.45472756546099208 0 0.023580197947088832 0.4579000401158384 0 -0.00085659373153767517 0.43893874695334101 0 0.0126338634495201 0.4381440055387073 0 0.0043144051270178176 0.45472756546099208 0 -0.0062179193122818468 0.46262535980993602 0 0.002158897103366377 0.47666983883055269 0 0.0043144051270178176 0.45472756546099208 0 0.002158897103366377 0.47666983883055269 0 0.0043144051270178176 0.45472756546099208 0 0.023580197947088832 0.4579000401158384 0 0.0126338634495201 0.4381440055387073 0 0.023580197947088832 0.4579000401158384 0 0.024475638594812901 0.43866336671052419 0 0.023580197947088832 0.4579000401158384 0 0.024475638594812901 0.43866336671052419 0 0.04398478828038855 0.44232590645116832 0 0.046781511490601731 0.47034750604651809 0 0.023580197947088832 0.4579000401158384 0 0.04398478828038855 0.44232590645116832 0 0.064784792644329764 0.45568008953519401 0 0.068547009081590976 0.47871548878911119 0 0.046781511490601731 0.47034750604651809 0 0.064784792644329764 0.45568008953519401 0 0.046781511490601731 0.47034750604651809 0 0.04398478828038855 0.44232590645116832 0 0.064784792644329764 0.45568008953519401 0 0.04398478828038855 0.44232590645116832 0 0.06157853488214763 0.43507887483850333 0 0.04398478828038855 0.44232590645116832 0 0.06157853488214763 0.43507887483850333 0 0.051403440410182397 0.41926393710196008 0 0.06157853488214763 0.43507887483850333 0 0.051403440410182397 0.41926393710196008 0 0.067662045293115036 0.40981393337789529 0 0.051403440410182397 0.41926393710196008 0 0.045399930520418318 0.39570873974832582 0 0.067662045293115036 0.40981393337789529 0 0.051403440410182397 0.41926393710196008 0 0.034589524650725137 0.41856623516762109 0 0.045399930520418318 0.39570873974832582 0 0.024475638594812901 0.43866336671052419 0 0.04398478828038855 0.44232590645116832 0 0.034589524650725137 0.41856623516762109 0 0.04398478828038855 0.44232590645116832 0 0.051403440410182397 0.41926393710196008 0 0.034589524650725137 0.41856623516762109 0 0.024475638594812901 0.43866336671052419 0 0.020222006506546441 0.41282577987709068 0 0.0096820257698774989 0.42068437546216347 0 0.024475638594812901 0.43866336671052419 0 0.0096820257698774989 0.42068437546216347 0 0.024475638594812901 0.43866336671052419 0 0.034589524650725137 0.41856623516762109 0 0.020222006506546441 0.41282577987709068 0 0.034589524650725137 0.41856623516762109 0 0.020222006506546441 0.41282577987709068 0 0.0221926061876687 0.39961354804976718 0 -0.0051115870550579026 0.40270538421380281 0 0.0096820257698774989 0.42068437546216347 0 -0.00654839579707347 0.40627376905409451 0 0.0096820257698774989 0.42068437546216347 0 0.0068084082858462366 0.42782114514274722 0 -0.0051115870550579026 0.40270538421380281 0 0.0096820257698774989 0.42068437546216347 0 0.01032273649714081 0.40594179219939491 0 -0.00654839579707347 0.40627376905409451 0 0.0068084082858462366 0.42782114514274722 0 0.020222006506546441 0.41282577987709068 0 0.0096820257698774989 0.42068437546216347 0 0.01032273649714081 0.40594179219939491 0 0.0126338634495201 0.4381440055387073 0 0.0096820257698774989 0.42068437546216347 0 0.0068084082858462366 0.42782114514274722 0 0.0126338634495201 0.4381440055387073 0 0.024475638594812901 0.43866336671052419 0 0.0096820257698774989 0.42068437546216347 0 -0.0049645001103141243 0.42800246128872799 0 -0.00085659373153767517 0.43893874695334101 0 0.0068084082858462366 0.42782114514274722 0 -0.00085659373153767517 0.43893874695334101 0 0.0126338634495201 0.4381440055387073 0 0.0068084082858462366 0.42782114514274722 0 0.0016991597321124371 0.37954553274575858 0 0.01689654441139567 0.38237585772907201 0 0.01420749733036923 0.36630424648818322 0 0.0016991597321124371 0.37954553274575858 0 0.0046286310766693031 0.39387987339415009 0 0.01689654441139567 0.38237585772907201 0 -0.0058383104565521487 0.38842434075647703 0 0.0016991597321124371 0.37954553274575858 0 0.0046286310766693031 0.39387987339415009 0 0.0046286310766693031 0.39387987339415009 0 0.01032273649714081 0.40594179219939491 0 0.0221926061876687 0.39961354804976718 0 0.0046286310766693031 0.39387987339415009 0 0.0221926061876687 0.39961354804976718 0 0.01689654441139567 0.38237585772907201 0 -0.0051115870550579026 0.40270538421380281 0 0.0046286310766693031 0.39387987339415009 0 0.01032273649714081 0.40594179219939491 0 0.020222006506546441 0.41282577987709068 0 0.01032273649714081 0.40594179219939491 0 0.0221926061876687 0.39961354804976718 0 0.01689654441139567 0.38237585772907201 0 0.03384036500607665 0.38457927172336409 0 0.030620471656630829 0.36869856636125481 0 0.0221926061876687 0.39961354804976718 0 0.01689654441139567 0.38237585772907201 0 0.03384036500607665 0.38457927172336409 0 0.03384036500607665 0.38457927172336409 0 0.054092272254269727 0.37649964672840081 0 0.030620471656630829 0.36869856636125481 0 0.03384036500607665 0.38457927172336409 0 0.045399930520418318 0.39570873974832582 0 0.054092272254269727 0.37649964672840081 0 0.034589524650725137 0.41856623516762109 0 0.0221926061876687 0.39961354804976718 0 0.045399930520418318 0.39570873974832582 0 0.0221926061876687 0.39961354804976718 0 0.03384036500607665 0.38457927172336409 0 0.045399930520418318 0.39570873974832582 0 0.045399930520418318 0.39570873974832582 0 0.074038043529317449 0.38333428407866899 0 0.067662045293115036 0.40981393337789529 0 0.045399930520418318 0.39570873974832582 0 0.067662045293115036 0.40981393337789529 0 0.045399930520418318 0.39570873974832582 0 0.054092272254269727 0.37649964672840081 0 0.074038043529317449 0.38333428407866899 0 0.074038043529317449 0.38333428407866899 0 0.1041586876744878 0.38379309937742312 0 0.1018591235779477 0.36188605249449202 0 0.074038043529317449 0.38333428407866899 0 0.091595243215351119 0.40245288053264111 0 0.1041586876744878 0.38379309937742312 0 0.074038043529317449 0.38333428407866899 0 0.091595243215351119 0.40245288053264111 0 0.067662045293115036 0.40981393337789529 0 0.074038043529317449 0.38333428407866899 0 0.067662045293115036 0.40981393337789529 0 0.06157853488214763 0.43507887483850333 0 0.067662045293115036 0.40981393337789529 0 0.092600605198941116 0.42561491275051389 0 0.06157853488214763 0.43507887483850333 0 0.067662045293115036 0.40981393337789529 0 0.082073125638814803 0.44738006954584908 0 0.06157853488214763 0.43507887483850333 0 0.092600605198941116 0.42561491275051389 0 0.067662045293115036 0.40981393337789529 0 0.092600605198941116 0.42561491275051389 0 0.091595243215351119 0.40245288053264111 0 0.067662045293115036 0.40981393337789529 0 0.092600605198941116 0.42561491275051389 0 0.1175391651047667 0.44141589212313309 0 0.11951683438089419 0.40970817307870461 0 0.13573149626452111 0.42489420828500768 0 0.1175391651047667 0.44141589212313309 0 0.092600605198941116 0.42561491275051389 0 0.11951683438089419 0.40970817307870461 0 0.091595243215351119 0.40245288053264111 0 0.092600605198941116 0.42561491275051389 0 0.11951683438089419 0.40970817307870461 0 0.1175391651047667 0.44141589212313309 0 0.092600605198941116 0.42561491275051389 0 0.11951683438089419 0.40970817307870461 0 0.123652872163868 0.38682039342394631 0 0.1041586876744878 0.38379309937742312 0 0.123652872163868 0.38682039342394631 0 0.1041586876744878 0.38379309937742312 0 0.1261321638681823 0.3640591506305112 0 0.091595243215351119 0.40245288053264111 0 0.11951683438089419 0.40970817307870461 0 0.1041586876744878 0.38379309937742312 0 0.1057541768122595 0.34381902233000883 0 0.1018591235779477 0.36188605249449202 0 0.080414041765520111 0.35685463477944301 0 0.1041586876744878 0.38379309937742312 0 0.1018591235779477 0.36188605249449202 0 0.1261321638681823 0.3640591506305112 0 0.1057541768122595 0.34381902233000883 0 0.1018591235779477 0.36188605249449202 0 0.1261321638681823 0.3640591506305112 0 0.1057541768122595 0.34381902233000883 0 0.1264559515818951 0.33605814285010571 0 0.1261321638681823 0.3640591506305112 0 0.1057541768122595 0.34381902233000883 0 0.1068964425600375 0.32801934920003573 0 0.1264559515818951 0.33605814285010571 0 0.1225330628970052 0.31535656161609321 0 0.1068964425600375 0.32801934920003573 0 0.1264559515818951 0.33605814285010571 0 0.1225330628970052 0.31535656161609321 0 0.097465113166396306 0.31437125352826922 0 0.1225330628970052 0.31535656161609321 0 0.1068964425600375 0.32801934920003573 0 0.097465113166396306 0.31437125352826922 0 0.1068964425600375 0.32801934920003573 0 0.097465113166396306 0.31437125352826922 0 0.08415238010017223 0.33369156121092358 0 0.1057541768122595 0.34381902233000883 0 0.1068964425600375 0.32801934920003573 0 0.08415238010017223 0.33369156121092358 0 0.097465113166396306 0.31437125352826922 0 0.08415238010017223 0.33369156121092358 0 0.072397163435787448 0.31338594544044418 0 0.097465113166396306 0.31437125352826922 0 0.072397163435787448 0.31338594544044418 0 0.08415238010017223 0.33369156121092358 0 0.072397163435787448 0.31338594544044418 0 0.066026003917269732 0.33062974340371848 0 0.072397163435787448 0.31338594544044418 0 0.055022841036659102 0.31270303915715147 0 0.066026003917269732 0.33062974340371848 0 0.080414041765520111 0.35685463477944301 0 0.057503495353417623 0.34373912816416419 0 0.08415238010017223 0.33369156121092358 0 0.066026003917269732 0.33062974340371848 0 0.080414041765520111 0.35685463477944301 0 0.080414041765520111 0.35685463477944301 0 0.052171123795654778 0.35732014080114027 0 0.057503495353417623 0.34373912816416419 0 0.1057541768122595 0.34381902233000883 0 0.08415238010017223 0.33369156121092358 0 0.080414041765520111 0.35685463477944301 0 0.074038043529317449 0.38333428407866899 0 0.1018591235779477 0.36188605249449202 0 0.080414041765520111 0.35685463477944301 0 0.074038043529317449 0.38333428407866899 0 0.080414041765520111 0.35685463477944301 0 0.054092272254269727 0.37649964672840081 0 0.074038043529317449 0.38333428407866899 0 0.080414041765520111 0.35685463477944301 0 0.054092272254269727 0.37649964672840081 0 0.080414041765520111 0.35685463477944301 0 0.052171123795654778 0.35732014080114027 0 0.052171123795654778 0.35732014080114027 0 0.041103747056829808 0.34567929945128639 0 0.057503495353417623 0.34373912816416419 0 0.041103747056829808 0.34567929945128639 0 0.030620471656630829 0.36869856636125481 0 0.02320795702784036 0.34303769933002098 0 0.052171123795654778 0.35732014080114027 0 0.041103747056829808 0.34567929945128639 0 0.030620471656630829 0.36869856636125481 0 0.054092272254269727 0.37649964672840081 0 0.052171123795654778 0.35732014080114027 0 0.030620471656630829 0.36869856636125481 0 0.01689654441139567 0.38237585772907201 0 0.030620471656630829 0.36869856636125481 0 0.01420749733036923 0.36630424648818322 0 0.030620471656630829 0.36869856636125481 0 0.01420749733036923 0.36630424648818322 0 0.02320795702784036 0.34303769933002098 0 -0.0013866461761331409 0.35786357627480991 0 0.01420749733036923 0.36630424648818322 0 0.02320795702784036 0.34303769933002098 0 -0.0013866461761331409 0.35786357627480991 0 0.0053448791358674261 0.3398377684093693 0 0.02320795702784036 0.34303769933002098 0 -0.0013866461761331409 0.35786357627480991 0 0.02320795702784036 0.34303769933002098 0 -0.0013866461761331409 0.35786357627480991 0 0.0016991597321124371 0.37954553274575858 0 0.01420749733036923 0.36630424648818322 0 0.01281914404673218 0.31374463226847288 0 0.0046366698239865469 0.32328774136327859 0 0.021943685714380878 0.3237720630099607 0 0.01281914404673218 0.31374463226847288 0 0.0046366698239865469 0.32328774136327859 0 0.0032755366433567402 0.31052339785774491 0 -0.0062323808828551224 0.33461536958361737 0 0.0046366698239865469 0.32328774136327859 0 0.0053448791358674261 0.3398377684093693 0 0.0046366698239865469 0.32328774136327859 0 0.0053448791358674261 0.3398377684093693 0 0.021943685714380878 0.3237720630099607 0 0.02320795702784036 0.34303769933002098 0 0.021943685714380878 0.3237720630099607 0 0.047802560231813673 0.32821182238523228 0 0.0053448791358674261 0.3398377684093693 0 0.02320795702784036 0.34303769933002098 0 0.021943685714380878 0.3237720630099607 0 0.01281914404673218 0.31374463226847288 0 0.021943685714380878 0.3237720630099607 0 0.024713113289476771 0.30787301343487172 0 0.021943685714380878 0.3237720630099607 0 0.037648518637530798 0.31202013287385783 0 0.024713113289476771 0.30787301343487172 0 0.047802560231813673 0.32821182238523228 0 0.055022841036659102 0.31270303915715147 0 0.037648518637530798 0.31202013287385783 0 0.021943685714380878 0.3237720630099607 0 0.047802560231813673 0.32821182238523228 0 0.037648518637530798 0.31202013287385783 0 0.02320795702784036 0.34303769933002098 0 0.047802560231813673 0.32821182238523228 0 0.041103747056829808 0.34567929945128639 0 0.02320795702784036 0.34303769933002098 0 0.047802560231813673 0.32821182238523228 0 0.041103747056829808 0.34567929945128639 0 0.057503495353417623 0.34373912816416419 0 0.047802560231813673 0.32821182238523228 0 0.066026003917269732 0.33062974340371848 0 0.057503495353417623 0.34373912816416419 0 0.047802560231813673 0.32821182238523228 0 0.072397163435787448 0.31338594544044418 0 0.047802560231813673 0.32821182238523228 0 0.072397163435787448 0.31338594544044418 0 0.047802560231813673 0.32821182238523228 0 0.055022841036659102 0.31270303915715147 0 0.072397163435787448 0.31338594544044418 0 0.066026003917269732 0.33062974340371848 0 0.047802560231813673 0.32821182238523228 0 0.055022841036659102 0.31270303915715147 0 0.048268794749993127 0.30202993587505689 0 0.037648518637530798 0.31202013287385783 0 0.055022841036659102 0.31270303915715147 0 0.048268794749993127 0.30202993587505689 0 0.063027174388470206 0.29933874819400169 0 0.050858454826111947 0.2885275383281567 0 0.061336387779927011 0.27689489931873978 0 0.064013957068474958 0.28745744615972357 0 0.050858454826111947 0.2885275383281567 0 0.064013957068474958 0.28745744615972357 0 0.063027174388470206 0.29933874819400169 0 0.048268794749993127 0.30202993587505689 0 0.050858454826111947 0.2885275383281567 0 0.063027174388470206 0.29933874819400169 0 0.050858454826111947 0.2885275383281567 0 0.034791527410230227 0.28484029471276601 0 0.036508866669343137 0.29819192053317822 0 0.050858454826111947 0.2885275383281567 0 0.034791527410230227 0.28484029471276601 0 0.047138143724239023 0.27385636652452472 0 0.048268794749993127 0.30202993587505689 0 0.050858454826111947 0.2885275383281567 0 0.036508866669343137 0.29819192053317822 0 0.055022841036659102 0.31270303915715147 0 0.037648518637530798 0.31202013287385783 0 0.048268794749993127 0.30202993587505689 0 0.036508866669343137 0.29819192053317822 0 0.037648518637530798 0.31202013287385783 0 0.036508866669343137 0.29819192053317822 0 0.037648518637530798 0.31202013287385783 0 0.024713113289476771 0.30787301343487172 0 0.01281914404673218 0.31374463226847288 0 0.024713113289476771 0.30787301343487172 0 0.011724109107430941 0.30253001435966198 0 0.024713113289476771 0.30787301343487172 0 0.022322793797061941 0.29469968425199983 0 0.011724109107430941 0.30253001435966198 0 0.036508866669343137 0.29819192053317822 0 0.024713113289476771 0.30787301343487172 0 0.022322793797061941 0.29469968425199983 0 0.034791527410230227 0.28484029471276601 0 0.036508866669343137 0.29819192053317822 0 0.022322793797061941 0.29469968425199983 0 0.034791527410230227 0.28484029471276601 0 0.02125075851114077 0.28152166520883692 0 0.022322793797061941 0.29469968425199983 0 0.02125075851114077 0.28152166520883692 0 0.022322793797061941 0.29469968425199983 0 0.01151720508948172 0.29089303581106402 0 -0.00090435185522157874 0.29742975324218318 0 0.01151720508948172 0.29089303581106402 0 0.0075221420031196667 0.27762628943385992 0 -0.00090435185522157874 0.29742975324218318 0 0.0075221420031196667 0.27762628943385992 0 -0.00090435185522157874 0.29742975324218318 0 -4.501939692783466e-05 0.29213092697448362 0 0.0075221420031196667 0.27762628943385992 0 0.022322793797061941 0.29469968425199983 0 0.01151720508948172 0.29089303581106402 0 0.011724109107430941 0.30253001435966198 0 0.02125075851114077 0.28152166520883692 0 0.01151720508948172 0.29089303581106402 0 0.0075221420031196667 0.27762628943385992 0 -0.00090435185522157874 0.29742975324218318 0 0.01151720508948172 0.29089303581106402 0 0.011724109107430941 0.30253001435966198 0 -0.00090435185522157874 0.29742975324218318 0 0.0032755366433567402 0.31052339785774491 0 0.011724109107430941 0.30253001435966198 0 0.01281914404673218 0.31374463226847288 0 0.0032755366433567402 0.31052339785774491 0 0.011724109107430941 0.30253001435966198 0 0.018526633236342169 0.24192634682243749 0 0.0092408069197071549 0.26702863689846063 0 0.018526633236342169 0.24192634682243749 0 0.0057197087398602716 0.25638837365480188 0 0.0092408069197071549 0.26702863689846063 0 0.01004767869401268 0.2460499980395312 0 0.0012536845682404041 0.25038943113572448 0 0.0057197087398602716 0.25638837365480188 0 -0.0064195805784558694 0.25571646301748818 0 0.0012536845682404041 0.25038943113572448 0 0.0057197087398602716 0.25638837365480188 0 -0.001815615808124528 0.26650856277061302 0 0.0057197087398602716 0.25638837365480188 0 0.0092408069197071549 0.26702863689846063 0 -4.501939692783466e-05 0.29213092697448362 0 0.0075221420031196667 0.27762628943385992 0 0.0092408069197071549 0.26702863689846063 0 -4.501939692783466e-05 0.29213092697448362 0 0.0092408069197071549 0.26702863689846063 0 -0.0010589938020261389 0.27626584534435938 0 -0.001815615808124528 0.26650856277061302 0 0.0092408069197071549 0.26702863689846063 0 -0.0010589938020261389 0.27626584534435938 0 -4.501939692783466e-05 0.29213092697448362 0 0.0092408069197071549 0.26702863689846063 0 0.0075221420031196667 0.27762628943385992 0 0.0092408069197071549 0.26702863689846063 0 0.01884645571884477 0.27167056472268031 0 0.0092408069197071549 0.26702863689846063 0 0.01884645571884477 0.27167056472268031 0 0.025548424226771688 0.25993163864234481 0 0.02125075851114077 0.28152166520883692 0 0.0075221420031196667 0.27762628943385992 0 0.01884645571884477 0.27167056472268031 0 0.034791527410230227 0.28484029471276601 0 0.02125075851114077 0.28152166520883692 0 0.03067014693348457 0.27224459342989932 0 0.02125075851114077 0.28152166520883692 0 0.01884645571884477 0.27167056472268031 0 0.03067014693348457 0.27224459342989932 0 0.01884645571884477 0.27167056472268031 0 0.03067014693348457 0.27224459342989932 0 0.025548424226771688 0.25993163864234481 0 0.0092408069197071549 0.26702863689846063 0 0.025548424226771688 0.25993163864234481 0 0.020945845084855509 0.25415764331182761 0 0.018526633236342169 0.24192634682243749 0 0.0092408069197071549 0.26702863689846063 0 0.020945845084855509 0.25415764331182761 0 0.030467515956601039 0.24774395088406731 0 0.025548424226771688 0.25993163864234481 0 0.020945845084855509 0.25415764331182761 0 0.030467515956601039 0.24774395088406731 0 0.025548424226771688 0.25993163864234481 0 0.042345457215367442 0.25898809975177373 0 0.03067014693348457 0.27224459342989932 0 0.025548424226771688 0.25993163864234481 0 0.042345457215367442 0.25898809975177373 0 0.03067014693348457 0.27224459342989932 0 0.042345457215367442 0.25898809975177373 0 0.047138143724239023 0.27385636652452472 0 0.034791527410230227 0.28484029471276601 0 0.03067014693348457 0.27224459342989932 0 0.047138143724239023 0.27385636652452472 0 0.047138143724239023 0.27385636652452472 0 0.061336387779927011 0.27689489931873978 0 0.062220982624195363 0.2612002384708802 0 0.050858454826111947 0.2885275383281567 0 0.047138143724239023 0.27385636652452472 0 0.061336387779927011 0.27689489931873978 0 0.042345457215367442 0.25898809975177373 0 0.062220982624195363 0.2612002384708802 0 0.042345457215367442 0.25898809975177373 0 0.047138143724239023 0.27385636652452472 0 0.062220982624195363 0.2612002384708802 0 0.055010650704319597 0.24584136736710169 0 0.042345457215367442 0.25898809975177373 0 0.062220982624195363 0.2612002384708802 0 0.055010650704319597 0.24584136736710169 0 0.072037619681666235 0.24489848484308671 0 0.062220982624195363 0.2612002384708802 0 0.072037619681666235 0.24489848484308671 0 0.062220982624195363 0.2612002384708802 0 0.082096508033023236 0.263412377189987 0 0.062220982624195363 0.2612002384708802 0 0.082096508033023236 0.263412377189987 0 0.075124921148622514 0.26832165015100068 0 0.062220982624195363 0.2612002384708802 0 0.082096508033023236 0.263412377189987 0 0.091121925685512209 0.23981708687531289 0 0.082096508033023236 0.263412377189987 0 0.082096508033023236 0.263412377189987 0 0.10269404283371319 0.26570487529071668 0 0.091121925685512209 0.23981708687531289 0 0.082096508033023236 0.263412377189987 0 0.097108688912541458 0.25457928013682479 0 0.082096508033023236 0.263412377189987 0 0.081191699624411584 0.26577783194259819 0 0.082096508033023236 0.263412377189987 0 0.095073375641923599 0.2729301847703039 0 0.10269404283371319 0.26570487529071668 0 0.086118207181965015 0.27254252119564198 0 0.084753545028096081 0.27874136854009313 0 0.090722264418775608 0.28148892717307722 0 0.086118207181965015 0.27254252119564198 0 0.090722264418775608 0.28148892717307722 0 0.095073375641923599 0.2729301847703039 0 0.082096508033023236 0.263412377189987 0 0.086118207181965015 0.27254252119564198 0 0.095073375641923599 0.2729301847703039 0 0.082096508033023236 0.263412377189987 0 0.086118207181965015 0.27254252119564198 0 0.081191699624411584 0.26577783194259819 0 0.086118207181965015 0.27254252119564198 0 0.081191699624411584 0.26577783194259819 0 0.080578609937525816 0.27305751936860201 0 0.081191699624411584 0.26577783194259819 0 0.080578609937525816 0.27305751936860201 0 0.075124921148622514 0.26832165015100068 0 0.082096508033023236 0.263412377189987 0 0.081191699624411584 0.26577783194259819 0 0.075124921148622514 0.26832165015100068 0 0.080578609937525816 0.27305751936860201 0 0.084753545028096081 0.27874136854009313 0 0.078613540163712539 0.27889164372580932 0 0.080578609937525816 0.27305751936860201 0 0.078613540163712539 0.27889164372580932 0 0.075293508661542441 0.27424487807788461 0 0.086118207181965015 0.27254252119564198 0 0.080578609937525816 0.27305751936860201 0 0.084753545028096081 0.27874136854009313 0 0.084753545028096081 0.27874136854009313 0 0.078613540163712539 0.27889164372580932 0 0.08311611149609216 0.28458078662965042 0 0.078613540163712539 0.27889164372580932 0 0.075293508661542441 0.27424487807788461 0 0.070487922741212183 0.27980885978068643 0 0.061336387779927011 0.27689489931873978 0 0.062220982624195363 0.2612002384708802 0 0.069368218011036722 0.27223705585605218 0 0.075293508661542441 0.27424487807788461 0 0.070487922741212183 0.27980885978068643 0 0.069368218011036722 0.27223705585605218 0 0.080578609937525816 0.27305751936860201 0 0.075293508661542441 0.27424487807788461 0 0.075124921148622514 0.26832165015100068 0 0.075293508661542441 0.27424487807788461 0 0.075124921148622514 0.26832165015100068 0 0.069368218011036722 0.27223705585605218 0 0.062220982624195363 0.2612002384708802 0 0.075124921148622514 0.26832165015100068 0 0.069368218011036722 0.27223705585605218 0 0.061336387779927011 0.27689489931873978 0 0.070487922741212183 0.27980885978068643 0 0.069368218011036722 0.27223705585605218 0 0.070487922741212183 0.27980885978068643 0 0.064013957068474958 0.28745744615972357 0 0.073979493225443532 0.28906189167903379 0 0.061336387779927011 0.27689489931873978 0 0.070487922741212183 0.27980885978068643 0 0.064013957068474958 0.28745744615972357 0 0.064013957068474958 0.28745744615972357 0 0.073979493225443532 0.28906189167903379 0 0.063027174388470206 0.29933874819400169 0 0.073979493225443532 0.28906189167903379 0 0.063027174388470206 0.29933874819400169 0 0.078331618679198523 0.29855834812592141 0 0.078613540163712539 0.27889164372580932 0 0.070487922741212183 0.27980885978068643 0 0.073979493225443532 0.28906189167903379 0 0.072397163435787448 0.31338594544044418 0 0.055022841036659102 0.31270303915715147 0 0.063027174388470206 0.29933874819400169 0 0.072397163435787448 0.31338594544044418 0 0.063027174388470206 0.29933874819400169 0 0.078331618679198523 0.29855834812592141 0 0.072397163435787448 0.31338594544044418 0 0.078331618679198523 0.29855834812592141 0 0.096227813102222032 0.29902058745768662 0 0.097465113166396306 0.31437125352826922 0 0.072397163435787448 0.31338594544044418 0 0.096227813102222032 0.29902058745768662 0 0.072397163435787448 0.31338594544044418 0 0.096227813102222032 0.29902058745768662 0 0.078331618679198523 0.29855834812592141 0 0.086026449244069436 0.29198456785844079 0 0.096227813102222032 0.29902058745768662 0 0.073979493225443532 0.28906189167903379 0 0.08311611149609216 0.28458078662965042 0 0.086026449244069436 0.29198456785844079 0 0.078613540163712539 0.27889164372580932 0 0.073979493225443532 0.28906189167903379 0 0.08311611149609216 0.28458078662965042 0 0.073979493225443532 0.28906189167903379 0 0.078331618679198523 0.29855834812592141 0 0.086026449244069436 0.29198456785844079 0 0.086026449244069436 0.29198456785844079 0 0.090722264418775608 0.28148892717307722 0 0.099700991401329778 0.28702670613255299 0 0.08311611149609216 0.28458078662965042 0 0.086026449244069436 0.29198456785844079 0 0.090722264418775608 0.28148892717307722 0 0.084753545028096081 0.27874136854009313 0 0.08311611149609216 0.28458078662965042 0 0.090722264418775608 0.28148892717307722 0 0.096227813102222032 0.29902058745768662 0 0.1200584627686571 0.28465522947492972 0 0.090722264418775608 0.28148892717307722 0 0.099700991401329778 0.28702670613255299 0 0.10546996747292479 0.27798421869863083 0 0.099700991401329778 0.28702670613255299 0 0.096227813102222032 0.29902058745768662 0 0.1200584627686571 0.28465522947492972 0 0.099700991401329778 0.28702670613255299 0 0.1200584627686571 0.28465522947492972 0 0.10546996747292479 0.27798421869863083 0 0.086026449244069436 0.29198456785844079 0 0.099700991401329778 0.28702670613255299 0 0.096227813102222032 0.29902058745768662 0 0.097465113166396306 0.31437125352826922 0 0.096227813102222032 0.29902058745768662 0 0.11344818134399259 0.3006384292111588 0 0.1225330628970052 0.31535656161609321 0 0.11344818134399259 0.3006384292111588 0 0.12693017061634279 0.29750950275657811 0 0.1225330628970052 0.31535656161609321 0 0.097465113166396306 0.31437125352826922 0 0.11344818134399259 0.3006384292111588 0 0.11344818134399259 0.3006384292111588 0 0.1200584627686571 0.28465522947492972 0 0.12693017061634279 0.29750950275657811 0 0.096227813102222032 0.29902058745768662 0 0.11344818134399259 0.3006384292111588 0 0.1200584627686571 0.28465522947492972 0 0.1232915776344031 0.26799737339144669 0 0.10546996747292479 0.27798421869863083 0 0.10269404283371319 0.26570487529071668 0 0.1200584627686571 0.28465522947492972 0 0.1232915776344031 0.26799737339144669 0 0.10546996747292479 0.27798421869863083 0 0.1232915776344031 0.26799737339144669 0 0.10269404283371319 0.26570487529071668 0 0.1125222790979172 0.24938278119128249 0 0.1232915776344031 0.26799737339144669 0 0.10269404283371319 0.26570487529071668 0 0.082096508033023236 0.263412377189987 0 0.097108688912541458 0.25457928013682479 0 0.10269404283371319 0.26570487529071668 0 0.1125222790979172 0.24938278119128249 0 0.097108688912541458 0.25457928013682479 0 0.10269404283371319 0.26570487529071668 0 0.095073375641923599 0.2729301847703039 0 0.10546996747292479 0.27798421869863083 0 0.10269404283371319 0.26570487529071668 0 0.090722264418775608 0.28148892717307722 0 0.095073375641923599 0.2729301847703039 0 0.10546996747292479 0.27798421869863083 0 0.14388911243509331 0.27028987149217493 0 0.15153071154214481 0.2860093521859704 0 0.16680101887826901 0.27283995831146568 0 0.14388911243509331 0.27028987149217493 0 0.13692161933433211 0.28748640928572688 0 0.15153071154214481 0.2860093521859704 0 0.14388911243509331 0.27028987149217493 0 0.16680101887826901 0.27283995831146568 0 0.14133206126170589 0.25001069905194012 0 0.16432584004148529 0.24062447961538569 0 0.16123866194045569 0.25983138660096339 0 0.14388911243509331 0.27028987149217493 0 0.16123866194045569 0.25983138660096339 0 0.14133206126170589 0.25001069905194012 0 0.14388911243509331 0.27028987149217493 0 0.16123866194045569 0.25983138660096339 0 0.14133206126170589 0.25001069905194012 0 0.1232915776344031 0.26799737339144669 0 0.14388911243509331 0.27028987149217493 0 0.1125222790979172 0.24938278119128249 0 0.14133206126170589 0.25001069905194012 0 0.1232915776344031 0.26799737339144669 0 0.1232915776344031 0.26799737339144669 0 0.14388911243509331 0.27028987149217493 0 0.1200584627686571 0.28465522947492972 0 0.1232915776344031 0.26799737339144669 0 0.14388911243509331 0.27028987149217493 0 0.1200584627686571 0.28465522947492972 0 0.14388911243509331 0.27028987149217493 0 0.13692161933433211 0.28748640928572688 0 0.1200584627686571 0.28465522947492972 0 0.14388911243509331 0.27028987149217493 0 0.1200584627686571 0.28465522947492972 0 0.13692161933433211 0.28748640928572688 0 0.12693017061634279 0.29750950275657811 0 0.13692161933433211 0.28748640928572688 0 0.12693017061634279 0.29750950275657811 0 0.14168952673772731 0.29941088419498191 0 0.1225330628970052 0.31535656161609321 0 0.12693017061634279 0.29750950275657811 0 0.14168952673772731 0.29941088419498191 0 0.1225330628970052 0.31535656161609321 0 0.14168952673772731 0.29941088419498191 0 0.1442156203211537 0.31936292534782429 0 0.14168952673772731 0.29941088419498191 0 0.1554111462823051 0.30293834088858351 0 0.1442156203211537 0.31936292534782429 0 0.14168952673772731 0.29941088419498191 0 0.1554111462823051 0.30293834088858351 0 0.15153071154214481 0.2860093521859704 0 0.13692161933433211 0.28748640928572688 0 0.14168952673772731 0.29941088419498191 0 0.15153071154214481 0.2860093521859704 0 0.15153071154214481 0.2860093521859704 0 0.16608147990298311 0.29428571531161718 0 0.16680101887826901 0.27283995831146568 0 0.1554111462823051 0.30293834088858351 0 0.15153071154214481 0.2860093521859704 0 0.16608147990298311 0.29428571531161718 0 0.16608147990298311 0.29428571531161718 0 0.1772048030327833 0.28458775967095168 0 0.16680101887826901 0.27283995831146568 0 0.1554111462823051 0.30293834088858351 0 0.16563052782280149 0.30726951773467293 0 0.15974319678861609 0.31646992801679957 0 0.1554111462823051 0.30293834088858351 0 0.16608147990298311 0.29428571531161718 0 0.16563052782280149 0.30726951773467293 0 0.16608147990298311 0.29428571531161718 0 0.16563052782280149 0.30726951773467293 0 0.17539976513165931 0.30484657262727971 0 0.16563052782280149 0.30726951773467293 0 0.17539976513165931 0.30484657262727971 0 0.17151705100844361 0.31780703182908449 0 0.18622378802843631 0.2958353199299692 0 0.1826225208446414 0.31693764151118481 0 0.19215269827660161 0.29629144773047478 0 0.1814724331806683 0.32280479789128608 0 0.18622378802843631 0.2958353199299692 0 0.19215269827660161 0.29629144773047478 0 0.1826225208446414 0.31693764151118481 0 0.19215269827660161 0.29629144773047478 0 0.1826225208446414 0.31693764151118481 0 0.1814724331806683 0.32280479789128608 0 0.16608147990298311 0.29428571531161718 0 0.17539976513165931 0.30484657262727971 0 0.18622378802843631 0.2958353199299692 0 0.17539976513165931 0.30484657262727971 0 0.18622378802843631 0.2958353199299692 0 0.1826225208446414 0.31693764151118481 0 0.1772048030327833 0.28458775967095168 0 0.18622378802843631 0.2958353199299692 0 0.1897129253214449 0.27539004513075471 0 0.16608147990298311 0.29428571531161718 0 0.18622378802843631 0.2958353199299692 0 0.16608147990298311 0.29428571531161718 0 0.1772048030327833 0.28458775967095168 0 0.18622378802843631 0.2958353199299692 0 0.1772048030327833 0.28458775967095168 0 0.16680101887826901 0.27283995831146568 0 0.1897129253214449 0.27539004513075471 0 0.16680101887826901 0.27283995831146568 0 0.17933366945531801 0.26444113929049168 0 0.1897129253214449 0.27539004513075471 0 0.17933366945531801 0.26444113929049168 0 0.19282534313631669 0.25715223097465112 0 0.1897129253214449 0.27539004513075471 0 0.16680101887826901 0.27283995831146568 0 0.1897129253214449 0.27539004513075471 0 0.16680101887826901 0.27283995831146568 0 0.16123866194045569 0.25983138660096339 0 0.17933366945531801 0.26444113929049168 0 0.14388911243509331 0.27028987149217493 0 0.16680101887826901 0.27283995831146568 0 0.16123866194045569 0.25983138660096339 0 0.17858821144581949 0.2493729017097541 0 0.16123866194045569 0.25983138660096339 0 0.17858821144581949 0.2493729017097541 0 0.16123866194045569 0.25983138660096339 0 0.17933366945531801 0.26444113929049168 0 0.17858821144581949 0.2493729017097541 0 0.17933366945531801 0.26444113929049168 0 0.19282534313631669 0.25715223097465112 0 0.20237997148191059 0.24939831330470491 0 0.19282534313631669 0.25715223097465112 0 0.19972413594027341 0.26707802680431048 0 0.19282534313631669 0.25715223097465112 0 0.1897129253214449 0.27539004513075471 0 0.19282534313631669 0.25715223097465112 0 0.1897129253214449 0.27539004513075471 0 0.19972413594027341 0.26707802680431048 0 0.19328748777458951 0.27881790632833592 0 0.1897129253214449 0.27539004513075471 0 0.19225718184199209 0.28543473499965277 0 0.19328748777458951 0.27881790632833592 0 0.19919703039000469 0.27880416232191257 0 0.19225718184199209 0.28543473499965277 0 0.19328748777458951 0.27881790632833592 0 0.19198281354491639 0.27564268286102339 0 0.19919703039000469 0.27880416232191257 0 0.1897129253214449 0.27539004513075471 0 0.19198281354491639 0.27564268286102339 0 0.19328748777458951 0.27881790632833592 0 0.1897129253214449 0.27539004513075471 0 0.19198281354491639 0.27564268286102339 0 0.1897129253214449 0.27539004513075471 0 0.19198281354491639 0.27564268286102339 0 0.19972413594027341 0.26707802680431048 0 0.19972413594027341 0.26707802680431048 0 0.19919703039000469 0.27880416232191257 0 0.20758366584918281 0.27342119282451383 0 0.19198281354491639 0.27564268286102339 0 0.19972413594027341 0.26707802680431048 0 0.19919703039000469 0.27880416232191257 0 0.19919703039000469 0.27880416232191257 0 0.20758366584918281 0.27342119282451383 0 0.20762404657775349 0.28270875537559143 0 0.19972413594027341 0.26707802680431048 0 0.20758366584918281 0.27342119282451383 0 0.21290480426382 0.26203959358869378 0 0.20758366584918281 0.27342119282451383 0 0.21843099638843699 0.27583267826815122 0 0.21290480426382 0.26203959358869378 0 0.20758366584918281 0.27342119282451383 0 0.21843099638843699 0.27583267826815122 0 0.20762404657775349 0.28270875537559143 0 0.20237997148191059 0.24939831330470491 0 0.19972413594027341 0.26707802680431048 0 0.21290480426382 0.26203959358869378 0 0.20237997148191059 0.24939831330470491 0 0.22018070489453781 0.24096094808464219 0 0.21290480426382 0.26203959358869378 0 0.22018070489453781 0.24096094808464219 0 0.21290480426382 0.26203959358869378 0 0.22912935102857809 0.26554640224584047 0 0.21843099638843699 0.27583267826815122 0 0.22912935102857809 0.26554640224584047 0 0.2347284862073977 0.28441488888135352 0 0.21843099638843699 0.27583267826815122 0 0.21290480426382 0.26203959358869378 0 0.22912935102857809 0.26554640224584047 0 0.2347284862073977 0.28441488888135352 0 0.25602446519606742 0.2859048948949382 0 0.25128267307254498 0.2641379763117172 0 0.22912935102857809 0.26554640224584047 0 0.2347284862073977 0.28441488888135352 0 0.25128267307254498 0.2641379763117172 0 0.24361873875543821 0.24293243165950959 0 0.22912935102857809 0.26554640224584047 0 0.25128267307254498 0.2641379763117172 0 0.24361873875543821 0.24293243165950959 0 0.22912935102857809 0.26554640224584047 0 0.24814684602186221 0.30059923556721579 0 0.23079301558873899 0.31393882277801932 0 0.2560607936250161 0.32160046612801729 0 0.24814684602186221 0.30059923556721579 0 0.2347284862073977 0.28441488888135352 0 0.25602446519606742 0.2859048948949382 0 0.2347284862073977 0.28441488888135352 0 0.22014977214923201 0.29844534164884479 0 0.21737151846490349 0.28695875410428179 0 0.24814684602186221 0.30059923556721579 0 0.2347284862073977 0.28441488888135352 0 0.22014977214923201 0.29844534164884479 0 0.21843099638843699 0.27583267826815122 0 0.2347284862073977 0.28441488888135352 0 0.21737151846490349 0.28695875410428179 0 0.22014977214923201 0.29844534164884479 0 0.20552523755246199 0.30627717942802118 0 0.23079301558873899 0.31393882277801932 0 0.24814684602186221 0.30059923556721579 0 0.22014977214923201 0.29844534164884479 0 0.24814684602186221 0.30059923556721579 0 0.22014977214923201 0.29844534164884479 0 0.23079301558873899 0.31393882277801932 0 0.20552523755246199 0.30627717942802118 0 0.23079301558873899 0.31393882277801932 0 0.22014977214923201 0.29844534164884479 0 0.20552523755246199 0.30627717942802118 0 0.19215269827660161 0.29629144773047478 0 0.22014977214923201 0.29844534164884479 0 0.19215269827660161 0.29629144773047478 0 0.22014977214923201 0.29844534164884479 0 0.20744851906548209 0.29048952307998349 0 0.19215269827660161 0.29629144773047478 0 0.21843099638843699 0.27583267826815122 0 0.21737151846490349 0.28695875410428179 0 0.20762404657775349 0.28270875537559143 0 0.22014977214923201 0.29844534164884479 0 0.21737151846490349 0.28695875410428179 0 0.20744851906548209 0.29048952307998349 0 0.21737151846490349 0.28695875410428179 0 0.20744851906548209 0.29048952307998349 0 0.20762404657775349 0.28270875537559143 0 0.20744851906548209 0.29048952307998349 0 0.20762404657775349 0.28270875537559143 0 0.20160557357746051 0.28707347212699058 0 0.18622378802843631 0.2958353199299692 0 0.1897129253214449 0.27539004513075471 0 0.19225718184199209 0.28543473499965277 0 0.19919703039000469 0.27880416232191257 0 0.19215269827660161 0.29629144773047478 0 0.18622378802843631 0.2958353199299692 0 0.1897129253214449 0.27539004513075471 0 0.19919703039000469 0.27880416232191257 0 0.19215269827660161 0.29629144773047478 0 0.19225718184199209 0.28543473499965277 0 0.19919703039000469 0.27880416232191257 0 0.20160557357746051 0.28707347212699058 0 0.19215269827660161 0.29629144773047478 0 0.19919703039000469 0.27880416232191257 0 0.20762404657775349 0.28270875537559143 0 0.20160557357746051 0.28707347212699058 0 0.20744851906548209 0.29048952307998349 0 0.20160557357746051 0.28707347212699058 0 0.19215269827660161 0.29629144773047478 0 0.18622378802843631 0.2958353199299692 0 0.19215269827660161 0.29629144773047478 0 0.19225718184199209 0.28543473499965277 0 0.18622378802843631 0.2958353199299692 0 0.19215269827660161 0.29629144773047478 0 0.19215269827660161 0.29629144773047478 0 0.19527342565445391 0.31337727136687371 0 0.1814724331806683 0.32280479789128608 0 0.20552523755246199 0.30627717942802118 0 0.19215269827660161 0.29629144773047478 0 0.19527342565445391 0.31337727136687371 0 0.20552523755246199 0.30627717942802118 0 0.19527342565445391 0.31337727136687371 0 0.20249957090953991 0.31667082994918749 0 0.19527342565445391 0.31337727136687371 0 0.1972234358802912 0.32533208274402747 0 0.1814724331806683 0.32280479789128608 0 0.19527342565445391 0.31337727136687371 0 0.1972234358802912 0.32533208274402747 0 0.20249957090953991 0.31667082994918749 0 0.1972234358802912 0.32533208274402747 0 0.18778541173670019 0.34187705013400682 0 0.20693680948950721 0.33920242313450621 0 0.1972234358802912 0.32533208274402747 0 0.18778541173670019 0.34187705013400682 0 0.1814724331806683 0.32280479789128608 0 0.1972234358802912 0.32533208274402747 0 0.20693680948950721 0.33920242313450621 0 0.21197618455095249 0.32169678625782772 0 0.20693680948950721 0.33920242313450621 0 0.21197618455095249 0.32169678625782772 0 0.22284805690504539 0.33326724130463298 0 0.20552523755246199 0.30627717942802118 0 0.21197618455095249 0.32169678625782772 0 0.23079301558873899 0.31393882277801932 0 0.20552523755246199 0.30627717942802118 0 0.20249957090953991 0.31667082994918749 0 0.21197618455095249 0.32169678625782772 0 0.1972234358802912 0.32533208274402747 0 0.20249957090953991 0.31667082994918749 0 0.21197618455095249 0.32169678625782772 0 0.21197618455095249 0.32169678625782772 0 0.23079301558873899 0.31393882277801932 0 0.22284805690504539 0.33326724130463298 0 0.23079301558873899 0.31393882277801932 0 0.22284805690504539 0.33326724130463298 0 0.2423823474144742 0.34098530055066961 0 0.23079301558873899 0.31393882277801932 0 0.2423823474144742 0.34098530055066961 0 0.2560607936250161 0.32160046612801729 0 0.23079301558873899 0.31393882277801932 0 0.2560607936250161 0.32160046612801729 0 0.24623799603150401 0.36656479957190968 0 0.220857295356334 0.36115596472338451 0 0.23918734035693251 0.38903870326050299 0 0.2423823474144742 0.34098530055066961 0 0.24623799603150401 0.36656479957190968 0 0.220857295356334 0.36115596472338451 0 0.2423823474144742 0.34098530055066961 0 0.24623799603150401 0.36656479957190968 0 0.25873649080524119 0.35274097737885318 0 0.22284805690504539 0.33326724130463298 0 0.2423823474144742 0.34098530055066961 0 0.220857295356334 0.36115596472338451 0 0.220857295356334 0.36115596472338451 0 0.20038179004910131 0.38191263307236301 0 0.220857295356334 0.36115596472338451 0 0.1992715412559074 0.35847487906425868 0 0.20038179004910131 0.38191263307236301 0 0.20693680948950721 0.33920242313450621 0 0.220857295356334 0.36115596472338451 0 0.1992715412559074 0.35847487906425868 0 0.20693680948950721 0.33920242313450621 0 0.22284805690504539 0.33326724130463298 0 0.220857295356334 0.36115596472338451 0 0.18778541173670019 0.34187705013400682 0 0.1992715412559074 0.35847487906425868 0 0.18039639964789411 0.36822632425703322 0 0.18778541173670019 0.34187705013400682 0 0.20693680948950721 0.33920242313450621 0 0.1992715412559074 0.35847487906425868 0 0.1992715412559074 0.35847487906425868 0 0.18039639964789411 0.36822632425703322 0 0.20038179004910131 0.38191263307236301 0 0.18039639964789411 0.36822632425703322 0 0.17079216808473471 0.34931814805209749 0 0.1544946780467914 0.36863613248653632 0 0.17079216808473471 0.34931814805209749 0 0.1544946780467914 0.36863613248653632 0 0.1447488247260007 0.35160798880747479 0 0.17079216808473471 0.34931814805209749 0 0.16279061964727409 0.33337018439680821 0 0.1447488247260007 0.35160798880747479 0 0.18778541173670019 0.34187705013400682 0 0.18039639964789411 0.36822632425703322 0 0.17079216808473471 0.34931814805209749 0 0.18778541173670019 0.34187705013400682 0 0.17079216808473471 0.34931814805209749 0 0.1814724331806683 0.32280479789128608 0 0.17079216808473471 0.34931814805209749 0 0.1814724331806683 0.32280479789128608 0 0.1814724331806683 0.32280479789128608 0 0.17151705100844361 0.31780703182908449 0 0.16279061964727409 0.33337018439680821 0 0.1826225208446414 0.31693764151118481 0 0.1814724331806683 0.32280479789128608 0 0.17151705100844361 0.31780703182908449 0 0.17539976513165931 0.30484657262727971 0 0.1826225208446414 0.31693764151118481 0 0.17151705100844361 0.31780703182908449 0 0.17151705100844361 0.31780703182908449 0 0.15974319678861609 0.31646992801679957 0 0.16279061964727409 0.33337018439680821 0 0.16563052782280149 0.30726951773467293 0 0.17151705100844361 0.31780703182908449 0 0.15974319678861609 0.31646992801679957 0 0.17079216808473471 0.34931814805209749 0 0.1814724331806683 0.32280479789128608 0 0.16279061964727409 0.33337018439680821 0 0.16279061964727409 0.33337018439680821 0 0.14276431007079429 0.33513623100662038 0 0.1447488247260007 0.35160798880747479 0 0.16279061964727409 0.33337018439680821 0 0.14276431007079429 0.33513623100662038 0 0.1442156203211537 0.31936292534782429 0 0.1554111462823051 0.30293834088858351 0 0.15974319678861609 0.31646992801679957 0 0.1442156203211537 0.31936292534782429 0 0.15974319678861609 0.31646992801679957 0 0.16279061964727409 0.33337018439680821 0 0.1442156203211537 0.31936292534782429 0 0.1225330628970052 0.31535656161609321 0 0.1442156203211537 0.31936292534782429 0 0.1264559515818951 0.33605814285010571 0 0.14276431007079429 0.33513623100662038 0 0.1264559515818951 0.33605814285010571 0 0.1447488247260007 0.35160798880747479 0 0.14276431007079429 0.33513623100662038 0 0.1442156203211537 0.31936292534782429 0 0.1264559515818951 0.33605814285010571 0 0.1264559515818951 0.33605814285010571 0 0.1261321638681823 0.3640591506305112 0 0.1447488247260007 0.35160798880747479 0 0.1261321638681823 0.3640591506305112 0 0.1544946780467914 0.36863613248653632 0 0.14128235632249581 0.38410799434159798 0 0.1261321638681823 0.3640591506305112 0 0.1544946780467914 0.36863613248653632 0 0.1447488247260007 0.35160798880747479 0 0.14891137963376641 0.39716734849523672 0 0.14128235632249581 0.38410799434159798 0 0.1340207831644927 0.39866244793036021 0 0.14891137963376641 0.39716734849523672 0 0.1340207831644927 0.39866244793036021 0 0.1443421771372983 0.41163185030355942 0 0.14891137963376641 0.39716734849523672 0 0.1443421771372983 0.41163185030355942 0 0.15874512791872289 0.40300462498973311 0 0.1544946780467914 0.36863613248653632 0 0.14128235632249581 0.38410799434159798 0 0.16616645362582241 0.38842982491093248 0 0.14891137963376641 0.39716734849523672 0 0.14128235632249581 0.38410799434159798 0 0.16616645362582241 0.38842982491093248 0 0.123652872163868 0.38682039342394631 0 0.1261321638681823 0.3640591506305112 0 0.14128235632249581 0.38410799434159798 0 0.123652872163868 0.38682039342394631 0 0.14128235632249581 0.38410799434159798 0 0.1340207831644927 0.39866244793036021 0 0.11951683438089419 0.40970817307870461 0 0.123652872163868 0.38682039342394631 0 0.1340207831644927 0.39866244793036021 0 0.11951683438089419 0.40970817307870461 0 0.1443421771372983 0.41163185030355942 0 0.11951683438089419 0.40970817307870461 0 0.1340207831644927 0.39866244793036021 0 0.1443421771372983 0.41163185030355942 0 0.11951683438089419 0.40970817307870461 0 0.13573149626452111 0.42489420828500768 0 0.1443421771372983 0.41163185030355942 0 0.1175391651047667 0.44141589212313309 0 0.13573149626452111 0.42489420828500768 0 0.1444461286939322 0.43861638490699523 0 0.13573149626452111 0.42489420828500768 0 0.1528131760057137 0.42309874101264627 0 0.1444461286939322 0.43861638490699523 0 0.1528131760057137 0.42309874101264627 0 0.15738782814687341 0.42549697420693439 0 0.1444461286939322 0.43861638490699523 0 0.1528131760057137 0.42309874101264627 0 0.15738782814687341 0.42549697420693439 0 0.15738782814687341 0.42549697420693439 0 0.1444461286939322 0.43861638490699523 0 0.15738782814687341 0.42549697420693439 0 0.1568626107174089 0.44104257608757852 0 0.1444461286939322 0.43861638490699523 0 0.1528131760057137 0.42309874101264627 0 0.1443421771372983 0.41163185030355942 0 0.16916751989370241 0.41355552752841301 0 0.13573149626452111 0.42489420828500768 0 0.1528131760057137 0.42309874101264627 0 0.1443421771372983 0.41163185030355942 0 0.1528131760057137 0.42309874101264627 0 0.16916751989370241 0.41355552752841301 0 0.15738782814687341 0.42549697420693439 0 0.1443421771372983 0.41163185030355942 0 0.16916751989370241 0.41355552752841301 0 0.15874512791872289 0.40300462498973311 0 0.1443421771372983 0.41163185030355942 0 0.16916751989370241 0.41355552752841301 0 0.16916751989370241 0.41355552752841301 0 0.15738782814687341 0.42549697420693439 0 0.16916751989370241 0.41355552752841301 0 0.15738782814687341 0.42549697420693439 0 0.17244742439409419 0.42548480029121671 0 0.15738782814687341 0.42549697420693439 0 0.18250812207337291 0.43866613349726807 0 0.15738782814687341 0.42549697420693439 0 0.16595589473682679 0.44134619334113889 0 0.1568626107174089 0.44104257608757852 0 0.15738782814687341 0.42549697420693439 0 0.17244742439409419 0.42548480029121671 0 0.18250812207337291 0.43866613349726807 0 0.15738782814687341 0.42549697420693439 0 0.18250812207337291 0.43866613349726807 0 0.16595589473682679 0.44134619334113889 0 0.17244742439409419 0.42548480029121671 0 0.18072622746242881 0.4242205659322521 0 0.18250812207337291 0.43866613349726807 0 0.18072622746242881 0.4242205659322521 0 0.1928014636709095 0.42926124109011871 0 0.18250812207337291 0.43866613349726807 0 0.16916751989370241 0.41355552752841301 0 0.17990628474186859 0.40266930142134139 0 0.1921272108059619 0.415334638291598 0 0.16916751989370241 0.41355552752841301 0 0.18072622746242881 0.4242205659322521 0 0.1921272108059619 0.415334638291598 0 0.16916751989370241 0.41355552752841301 0 0.1921272108059619 0.415334638291598 0 0.16916751989370241 0.41355552752841301 0 0.17990628474186859 0.40266930142134139 0 0.16916751989370241 0.41355552752841301 0 0.17244742439409419 0.42548480029121671 0 0.18072622746242881 0.4242205659322521 0 0.17990628474186859 0.40266930142134139 0 0.1921272108059619 0.415334638291598 0 0.17990628474186859 0.40266930142134139 0 0.16616645362582241 0.38842982491093248 0 0.18171273201617161 0.38530952091541748 0 0.17990628474186859 0.40266930142134139 0 0.16616645362582241 0.38842982491093248 0 0.16916751989370241 0.41355552752841301 0 0.17990628474186859 0.40266930142134139 0 0.1684963465450289 0.40191481971260479 0 0.14891137963376641 0.39716734849523672 0 0.15874512791872289 0.40300462498973311 0 0.16616645362582241 0.38842982491093248 0 0.16916751989370241 0.41355552752841301 0 0.1684963465450289 0.40191481971260479 0 0.15874512791872289 0.40300462498973311 0 0.1684963465450289 0.40191481971260479 0 0.15874512791872289 0.40300462498973311 0 0.16616645362582241 0.38842982491093248 0 0.17990628474186859 0.40266930142134139 0 0.1684963465450289 0.40191481971260479 0 0.16616645362582241 0.38842982491093248 0 0.18039639964789411 0.36822632425703322 0 0.1544946780467914 0.36863613248653632 0 0.16616645362582241 0.38842982491093248 0 0.18039639964789411 0.36822632425703322 0 0.16616645362582241 0.38842982491093248 0 0.18171273201617161 0.38530952091541748 0 0.18039639964789411 0.36822632425703322 0 0.18171273201617161 0.38530952091541748 0 0.20038179004910131 0.38191263307236301 0 0.17990628474186859 0.40266930142134139 0 0.18171273201617161 0.38530952091541748 0 0.20038179004910131 0.38191263307236301 0 0.20038179004910131 0.38191263307236301 0 0.19502862405250981 0.40048845361061758 0 0.207699210613108 0.40203724165716759 0 0.17990628474186859 0.40266930142134139 0 0.20038179004910131 0.38191263307236301 0 0.19502862405250981 0.40048845361061758 0 0.17990628474186859 0.40266930142134139 0 0.20038179004910131 0.38191263307236301 0 0.17990628474186859 0.40266930142134139 0 0.19502862405250981 0.40048845361061758 0 0.1921272108059619 0.415334638291598 0 0.19502862405250981 0.40048845361061758 0 0.207699210613108 0.40203724165716759 0 0.1921272108059619 0.415334638291598 0 0.20038179004910131 0.38191263307236301 0 0.207699210613108 0.40203724165716759 0 0.21834329730051749 0.38842355499660042 0 0.207699210613108 0.40203724165716759 0 0.21834329730051749 0.38842355499660042 0 0.2256284947460675 0.40386958086668351 0 0.220857295356334 0.36115596472338451 0 0.20038179004910131 0.38191263307236301 0 0.21834329730051749 0.38842355499660042 0 0.220857295356334 0.36115596472338451 0 0.21834329730051749 0.38842355499660042 0 0.23918734035693251 0.38903870326050299 0 0.21834329730051749 0.38842355499660042 0 0.2256284947460675 0.40386958086668351 0 0.23918734035693251 0.38903870326050299 0 0.2256284947460675 0.40386958086668351 0 0.23918734035693251 0.38903870326050299 0 0.24084754010726511 0.40863241178267501 0 0.23918734035693251 0.38903870326050299 0 0.25743629571091808 0.38396917439821993 0 0.2523373844092352 0.40010599182405571 0 0.23918734035693251 0.38903870326050299 0 0.24084754010726511 0.40863241178267501 0 0.2523373844092352 0.40010599182405571 0 0.24623799603150401 0.36656479957190968 0 0.23918734035693251 0.38903870326050299 0 0.25743629571091808 0.38396917439821993 0 0.24201254274905609 0.42725764853548859 0 0.23566632879412749 0.43425220595876179 0 0.24131083729858241 0.44120336760534179 0 0.24201254274905609 0.42725764853548859 0 0.23566632879412749 0.43425220595876179 0 0.22879145869436929 0.42928338197006022 0 0.24201254274905609 0.42725764853548859 0 0.24131083729858241 0.44120336760534179 0 0.25336664074446502 0.43902463535920011 0 0.24201254274905609 0.42725764853548859 0 0.24084754010726511 0.40863241178267501 0 0.2308571519230638 0.41783625636243937 0 0.24201254274905609 0.42725764853548859 0 0.24084754010726511 0.40863241178267501 0 0.25465335017694779 0.4141452213601361 0 0.24084754010726511 0.40863241178267501 0 0.25465335017694779 0.4141452213601361 0 0.2523373844092352 0.40010599182405571 0 0.2256284947460675 0.40386958086668351 0 0.24084754010726511 0.40863241178267501 0 0.2308571519230638 0.41783625636243937 0 0.2256284947460675 0.40386958086668351 0 0.2308571519230638 0.41783625636243937 0 0.21683642817551829 0.41724931714071561 0 0.2308571519230638 0.41783625636243937 0 0.22879145869436929 0.42928338197006022 0 0.21683642817551829 0.41724931714071561 0 0.22879145869436929 0.42928338197006022 0 0.2198415447690189 0.43311491367025751 0 0.21683642817551829 0.41724931714071561 0 0.24201254274905609 0.42725764853548859 0 0.2308571519230638 0.41783625636243937 0 0.22879145869436929 0.42928338197006022 0 0.23566632879412749 0.43425220595876179 0 0.22879145869436929 0.42928338197006022 0 0.2297199211166768 0.439648922372122 0 0.22879145869436929 0.42928338197006022 0 0.2198415447690189 0.43311491367025751 0 0.2297199211166768 0.439648922372122 0 0.2198415447690189 0.43311491367025751 0 0.20678317314388331 0.43052356089812122 0 0.2214391354818053 0.44571248350464387 0 0.2198415447690189 0.43311491367025751 0 0.20678317314388331 0.43052356089812122 0 0.21683642817551829 0.41724931714071561 0 0.207699210613108 0.40203724165716759 0 0.21683642817551829 0.41724931714071561 0 0.1921272108059619 0.415334638291598 0 0.207699210613108 0.40203724165716759 0 0.2256284947460675 0.40386958086668351 0 0.21683642817551829 0.41724931714071561 0 0.21683642817551829 0.41724931714071561 0 0.1921272108059619 0.415334638291598 0 0.20678317314388331 0.43052356089812122 0 0.21683642817551829 0.41724931714071561 0 0.1921272108059619 0.415334638291598 0 0.20678317314388331 0.43052356089812122 0 0.1928014636709095 0.42926124109011871 0 0.20762841599987281 0.45183529278760132 0 0.20678317314388331 0.43052356089812122 0 0.1921272108059619 0.415334638291598 0 0.20678317314388331 0.43052356089812122 0 0.1921272108059619 0.415334638291598 0 0.1928014636709095 0.42926124109011871 0 0.18072622746242881 0.4242205659322521 0 0.1921272108059619 0.415334638291598 0 0.1928014636709095 0.42926124109011871 0 0.1928014636709095 0.42926124109011871 0 0.20762841599987281 0.45183529278760132 0 0.18250812207337291 0.43866613349726807 0 0.20762841599987281 0.45183529278760132 0 0.18250812207337291 0.43866613349726807 0 0.20762841599987281 0.45183529278760132 0 0.1836445036459379 0.45527302234142297 0 0.18250812207337291 0.43866613349726807 0 0.19721112723468701 0.46411192770517268 0 0.20762841599987281 0.45183529278760132 0 0.1836445036459379 0.45527302234142297 0 0.19721112723468701 0.46411192770517268 0 0.19196389563252261 0.4757838166823698 0 0.1836445036459379 0.45527302234142297 0 0.20762841599987281 0.45183529278760132 0 0.1836445036459379 0.45527302234142297 0 0.20762841599987281 0.45183529278760132 0 0.22706318641483239 0.4620238514133308 0 0.21380171792059521 0.4649950202350237 0 0.20762841599987281 0.45183529278760132 0 0.22706318641483239 0.4620238514133308 0 0.20762841599987281 0.45183529278760132 0 0.21609711375012891 0.45062143359278628 0 0.22706318641483239 0.4620238514133308 0 0.2060816041963312 0.46335210544361749 0 0.21380171792059521 0.4649950202350237 0 0.2067998509198046 0.47704607043699188 0 0.19721112723468701 0.46411192770517268 0 0.2060816041963312 0.46335210544361749 0 0.2067998509198046 0.47704607043699188 0 0.2060816041963312 0.46335210544361749 0 0.21380171792059521 0.4649950202350237 0 0.20762841599987281 0.45183529278760132 0 0.19721112723468701 0.46411192770517268 0 0.2060816041963312 0.46335210544361749 0 0.20762841599987281 0.45183529278760132 0 0.20678317314388331 0.43052356089812122 0 0.20762841599987281 0.45183529278760132 0 0.21609711375012891 0.45062143359278628 0 0.20678317314388331 0.43052356089812122 0 0.21609711375012891 0.45062143359278628 0 0.2214391354818053 0.44571248350464387 0 0.20762841599987281 0.45183529278760132 0 0.21609711375012891 0.45062143359278628 0 0.20678317314388331 0.43052356089812122 0 0.2214391354818053 0.44571248350464387 0 0.2198415447690189 0.43311491367025751 0 0.2297199211166768 0.439648922372122 0 0.2214391354818053 0.44571248350464387 0 0.2297199211166768 0.439648922372122 0 0.23433902970138251 0.44807197383219383 0 0.2214391354818053 0.44571248350464387 0 0.23433902970138251 0.44807197383219383 0 0.2214391354818053 0.44571248350464387 0 0.23609509781972729 0.46090140611116659 0 0.21609711375012891 0.45062143359278628 0 0.2214391354818053 0.44571248350464387 0 0.22517363336662341 0.45481479365548177 0 0.21609711375012891 0.45062143359278628 0 0.22517363336662341 0.45481479365548177 0 0.22706318641483239 0.4620238514133308 0 0.21380171792059521 0.4649950202350237 0 0.22706318641483239 0.4620238514133308 0 0.22288184970565411 0.47447204180659719 0 0.22706318641483239 0.4620238514133308 0 0.2324379752712023 0.46949301553015188 0 0.22288184970565411 0.47447204180659719 0 0.22706318641483239 0.4620238514133308 0 0.23609509781972729 0.46090140611116659 0 0.2324379752712023 0.46949301553015188 0 0.2214391354818053 0.44571248350464387 0 0.23609509781972729 0.46090140611116659 0 0.2214391354818053 0.44571248350464387 0 0.22517363336662341 0.45481479365548177 0 0.23609509781972729 0.46090140611116659 0 0.22517363336662341 0.45481479365548177 0 0.22706318641483239 0.4620238514133308 0 0.23609509781972729 0.46090140611116659 0 0.23433902970138251 0.44807197383219383 0 0.23609509781972729 0.46090140611116659 0 0.24321266363657421 0.45260529178336889 0 0.23609509781972729 0.46090140611116659 0 0.24037322237777189 0.47003568646618732 0 0.2324379752712023 0.46949301553015188 0 0.23609509781972729 0.46090140611116659 0 0.2473945425162335 0.46347012622428641 0 0.24037322237777189 0.47003568646618732 0 0.2473945425162335 0.46347012622428641 0 0.24321266363657421 0.45260529178336889 0 0.25540991105305882 0.45273216118076443 0 0.23609509781972729 0.46090140611116659 0 0.2473945425162335 0.46347012622428641 0 0.24321266363657421 0.45260529178336889 0 0.2483250131831701 0.44639136398216878 0 0.24321266363657421 0.45260529178336889 0 0.24131083729858241 0.44120336760534179 0 0.2483250131831701 0.44639136398216878 0 0.24321266363657421 0.45260529178336889 0 0.25540991105305882 0.45273216118076443 0 0.2483250131831701 0.44639136398216878 0 0.24131083729858241 0.44120336760534179 0 0.25336664074446502 0.43902463535920011 0 0.23566632879412749 0.43425220595876179 0 0.2297199211166768 0.439648922372122 0 0.24131083729858241 0.44120336760534179 0 0.2297199211166768 0.439648922372122 0 0.23433902970138251 0.44807197383219383 0 0.24131083729858241 0.44120336760534179 0 0.23433902970138251 0.44807197383219383 0 0.24321266363657421 0.45260529178336889 0 0.24131083729858241 0.44120336760534179 0 0.23577652003802571 0.48003209185347773 0 0.25123198639226618 0.47722161250405348 0 0.25524301069177158 0.49999999999999939 0 0.23577652003802571 0.48003209185347773 0 0.2257920200503738 0.5 0 0.25524301069177158 0.49999999999999939 0 0.2473945425162335 0.46347012622428641 0 0.24037322237777189 0.47003568646618732 0 0.25123198639226618 0.47722161250405348 0 0.24037322237777189 0.47003568646618732 0 0.23577652003802571 0.48003209185347773 0 0.25123198639226618 0.47722161250405348 0 0.24037322237777189 0.47003568646618732 0 0.23577652003802571 0.48003209185347773 0 0.2324379752712023 0.46949301553015188 0 0.23577652003802571 0.48003209185347773 0 0.2324379752712023 0.46949301553015188 0 0.22288184970565411 0.47447204180659719 0 0.23577652003802571 0.48003209185347773 0 0.22288184970565411 0.47447204180659719 0 0.2257920200503738 0.5 0 0.2257920200503738 0.5 0 0.2067998509198046 0.47704607043699188 0 0.19634102940897599 0.5 0 0.21380171792059521 0.4649950202350237 0 0.22288184970565411 0.47447204180659719 0 0.2067998509198046 0.47704607043699188 0 0.22288184970565411 0.47447204180659719 0 0.2257920200503738 0.5 0 0.2067998509198046 0.47704607043699188 0 0.2067998509198046 0.47704607043699188 0 0.19196389563252261 0.4757838166823698 0 0.19634102940897599 0.5 0 0.19721112723468701 0.46411192770517268 0 0.2067998509198046 0.47704607043699188 0 0.19196389563252261 0.4757838166823698 0 0.19196389563252261 0.4757838166823698 0 0.19634102940897599 0.5 0 0.17491476851873439 0.47868232495043511 0 0.19634102940897599 0.5 0 0.16689003876757821 0.5 0 0.17491476851873439 0.47868232495043511 0 0.16689003876757821 0.5 0 0.17491476851873439 0.47868232495043511 0 0.15074595363581569 0.48015434019748282 0 0.17491476851873439 0.47868232495043511 0 0.15966059129200311 0.45871075189524529 0 0.15074595363581569 0.48015434019748282 0 0.19196389563252261 0.4757838166823698 0 0.17491476851873439 0.47868232495043511 0 0.1836445036459379 0.45527302234142297 0 0.1836445036459379 0.45527302234142297 0 0.1729422779370352 0.44849902526876878 0 0.15966059129200311 0.45871075189524529 0 0.17491476851873439 0.47868232495043511 0 0.1836445036459379 0.45527302234142297 0 0.15966059129200311 0.45871075189524529 0 0.1729422779370352 0.44849902526876878 0 0.18250812207337291 0.43866613349726807 0 0.16595589473682679 0.44134619334113889 0 0.1836445036459379 0.45527302234142297 0 0.1729422779370352 0.44849902526876878 0 0.18250812207337291 0.43866613349726807 0 0.1729422779370352 0.44849902526876878 0 0.16595589473682679 0.44134619334113889 0 0.15966059129200311 0.45871075189524529 0 0.16595589473682679 0.44134619334113889 0 0.1568626107174089 0.44104257608757852 0 0.15966059129200311 0.45871075189524529 0 0.1836445036459379 0.45527302234142297 0 0.15966059129200311 0.45871075189524529 0 0.15966059129200311 0.45871075189524529 0 0.13567667893806831 0.46214848144906773 0 0.15074595363581569 0.48015434019748282 0 0.15966059129200311 0.45871075189524529 0 0.13567667893806831 0.46214848144906773 0 0.15966059129200311 0.45871075189524529 0 0.1444461286939322 0.43861638490699523 0 0.13567667893806831 0.46214848144906773 0 0.1568626107174089 0.44104257608757852 0 0.15966059129200311 0.45871075189524529 0 0.1444461286939322 0.43861638490699523 0 0.1175391651047667 0.44141589212313309 0 0.1444461286939322 0.43861638490699523 0 0.13567667893806831 0.46214848144906773 0 0.10959910650366279 0.47464618373203038 0 0.13567667893806831 0.46214848144906773 0 0.12989459617232979 0.48138448289014879 0 0.13567667893806831 0.46214848144906773 0 0.12989459617232979 0.48138448289014879 0 0.15074595363581569 0.48015434019748282 0 0.12989459617232979 0.48138448289014879 0 0.13743904812618049 0.5 0 0.15074595363581569 0.48015434019748282 0 0.1079880574847826 0.5 0 0.12989459617232979 0.48138448289014879 0 0.13743904812618049 0.5 0 0.16689003876757821 0.5 0 0.13743904812618049 0.5 0 0.15074595363581569 0.48015434019748282 0 0.3472379200626145 0.47909098409398149 0 0.36575393433800579 0.5 0 0.33738805434478908 0.50000000000000089 0 0.36575393433800579 0.5 0 0.37170427505074571 0.47353016111901991 0 0.37986649276336998 0.48911602098724283 0 0.3472379200626145 0.47909098409398149 0 0.37170427505074571 0.47353016111901991 0 0.3472379200626145 0.47909098409398149 0 0.36575393433800579 0.5 0 0.37170427505074571 0.47353016111901991 0 0.37170427505074571 0.47353016111901991 0 0.35971057408100771 0.45261438748525129 0 0.37982681549656838 0.45135261394386411 0 0.3472379200626145 0.47909098409398149 0 0.37170427505074571 0.47353016111901991 0 0.35971057408100771 0.45261438748525129 0 0.35971057408100771 0.45261438748525129 0 0.35455650496545721 0.43433367562759162 0 0.37218322809940352 0.42613779087652248 0 0.35971057408100771 0.45261438748525129 0 0.37218322809940352 0.42613779087652248 0 0.35971057408100771 0.45261438748525129 0 0.37218322809940352 0.42613779087652248 0 0.37982681549656838 0.45135261394386411 0 0.34325501185077828 0.45480202909001638 0 0.33464434432110118 0.43862459181232322 0 0.35455650496545721 0.43433367562759162 0 0.35971057408100771 0.45261438748525129 0 0.34325501185077828 0.45480202909001638 0 0.35455650496545721 0.43433367562759162 0 0.3472379200626145 0.47909098409398149 0 0.35971057408100771 0.45261438748525129 0 0.34325501185077828 0.45480202909001638 0 0.3472379200626145 0.47909098409398149 0 0.35971057408100771 0.45261438748525129 0 0.3472379200626145 0.47909098409398149 0 0.32889086360137632 0.46285211118280589 0 0.34325501185077828 0.45480202909001638 0 0.32889086360137632 0.46285211118280589 0 0.34325501185077828 0.45480202909001638 0 0.33464434432110118 0.43862459181232322 0 0.32889086360137632 0.46285211118280589 0 0.33464434432110118 0.43862459181232322 0 0.31116646284535332 0.44961787600383829 0 0.33464434432110118 0.43862459181232322 0 0.31116646284535332 0.44961787600383829 0 0.31628579199202839 0.43007345436476002 0 0.32889086360137632 0.46285211118280589 0 0.31280224980850591 0.47065894802618741 0 0.31116646284535332 0.44961787600383829 0 0.32889086360137632 0.46285211118280589 0 0.31280224980850591 0.47065894802618741 0 0.32423919271990409 0.48431823807048718 0 0.31280224980850591 0.47065894802618741 0 0.32423919271990409 0.48431823807048718 0 0.30124046537719329 0.48954549204699099 0 0.3472379200626145 0.47909098409398149 0 0.32423919271990409 0.48431823807048718 0 0.3472379200626145 0.47909098409398149 0 0.32889086360137632 0.46285211118280589 0 0.32423919271990409 0.48431823807048718 0 0.3472379200626145 0.47909098409398149 0 0.33738805434478908 0.50000000000000089 0 0.3472379200626145 0.47909098409398149 0 0.32423919271990409 0.48431823807048718 0 0.33738805434478908 0.50000000000000089 0 0.32423919271990409 0.48431823807048718 0 0.30124046537719329 0.48954549204699099 0 0.32423919271990409 0.48431823807048718 0 0.33738805434478908 0.50000000000000089 0 0.31000637312711649 0.5 0 0.32423919271990409 0.48431823807048718 0 0.30124046537719329 0.48954549204699099 0 0.31000637312711649 0.5 0 0.30124046537719329 0.48954549204699099 0 0.31000637312711649 0.5 0 0.28262469190944411 0.5 0 0.31280224980850591 0.47065894802618741 0 0.30124046537719329 0.48954549204699099 0 0.2956855204979465 0.4657195710025222 0 0.30124046537719329 0.48954549204699099 0 0.28437705039613997 0.47846667850851521 0 0.2956855204979465 0.4657195710025222 0 0.30124046537719329 0.48954549204699099 0 0.27824173803448238 0.49477274602349502 0 0.30124046537719329 0.48954549204699099 0 0.28262469190944411 0.5 0 0.27824173803448238 0.49477274602349502 0 0.30124046537719329 0.48954549204699099 0 0.28437705039613997 0.47846667850851521 0 0.27824173803448238 0.49477274602349502 0 0.28262469190944411 0.5 0 0.27824173803448238 0.49477274602349502 0 0.25524301069177158 0.49999999999999939 0 0.27824173803448238 0.49477274602349502 0 0.26904628160808869 0.47862327535941451 0 0.25524301069177158 0.49999999999999939 0 0.27824173803448238 0.49477274602349502 0 0.25524301069177158 0.49999999999999939 0 0.28437705039613997 0.47846667850851521 0 0.27824173803448238 0.49477274602349502 0 0.26904628160808869 0.47862327535941451 0 0.28437705039613997 0.47846667850851521 0 0.26904628160808869 0.47862327535941451 0 0.27256586895228618 0.46015404394858878 0 0.26904628160808869 0.47862327535941451 0 0.25123198639226618 0.47722161250405348 0 0.25912971810438667 0.46644024384342148 0 0.2473945425162335 0.46347012622428641 0 0.25123198639226618 0.47722161250405348 0 0.25912971810438667 0.46644024384342148 0 0.26904628160808869 0.47862327535941451 0 0.25123198639226618 0.47722161250405348 0 0.25524301069177158 0.49999999999999939 0 0.26528934902497692 0.44184213392777649 0 0.25540991105305882 0.45273216118076443 0 0.27256586895228618 0.46015404394858878 0 0.26528934902497692 0.44184213392777649 0 0.25336664074446502 0.43902463535920011 0 0.25540991105305882 0.45273216118076443 0 0.2483250131831701 0.44639136398216878 0 0.25336664074446502 0.43902463535920011 0 0.25540991105305882 0.45273216118076443 0 0.2473945425162335 0.46347012622428641 0 0.25540991105305882 0.45273216118076443 0 0.25912971810438667 0.46644024384342148 0 0.25540991105305882 0.45273216118076443 0 0.25912971810438667 0.46644024384342148 0 0.27256586895228618 0.46015404394858878 0 0.26904628160808869 0.47862327535941451 0 0.25912971810438667 0.46644024384342148 0 0.27256586895228618 0.46015404394858878 0 0.26528934902497692 0.44184213392777649 0 0.27256586895228618 0.46015404394858878 0 0.28719142464674718 0.44976612317821102 0 0.26528934902497692 0.44184213392777649 0 0.28719142464674718 0.44976612317821102 0 0.28118927558541118 0.43458679356674629 0 0.28719142464674718 0.44976612317821102 0 0.29911225377621392 0.42931950244677208 0 0.28118927558541118 0.43458679356674629 0 0.27256586895228618 0.46015404394858878 0 0.28719142464674718 0.44976612317821102 0 0.2956855204979465 0.4657195710025222 0 0.28437705039613997 0.47846667850851521 0 0.27256586895228618 0.46015404394858878 0 0.2956855204979465 0.4657195710025222 0 0.28719142464674718 0.44976612317821102 0 0.2956855204979465 0.4657195710025222 0 0.31116646284535332 0.44961787600383829 0 0.31280224980850591 0.47065894802618741 0 0.2956855204979465 0.4657195710025222 0 0.31116646284535332 0.44961787600383829 0 0.28719142464674718 0.44976612317821102 0 0.31116646284535332 0.44961787600383829 0 0.29911225377621392 0.42931950244677208 0 0.31116646284535332 0.44961787600383829 0 0.29911225377621392 0.42931950244677208 0 0.31628579199202839 0.43007345436476002 0 0.29911225377621392 0.42931950244677208 0 0.31017284996449868 0.41628105123336068 0 0.31628579199202839 0.43007345436476002 0 0.29911225377621392 0.42931950244677208 0 0.31017284996449868 0.41628105123336068 0 0.29232973327710449 0.40701537356674389 0 0.31017284996449868 0.41628105123336068 0 0.29232973327710449 0.40701537356674389 0 0.3116310816856574 0.40067228695350982 0 0.29232973327710449 0.40701537356674389 0 0.28459685770758097 0.42173572787744829 0 0.26956239569411239 0.40474444831874451 0 0.29911225377621392 0.42931950244677208 0 0.29232973327710449 0.40701537356674389 0 0.28459685770758097 0.42173572787744829 0 0.29911225377621392 0.42931950244677208 0 0.28459685770758097 0.42173572787744829 0 0.28118927558541118 0.43458679356674629 0 0.26528934902497692 0.44184213392777649 0 0.28118927558541118 0.43458679356674629 0 0.26933775019415812 0.42319359978479881 0 0.28459685770758097 0.42173572787744829 0 0.28118927558541118 0.43458679356674629 0 0.26933775019415812 0.42319359978479881 0 0.28459685770758097 0.42173572787744829 0 0.26933775019415812 0.42319359978479881 0 0.26956239569411239 0.40474444831874451 0 0.25465335017694779 0.4141452213601361 0 0.2523373844092352 0.40010599182405571 0 0.26956239569411239 0.40474444831874451 0 0.26933775019415812 0.42319359978479881 0 0.25465335017694779 0.4141452213601361 0 0.25643630070510343 0.42755114613180911 0 0.26933775019415812 0.42319359978479881 0 0.25465335017694779 0.4141452213601361 0 0.26956239569411239 0.40474444831874451 0 0.26528934902497692 0.44184213392777649 0 0.26933775019415812 0.42319359978479881 0 0.25643630070510343 0.42755114613180911 0 0.24201254274905609 0.42725764853548859 0 0.25465335017694779 0.4141452213601361 0 0.25643630070510343 0.42755114613180911 0 0.24201254274905609 0.42725764853548859 0 0.25336664074446502 0.43902463535920011 0 0.25643630070510343 0.42755114613180911 0 0.26528934902497692 0.44184213392777649 0 0.25336664074446502 0.43902463535920011 0 0.25643630070510343 0.42755114613180911 0 0.25743629571091808 0.38396917439821993 0 0.2523373844092352 0.40010599182405571 0 0.26956239569411239 0.40474444831874451 0 0.25743629571091808 0.38396917439821993 0 0.26956239569411239 0.40474444831874451 0 0.27790632558201922 0.38719414372548339 0 0.29232973327710449 0.40701537356674389 0 0.26956239569411239 0.40474444831874451 0 0.27790632558201922 0.38719414372548339 0 0.25743629571091808 0.38396917439821993 0 0.27790632558201922 0.38719414372548339 0 0.26762442920530821 0.36849995928162999 0 0.27790632558201922 0.38719414372548339 0 0.29657357609492258 0.38701908264882529 0 0.28679705980142611 0.36853639278718442 0 0.29657357609492258 0.38701908264882529 0 0.30335856868390682 0.37138461207352369 0 0.28679705980142611 0.36853639278718442 0 0.29232973327710449 0.40701537356674389 0 0.27790632558201922 0.38719414372548339 0 0.29657357609492258 0.38701908264882529 0 0.29232973327710449 0.40701537356674389 0 0.29657357609492258 0.38701908264882529 0 0.3116310816856574 0.40067228695350982 0 0.29657357609492258 0.38701908264882529 0 0.3180833910114762 0.38013871306539232 0 0.30335856868390682 0.37138461207352369 0 0.29657357609492258 0.38701908264882529 0 0.3116310816856574 0.40067228695350982 0 0.3180833910114762 0.38013871306539232 0 0.34000780565312572 0.37626287509103018 0 0.33243201580351323 0.39602320094676868 0 0.35308490487563038 0.39097995822468562 0 0.3180833910114762 0.38013871306539232 0 0.34000780565312572 0.37626287509103018 0 0.33243201580351323 0.39602320094676868 0 0.3116310816856574 0.40067228695350982 0 0.33243201580351323 0.39602320094676868 0 0.32633304905297522 0.4165242503275054 0 0.3116310816856574 0.40067228695350982 0 0.3180833910114762 0.38013871306539232 0 0.33243201580351323 0.39602320094676868 0 0.31017284996449868 0.41628105123336068 0 0.32633304905297522 0.4165242503275054 0 0.31628579199202839 0.43007345436476002 0 0.31017284996449868 0.41628105123336068 0 0.3116310816856574 0.40067228695350982 0 0.32633304905297522 0.4165242503275054 0 0.33464434432110118 0.43862459181232322 0 0.32633304905297522 0.4165242503275054 0 0.31628579199202839 0.43007345436476002 0 0.33464434432110118 0.43862459181232322 0 0.32633304905297522 0.4165242503275054 0 0.34887354821906269 0.41538029494738438 0 0.33243201580351323 0.39602320094676868 0 0.32633304905297522 0.4165242503275054 0 0.34887354821906269 0.41538029494738438 0 0.34887354821906269 0.41538029494738438 0 0.35455650496545721 0.43433367562759162 0 0.37218322809940352 0.42613779087652248 0 0.33464434432110118 0.43862459181232322 0 0.34887354821906269 0.41538029494738438 0 0.35455650496545721 0.43433367562759162 0 0.34887354821906269 0.41538029494738438 0 0.37218322809940352 0.42613779087652248 0 0.36888079041535848 0.40503859681629378 0 0.36888079041535848 0.40503859681629378 0 0.3712162157927128 0.38199114138113271 0 0.35308490487563038 0.39097995822468562 0 0.36888079041535848 0.40503859681629378 0 0.3712162157927128 0.38199114138113271 0 0.38424556533199139 0.39312379409648318 0 0.3712162157927128 0.38199114138113271 0 0.35308490487563038 0.39097995822468562 0 0.35842778343633119 0.37245633183599058 0 0.34000780565312572 0.37626287509103018 0 0.35308490487563038 0.39097995822468562 0 0.35842778343633119 0.37245633183599058 0 0.34887354821906269 0.41538029494738438 0 0.36888079041535848 0.40503859681629378 0 0.35308490487563038 0.39097995822468562 0 0.33243201580351323 0.39602320094676868 0 0.34887354821906269 0.41538029494738438 0 0.35308490487563038 0.39097995822468562 0 0.34842818192604352 0.35628281052485722 0 0.34028312478289852 0.3316718639235926 0 0.34842818192604352 0.35628281052485722 0 0.36901675618310159 0.35227363829032299 0 0.35621538760826338 0.34101595269899748 0 0.34842818192604352 0.35628281052485722 0 0.35842778343633119 0.37245633183599058 0 0.36901675618310159 0.35227363829032299 0 0.34000780565312572 0.37626287509103018 0 0.34842818192604352 0.35628281052485722 0 0.35842778343633119 0.37245633183599058 0 0.3712162157927128 0.38199114138113271 0 0.35842778343633119 0.37245633183599058 0 0.3786504201682715 0.36696746181382112 0 0.35842778343633119 0.37245633183599058 0 0.36901675618310159 0.35227363829032299 0 0.3786504201682715 0.36696746181382112 0 0.36660634418592108 0.3365771676765954 0 0.37119871693045681 0.3228526235735667 0 0.38375498114720302 0.33991877587412639 0 0.36901675618310159 0.35227363829032299 0 0.36660634418592108 0.3365771676765954 0 0.38375498114720302 0.33991877587412639 0 0.36901675618310159 0.35227363829032299 0 0.36660634418592108 0.3365771676765954 0 0.35621538760826338 0.34101595269899748 0 0.36660634418592108 0.3365771676765954 0 0.37119871693045681 0.3228526235735667 0 0.35674253096335218 0.32827428307961981 0 0.36660634418592108 0.3365771676765954 0 0.35621538760826338 0.34101595269899748 0 0.35674253096335218 0.32827428307961981 0 0.37119871693045681 0.3228526235735667 0 0.35389026093653791 0.30873437495101957 0 0.37530360048715272 0.30742562413563518 0 0.37119871693045681 0.3228526235735667 0 0.35674253096335218 0.32827428307961981 0 0.35389026093653791 0.30873437495101957 0 0.35674253096335218 0.32827428307961981 0 0.34028312478289852 0.3316718639235926 0 0.35389026093653791 0.30873437495101957 0 0.35621538760826338 0.34101595269899748 0 0.35674253096335218 0.32827428307961981 0 0.34028312478289852 0.3316718639235926 0 0.34842818192604352 0.35628281052485722 0 0.35621538760826338 0.34101595269899748 0 0.34028312478289852 0.3316718639235926 0 0.34028312478289852 0.3316718639235926 0 0.32300453272423829 0.32502979073118071 0 0.33186412773384688 0.34458539617801148 0 0.34028312478289852 0.3316718639235926 0 0.33213806763975318 0.3070609173223281 0 0.34028312478289852 0.3316718639235926 0 0.33213806763975318 0.3070609173223281 0 0.35389026093653791 0.30873437495101957 0 0.34028312478289852 0.3316718639235926 0 0.32300453272423829 0.32502979073118071 0 0.33213806763975318 0.3070609173223281 0 0.33186412773384688 0.34458539617801148 0 0.30659634969756988 0.33692375282801351 0 0.32300453272423829 0.32502979073118071 0 0.33186412773384688 0.34458539617801148 0 0.30659634969756988 0.33692375282801351 0 0.31374111064370391 0.3588574883819447 0 0.33186412773384688 0.34458539617801148 0 0.30659634969756988 0.33692375282801351 0 0.31374111064370391 0.3588574883819447 0 0.33186412773384688 0.34458539617801148 0 0.33028166628585931 0.36214964623466139 0 0.34842818192604352 0.35628281052485722 0 0.33186412773384688 0.34458539617801148 0 0.33028166628585931 0.36214964623466139 0 0.34842818192604352 0.35628281052485722 0 0.34028312478289852 0.3316718639235926 0 0.33186412773384688 0.34458539617801148 0 0.34000780565312572 0.37626287509103018 0 0.34842818192604352 0.35628281052485722 0 0.33028166628585931 0.36214964623466139 0 0.3180833910114762 0.38013871306539232 0 0.34000780565312572 0.37626287509103018 0 0.33028166628585931 0.36214964623466139 0 0.3180833910114762 0.38013871306539232 0 0.31374111064370391 0.3588574883819447 0 0.33028166628585931 0.36214964623466139 0 0.31374111064370391 0.3588574883819447 0 0.30335856868390682 0.37138461207352369 0 0.29470215628072632 0.35270999133858172 0 0.3180833910114762 0.38013871306539232 0 0.31374111064370391 0.3588574883819447 0 0.30335856868390682 0.37138461207352369 0 0.31374111064370391 0.3588574883819447 0 0.29470215628072632 0.35270999133858172 0 0.30659634969756988 0.33692375282801351 0 0.29470215628072632 0.35270999133858172 0 0.27639127719645878 0.35129559248280851 0 0.28132857166129299 0.32926210947801537 0 0.29470215628072632 0.35270999133858172 0 0.28679705980142611 0.36853639278718442 0 0.27639127719645878 0.35129559248280851 0 0.30335856868390682 0.37138461207352369 0 0.29470215628072632 0.35270999133858172 0 0.28679705980142611 0.36853639278718442 0 0.27790632558201922 0.38719414372548339 0 0.28679705980142611 0.36853639278718442 0 0.26762442920530821 0.36849995928162999 0 0.28679705980142611 0.36853639278718442 0 0.26762442920530821 0.36849995928162999 0 0.27639127719645878 0.35129559248280851 0 0.27639127719645878 0.35129559248280851 0 0.25873649080524119 0.35274097737885318 0 0.2640658056808568 0.33786608502569182 0 0.26762442920530821 0.36849995928162999 0 0.27639127719645878 0.35129559248280851 0 0.25873649080524119 0.35274097737885318 0 0.2423823474144742 0.34098530055066961 0 0.25873649080524119 0.35274097737885318 0 0.2640658056808568 0.33786608502569182 0 0.24623799603150401 0.36656479957190968 0 0.26762442920530821 0.36849995928162999 0 0.25873649080524119 0.35274097737885318 0 0.24623799603150401 0.36656479957190968 0 0.25743629571091808 0.38396917439821993 0 0.26762442920530821 0.36849995928162999 0 0.2423823474144742 0.34098530055066961 0 0.2560607936250161 0.32160046612801729 0 0.2640658056808568 0.33786608502569182 0 0.2560607936250161 0.32160046612801729 0 0.2640658056808568 0.33786608502569182 0 0.28132857166129299 0.32926210947801537 0 0.27639127719645878 0.35129559248280851 0 0.2640658056808568 0.33786608502569182 0 0.28132857166129299 0.32926210947801537 0 0.2560607936250161 0.32160046612801729 0 0.28132857166129299 0.32926210947801537 0 0.27614391989449238 0.30275312948558669 0 0.2560607936250161 0.32160046612801729 0 0.28132857166129299 0.32926210947801537 0 0.32300453272423829 0.32502979073118071 0 0.30659634969756988 0.33692375282801351 0 0.30414099376712272 0.30490702340395781 0 0.28132857166129299 0.32926210947801537 0 0.30659634969756988 0.33692375282801351 0 0.30414099376712272 0.30490702340395781 0 0.29470215628072632 0.35270999133858172 0 0.28132857166129299 0.32926210947801537 0 0.30659634969756988 0.33692375282801351 0 0.28132857166129299 0.32926210947801537 0 0.30659634969756988 0.33692375282801351 0 0.30414099376712272 0.30490702340395781 0 0.29351572510489943 0.27733593801776552 0 0.32342128161815731 0.28072244583686978 0 0.30414099376712272 0.30490702340395781 0 0.27614391989449238 0.30275312948558669 0 0.29351572510489943 0.27733593801776552 0 0.30414099376712272 0.30490702340395781 0 0.27614391989449238 0.30275312948558669 0 0.28132857166129299 0.32926210947801537 0 0.30414099376712272 0.30490702340395781 0 0.27614391989449238 0.30275312948558669 0 0.27614391989449238 0.30275312948558669 0 0.25602446519606742 0.2859048948949382 0 0.2698204007840394 0.27761924422881779 0 0.27614391989449238 0.30275312948558669 0 0.2698204007840394 0.27761924422881779 0 0.29351572510489943 0.27733593801776552 0 0.24814684602186221 0.30059923556721579 0 0.27614391989449238 0.30275312948558669 0 0.25602446519606742 0.2859048948949382 0 0.24814684602186221 0.30059923556721579 0 0.2560607936250161 0.32160046612801729 0 0.27614391989449238 0.30275312948558669 0 0.24814684602186221 0.30059923556721579 0 0.27614391989449238 0.30275312948558669 0 0.24361873875543821 0.24293243165950959 0 0.25128267307254498 0.2641379763117172 0 0.26796497087459092 0.24498030807344609 0 0.25602446519606742 0.2859048948949382 0 0.25128267307254498 0.2641379763117172 0 0.2698204007840394 0.27761924422881779 0 0.2698204007840394 0.27761924422881779 0 0.27782605550920808 0.26174632733324199 0 0.29351572510489943 0.27733593801776552 0 0.25128267307254498 0.2641379763117172 0 0.2698204007840394 0.27761924422881779 0 0.27782605550920808 0.26174632733324199 0 0.25128267307254498 0.2641379763117172 0 0.27782605550920808 0.26174632733324199 0 0.26796497087459092 0.24498030807344609 0 0.27782605550920808 0.26174632733324199 0 0.26796497087459092 0.24498030807344609 0 0.29231120299374358 0.24702818448738331 0 0.27782605550920808 0.26174632733324199 0 0.29351572510489943 0.27733593801776552 0 0.29231120299374358 0.24702818448738331 0 0.29351572510489943 0.27733593801776552 0 0.3104186469421506 0.26557764296078379 0 0.32342128161815731 0.28072244583686978 0 0.3104186469421506 0.26557764296078379 0 0.29231120299374358 0.24702818448738331 0 0.31665743511289618 0.24907606090132059 0 0.29351572510489943 0.27733593801776552 0 0.3104186469421506 0.26557764296078379 0 0.29231120299374358 0.24702818448738331 0 0.3104186469421506 0.26557764296078379 0 0.33032390059782257 0.26357221953855969 0 0.31665743511289618 0.24907606090132059 0 0.33032390059782257 0.26357221953855969 0 0.34100366723204889 0.25112393731525778 0 0.31665743511289618 0.24907606090132059 0 0.33032390059782257 0.26357221953855969 0 0.34100366723204889 0.25112393731525778 0 0.34834114683063672 0.25999595384554453 0 0.34100366723204889 0.25112393731525778 0 0.31665743511289618 0.24907606090132059 0 0.33032390059782257 0.26357221953855969 0 0.34268634002561232 0.2744993206810965 0 0.32342128161815731 0.28072244583686978 0 0.33032390059782257 0.26357221953855969 0 0.34268634002561232 0.2744993206810965 0 0.34834114683063672 0.25999595384554453 0 0.3104186469421506 0.26557764296078379 0 0.33032390059782257 0.26357221953855969 0 0.32342128161815731 0.28072244583686978 0 0.32342128161815731 0.28072244583686978 0 0.33213806763975318 0.3070609173223281 0 0.30414099376712272 0.30490702340395781 0 0.32342128161815731 0.28072244583686978 0 0.33213806763975318 0.3070609173223281 0 0.30414099376712272 0.30490702340395781 0 0.33213806763975318 0.3070609173223281 0 0.32300453272423829 0.32502979073118071 0 0.30414099376712272 0.30490702340395781 0 0.33213806763975318 0.3070609173223281 0 0.33213806763975318 0.3070609173223281 0 0.35389026093653791 0.30873437495101957 0 0.34268634002561232 0.2744993206810965 0 0.32342128161815731 0.28072244583686978 0 0.34558923486433712 0.29183737136382287 0 0.32342128161815731 0.28072244583686978 0 0.33213806763975318 0.3070609173223281 0 0.34558923486433712 0.29183737136382287 0 0.34268634002561232 0.2744993206810965 0 0.34558923486433712 0.29183737136382287 0 0.35987117456611922 0.28140603445168288 0 0.34558923486433712 0.29183737136382287 0 0.35987117456611922 0.28140603445168288 0 0.36582679549961228 0.29596909804113319 0 0.34558923486433712 0.29183737136382287 0 0.35389026093653791 0.30873437495101957 0 0.36582679549961228 0.29596909804113319 0 0.33213806763975318 0.3070609173223281 0 0.34558923486433712 0.29183737136382287 0 0.35389026093653791 0.30873437495101957 0 0.35389026093653791 0.30873437495101957 0 0.36582679549961228 0.29596909804113319 0 0.37530360048715272 0.30742562413563518 0 0.36582679549961228 0.29596909804113319 0 0.380796327257233 0.29629997470109309 0 0.37530360048715272 0.30742562413563518 0 0.35987117456611922 0.28140603445168288 0 0.36582679549961228 0.29596909804113319 0 0.37489870960497312 0.28772225478127489 0 0.36582679549961228 0.29596909804113319 0 0.37489870960497312 0.28772225478127489 0 0.380796327257233 0.29629997470109309 0 0.35987117456611922 0.28140603445168288 0 0.37489870960497312 0.28772225478127489 0 0.37354536770942459 0.27601942570158761 0 0.35987117456611922 0.28140603445168288 0 0.37354536770942459 0.27601942570158761 0 0.36331990270860692 0.26830100238074378 0 0.37354536770942459 0.27601942570158761 0 0.36331990270860692 0.26830100238074378 0 0.37005231505945879 0.26283990725541501 0 0.37354536770942459 0.27601942570158761 0 0.37005231505945879 0.26283990725541501 0 0.38038834998149429 0.26494790858661832 0 0.37005231505945879 0.26283990725541501 0 0.37099565353147862 0.25364670474182438 0 0.37005231505945879 0.26283990725541501 0 0.37099565353147862 0.25364670474182438 0 0.37631771382682261 0.25883781568719838 0 0.37005231505945879 0.26283990725541501 0 0.37099565353147862 0.25364670474182438 0 0.36524915388954748 0.25949584932333208 0 0.37099565353147862 0.25364670474182438 0 0.36534989935120171 0.25317181372919573 0 0.3718578707964344 0.24524406013167921 0 0.37099565353147862 0.25364670474182438 0 0.36534989935120171 0.25317181372919573 0 0.37099565353147862 0.25364670474182438 0 0.36534989935120171 0.25317181372919573 0 0.36524915388954748 0.25949584932333208 0 0.36534989935120171 0.25317181372919573 0 0.35899487155138898 0.26091325742271471 0 0.36331990270860692 0.26830100238074378 0 0.36524915388954748 0.25949584932333208 0 0.35899487155138898 0.26091325742271471 0 0.36331990270860692 0.26830100238074378 0 0.37005231505945879 0.26283990725541501 0 0.36524915388954748 0.25949584932333208 0 0.36534989935120171 0.25317181372919573 0 0.36524915388954748 0.25949584932333208 0 0.35899487155138898 0.26091325742271471 0 0.34100366723204889 0.25112393731525778 0 0.36534989935120171 0.25317181372919573 0 0.36534989935120171 0.25317181372919573 0 0.35899487155138898 0.26091325742271471 0 0.34834114683063672 0.25999595384554453 0 0.35899487155138898 0.26091325742271471 0 0.34834114683063672 0.25999595384554453 0 0.35357672871003631 0.26908036437265598 0 0.34100366723204889 0.25112393731525778 0 0.36534989935120171 0.25317181372919573 0 0.34834114683063672 0.25999595384554453 0 0.34268634002561232 0.2744993206810965 0 0.35987117456611922 0.28140603445168288 0 0.35357672871003631 0.26908036437265598 0 0.34268634002561232 0.2744993206810965 0 0.34834114683063672 0.25999595384554453 0 0.35357672871003631 0.26908036437265598 0 0.35987117456611922 0.28140603445168288 0 0.36331990270860692 0.26830100238074378 0 0.35357672871003631 0.26908036437265598 0 0.36331990270860692 0.26830100238074378 0 0.35899487155138898 0.26091325742271471 0 0.35357672871003631 0.26908036437265598 0 0.39832660169407558 0.27165652181898231 0 0.39051546411093552 0.26284988911383977 0 0.38784982312554123 0.27400347884331622 0 0.39832660169407558 0.27165652181898231 0 0.38784982312554123 0.27400347884331622 0 0.39607549678035547 0.28342547840765608 0 0.39832660169407558 0.27165652181898231 0 0.40666040909090989 0.26967779240191742 0 0.40724197976292592 0.28000041613575671 0 0.39832660169407558 0.27165652181898231 0 0.39607549678035547 0.28342547840765608 0 0.40724197976292592 0.28000041613575671 0 0.39832660169407558 0.27165652181898231 0 0.40168601064170789 0.26098529300317419 0 0.40666040909090989 0.26967779240191742 0 0.40168601064170789 0.26098529300317419 0 0.40666040909090989 0.26967779240191742 0 0.41028791863097391 0.25976728079173561 0 0.40168601064170789 0.26098529300317419 0 0.40529903042243348 0.25025499417346209 0 0.39367090866082288 0.25181065467480102 0 0.40168601064170789 0.26098529300317419 0 0.40529903042243348 0.25025499417346209 0 0.41028791863097391 0.25976728079173561 0 0.39832660169407558 0.27165652181898231 0 0.40168601064170789 0.26098529300317419 0 0.39051546411093552 0.26284988911383977 0 0.40168601064170789 0.26098529300317419 0 0.39367090866082288 0.25181065467480102 0 0.39051546411093552 0.26284988911383977 0 0.39051546411093552 0.26284988911383977 0 0.3824321552584245 0.25460868284298788 0 0.38038834998149429 0.26494790858661832 0 0.39367090866082288 0.25181065467480102 0 0.39051546411093552 0.26284988911383977 0 0.3824321552584245 0.25460868284298788 0 0.37099565353147862 0.25364670474182438 0 0.3824321552584245 0.25460868284298788 0 0.37705914132571833 0.25002333554334621 0 0.37099565353147862 0.25364670474182438 0 0.3824321552584245 0.25460868284298788 0 0.37099565353147862 0.25364670474182438 0 0.3824321552584245 0.25460868284298788 0 0.37631771382682261 0.25883781568719838 0 0.37005231505945879 0.26283990725541501 0 0.38038834998149429 0.26494790858661832 0 0.37631771382682261 0.25883781568719838 0 0.3824321552584245 0.25460868284298788 0 0.38038834998149429 0.26494790858661832 0 0.37631771382682261 0.25883781568719838 0 0.37354536770942459 0.27601942570158761 0 0.38038834998149429 0.26494790858661832 0 0.38784982312554123 0.27400347884331622 0 0.39051546411093552 0.26284988911383977 0 0.38038834998149429 0.26494790858661832 0 0.38784982312554123 0.27400347884331622 0 0.38784982312554123 0.27400347884331622 0 0.38558910008826452 0.28540197762715741 0 0.39607549678035547 0.28342547840765608 0 0.37354536770942459 0.27601942570158761 0 0.38784982312554123 0.27400347884331622 0 0.38558910008826452 0.28540197762715741 0 0.37489870960497312 0.28772225478127489 0 0.37354536770942459 0.27601942570158761 0 0.38558910008826452 0.28540197762715741 0 0.37489870960497312 0.28772225478127489 0 0.380796327257233 0.29629997470109309 0 0.38558910008826452 0.28540197762715741 0 0.380796327257233 0.29629997470109309 0 0.38558910008826452 0.28540197762715741 0 0.39589288832258301 0.29578385448011041 0 0.380796327257233 0.29629997470109309 0 0.37530360048715272 0.30742562413563518 0 0.3872668695408128 0.30549703914124832 0 0.380796327257233 0.29629997470109309 0 0.3872668695408128 0.30549703914124832 0 0.39589288832258301 0.29578385448011041 0 0.37530360048715272 0.30742562413563518 0 0.3872668695408128 0.30549703914124832 0 0.3883172221881156 0.3202774532673836 0 0.3872668695408128 0.30549703914124832 0 0.39662849881305262 0.30934807842324108 0 0.3883172221881156 0.3202774532673836 0 0.3872668695408128 0.30549703914124832 0 0.39662849881305262 0.30934807842324108 0 0.39589288832258301 0.29578385448011041 0 0.39662849881305262 0.30934807842324108 0 0.40553686045999521 0.30474415522352011 0 0.39589288832258301 0.29578385448011041 0 0.40553686045999521 0.30474415522352011 0 0.39589288832258301 0.29578385448011041 0 0.40798200903989162 0.29537837519227839 0 0.39662849881305262 0.30934807842324108 0 0.40553686045999521 0.30474415522352011 0 0.40425658947226573 0.31873524346402482 0 0.38558910008826452 0.28540197762715741 0 0.39607549678035547 0.28342547840765608 0 0.39589288832258301 0.29578385448011041 0 0.39589288832258301 0.29578385448011041 0 0.40382234476162743 0.28765905444844869 0 0.40798200903989162 0.29537837519227839 0 0.39607549678035547 0.28342547840765608 0 0.40382234476162743 0.28765905444844869 0 0.40724197976292592 0.28000041613575671 0 0.39607549678035547 0.28342547840765608 0 0.39589288832258301 0.29578385448011041 0 0.40382234476162743 0.28765905444844869 0 0.40382234476162743 0.28765905444844869 0 0.41182750483674391 0.28750842090320122 0 0.40724197976292592 0.28000041613575671 0 0.41182750483674391 0.28750842090320122 0 0.41538933598196082 0.28136638685403381 0 0.40724197976292592 0.28000041613575671 0 0.40382234476162743 0.28765905444844869 0 0.41182750483674391 0.28750842090320122 0 0.40798200903989162 0.29537837519227839 0 0.41182750483674391 0.28750842090320122 0 0.40798200903989162 0.29537837519227839 0 0.4167408349277511 0.29469872220164722 0 0.4167408349277511 0.29469872220164722 0 0.42002306177695292 0.28820415349910461 0 0.42555072378604852 0.29349315303042112 0 0.41182750483674391 0.28750842090320122 0 0.4167408349277511 0.29469872220164722 0 0.42002306177695292 0.28820415349910461 0 0.4167408349277511 0.29469872220164722 0 0.42216438569039832 0.2996738410999813 0 0.42555072378604852 0.29349315303042112 0 0.41182750483674391 0.28750842090320122 0 0.42002306177695292 0.28820415349910461 0 0.41538933598196082 0.28136638685403381 0 0.42002306177695292 0.28820415349910461 0 0.41538933598196082 0.28136638685403381 0 0.42239279897508092 0.28102084372296982 0 0.40553686045999521 0.30474415522352011 0 0.41549709671121798 0.30241409409111591 0 0.41499603573788463 0.31104223121256519 0 0.40553686045999521 0.30474415522352011 0 0.41499603573788463 0.31104223121256519 0 0.40425658947226573 0.31873524346402482 0 0.40798200903989162 0.29537837519227839 0 0.4167408349277511 0.29469872220164722 0 0.41549709671121798 0.30241409409111591 0 0.40553686045999521 0.30474415522352011 0 0.40798200903989162 0.29537837519227839 0 0.41549709671121798 0.30241409409111591 0 0.4167408349277511 0.29469872220164722 0 0.41549709671121798 0.30241409409111591 0 0.42216438569039832 0.2996738410999813 0 0.41549709671121798 0.30241409409111591 0 0.42255027025959602 0.30546173739153343 0 0.42216438569039832 0.2996738410999813 0 0.41549709671121798 0.30241409409111591 0 0.41499603573788463 0.31104223121256519 0 0.42255027025959602 0.30546173739153343 0 0.41499603573788463 0.31104223121256519 0 0.42255027025959602 0.30546173739153343 0 0.42440189411456752 0.31370777376514553 0 0.43087691839679038 0.30588797199274992 0 0.43314933795565441 0.29438176207297673 0 0.43792031468624493 0.31241900576534709 0 0.43314933795565441 0.29438176207297673 0 0.43792031468624493 0.31241900576534709 0 0.43637537982535768 0.29882768472670868 0 0.43314933795565441 0.29438176207297673 0 0.43792031468624493 0.31241900576534709 0 0.43087691839679038 0.30588797199274992 0 0.43158908294436071 0.31755263372051762 0 0.42440189411456752 0.31370777376514553 0 0.42255027025959602 0.30546173739153343 0 0.43087691839679038 0.30588797199274992 0 0.42440189411456752 0.31370777376514553 0 0.42255027025959602 0.30546173739153343 0 0.42736529090671732 0.30004451218764239 0 0.43087691839679038 0.30588797199274992 0 0.42255027025959602 0.30546173739153343 0 0.42216438569039832 0.2996738410999813 0 0.42736529090671732 0.30004451218764239 0 0.42216438569039832 0.2996738410999813 0 0.42736529090671732 0.30004451218764239 0 0.42555072378604852 0.29349315303042112 0 0.42736529090671732 0.30004451218764239 0 0.43087691839679038 0.30588797199274992 0 0.43314933795565441 0.29438176207297673 0 0.43087691839679038 0.30588797199274992 0 0.43792031468624493 0.31241900576534709 0 0.43158908294436071 0.31755263372051762 0 0.43637537982535768 0.29882768472670868 0 0.42837836122506379 0.27634451838060609 0 0.43637537982535768 0.29882768472670868 0 0.43314933795565441 0.29438176207297673 0 0.42837836122506379 0.27634451838060609 0 0.43637537982535768 0.29882768472670868 0 0.43583593424654121 0.28696452540658901 0 0.42837836122506379 0.27634451838060609 0 0.42807275935069189 0.28754748298043181 0 0.43314933795565441 0.29438176207297673 0 0.42837836122506379 0.27634451838060609 0 0.43314933795565441 0.29438176207297673 0 0.42837836122506379 0.27634451838060609 0 0.42807275935069189 0.28754748298043181 0 0.42521261443600128 0.28597049843772349 0 0.42837836122506379 0.27634451838060609 0 0.42807275935069189 0.28754748298043181 0 0.42521261443600128 0.28597049843772349 0 0.42555072378604852 0.29349315303042112 0 0.42002306177695292 0.28820415349910461 0 0.42521261443600128 0.28597049843772349 0 0.42239279897508092 0.28102084372296982 0 0.42002306177695292 0.28820415349910461 0 0.42521261443600128 0.28597049843772349 0 0.42555072378604852 0.29349315303042112 0 0.42736529090671732 0.30004451218764239 0 0.42555072378604852 0.29349315303042112 0 0.43314933795565441 0.29438176207297673 0 0.42807275935069189 0.28754748298043181 0 0.42555072378604852 0.29349315303042112 0 0.43314933795565441 0.29438176207297673 0 0.43637537982535768 0.29882768472670868 0 0.43583593424654121 0.28696452540658901 0 0.43879765526392328 0.29305439781554782 0 0.43583593424654121 0.28696452540658901 0 0.43746700108659109 0.28230420962973218 0 0.43441482523520419 0.2783026159187022 0 0.43583593424654121 0.28696452540658901 0 0.43441482523520419 0.2783026159187022 0 0.42837836122506379 0.27634451838060609 0 0.43441482523520419 0.2783026159187022 0 0.43386740996407669 0.27204118374218339 0 0.43942614800669982 0.27310320910158431 0 0.43441482523520419 0.2783026159187022 0 0.43386740996407669 0.27204118374218339 0 0.42837836122506379 0.27634451838060609 0 0.43386740996407669 0.27204118374218339 0 0.42837836122506379 0.27634451838060609 0 0.43160431664261317 0.26480174878213708 0 0.43717791755769669 0.26761150950123508 0 0.43386740996407669 0.27204118374218339 0 0.43160431664261317 0.26480174878213708 0 0.43717791755769669 0.26761150950123508 0 0.43386740996407669 0.27204118374218339 0 0.43942614800669982 0.27310320910158431 0 0.42677557111938258 0.27028498018614661 0 0.42837836122506379 0.27634451838060609 0 0.43160431664261317 0.26480174878213708 0 0.42677557111938258 0.27028498018614661 0 0.42322679935338242 0.27487056938325322 0 0.41879114331689132 0.27067059910221342 0 0.42677557111938258 0.27028498018614661 0 0.42837836122506379 0.27634451838060609 0 0.42521261443600128 0.28597049843772349 0 0.42837836122506379 0.27634451838060609 0 0.42239279897508092 0.28102084372296982 0 0.42677557111938258 0.27028498018614661 0 0.42837836122506379 0.27634451838060609 0 0.42322679935338242 0.27487056938325322 0 0.42837836122506379 0.27634451838060609 0 0.42322679935338242 0.27487056938325322 0 0.42239279897508092 0.28102084372296982 0 0.42322679935338242 0.27487056938325322 0 0.42239279897508092 0.28102084372296982 0 0.41909799396733338 0.27677434552126728 0 0.41538933598196082 0.28136638685403381 0 0.42239279897508092 0.28102084372296982 0 0.41909799396733338 0.27677434552126728 0 0.41538933598196082 0.28136638685403381 0 0.41909799396733338 0.27677434552126728 0 0.41335486397750471 0.27431343099316052 0 0.41909799396733338 0.27677434552126728 0 0.41879114331689132 0.27067059910221342 0 0.41335486397750471 0.27431343099316052 0 0.42322679935338242 0.27487056938325322 0 0.41909799396733338 0.27677434552126728 0 0.41879114331689132 0.27067059910221342 0 0.41879114331689132 0.27067059910221342 0 0.41335863893718161 0.26697338261696529 0 0.41851102121767292 0.26211182735018462 0 0.42677557111938258 0.27028498018614661 0 0.41879114331689132 0.27067059910221342 0 0.41851102121767292 0.26211182735018462 0 0.41879114331689132 0.27067059910221342 0 0.41335863893718161 0.26697338261696529 0 0.41335486397750471 0.27431343099316052 0 0.41335863893718161 0.26697338261696529 0 0.40666040909090989 0.26967779240191742 0 0.41335486397750471 0.27431343099316052 0 0.41538933598196082 0.28136638685403381 0 0.40724197976292592 0.28000041613575671 0 0.41335486397750471 0.27431343099316052 0 0.40666040909090989 0.26967779240191742 0 0.40724197976292592 0.28000041613575671 0 0.41335486397750471 0.27431343099316052 0 0.40529903042243348 0.25025499417346209 0 0.41028791863097391 0.25976728079173561 0 0.4217133014230659 0.25114646886968811 0 0.41335863893718161 0.26697338261696529 0 0.40666040909090989 0.26967779240191742 0 0.41028791863097391 0.25976728079173561 0 0.41335863893718161 0.26697338261696529 0 0.41028791863097391 0.25976728079173561 0 0.41851102121767292 0.26211182735018462 0 0.41028791863097391 0.25976728079173561 0 0.41851102121767292 0.26211182735018462 0 0.4217133014230659 0.25114646886968811 0 0.42677557111938258 0.27028498018614661 0 0.4217133014230659 0.25114646886968811 0 0.42677557111938258 0.27028498018614661 0 0.4217133014230659 0.25114646886968811 0 0.43160431664261317 0.26480174878213708 0 0.42677557111938258 0.27028498018614661 0 0.41851102121767292 0.26211182735018462 0 0.4217133014230659 0.25114646886968811 0 0.4217133014230659 0.25114646886968811 0 0.43160431664261317 0.26480174878213708 0 0.43001071716495332 0.25281982215425508 0 0.43160431664261317 0.26480174878213708 0 0.43467912737993358 0.25931067660770002 0 0.43001071716495332 0.25281982215425508 0 0.43467912737993358 0.25931067660770002 0 0.4353340475356976 0.26352846924019419 0 0.43919214430976489 0.26159213092077999 0 0.43717791755769669 0.26761150950123508 0 0.4353340475356976 0.26352846924019419 0 0.43919214430976489 0.26159213092077999 0 0.43717791755769669 0.26761150950123508 0 0.43160431664261317 0.26480174878213708 0 0.4353340475356976 0.26352846924019419 0 0.43160431664261317 0.26480174878213708 0 0.43467912737993358 0.25931067660770002 0 0.4353340475356976 0.26352846924019419 0 0.43467912737993358 0.25931067660770002 0 0.43001071716495332 0.25281982215425508 0 0.43821113475429302 0.25000115871653422 0 0.43467912737993358 0.25931067660770002 0 0.45645275158662268 0.26026931715860491 0 0.44562665868144707 0.25349310519189672 0 0.44872211326218148 0.24711147046875909 0 0.43821113475429302 0.25000115871653422 0 0.43919214430976489 0.26159213092077999 0 0.45878829994304632 0.27062477316956851 0 0.45645275158662268 0.26026931715860491 0 0.43467912737993358 0.25931067660770002 0 0.44264989529204979 0.25586355289855489 0 0.45645275158662268 0.26026931715860491 0 0.43467912737993358 0.25931067660770002 0 0.44264989529204979 0.25586355289855489 0 0.43821113475429302 0.25000115871653422 0 0.43467912737993358 0.25931067660770002 0 0.43919214430976489 0.26159213092077999 0 0.45645275158662268 0.26026931715860491 0 0.44264989529204979 0.25586355289855489 0 0.44562665868144707 0.25349310519189672 0 0.43821113475429302 0.25000115871653422 0 0.44562665868144707 0.25349310519189672 0 0.45645275158662268 0.26026931715860491 0 0.44872211326218148 0.24711147046875909 0 0.44264989529204979 0.25586355289855489 0 0.44562665868144707 0.25349310519189672 0 0.45645275158662268 0.26026931715860491 0 0.43919214430976489 0.26159213092077999 0 0.44471725256069672 0.26966925594479668 0 0.45878829994304632 0.27062477316956851 0 0.43919214430976489 0.26159213092077999 0 0.45878829994304632 0.27062477316956851 0 0.44110172544036452 0.2788143031780051 0 0.43942614800669982 0.27310320910158431 0 0.44900175298627581 0.27541465703081508 0 0.43746700108659109 0.28230420962973218 0 0.43441482523520419 0.2783026159187022 0 0.44110172544036452 0.2788143031780051 0 0.43441482523520419 0.2783026159187022 0 0.44110172544036452 0.2788143031780051 0 0.43942614800669982 0.27310320910158431 0 0.43717791755769669 0.26761150950123508 0 0.43919214430976489 0.26159213092077999 0 0.44471725256069672 0.26966925594479668 0 0.44471725256069672 0.26966925594479668 0 0.43942614800669982 0.27310320910158431 0 0.44900175298627581 0.27541465703081508 0 0.43717791755769669 0.26761150950123508 0 0.44471725256069672 0.26966925594479668 0 0.43942614800669982 0.27310320910158431 0 0.44471725256069672 0.26966925594479668 0 0.44900175298627581 0.27541465703081508 0 0.45878829994304632 0.27062477316956851 0 0.44110172544036452 0.2788143031780051 0 0.44900175298627581 0.27541465703081508 0 0.44643062049344251 0.28265878305160791 0 0.44900175298627581 0.27541465703081508 0 0.4530054429209015 0.28125805241057128 0 0.44643062049344251 0.28265878305160791 0 0.45878829994304632 0.27062477316956851 0 0.47838445557632758 0.27965741541835692 0 0.46017658012340751 0.27851234032765598 0 0.47838445557632758 0.27965741541835692 0 0.46170294919048632 0.28560680360896828 0 0.46017658012340751 0.27851234032765598 0 0.45878829994304632 0.27062477316956851 0 0.47838445557632758 0.27965741541835692 0 0.44900175298627581 0.27541465703081508 0 0.46017658012340751 0.27851234032765598 0 0.45878829994304632 0.27062477316956851 0 0.44900175298627581 0.27541465703081508 0 0.4530054429209015 0.28125805241057128 0 0.46017658012340751 0.27851234032765598 0 0.45878829994304632 0.27062477316956851 0 0.45645275158662268 0.26026931715860491 0 0.47822637579331162 0.26122795770950991 0 0.45645275158662268 0.26026931715860491 0 0.47216813690829312 0.25009565085581797 0 0.46044187928157942 0.2452867636306221 0 0.45645275158662268 0.26026931715860491 0 0.47822637579331162 0.26122795770950991 0 0.45645275158662268 0.26026931715860491 0 0.46044187928157942 0.2452867636306221 0 0.44872211326218148 0.24711147046875909 0 0.45645275158662268 0.26026931715860491 0 0.47216813690829312 0.25009565085581797 0 0.47822637579331162 0.26122795770950991 0 0.47216813690829312 0.25009565085581797 0 0.47822637579331162 0.26122795770950991 0 0.48469580451171151 0.25251553598463539 0 0.47822637579331162 0.26122795770950991 0 0.47838445557632758 0.27965741541835692 0 0.49092591791207651 0.2754582891809218 0 0.45878829994304632 0.27062477316956851 0 0.47822637579331162 0.26122795770950991 0 0.47838445557632758 0.27965741541835692 0 0.47822637579331162 0.26122795770950991 0 0.49092591791207651 0.2754582891809218 0 0.50000000000000067 0.2621865982604149 0 0.49092591791207651 0.2754582891809218 0 0.50000000000000067 0.2621865982604149 0 0.50003814698113436 0.28552941684918182 0 0.47838445557632758 0.27965741541835692 0 0.49092591791207651 0.2754582891809218 0 0.49798061120960901 0.28869005766714539 0 0.47822637579331162 0.26122795770950991 0 0.50000000000000067 0.2621865982604149 0 0.48469580451171151 0.25251553598463539 0 0.47822637579331162 0.26122795770950991 0 0.50000000000000067 0.2621865982604149 0 0.50000000000000067 0.2621865982604149 0 0.48469580451171151 0.25251553598463539 0 0.49286357021616328 0.24875869520616531 0 0.48458939162333081 0.30926070135288691 0 0.49798061120960901 0.28869005766714539 0 0.48458939162333081 0.30926070135288691 0 0.49798061120960901 0.28869005766714539 0 0.48344690374475041 0.29367210038599523 0 0.48458939162333081 0.30926070135288691 0 0.50000000000000033 0.28962087373363149 0 0.5 0.31852134982581692 0 0.47838445557632758 0.27965741541835692 0 0.49798061120960901 0.28869005766714539 0 0.48344690374475041 0.29367210038599523 0 0.48458939162333081 0.30926070135288691 0 0.50000000000000033 0.28962087373363149 0 0.49798061120960901 0.28869005766714539 0 0.47838445557632758 0.27965741541835692 0 0.49798061120960901 0.28869005766714539 0 0.50000000000000033 0.28962087373363149 0 0.49798061120960901 0.28869005766714539 0 0.49092591791207651 0.2754582891809218 0 0.50003814698113436 0.28552941684918182 0 0.49798061120960901 0.28869005766714539 0 0.50000000000000033 0.28962087373363149 0 0.50003814698113436 0.28552941684918182 0 0.49798061120960901 0.28869005766714539 0 0.50003814698113436 0.28552941684918182 0 0.49798061120960901 0.28869005766714539 0 0.47838445557632758 0.27965741541835692 0 0.48344690374475041 0.29367210038599523 0 0.4710171759827726 0.29587325236031259 0 0.47838445557632758 0.27965741541835692 0 0.4710171759827726 0.29587325236031259 0 0.46170294919048632 0.28560680360896828 0 0.48458939162333081 0.30926070135288691 0 0.48344690374475041 0.29367210038599523 0 0.4710171759827726 0.29587325236031259 0 0.48458939162333081 0.30926070135288691 0 0.4710171759827726 0.29587325236031259 0 0.46919038199651553 0.31092541098866949 0 0.46919038199651553 0.31092541098866949 0 0.46179647861053091 0.30379909883949768 0 0.45735069172889098 0.31586265735202279 0 0.4710171759827726 0.29587325236031259 0 0.46179647861053091 0.30379909883949768 0 0.45797456352725069 0.29508044061376743 0 0.4710171759827726 0.29587325236031259 0 0.46919038199651553 0.31092541098866949 0 0.46179647861053091 0.30379909883949768 0 0.45797456352725069 0.29508044061376743 0 0.44915664123208088 0.29567615397639557 0 0.45306508507595028 0.30400491265685059 0 0.46179647861053091 0.30379909883949768 0 0.45797456352725069 0.29508044061376743 0 0.45306508507595028 0.30400491265685059 0 0.46179647861053091 0.30379909883949768 0 0.45306508507595028 0.30400491265685059 0 0.45735069172889098 0.31586265735202279 0 0.4710171759827726 0.29587325236031259 0 0.46170294919048632 0.28560680360896828 0 0.45797456352725069 0.29508044061376743 0 0.46170294919048632 0.28560680360896828 0 0.45797456352725069 0.29508044061376743 0 0.45220852528500299 0.28799275338305069 0 0.4530054429209015 0.28125805241057128 0 0.46017658012340751 0.27851234032765598 0 0.46170294919048632 0.28560680360896828 0 0.4530054429209015 0.28125805241057128 0 0.46170294919048632 0.28560680360896828 0 0.45220852528500299 0.28799275338305069 0 0.4530054429209015 0.28125805241057128 0 0.44643062049344251 0.28265878305160791 0 0.45220852528500299 0.28799275338305069 0 0.44643062049344251 0.28265878305160791 0 0.45220852528500299 0.28799275338305069 0 0.44595003633670671 0.2892027286313486 0 0.45797456352725069 0.29508044061376743 0 0.45220852528500299 0.28799275338305069 0 0.44915664123208088 0.29567615397639557 0 0.45220852528500299 0.28799275338305069 0 0.44595003633670671 0.2892027286313486 0 0.44915664123208088 0.29567615397639557 0 0.44595003633670671 0.2892027286313486 0 0.44915664123208088 0.29567615397639557 0 0.44239443812114487 0.29596978914433458 0 0.43637537982535768 0.29882768472670868 0 0.44239443812114487 0.29596978914433458 0 0.43879765526392328 0.29305439781554782 0 0.44239443812114487 0.29596978914433458 0 0.43879765526392328 0.29305439781554782 0 0.4405848688626498 0.29045559198455889 0 0.43583593424654121 0.28696452540658901 0 0.43879765526392328 0.29305439781554782 0 0.4405848688626498 0.29045559198455889 0 0.44595003633670671 0.2892027286313486 0 0.44239443812114487 0.29596978914433458 0 0.4405848688626498 0.29045559198455889 0 0.44595003633670671 0.2892027286313486 0 0.4405848688626498 0.29045559198455889 0 0.44119288020453978 0.2850895546986878 0 0.44643062049344251 0.28265878305160791 0 0.44595003633670671 0.2892027286313486 0 0.44119288020453978 0.2850895546986878 0 0.43583593424654121 0.28696452540658901 0 0.4405848688626498 0.29045559198455889 0 0.44119288020453978 0.2850895546986878 0 0.43583593424654121 0.28696452540658901 0 0.43746700108659109 0.28230420962973218 0 0.44119288020453978 0.2850895546986878 0 0.43746700108659109 0.28230420962973218 0 0.44110172544036452 0.2788143031780051 0 0.44119288020453978 0.2850895546986878 0 0.44110172544036452 0.2788143031780051 0 0.44643062049344251 0.28265878305160791 0 0.44119288020453978 0.2850895546986878 0 0.43637537982535768 0.29882768472670868 0 0.43792031468624493 0.31241900576534709 0 0.44437239842565168 0.32131085107281121 0 0.43637537982535768 0.29882768472670868 0 0.44437239842565168 0.32131085107281121 0 0.44895806371916391 0.31089279738660619 0 0.44447606683515117 0.303945306022807 0 0.44437239842565168 0.32131085107281121 0 0.43637537982535768 0.29882768472670868 0 0.44447606683515117 0.303945306022807 0 0.44437239842565168 0.32131085107281121 0 0.44895806371916391 0.31089279738660619 0 0.45306508507595028 0.30400491265685059 0 0.44447606683515117 0.303945306022807 0 0.44895806371916391 0.31089279738660619 0 0.45306508507595028 0.30400491265685059 0 0.45735069172889098 0.31586265735202279 0 0.44915664123208088 0.29567615397639557 0 0.45306508507595028 0.30400491265685059 0 0.44447606683515117 0.303945306022807 0 0.44915664123208088 0.29567615397639557 0 0.44239443812114487 0.29596978914433458 0 0.44447606683515117 0.303945306022807 0 0.43637537982535768 0.29882768472670868 0 0.44239443812114487 0.29596978914433458 0 0.44447606683515117 0.303945306022807 0 0.43792031468624493 0.31241900576534709 0 0.44437239842565168 0.32131085107281121 0 0.43158908294436071 0.31755263372051762 0 0.44437239842565168 0.32131085107281121 0 0.43906638029688072 0.33501758737901011 0 0.4347214623810578 0.32639094132552388 0 0.44437239842565168 0.32131085107281121 0 0.45735069172889098 0.31586265735202279 0 0.45632266980438518 0.32769971772059392 0 0.44895806371916391 0.31089279738660619 0 0.44437239842565168 0.32131085107281121 0 0.45735069172889098 0.31586265735202279 0 0.44437239842565168 0.32131085107281121 0 0.45236941702594569 0.34379401741891358 0 0.44437239842565168 0.32131085107281121 0 0.45632266980438518 0.32769971772059392 0 0.45236941702594569 0.34379401741891358 0 0.44437239842565168 0.32131085107281121 0 0.44440192277084389 0.33659811884337942 0 0.45236941702594569 0.34379401741891358 0 0.44440192277084389 0.33659811884337942 0 0.43906638029688072 0.33501758737901011 0 0.44179949533489787 0.34627001950278291 0 0.43906638029688072 0.33501758737901011 0 0.44179949533489787 0.34627001950278291 0 0.43418539753513102 0.34216928995756019 0 0.44437239842565168 0.32131085107281121 0 0.44440192277084389 0.33659811884337942 0 0.43906638029688072 0.33501758737901011 0 0.44440192277084389 0.33659811884337942 0 0.45236941702594569 0.34379401741891358 0 0.44179949533489787 0.34627001950278291 0 0.45632266980438518 0.32769971772059392 0 0.47119817203705239 0.32983134503862799 0 0.45236941702594569 0.34379401741891358 0 0.47119817203705239 0.32983134503862799 0 0.47556781931950531 0.34628550243728901 0 0.45780695245077391 0.35040198872436917 0 0.47119817203705239 0.32983134503862799 0 0.45780695245077391 0.35040198872436917 0 0.45236941702594569 0.34379401741891358 0 0.47119817203705239 0.32983134503862799 0 0.45780695245077391 0.35040198872436917 0 0.46919038199651553 0.31092541098866949 0 0.45735069172889098 0.31586265735202279 0 0.47119817203705239 0.32983134503862799 0 0.45735069172889098 0.31586265735202279 0 0.45632266980438518 0.32769971772059392 0 0.47119817203705239 0.32983134503862799 0 0.48458939162333081 0.30926070135288691 0 0.47119817203705239 0.32983134503862799 0 0.48458939162333081 0.30926070135288691 0 0.46919038199651553 0.31092541098866949 0 0.47119817203705239 0.32983134503862799 0 0.48458939162333081 0.30926070135288691 0 0.47119817203705239 0.32983134503862799 0 0.48627107659597768 0.3302641449145246 0 0.47119817203705239 0.32983134503862799 0 0.48627107659597768 0.3302641449145246 0 0.47556781931950531 0.34628550243728901 0 0.48627107659597768 0.3302641449145246 0 0.5 0.3474218259180023 0 0.47556781931950531 0.34628550243728901 0 0.48627107659597768 0.3302641449145246 0 0.5 0.31852134982581692 0 0.5 0.3474218259180023 0 0.48458939162333081 0.30926070135288691 0 0.48627107659597768 0.3302641449145246 0 0.5 0.31852134982581692 0 0.48128441306875758 0.36096665538125411 0 0.47202366153203701 0.37327035567964051 0 0.5 0.37632230201018779 0 0.5 0.3474218259180023 0 0.48128441306875758 0.36096665538125411 0 0.5 0.37632230201018779 0 0.5 0.3474218259180023 0 0.47556781931950531 0.34628550243728901 0 0.48128441306875758 0.36096665538125411 0 0.47556781931950531 0.34628550243728901 0 0.48128441306875758 0.36096665538125411 0 0.46541556848018201 0.3601528124817584 0 0.48128441306875758 0.36096665538125411 0 0.47202366153203701 0.37327035567964051 0 0.46541556848018201 0.3601528124817584 0 0.47202366153203701 0.37327035567964051 0 0.46541556848018201 0.3601528124817584 0 0.4568466913824219 0.36873735501873661 0 0.46541556848018201 0.3601528124817584 0 0.4568466913824219 0.36873735501873661 0 0.45233919086884927 0.35948674899050409 0 0.47556781931950531 0.34628550243728901 0 0.46541556848018201 0.3601528124817584 0 0.45780695245077391 0.35040198872436917 0 0.45780695245077391 0.35040198872436917 0 0.44945896444613159 0.35140289884494452 0 0.45233919086884927 0.35948674899050409 0 0.46541556848018201 0.3601528124817584 0 0.45780695245077391 0.35040198872436917 0 0.45233919086884927 0.35948674899050409 0 0.45780695245077391 0.35040198872436917 0 0.44945896444613159 0.35140289884494452 0 0.45236941702594569 0.34379401741891358 0 0.44945896444613159 0.35140289884494452 0 0.45236941702594569 0.34379401741891358 0 0.44179949533489787 0.34627001950278291 0 0.44945896444613159 0.35140289884494452 0 0.44297976655019111 0.35706171958815253 0 0.45233919086884927 0.35948674899050409 0 0.44945896444613159 0.35140289884494452 0 0.44297976655019111 0.35706171958815253 0 0.44179949533489787 0.34627001950278291 0 0.44297976655019111 0.35706171958815253 0 0.44179949533489787 0.34627001950278291 0 0.43238007943891038 0.3508244207352213 0 0.4568466913824219 0.36873735501873661 0 0.44335447355227442 0.3699658452177047 0 0.45017672374555828 0.37999726972282299 0 0.4568466913824219 0.36873735501873661 0 0.45233919086884927 0.35948674899050409 0 0.44335447355227442 0.3699658452177047 0 0.44297976655019111 0.35706171958815253 0 0.45233919086884927 0.35948674899050409 0 0.44335447355227442 0.3699658452177047 0 0.44297976655019111 0.35706171958815253 0 0.44335447355227442 0.3699658452177047 0 0.43497733623624701 0.36051033329529769 0 0.44335447355227442 0.3699658452177047 0 0.43024751216464552 0.36807870054876202 0 0.43520018263078419 0.37639333761187799 0 0.43024751216464552 0.36807870054876202 0 0.43497733623624701 0.36051033329529769 0 0.42541918199439682 0.35873201979968 0 0.44335447355227442 0.3699658452177047 0 0.43024751216464552 0.36807870054876202 0 0.43497733623624701 0.36051033329529769 0 0.43024751216464552 0.36807870054876202 0 0.4174232254863886 0.36794799582314908 0 0.42541918199439682 0.35873201979968 0 0.43024751216464552 0.36807870054876202 0 0.4174232254863886 0.36794799582314908 0 0.42371284528474012 0.38263248338236922 0 0.4174232254863886 0.36794799582314908 0 0.41522461345230921 0.35586295838232929 0 0.42541918199439682 0.35873201979968 0 0.4174232254863886 0.36794799582314908 0 0.41522461345230921 0.35586295838232929 0 0.4058880882074814 0.36281632230316002 0 0.4174232254863886 0.36794799582314908 0 0.4058880882074814 0.36281632230316002 0 0.40482103798813263 0.37778687011555873 0 0.41522461345230921 0.35586295838232929 0 0.41275157337043622 0.34184718566146788 0 0.40035007870814882 0.34963292268526119 0 0.41522461345230921 0.35586295838232929 0 0.4058880882074814 0.36281632230316002 0 0.40035007870814882 0.34963292268526119 0 0.41522461345230921 0.35586295838232929 0 0.42226232518788082 0.34916771001332092 0 0.42541918199439682 0.35873201979968 0 0.41522461345230921 0.35586295838232929 0 0.42226232518788082 0.34916771001332092 0 0.41275157337043622 0.34184718566146788 0 0.42226232518788082 0.34916771001332092 0 0.42567630965352649 0.34062465681969128 0 0.41275157337043622 0.34184718566146788 0 0.42226232518788082 0.34916771001332092 0 0.43238007943891038 0.3508244207352213 0 0.42567630965352649 0.34062465681969128 0 0.42226232518788082 0.34916771001332092 0 0.42541918199439682 0.35873201979968 0 0.43238007943891038 0.3508244207352213 0 0.43497733623624701 0.36051033329529769 0 0.42541918199439682 0.35873201979968 0 0.43238007943891038 0.3508244207352213 0 0.44297976655019111 0.35706171958815253 0 0.43497733623624701 0.36051033329529769 0 0.43238007943891038 0.3508244207352213 0 0.44179949533489787 0.34627001950278291 0 0.43238007943891038 0.3508244207352213 0 0.43418539753513102 0.34216928995756019 0 0.43238007943891038 0.3508244207352213 0 0.43418539753513102 0.34216928995756019 0 0.42567630965352649 0.34062465681969128 0 0.43418539753513102 0.34216928995756019 0 0.43111480833720378 0.33353650176884703 0 0.42567630965352649 0.34062465681969128 0 0.43906638029688072 0.33501758737901011 0 0.43418539753513102 0.34216928995756019 0 0.43111480833720378 0.33353650176884703 0 0.43906638029688072 0.33501758737901011 0 0.43111480833720378 0.33353650176884703 0 0.4347214623810578 0.32639094132552388 0 0.43111480833720378 0.33353650176884703 0 0.42746464190119182 0.32453713268643369 0 0.41994516159097139 0.3318290328288363 0 0.43111480833720378 0.33353650176884703 0 0.42567630965352649 0.34062465681969128 0 0.41994516159097139 0.3318290328288363 0 0.44437239842565168 0.32131085107281121 0 0.43158908294436071 0.31755263372051762 0 0.4347214623810578 0.32639094132552388 0 0.43111480833720378 0.33353650176884703 0 0.4347214623810578 0.32639094132552388 0 0.42746464190119182 0.32453713268643369 0 0.43158908294436071 0.31755263372051762 0 0.4347214623810578 0.32639094132552388 0 0.42746464190119182 0.32453713268643369 0 0.42746464190119182 0.32453713268643369 0 0.42440189411456752 0.31370777376514553 0 0.41670826186394638 0.3216549309239406 0 0.43158908294436071 0.31755263372051762 0 0.42746464190119182 0.32453713268643369 0 0.42440189411456752 0.31370777376514553 0 0.41499603573788463 0.31104223121256519 0 0.42440189411456752 0.31370777376514553 0 0.41670826186394638 0.3216549309239406 0 0.42746464190119182 0.32453713268643369 0 0.41670826186394638 0.3216549309239406 0 0.41994516159097139 0.3318290328288363 0 0.41670826186394638 0.3216549309239406 0 0.41994516159097139 0.3318290328288363 0 0.40959646709594888 0.32995322536318961 0 0.41670826186394638 0.3216549309239406 0 0.40959646709594888 0.32995322536318961 0 0.40425658947226573 0.31873524346402482 0 0.41499603573788463 0.31104223121256519 0 0.41670826186394638 0.3216549309239406 0 0.40425658947226573 0.31873524346402482 0 0.42567630965352649 0.34062465681969128 0 0.41994516159097139 0.3318290328288363 0 0.41275157337043622 0.34184718566146788 0 0.41994516159097139 0.3318290328288363 0 0.40959646709594888 0.32995322536318961 0 0.41275157337043622 0.34184718566146788 0 0.40959646709594888 0.32995322536318961 0 0.41275157337043622 0.34184718566146788 0 0.39836555017068842 0.33486221065416272 0 0.39836555017068842 0.33486221065416272 0 0.38375498114720302 0.33991877587412639 0 0.40035007870814882 0.34963292268526119 0 0.41275157337043622 0.34184718566146788 0 0.39836555017068842 0.33486221065416272 0 0.40035007870814882 0.34963292268526119 0 0.39836555017068842 0.33486221065416272 0 0.40425658947226573 0.31873524346402482 0 0.3883172221881156 0.3202774532673836 0 0.40959646709594888 0.32995322536318961 0 0.39836555017068842 0.33486221065416272 0 0.40425658947226573 0.31873524346402482 0 0.39662849881305262 0.30934807842324108 0 0.40425658947226573 0.31873524346402482 0 0.3883172221881156 0.3202774532673836 0 0.37119871693045681 0.3228526235735667 0 0.37530360048715272 0.30742562413563518 0 0.3883172221881156 0.3202774532673836 0 0.37119871693045681 0.3228526235735667 0 0.3883172221881156 0.3202774532673836 0 0.38375498114720302 0.33991877587412639 0 0.39836555017068842 0.33486221065416272 0 0.3883172221881156 0.3202774532673836 0 0.38375498114720302 0.33991877587412639 0 0.36901675618310159 0.35227363829032299 0 0.38375498114720302 0.33991877587412639 0 0.38587968600437422 0.35437816723143589 0 0.38375498114720302 0.33991877587412639 0 0.38587968600437422 0.35437816723143589 0 0.40035007870814882 0.34963292268526119 0 0.36901675618310159 0.35227363829032299 0 0.38587968600437422 0.35437816723143589 0 0.3786504201682715 0.36696746181382112 0 0.3786504201682715 0.36696746181382112 0 0.39315957401225737 0.36512241886619112 0 0.3887759623883838 0.3790224784388122 0 0.38587968600437422 0.35437816723143589 0 0.3786504201682715 0.36696746181382112 0 0.39315957401225737 0.36512241886619112 0 0.39315957401225737 0.36512241886619112 0 0.40482103798813263 0.37778687011555873 0 0.3887759623883838 0.3790224784388122 0 0.39315957401225737 0.36512241886619112 0 0.4058880882074814 0.36281632230316002 0 0.40482103798813263 0.37778687011555873 0 0.39315957401225737 0.36512241886619112 0 0.4058880882074814 0.36281632230316002 0 0.40035007870814882 0.34963292268526119 0 0.38587968600437422 0.35437816723143589 0 0.39315957401225737 0.36512241886619112 0 0.40035007870814882 0.34963292268526119 0 0.39697119004381259 0.39162929289321963 0 0.38424556533199139 0.39312379409648318 0 0.39448578781869559 0.41036916274862428 0 0.39697119004381259 0.39162929289321963 0 0.39448578781869559 0.41036916274862428 0 0.40997448283737381 0.39575033207681931 0 0.39697119004381259 0.39162929289321963 0 0.40482103798813263 0.37778687011555873 0 0.3887759623883838 0.3790224784388122 0 0.39697119004381259 0.39162929289321963 0 0.40482103798813263 0.37778687011555873 0 0.40997448283737381 0.39575033207681931 0 0.3712162157927128 0.38199114138113271 0 0.3887759623883838 0.3790224784388122 0 0.38424556533199139 0.39312379409648318 0 0.39697119004381259 0.39162929289321963 0 0.3887759623883838 0.3790224784388122 0 0.38424556533199139 0.39312379409648318 0 0.3712162157927128 0.38199114138113271 0 0.3786504201682715 0.36696746181382112 0 0.3887759623883838 0.3790224784388122 0 0.36888079041535848 0.40503859681629378 0 0.38424556533199139 0.39312379409648318 0 0.39448578781869559 0.41036916274862428 0 0.37218322809940352 0.42613779087652248 0 0.36888079041535848 0.40503859681629378 0 0.39448578781869559 0.41036916274862428 0 0.37218322809940352 0.42613779087652248 0 0.39448578781869559 0.41036916274862428 0 0.39503139492354161 0.43788140143245968 0 0.39448578781869559 0.41036916274862428 0 0.41155518886423448 0.42909934386194248 0 0.39503139492354161 0.43788140143245968 0 0.39448578781869559 0.41036916274862428 0 0.41621833914484813 0.41259839029231993 0 0.41155518886423448 0.42909934386194248 0 0.41621833914484813 0.41259839029231993 0 0.41155518886423448 0.42909934386194248 0 0.42620734318668951 0.43057461686665471 0 0.41155518886423448 0.42909934386194248 0 0.42620734318668951 0.43057461686665471 0 0.41336011825886521 0.44585486451800388 0 0.42620734318668951 0.43057461686665471 0 0.44317068070027821 0.42329205785473661 0 0.4408219570231473 0.43853985938594842 0 0.41621833914484813 0.41259839029231993 0 0.42620734318668951 0.43057461686665471 0 0.43130708192407757 0.41182248661247089 0 0.42620734318668951 0.43057461686665471 0 0.43130708192407757 0.41182248661247089 0 0.44317068070027821 0.42329205785473661 0 0.41621833914484813 0.41259839029231993 0 0.43130708192407757 0.41182248661247089 0 0.42363769674401441 0.39948579302882481 0 0.43130708192407757 0.41182248661247089 0 0.43556221803651779 0.39652424610404258 0 0.44560661610732849 0.40750347698709788 0 0.43556221803651779 0.39652424610404258 0 0.42363769674401441 0.39948579302882481 0 0.42371284528474012 0.38263248338236922 0 0.43130708192407757 0.41182248661247089 0 0.43556221803651779 0.39652424610404258 0 0.42363769674401441 0.39948579302882481 0 0.39448578781869559 0.41036916274862428 0 0.41621833914484813 0.41259839029231993 0 0.40997448283737381 0.39575033207681931 0 0.41621833914484813 0.41259839029231993 0 0.42363769674401441 0.39948579302882481 0 0.40997448283737381 0.39575033207681931 0 0.42363769674401441 0.39948579302882481 0 0.40997448283737381 0.39575033207681931 0 0.42371284528474012 0.38263248338236922 0 0.40482103798813263 0.37778687011555873 0 0.40997448283737381 0.39575033207681931 0 0.42371284528474012 0.38263248338236922 0 0.4174232254863886 0.36794799582314908 0 0.40482103798813263 0.37778687011555873 0 0.42371284528474012 0.38263248338236922 0 0.43024751216464552 0.36807870054876202 0 0.42371284528474012 0.38263248338236922 0 0.43520018263078419 0.37639333761187799 0 0.43556221803651779 0.39652424610404258 0 0.42371284528474012 0.38263248338236922 0 0.43975740837778687 0.38550730522839471 0 0.42371284528474012 0.38263248338236922 0 0.43520018263078419 0.37639333761187799 0 0.43975740837778687 0.38550730522839471 0 0.44335447355227442 0.3699658452177047 0 0.43975740837778687 0.38550730522839471 0 0.45017672374555828 0.37999726972282299 0 0.44335447355227442 0.3699658452177047 0 0.43520018263078419 0.37639333761187799 0 0.43975740837778687 0.38550730522839471 0 0.43975740837778687 0.38550730522839471 0 0.45017672374555828 0.37999726972282299 0 0.44935165978115937 0.39219393138509862 0 0.43556221803651779 0.39652424610404258 0 0.44935165978115937 0.39219393138509862 0 0.44560661610732849 0.40750347698709788 0 0.43556221803651779 0.39652424610404258 0 0.43975740837778687 0.38550730522839471 0 0.44935165978115937 0.39219393138509862 0 0.44935165978115937 0.39219393138509862 0 0.45958200238826702 0.40044574864025678 0 0.44560661610732849 0.40750347698709788 0 0.45958200238826702 0.40044574864025678 0 0.46069671261557837 0.38350302209664983 0 0.47653132683729849 0.38985312210890011 0 0.44935165978115937 0.39219393138509862 0 0.45958200238826702 0.40044574864025678 0 0.46069671261557837 0.38350302209664983 0 0.4568466913824219 0.36873735501873661 0 0.45017672374555828 0.37999726972282299 0 0.46069671261557837 0.38350302209664983 0 0.45017672374555828 0.37999726972282299 0 0.44935165978115937 0.39219393138509862 0 0.46069671261557837 0.38350302209664983 0 0.47202366153203701 0.37327035567964051 0 0.4568466913824219 0.36873735501873661 0 0.46069671261557837 0.38350302209664983 0 0.47202366153203701 0.37327035567964051 0 0.47653132683729849 0.38985312210890011 0 0.5 0.37632230201018779 0 0.47202366153203701 0.37327035567964051 0 0.46069671261557837 0.38350302209664983 0 0.47653132683729849 0.38985312210890011 0 0.45958200238826702 0.40044574864025678 0 0.47653132683729849 0.38985312210890011 0 0.47396060786238958 0.40664666454012888 0 0.47653132683729849 0.38985312210890011 0 0.5 0.40522277810237328 0 0.47396060786238958 0.40664666454012888 0 0.47653132683729849 0.38985312210890011 0 0.5 0.40522277810237328 0 0.5 0.37632230201018779 0 0.5 0.43412325419455849 0 0.47720483329342911 0.42616221288852668 0 0.48275724908235818 0.44621894423069958 0 0.5 0.40522277810237328 0 0.5 0.43412325419455849 0 0.47720483329342911 0.42616221288852668 0 0.5 0.40522277810237328 0 0.47396060786238958 0.40664666454012888 0 0.47720483329342911 0.42616221288852668 0 0.47396060786238958 0.40664666454012888 0 0.47720483329342911 0.42616221288852668 0 0.4582260943716816 0.41638258826940372 0 0.47720483329342911 0.42616221288852668 0 0.45685499158874482 0.43492931900684378 0 0.4582260943716816 0.41638258826940372 0 0.47720483329342911 0.42616221288852668 0 0.45685499158874482 0.43492931900684378 0 0.46948412407945278 0.44103703552864432 0 0.45958200238826702 0.40044574864025678 0 0.4582260943716816 0.41638258826940372 0 0.44560661610732849 0.40750347698709788 0 0.45958200238826702 0.40044574864025678 0 0.47396060786238958 0.40664666454012888 0 0.4582260943716816 0.41638258826940372 0 0.43130708192407757 0.41182248661247089 0 0.44560661610732849 0.40750347698709788 0 0.44317068070027821 0.42329205785473661 0 0.4582260943716816 0.41638258826940372 0 0.44560661610732849 0.40750347698709788 0 0.44317068070027821 0.42329205785473661 0 0.45685499158874482 0.43492931900684378 0 0.4582260943716816 0.41638258826940372 0 0.44317068070027821 0.42329205785473661 0 0.45685499158874482 0.43492931900684378 0 0.44317068070027821 0.42329205785473661 0 0.4408219570231473 0.43853985938594842 0 0.4408219570231473 0.43853985938594842 0 0.44158919512087508 0.44822444692186503 0 0.43055916751284151 0.4471959716338173 0 0.4408219570231473 0.43853985938594842 0 0.44158919512087508 0.44822444692186503 0 0.44894978309654371 0.44444128137971911 0 0.45685499158874482 0.43492931900684378 0 0.4408219570231473 0.43853985938594842 0 0.44894978309654371 0.44444128137971911 0 0.44158919512087508 0.44822444692186503 0 0.44510334001513818 0.4568476921941293 0 0.43055916751284151 0.4471959716338173 0 0.44158919512087508 0.44822444692186503 0 0.44510334001513818 0.4568476921941293 0 0.44677157513223731 0.45366485892093628 0 0.44894978309654371 0.44444128137971911 0 0.44677157513223731 0.45366485892093628 0 0.4583645800248462 0.44506311184753611 0 0.44158919512087508 0.44822444692186503 0 0.44894978309654371 0.44444128137971911 0 0.44677157513223731 0.45366485892093628 0 0.4393113486299639 0.46789825857402101 0 0.44510334001513818 0.4568476921941293 0 0.45954089908664197 0.46627341581159432 0 0.4393113486299639 0.46789825857402101 0 0.45954089908664197 0.46627341581159432 0 0.4393113486299639 0.46789825857402101 0 0.44510334001513818 0.4568476921941293 0 0.44510334001513818 0.4568476921941293 0 0.44677157513223731 0.45366485892093628 0 0.44510334001513818 0.4568476921941293 0 0.46976242622725239 0.45124306440153689 0 0.44510334001513818 0.4568476921941293 0 0.44677157513223731 0.45366485892093628 0 0.46976242622725239 0.45124306440153689 0 0.44510334001513818 0.4568476921941293 0 0.45954089908664197 0.46627341581159432 0 0.46976242622725239 0.45124306440153689 0 0.44677157513223731 0.45366485892093628 0 0.4583645800248462 0.44506311184753611 0 0.46976242622725239 0.45124306440153689 0 0.45685499158874482 0.43492931900684378 0 0.44894978309654371 0.44444128137971911 0 0.4583645800248462 0.44506311184753611 0 0.4583645800248462 0.44506311184753611 0 0.46948412407945278 0.44103703552864432 0 0.46976242622725239 0.45124306440153689 0 0.45685499158874482 0.43492931900684378 0 0.4583645800248462 0.44506311184753611 0 0.46948412407945278 0.44103703552864432 0 0.47720483329342911 0.42616221288852668 0 0.46948412407945278 0.44103703552864432 0 0.48275724908235818 0.44621894423069958 0 0.46948412407945278 0.44103703552864432 0 0.48275724908235818 0.44621894423069958 0 0.46976242622725239 0.45124306440153689 0 0.48275724908235818 0.44621894423069958 0 0.46976242622725239 0.45124306440153689 0 0.47977044954332032 0.46464857304916912 0 0.45954089908664197 0.46627341581159432 0 0.47977044954332032 0.46464857304916912 0 0.45954089908664197 0.46627341581159432 0 0.46976242622725239 0.45124306440153689 0 0.47977044954332032 0.46464857304916912 0 0.48275724908235818 0.44621894423069958 0 0.47977044954332032 0.46464857304916912 0 0.49999999999999861 0.46302373028674382 0 0.47977044954332032 0.46464857304916912 0 0.49999999999999861 0.46302373028674382 0 0.5 0.43412325419455849 0 0.48275724908235818 0.44621894423069958 0 0.49999999999999861 0.46302373028674382 0 0.49999999999999861 0.46302373028674382 0 0.5 0.5 0 0.47219353801703717 0.4829607966743949 0 0.5 0.5 0 0.47219353801703717 0.4829607966743949 0 0.45516282512708578 0.5 0 0.47977044954332032 0.46464857304916912 0 0.49999999999999861 0.46302373028674382 0 0.47219353801703717 0.4829607966743949 0 0.45954089908664197 0.46627341581159432 0 0.47977044954332032 0.46464857304916912 0 0.47219353801703717 0.4829607966743949 0 0.47219353801703717 0.4829607966743949 0 0.45516282512708578 0.5 0 0.45142142646758632 0.48021632006940418 0 0.45954089908664197 0.46627341581159432 0 0.47219353801703717 0.4829607966743949 0 0.45142142646758632 0.48021632006940418 0 0.4393113486299639 0.46789825857402101 0 0.45142142646758632 0.48021632006940418 0 0.43089852147720192 0.48394912928701073 0 0.4393113486299639 0.46789825857402101 0 0.45954089908664197 0.46627341581159432 0 0.45142142646758632 0.48021632006940418 0 0.45516282512708578 0.5 0 0.45142142646758632 0.48021632006940418 0 0.43089852147720192 0.48394912928701073 0 0.45516282512708578 0.5 0 0.42248569432443922 0.49999999999999989 0 0.43089852147720192 0.48394912928701073 0 0.42248569432443922 0.49999999999999989 0 0.417141965519853 0.48452988300358268 0 0.43089852147720192 0.48394912928701073 0 0.42248569432443922 0.49999999999999989 0 0.43089852147720192 0.48394912928701073 0 0.42248569432443922 0.49999999999999989 0 0.40719799186494082 0.48965993984065759 0 0.39411981433122262 0.5 0 0.42248569432443922 0.49999999999999989 0 0.417141965519853 0.48452988300358268 0 0.40719799186494082 0.48965993984065759 0 0.417141965519853 0.48452988300358268 0 0.40719799186494082 0.48965993984065759 0 0.40734286483258397 0.48099546615015593 0 0.41472282685982481 0.47651741492667982 0 0.42202472686983161 0.46928672453691311 0 0.40473810510969932 0.47067519049980661 0 0.42202472686983161 0.46928672453691311 0 0.40473810510969932 0.47067519049980661 0 0.40734286483258397 0.48099546615015593 0 0.41472282685982481 0.47651741492667982 0 0.40473810510969932 0.47067519049980661 0 0.417141965519853 0.48452988300358268 0 0.40734286483258397 0.48099546615015593 0 0.41472282685982481 0.47651741492667982 0 0.417141965519853 0.48452988300358268 0 0.41472282685982481 0.47651741492667982 0 0.42272478473927261 0.47887948947181302 0 0.41472282685982481 0.47651741492667982 0 0.42202472686983161 0.46928672453691311 0 0.42272478473927261 0.47887948947181302 0 0.4393113486299639 0.46789825857402101 0 0.43089852147720192 0.48394912928701073 0 0.4393113486299639 0.46789825857402101 0 0.42202472686983161 0.46928672453691311 0 0.42272478473927261 0.47887948947181302 0 0.4393113486299639 0.46789825857402101 0 0.42272478473927261 0.47887948947181302 0 0.43089852147720192 0.48394912928701073 0 0.417141965519853 0.48452988300358268 0 0.42272478473927261 0.47887948947181302 0 0.43089852147720192 0.48394912928701073 0 0.44510334001513818 0.4568476921941293 0 0.43055916751284151 0.4471959716338173 0 0.42063698502700742 0.46240851516909331 0 0.4393113486299639 0.46789825857402101 0 0.44510334001513818 0.4568476921941293 0 0.42063698502700742 0.46240851516909331 0 0.4393113486299639 0.46789825857402101 0 0.42202472686983161 0.46928672453691311 0 0.42063698502700742 0.46240851516909331 0 0.4393113486299639 0.46789825857402101 0 0.42202472686983161 0.46928672453691311 0 0.44510334001513818 0.4568476921941293 0 0.42063698502700742 0.46240851516909331 0 0.42620734318668951 0.43057461686665471 0 0.4408219570231473 0.43853985938594842 0 0.43055916751284151 0.4471959716338173 0 0.42620734318668951 0.43057461686665471 0 0.43055916751284151 0.4471959716338173 0 0.41336011825886521 0.44585486451800388 0 0.43055916751284151 0.4471959716338173 0 0.41336011825886521 0.44585486451800388 0 0.42063698502700742 0.46240851516909331 0 0.41155518886423448 0.42909934386194248 0 0.41336011825886521 0.44585486451800388 0 0.39503139492354161 0.43788140143245968 0 0.41336011825886521 0.44585486451800388 0 0.42063698502700742 0.46240851516909331 0 0.39617063003887648 0.46796933814405661 0 0.42202472686983161 0.46928672453691311 0 0.42063698502700742 0.46240851516909331 0 0.40473810510969932 0.47067519049980661 0 0.42063698502700742 0.46240851516909331 0 0.39617063003887648 0.46796933814405661 0 0.40473810510969932 0.47067519049980661 0 0.42063698502700742 0.46240851516909331 0 0.39617063003887648 0.46796933814405661 0 0.41336011825886521 0.44585486451800388 0 0.39617063003887648 0.46796933814405661 0 0.39503139492354161 0.43788140143245968 0 0.37218322809940352 0.42613779087652248 0 0.39503139492354161 0.43788140143245968 0 0.37982681549656838 0.45135261394386411 0 0.39617063003887648 0.46796933814405661 0 0.39503139492354161 0.43788140143245968 0 0.37982681549656838 0.45135261394386411 0 0.37170427505074571 0.47353016111901991 0 0.39617063003887648 0.46796933814405661 0 0.37982681549656838 0.45135261394386411 0 0.37170427505074571 0.47353016111901991 0 0.37986649276336998 0.48911602098724283 0 0.39489962031660553 0.48277435004954961 0 0.37170427505074571 0.47353016111901991 0 0.39617063003887648 0.46796933814405661 0 0.37170427505074571 0.47353016111901991 0 0.39617063003887648 0.46796933814405661 0 0.39489962031660553 0.48277435004954961 0 0.37986649276336998 0.48911602098724283 0 0.39411981433122262 0.5 0 0.39489962031660553 0.48277435004954961 0 0.36575393433800579 0.5 0 0.37986649276336998 0.48911602098724283 0 0.39411981433122262 0.5 0 0.40719799186494082 0.48965993984065759 0 0.39411981433122262 0.5 0 0.39489962031660553 0.48277435004954961 0 0.40719799186494082 0.48965993984065759 0 0.40734286483258397 0.48099546615015593 0 0.39489962031660553 0.48277435004954961 0 0.40734286483258397 0.48099546615015593 0 0.40473810510969932 0.47067519049980661 0 0.39489962031660553 0.48277435004954961 0 0.39617063003887648 0.46796933814405661 0 0.40473810510969932 0.47067519049980661 0 0.39489962031660553 0.48277435004954961 0 0.33145417560969781 0.087100081470856947 0 0.33233947487771631 0.1007929423787613 0 0.34969229935110852 0.093227897474406976 0 0.33145417560969781 0.087100081470856947 0 0.34231493749382069 0.066314390235972423 0 0.35126857487049268 0.077277047470379237 0 0.33145417560969781 0.087100081470856947 0 0.34231493749382069 0.066314390235972423 0 0.32381908480511012 0.068552269235633137 0 0.33145417560969781 0.087100081470856947 0 0.34231493749382069 0.066314390235972423 0 0.34231493749382069 0.066314390235972423 0 0.32381908480511012 0.068552269235633137 0 0.33731287417120448 0.053409767562166872 0 0.32381908480511012 0.068552269235633137 0 0.31630257012735319 0.088381179229029244 0 0.30741011100195281 0.078655156414626615 0 0.33145417560969781 0.087100081470856947 0 0.32381908480511012 0.068552269235633137 0 0.31630257012735319 0.088381179229029244 0 0.33145417560969781 0.087100081470856947 0 0.31630257012735319 0.088381179229029244 0 0.31955265092160862 0.10170705594480769 0 0.33145417560969781 0.087100081470856947 0 0.32059341372557493 0.1078857727057414 0 0.33233947487771631 0.1007929423787613 0 0.33145417560969781 0.087100081470856947 0 0.31955265092160862 0.10170705594480769 0 0.32059341372557493 0.1078857727057414 0 0.31630257012735319 0.088381179229029244 0 0.31955265092160862 0.10170705594480769 0 0.31182530231249539 0.098183872439598946 0 0.33145417560969781 0.087100081470856947 0 0.32059341372557493 0.1078857727057414 0 0.31955265092160862 0.10170705594480769 0 0.30778780429658159 0.1056576316251351 0 0.31182530231249539 0.098183872439598946 0 0.32059341372557493 0.1078857727057414 0 0.32801722967508001 0.11007222068386049 0 0.33233947487771631 0.1007929423787613 0 0.32059341372557493 0.1078857727057414 0 0.32437558540373762 0.117669010016339 0 0.30719672230092893 0.1196409652060114 0 0.32437558540373762 0.117669010016339 0 0.30719672230092893 0.1196409652060114 0 0.32116128593483362 0.12825144094693841 0 0.31955265092160862 0.10170705594480769 0 0.32059341372557493 0.1078857727057414 0 0.30719672230092893 0.1196409652060114 0 0.31955265092160862 0.10170705594480769 0 0.30719672230092893 0.1196409652060114 0 0.32059341372557493 0.1078857727057414 0 0.32801722967508001 0.11007222068386049 0 0.32437558540373762 0.117669010016339 0 0.32437558540373762 0.117669010016339 0 0.33262675453952401 0.1257256660761317 0 0.32116128593483362 0.12825144094693841 0 0.32437558540373762 0.117669010016339 0 0.33476044469329108 0.11394115763460019 0 0.33262675453952401 0.1257256660761317 0 0.32801722967508001 0.11007222068386049 0 0.32437558540373762 0.117669010016339 0 0.33476044469329108 0.11394115763460019 0 0.33476044469329108 0.11394115763460019 0 0.34538113221042771 0.1078991936918693 0 0.34552765589005852 0.1225662580257747 0 0.33476044469329108 0.11394115763460019 0 0.34552765589005852 0.1225662580257747 0 0.33262675453952401 0.1257256660761317 0 0.33233947487771631 0.1007929423787613 0 0.34538113221042771 0.1078991936918693 0 0.34969229935110852 0.093227897474406976 0 0.32801722967508001 0.11007222068386049 0 0.33476044469329108 0.11394115763460019 0 0.33233947487771631 0.1007929423787613 0 0.33476044469329108 0.11394115763460019 0 0.33233947487771631 0.1007929423787613 0 0.34538113221042771 0.1078991936918693 0 0.35842651721168872 0.1041023780819013 0 0.36591223250569771 0.094429201960228484 0 0.34969229935110852 0.093227897474406976 0 0.34538113221042771 0.1078991936918693 0 0.35842651721168872 0.1041023780819013 0 0.34969229935110852 0.093227897474406976 0 0.34538113221042771 0.1078991936918693 0 0.35842651721168872 0.1041023780819013 0 0.35647856621523411 0.1155839105123518 0 0.34538113221042771 0.1078991936918693 0 0.34552765589005852 0.1225662580257747 0 0.35647856621523411 0.1155839105123518 0 0.34552765589005852 0.1225662580257747 0 0.35647856621523411 0.1155839105123518 0 0.35599012235683392 0.12540994831616989 0 0.35647856621523411 0.1155839105123518 0 0.36262644821365592 0.1229223894631926 0 0.35599012235683392 0.12540994831616989 0 0.37025946750598587 0.1046732117591074 0 0.37353714964359269 0.12702283653965399 0 0.37971055053204789 0.099020329494696371 0 0.36513469557926348 0.1123021844098111 0 0.37025946750598587 0.1046732117591074 0 0.37353714964359269 0.12702283653965399 0 0.36262644821365592 0.1229223894631926 0 0.36513469557926348 0.1123021844098111 0 0.37353714964359269 0.12702283653965399 0 0.35647856621523411 0.1155839105123518 0 0.36262644821365592 0.1229223894631926 0 0.36513469557926348 0.1123021844098111 0 0.35842651721168872 0.1041023780819013 0 0.35647856621523411 0.1155839105123518 0 0.36513469557926348 0.1123021844098111 0 0.35842651721168872 0.1041023780819013 0 0.36591223250569771 0.094429201960228484 0 0.37025946750598587 0.1046732117591074 0 0.35842651721168872 0.1041023780819013 0 0.36513469557926348 0.1123021844098111 0 0.37025946750598587 0.1046732117591074 0 0.36591223250569771 0.094429201960228484 0 0.37025946750598587 0.1046732117591074 0 0.37971055053204789 0.099020329494696371 0 0.36591223250569771 0.094429201960228484 0 0.3744397415558699 0.086341087212534418 0 0.37971055053204789 0.099020329494696371 0 0.36591223250569771 0.094429201960228484 0 0.3644318208224876 0.081807737027363076 0 0.34969229935110852 0.093227897474406976 0 0.36591223250569771 0.094429201960228484 0 0.3744397415558699 0.086341087212534418 0 0.3644318208224876 0.081807737027363076 0 0.3744397415558699 0.086341087212534418 0 0.3644318208224876 0.081807737027363076 0 0.37437052547156002 0.075421036388670343 0 0.3644318208224876 0.081807737027363076 0 0.34969229935110852 0.093227897474406976 0 0.35126857487049268 0.077277047470379237 0 0.33145417560969781 0.087100081470856947 0 0.34969229935110852 0.093227897474406976 0 0.35126857487049268 0.077277047470379237 0 0.34231493749382069 0.066314390235972423 0 0.35126857487049268 0.077277047470379237 0 0.35653475500000009 0.063379675708273506 0 0.35126857487049268 0.077277047470379237 0 0.35653475500000009 0.063379675708273506 0 0.36322710031275268 0.071231751464020054 0 0.36322710031275268 0.071231751464020054 0 0.37437052547156002 0.075421036388670343 0 0.36952982539922308 0.058273260725414139 0 0.35653475500000009 0.063379675708273506 0 0.36322710031275268 0.071231751464020054 0 0.36952982539922308 0.058273260725414139 0 0.3644318208224876 0.081807737027363076 0 0.35126857487049268 0.077277047470379237 0 0.36322710031275268 0.071231751464020054 0 0.3644318208224876 0.081807737027363076 0 0.36322710031275268 0.071231751464020054 0 0.37437052547156002 0.075421036388670343 0 0.36952982539922308 0.058273260725414139 0 0.35317569937794469 0.04552869900108851 0 0.36952982539922308 0.058273260725414139 0 0.36852844495694431 0.045629574550310359 0 0.35317569937794469 0.04552869900108851 0 0.35653475500000009 0.063379675708273506 0 0.36952982539922308 0.058273260725414139 0 0.35317569937794469 0.04552869900108851 0 0.36952982539922308 0.058273260725414139 0 0.36852844495694431 0.045629574550310359 0 0.3792846887310849 0.048754587642359237 0 0.36852844495694431 0.045629574550310359 0 0.37524330567798497 0.038399978651358337 0 0.3792846887310849 0.048754587642359237 0 0.36852844495694431 0.045629574550310359 0 0.36520164383662013 0.038374626404820318 0 0.37524330567798497 0.038399978651358337 0 0.36959097908565319 0.032143088342111083 0 0.36520164383662013 0.038374626404820318 0 0.37524330567798497 0.038399978651358337 0 0.36959097908565319 0.032143088342111083 0 0.35984945405272628 0.032756242931482923 0 0.36520164383662013 0.038374626404820318 0 0.35984945405272628 0.032756242931482923 0 0.36520164383662013 0.038374626404820318 0 0.35317569937794469 0.04552869900108851 0 0.36959097908565319 0.032143088342111083 0 0.35984945405272628 0.032756242931482923 0 0.36031659290608059 0.029100222996790989 0 0.36852844495694431 0.045629574550310359 0 0.36520164383662013 0.038374626404820318 0 0.35317569937794469 0.04552869900108851 0 0.35984945405272628 0.032756242931482923 0 0.35317569937794469 0.04552869900108851 0 0.3435576328213425 0.038033462463237633 0 0.36031659290608059 0.029100222996790989 0 0.3435576328213425 0.038033462463237633 0 0.35984945405272628 0.032756242931482923 0 0.35317569937794469 0.04552869900108851 0 0.35984945405272628 0.032756242931482923 0 0.36031659290608059 0.029100222996790989 0 0.3435576328213425 0.038033462463237633 0 0.36031659290608059 0.029100222996790989 0 0.35218751019607042 0.027142420681738388 0 0.3435576328213425 0.038033462463237633 0 0.35317569937794469 0.04552869900108851 0 0.33731287417120448 0.053409767562166872 0 0.3435576328213425 0.038033462463237633 0 0.35317569937794469 0.04552869900108851 0 0.3435576328213425 0.038033462463237633 0 0.34231493749382069 0.066314390235972423 0 0.35653475500000009 0.063379675708273506 0 0.35317569937794469 0.04552869900108851 0 0.34231493749382069 0.066314390235972423 0 0.35317569937794469 0.04552869900108851 0 0.34231493749382069 0.066314390235972423 0 0.35317569937794469 0.04552869900108851 0 0.33731287417120448 0.053409767562166872 0 0.36642895304847711 0.0028477869111517432 0 0.3650404586387942 0.01350129016369625 0 0.37873334006080328 0.0090585985067660347 0 0.3650404586387942 0.01350129016369625 0 0.37873334006080328 0.0090585985067660347 0 0.37707555299081907 0.02016698353034516 0 0.36642895304847711 0.0028477869111517432 0 0.3650404586387942 0.01350129016369625 0 0.35611489857163697 0.0090537399193832292 0 0.36031659290608059 0.029100222996790989 0 0.37707555299081907 0.02016698353034516 0 0.36188917371594959 0.02083820331994099 0 0.36031659290608059 0.029100222996790989 0 0.37707555299081907 0.02016698353034516 0 0.36959097908565319 0.032143088342111083 0 0.36031659290608059 0.029100222996790989 0 0.37707555299081907 0.02016698353034516 0 0.3650404586387942 0.01350129016369625 0 0.36188917371594959 0.02083820331994099 0 0.35566376664189608 0.016270511801761849 0 0.3650404586387942 0.01350129016369625 0 0.36188917371594959 0.02083820331994099 0 0.37707555299081907 0.02016698353034516 0 0.36188917371594959 0.02083820331994099 0 0.36031659290608059 0.029100222996790989 0 0.35769840777095741 0.02482585806824384 0 0.36031659290608059 0.029100222996790989 0 0.35769840777095741 0.02482585806824384 0 0.35218751019607042 0.027142420681738388 0 0.35218751019607042 0.027142420681738388 0 0.34951097666136549 0.021705906449717021 0 0.35540312338234292 0.02175445865904959 0 0.35769840777095741 0.02482585806824384 0 0.35218751019607042 0.027142420681738388 0 0.35540312338234292 0.02175445865904959 0 0.35218751019607042 0.027142420681738388 0 0.34601505833221741 0.027142036318731671 0 0.3435576328213425 0.038033462463237633 0 0.35218751019607042 0.027142420681738388 0 0.34601505833221741 0.027142036318731671 0 0.34951097666136549 0.021705906449717021 0 0.34882407386418429 0.015853734643815651 0 0.34340651743181622 0.01197148962925816 0 0.34305173978599091 0.02015546479430556 0 0.34601505833221741 0.027142036318731671 0 0.34951097666136549 0.021705906449717021 0 0.34305173978599091 0.02015546479430556 0 0.34951097666136549 0.021705906449717021 0 0.34882407386418429 0.015853734643815651 0 0.34305173978599091 0.02015546479430556 0 0.34951097666136549 0.021705906449717021 0 0.34882407386418429 0.015853734643815651 0 0.35566376664189608 0.016270511801761849 0 0.34951097666136549 0.021705906449717021 0 0.35540312338234292 0.02175445865904959 0 0.35566376664189608 0.016270511801761849 0 0.36188917371594959 0.02083820331994099 0 0.35540312338234292 0.02175445865904959 0 0.35566376664189608 0.016270511801761849 0 0.36188917371594959 0.02083820331994099 0 0.35769840777095741 0.02482585806824384 0 0.35540312338234292 0.02175445865904959 0 0.3650404586387942 0.01350129016369625 0 0.35566376664189608 0.016270511801761849 0 0.35611489857163697 0.0090537399193832292 0 0.34882407386418429 0.015853734643815651 0 0.35566376664189608 0.016270511801761849 0 0.35611489857163697 0.0090537399193832292 0 0.34882407386418429 0.015853734643815651 0 0.34702825459911713 0.0062134488153237667 0 0.34340651743181622 0.01197148962925816 0 0.34882407386418429 0.015853734643815651 0 0.35611489857163697 0.0090537399193832292 0 0.34702825459911713 0.0062134488153237667 0 0.34702825459911713 0.0062134488153237667 0 0.35515594858733218 -0.00054995058001772016 0 0.34467921555257031 -0.002962009106727068 0 0.36642895304847711 0.0028477869111517432 0 0.35611489857163697 0.0090537399193832292 0 0.35515594858733218 -0.00054995058001772016 0 0.35611489857163697 0.0090537399193832292 0 0.34702825459911713 0.0062134488153237667 0 0.35515594858733218 -0.00054995058001772016 0 0.32906798822248451 0.0022292724924981222 0 0.33759069584632828 0.0048298461918768196 0 0.33032746775886679 0.010338986568239431 0 0.32906798822248451 0.0022292724924981222 0 0.33759069584632828 0.0048298461918768196 0 0.33440601945123971 -0.0057011628620716199 0 0.34702825459911713 0.0062134488153237667 0 0.33759069584632828 0.0048298461918768196 0 0.34340651743181622 0.01197148962925816 0 0.34702825459911713 0.0062134488153237667 0 0.33759069584632828 0.0048298461918768196 0 0.34467921555257031 -0.002962009106727068 0 0.33759069584632828 0.0048298461918768196 0 0.33742009227316733 0.014756936623829941 0 0.34340651743181622 0.01197148962925816 0 0.33742009227316733 0.014756936623829941 0 0.34340651743181622 0.01197148962925816 0 0.34305173978599091 0.02015546479430556 0 0.33759069584632828 0.0048298461918768196 0 0.33742009227316733 0.014756936623829941 0 0.33032746775886679 0.010338986568239431 0 0.32543106526079951 0.023907659664303488 0 0.3435576328213425 0.038033462463237633 0 0.33446401954442861 0.025920327292151279 0 0.32543106526079951 0.023907659664303488 0 0.3435576328213425 0.038033462463237633 0 0.33742009227316733 0.014756936623829941 0 0.33032746775886679 0.010338986568239431 0 0.33446401954442861 0.025920327292151279 0 0.33742009227316733 0.014756936623829941 0 0.34305173978599091 0.02015546479430556 0 0.33446401954442861 0.025920327292151279 0 0.34601505833221741 0.027142036318731671 0 0.34305173978599091 0.02015546479430556 0 0.33446401954442861 0.025920327292151279 0 0.34601505833221741 0.027142036318731671 0 0.33446401954442861 0.025920327292151279 0 0.3435576328213425 0.038033462463237633 0 0.33446401954442861 0.025920327292151279 0 0.32543106526079951 0.023907659664303488 0 0.31933739796647281 0.0098329004768663974 0 0.33446401954442861 0.025920327292151279 0 0.31933739796647281 0.0098329004768663974 0 0.32543106526079951 0.023907659664303488 0 0.31348113240042191 0.029888191151119251 0 0.32082467137712389 0.036344990819430212 0 0.32543106526079951 0.023907659664303488 0 0.31348113240042191 0.029888191151119251 0 0.31319998263201282 0.01909765176294911 0 0.32543106526079951 0.023907659664303488 0 0.31319998263201282 0.01909765176294911 0 0.31933739796647281 0.0098329004768663974 0 0.32906798822248451 0.0022292724924981222 0 0.31933739796647281 0.0098329004768663974 0 0.323678360089515 -0.0081542079124204137 0 0.33032746775886679 0.010338986568239431 0 0.33446401954442861 0.025920327292151279 0 0.31933739796647281 0.0098329004768663974 0 0.31319998263201282 0.01909765176294911 0 0.31933739796647281 0.0098329004768663974 0 0.30731068762782848 0.01117427908853828 0 0.32906798822248451 0.0022292724924981222 0 0.33032746775886679 0.010338986568239431 0 0.31933739796647281 0.0098329004768663974 0 0.32381908480511012 0.068552269235633137 0 0.33731287417120448 0.053409767562166872 0 0.32369701635780418 0.048620016874902673 0 0.3435576328213425 0.038033462463237633 0 0.33006837729345317 0.03665007372908257 0 0.32369701635780418 0.048620016874902673 0 0.3435576328213425 0.038033462463237633 0 0.32369701635780418 0.048620016874902673 0 0.33731287417120448 0.053409767562166872 0 0.3435576328213425 0.038033462463237633 0 0.32369701635780418 0.048620016874902673 0 0.32543106526079951 0.023907659664303488 0 0.3435576328213425 0.038033462463237633 0 0.33006837729345317 0.03665007372908257 0 0.33006837729345317 0.03665007372908257 0 0.32082467137712389 0.036344990819430212 0 0.32369701635780418 0.048620016874902673 0 0.32543106526079951 0.023907659664303488 0 0.33006837729345317 0.03665007372908257 0 0.32082467137712389 0.036344990819430212 0 0.31348113240042191 0.029888191151119251 0 0.32082467137712389 0.036344990819430212 0 0.31144576557314108 0.04265901267774308 0 0.32082467137712389 0.036344990819430212 0 0.32369701635780418 0.048620016874902673 0 0.31144576557314108 0.04265901267774308 0 0.32369701635780418 0.048620016874902673 0 0.30383639989426642 0.059206571286568498 0 0.32369701635780418 0.048620016874902673 0 0.30383639989426642 0.059206571286568498 0 0.31144576557314108 0.04265901267774308 0 0.32381908480511012 0.068552269235633137 0 0.32369701635780418 0.048620016874902673 0 0.30383639989426642 0.059206571286568498 0 0.30383639989426642 0.059206571286568498 0 0.31144576557314108 0.04265901267774308 0 0.29669079440720392 0.040846561703298832 0 0.31348113240042191 0.029888191151119251 0 0.31144576557314108 0.04265901267774308 0 0.29669079440720392 0.040846561703298832 0 0.29669079440720392 0.040846561703298832 0 0.28130584529462771 0.042754763327043803 0 0.28590187316036347 0.02905187528255164 0 0.29669079440720392 0.040846561703298832 0 0.28130584529462771 0.042754763327043803 0 0.28548531059185872 0.058985933475976707 0 0.30383639989426642 0.059206571286568498 0 0.29669079440720392 0.040846561703298832 0 0.28548531059185872 0.058985933475976707 0 0.31933739796647281 0.0098329004768663974 0 0.30421077638851429 -0.0062545263384160207 0 0.30731068762782848 0.01117427908853828 0 0.29662453504030911 0.011699532524542561 0 0.30421077638851429 -0.0062545263384160207 0 0.31933739796647281 0.0098329004768663974 0 0.30731068762782848 0.01117427908853828 0 0.30421077638851429 -0.0062545263384160207 0 0.30731068762782848 0.01117427908853828 0 0.29971828353420149 0.02047191038580461 0 0.29662453504030911 0.011699532524542561 0 0.31348113240042191 0.029888191151119251 0 0.29669079440720392 0.040846561703298832 0 0.29971828353420149 0.02047191038580461 0 0.31348113240042191 0.029888191151119251 0 0.31319998263201282 0.01909765176294911 0 0.29971828353420149 0.02047191038580461 0 0.31319998263201282 0.01909765176294911 0 0.30731068762782848 0.01117427908853828 0 0.29971828353420149 0.02047191038580461 0 0.31348113240042191 0.029888191151119251 0 0.29971828353420149 0.02047191038580461 0 0.29971828353420149 0.02047191038580461 0 0.28590187316036347 0.02905187528255164 0 0.28595543466797901 0.011055629620493029 0 0.29669079440720392 0.040846561703298832 0 0.29971828353420149 0.02047191038580461 0 0.28590187316036347 0.02905187528255164 0 0.29971828353420149 0.02047191038580461 0 0.28595543466797901 0.011055629620493029 0 0.28758352426337419 0.00951183574126775 0 0.30421077638851429 -0.0062545263384160207 0 0.28758352426337419 0.00951183574126775 0 0.2905745917446767 -0.0093145170178452665 0 0.29662453504030911 0.011699532524542561 0 0.28758352426337419 0.00951183574126775 0 0.30421077638851429 -0.0062545263384160207 0 0.29662453504030911 0.011699532524542561 0 0.28595543466797901 0.011055629620493029 0 0.28758352426337419 0.00951183574126775 0 0.29971828353420149 0.02047191038580461 0 0.29662453504030911 0.011699532524542561 0 0.28595543466797901 0.011055629620493029 0 0.28595543466797901 0.011055629620493029 0 0.28758352426337419 0.00951183574126775 0 0.28595543466797901 0.011055629620493029 0 0.26583900789780501 0.030130511376117369 0 0.26841754345374957 -0.00094346368570095117 0 0.28595543466797901 0.011055629620493029 0 0.28758352426337419 0.00951183574126775 0 0.26841754345374957 -0.00094346368570095117 0 0.28595543466797901 0.011055629620493029 0 0.26841754345374957 -0.00094346368570095117 0 0.28595543466797901 0.011055629620493029 0 0.26583900789780501 0.030130511376117369 0 0.28590187316036347 0.02905187528255164 0 0.28595543466797901 0.011055629620493029 0 0.26583900789780501 0.030130511376117369 0 0.24324226348344821 0.029690765515171861 0 0.26583900789780501 0.030130511376117369 0 0.25126880305074312 0.01387743523983893 0 0.26583900789780501 0.030130511376117369 0 0.2606787272139568 0.001980303172608151 0 0.26583900789780501 0.030130511376117369 0 0.2606787272139568 0.001980303172608151 0 0.26841754345374957 -0.00094346368570095117 0 0.26583900789780501 0.030130511376117369 0 0.25126880305074312 0.01387743523983893 0 0.2606787272139568 0.001980303172608151 0 0.24488347523265111 0.00476263714914716 0 0.2606787272139568 0.001980303172608151 0 0.25042228605187061 -0.0047491306960444736 0 0.2606787272139568 0.001980303172608151 0 0.26841754345374957 -0.00094346368570095117 0 0.28130584529462771 0.042754763327043803 0 0.28548531059185872 0.058985933475976707 0 0.26996227796595518 0.052623650414277391 0 0.28548531059185872 0.058985933475976707 0 0.26996227796595518 0.052623650414277391 0 0.27408554803410529 0.075116789452437327 0 0.28130584529462771 0.042754763327043803 0 0.28590187316036347 0.02905187528255164 0 0.26583900789780501 0.030130511376117369 0 0.26583900789780501 0.030130511376117369 0 0.26996227796595518 0.052623650414277391 0 0.28130584529462771 0.042754763327043803 0 0.26583900789780501 0.030130511376117369 0 0.26996227796595518 0.052623650414277391 0 0.24680145086798089 0.048182382784922581 0 0.26583900789780501 0.030130511376117369 0 0.26996227796595518 0.052623650414277391 0 0.24680145086798089 0.048182382784922581 0 0.24324226348344821 0.029690765515171861 0 0.26583900789780501 0.030130511376117369 0 0.24680145086798089 0.048182382784922581 0 0.26583900789780501 0.030130511376117369 0 0.24680145086798089 0.048182382784922581 0 0.26996227796595518 0.052623650414277391 0 0.25474285378151401 0.060042326012909437 0 0.26996227796595518 0.052623650414277391 0 0.25474285378151401 0.060042326012909437 0 0.26375511928599632 0.065385991901108914 0 0.25161164891901211 0.072730534538392233 0 0.26375511928599632 0.065385991901108914 0 0.27408554803410529 0.075116789452437327 0 0.25161164891901211 0.072730534538392233 0 0.27408554803410529 0.075116789452437327 0 0.25474285378151401 0.060042326012909437 0 0.25161164891901211 0.072730534538392233 0 0.26375511928599632 0.065385991901108914 0 0.25161164891901211 0.072730534538392233 0 0.26313658244725779 0.078730631333103762 0 0.27408554803410529 0.075116789452437327 0 0.25161164891901211 0.072730534538392233 0 0.2517554421642465 0.080550414852398958 0 0.25717487398103839 0.080719670610067629 0 0.25161164891901211 0.072730534538392233 0 0.25717487398103839 0.080719670610067629 0 0.26313658244725779 0.078730631333103762 0 0.24405622954033299 0.080224300494273634 0 0.25398259996089712 0.090928059046335205 0 0.25225342751038088 0.087010082367358924 0 0.24929952472796879 0.09277626672631184 0 0.25398259996089712 0.090928059046335205 0 0.25088998798156009 0.095610935489149285 0 0.25398259996089712 0.090928059046335205 0 0.25225342751038088 0.087010082367358924 0 0.25398259996089712 0.090928059046335205 0 0.25225342751038088 0.087010082367358924 0 0.25814872205242839 0.086306581733941512 0 0.25483311642702361 0.083646687390941749 0 0.25717487398103839 0.080719670610067629 0 0.25814872205242839 0.086306581733941512 0 0.25225342751038088 0.087010082367358924 0 0.25483311642702361 0.083646687390941749 0 0.25814872205242839 0.086306581733941512 0 0.25225342751038088 0.087010082367358924 0 0.25483311642702361 0.083646687390941749 0 0.2517554421642465 0.080550414852398958 0 0.25483311642702361 0.083646687390941749 0 0.2517554421642465 0.080550414852398958 0 0.25717487398103839 0.080719670610067629 0 0.25717487398103839 0.080719670610067629 0 0.26313658244725779 0.078730631333103762 0 0.26350397538811521 0.083748765672116282 0 0.26313658244725779 0.078730631333103762 0 0.26350397538811521 0.083748765672116282 0 0.26930686591401798 0.081337396392505382 0 0.25717487398103839 0.080719670610067629 0 0.26350397538811521 0.083748765672116282 0 0.25814872205242839 0.086306581733941512 0 0.25398259996089712 0.090928059046335205 0 0.25814872205242839 0.086306581733941512 0 0.26507059787700948 0.09074437487507464 0 0.26350397538811521 0.083748765672116282 0 0.25814872205242839 0.086306581733941512 0 0.26507059787700948 0.09074437487507464 0 0.26507059787700948 0.09074437487507464 0 0.26937892197048602 0.086383873316705495 0 0.27348993660998783 0.09312921854415801 0 0.26937892197048602 0.086383873316705495 0 0.27552323406329948 0.082959611099673189 0 0.27348993660998783 0.09312921854415801 0 0.26350397538811521 0.083748765672116282 0 0.26507059787700948 0.09074437487507464 0 0.26937892197048602 0.086383873316705495 0 0.26313658244725779 0.078730631333103762 0 0.26930686591401798 0.081337396392505382 0 0.27408554803410529 0.075116789452437327 0 0.26930686591401798 0.081337396392505382 0 0.27552323406329948 0.082959611099673189 0 0.27408554803410529 0.075116789452437327 0 0.26937892197048602 0.086383873316705495 0 0.26930686591401798 0.081337396392505382 0 0.27552323406329948 0.082959611099673189 0 0.26350397538811521 0.083748765672116282 0 0.26937892197048602 0.086383873316705495 0 0.26930686591401798 0.081337396392505382 0 0.27552323406329948 0.082959611099673189 0 0.27408554803410529 0.075116789452437327 0 0.27552323406329948 0.082959611099673189 0 0.27408554803410529 0.075116789452437327 0 0.28457866082900979 0.083912989003222832 0 0.27552323406329948 0.082959611099673189 0 0.28100443421200938 0.091294493362817419 0 0.28457866082900979 0.083912989003222832 0 0.27552323406329948 0.082959611099673189 0 0.27348993660998783 0.09312921854415801 0 0.28100443421200938 0.091294493362817419 0 0.26996227796595518 0.052623650414277391 0 0.27408554803410529 0.075116789452437327 0 0.26996227796595518 0.052623650414277391 0 0.26375511928599632 0.065385991901108914 0 0.27408554803410529 0.075116789452437327 0 0.30383639989426642 0.059206571286568498 0 0.28548531059185872 0.058985933475976707 0 0.29074782951802902 0.076885972933531874 0 0.27408554803410529 0.075116789452437327 0 0.29074782951802902 0.076885972933531874 0 0.28548531059185872 0.058985933475976707 0 0.27408554803410529 0.075116789452437327 0 0.29074782951802902 0.076885972933531874 0 0.27408554803410529 0.075116789452437327 0 0.29074782951802902 0.076885972933531874 0 0.28457866082900979 0.083912989003222832 0 0.28100443421200938 0.091294493362817419 0 0.28457866082900979 0.083912989003222832 0 0.29025823347342838 0.095292739253499861 0 0.28457866082900979 0.083912989003222832 0 0.29619563494766438 0.086688458219315936 0 0.29025823347342838 0.095292739253499861 0 0.29619563494766438 0.086688458219315936 0 0.30391394979461611 0.094587001384033087 0 0.29025823347342838 0.095292739253499861 0 0.29074782951802902 0.076885972933531874 0 0.28457866082900979 0.083912989003222832 0 0.29619563494766438 0.086688458219315936 0 0.31630257012735319 0.088381179229029244 0 0.30741011100195281 0.078655156414626615 0 0.30391394979461611 0.094587001384033087 0 0.29619563494766438 0.086688458219315936 0 0.30741011100195281 0.078655156414626615 0 0.30391394979461611 0.094587001384033087 0 0.29074782951802902 0.076885972933531874 0 0.29619563494766438 0.086688458219315936 0 0.30741011100195281 0.078655156414626615 0 0.31630257012735319 0.088381179229029244 0 0.31182530231249539 0.098183872439598946 0 0.30391394979461611 0.094587001384033087 0 0.30383639989426642 0.059206571286568498 0 0.29074782951802902 0.076885972933531874 0 0.30741011100195281 0.078655156414626615 0 0.32381908480511012 0.068552269235633137 0 0.30383639989426642 0.059206571286568498 0 0.30741011100195281 0.078655156414626615 0 0.29074782951802902 0.076885972933531874 0 0.30741011100195281 0.078655156414626615 0 0.30719672230092893 0.1196409652060114 0 0.28886850701188682 0.1161942547232831 0 0.29484079368024918 0.1375748744672152 0 0.30719672230092893 0.1196409652060114 0 0.29623968428755187 0.1063200974104191 0 0.28886850701188682 0.1161942547232831 0 0.30719672230092893 0.1196409652060114 0 0.30778780429658159 0.1056576316251351 0 0.29623968428755187 0.1063200974104191 0 0.31955265092160862 0.10170705594480769 0 0.30719672230092893 0.1196409652060114 0 0.30778780429658159 0.1056576316251351 0 0.30778780429658159 0.1056576316251351 0 0.31182530231249539 0.098183872439598946 0 0.30391394979461611 0.094587001384033087 0 0.30778780429658159 0.1056576316251351 0 0.30391394979461611 0.094587001384033087 0 0.29623968428755187 0.1063200974104191 0 0.29623968428755187 0.1063200974104191 0 0.28350769646287682 0.1010193711813072 0 0.28886850701188682 0.1161942547232831 0 0.29623968428755187 0.1063200974104191 0 0.29025823347342838 0.095292739253499861 0 0.28350769646287682 0.1010193711813072 0 0.30391394979461611 0.094587001384033087 0 0.29623968428755187 0.1063200974104191 0 0.29025823347342838 0.095292739253499861 0 0.28100443421200938 0.091294493362817419 0 0.29025823347342838 0.095292739253499861 0 0.28350769646287682 0.1010193711813072 0 0.28886850701188682 0.1161942547232831 0 0.27598434037673591 0.1156252751582746 0 0.272984110026676 0.13398187550105789 0 0.27598434037673591 0.1156252751582746 0 0.26348335499378628 0.11245496727369669 0 0.272984110026676 0.13398187550105789 0 0.28886850701188682 0.1161942547232831 0 0.27598434037673591 0.1156252751582746 0 0.27142555348639208 0.10356115688480889 0 0.26348335499378628 0.11245496727369669 0 0.272984110026676 0.13398187550105789 0 0.28886850701188682 0.1161942547232831 0 0.27142555348639208 0.10356115688480889 0 0.27598434037673591 0.1156252751582746 0 0.27142555348639208 0.10356115688480889 0 0.26348335499378628 0.11245496727369669 0 0.28350769646287682 0.1010193711813072 0 0.28886850701188682 0.1161942547232831 0 0.27142555348639208 0.10356115688480889 0 0.27348993660998783 0.09312921854415801 0 0.28350769646287682 0.1010193711813072 0 0.27142555348639208 0.10356115688480889 0 0.27348993660998783 0.09312921854415801 0 0.28100443421200938 0.091294493362817419 0 0.28350769646287682 0.1010193711813072 0 0.26507059787700948 0.09074437487507464 0 0.27348993660998783 0.09312921854415801 0 0.27142555348639208 0.10356115688480889 0 0.25398259996089712 0.090928059046335205 0 0.25388215962848382 0.1019767303477439 0 0.26348335499378628 0.11245496727369669 0 0.25398259996089712 0.090928059046335205 0 0.26348335499378628 0.11245496727369669 0 0.25398259996089712 0.090928059046335205 0 0.27142555348639208 0.10356115688480889 0 0.26348335499378628 0.11245496727369669 0 0.25398259996089712 0.090928059046335205 0 0.26507059787700948 0.09074437487507464 0 0.27142555348639208 0.10356115688480889 0 0.25398259996089712 0.090928059046335205 0 0.27142555348639208 0.10356115688480889 0 0.25388215962848382 0.1019767303477439 0 0.26348335499378628 0.11245496727369669 0 0.25446947570225847 0.11046143135598049 0 0.24734493670419361 0.1068835534419868 0 0.25388215962848382 0.1019767303477439 0 0.25446947570225847 0.11046143135598049 0 0.25398259996089712 0.090928059046335205 0 0.25388215962848382 0.1019767303477439 0 0.25088998798156009 0.095610935489149285 0 0.24639972969286381 0.097120955784311389 0 0.25388215962848382 0.1019767303477439 0 0.25088998798156009 0.095610935489149285 0 0.26348335499378628 0.11245496727369669 0 0.25883558392711081 0.1280248590344279 0 0.272984110026676 0.13398187550105789 0 0.24734493670419361 0.1068835534419868 0 0.25446947570225847 0.11046143135598049 0 0.25118777109297968 0.1185556191124543 0 0.26348335499378628 0.11245496727369669 0 0.25446947570225847 0.11046143135598049 0 0.25118777109297968 0.1185556191124543 0 0.26348335499378628 0.11245496727369669 0 0.25118777109297968 0.1185556191124543 0 0.25883558392711081 0.1280248590344279 0 0.24770667845891439 0.1326561328647054 0 0.25118777109297968 0.1185556191124543 0 0.25883558392711081 0.1280248590344279 0 0.24718136849428871 0.14582163936673781 0 0.24770667845891439 0.1326561328647054 0 0.25881600506319752 0.14247570042022531 0 0.24770667845891439 0.1326561328647054 0 0.25883558392711081 0.1280248590344279 0 0.25881600506319752 0.14247570042022531 0 0.25883558392711081 0.1280248590344279 0 0.272984110026676 0.13398187550105789 0 0.25881600506319752 0.14247570042022531 0 0.272984110026676 0.13398187550105789 0 0.28248486505956832 0.155508783728418 0 0.272984110026676 0.13398187550105789 0 0.26679022889061582 0.1540467313307454 0 0.28248486505956832 0.155508783728418 0 0.272984110026676 0.13398187550105789 0 0.26679022889061582 0.1540467313307454 0 0.25881600506319752 0.14247570042022531 0 0.26679022889061582 0.1540467313307454 0 0.25881600506319752 0.14247570042022531 0 0.25270998014602059 0.15868141745007261 0 0.24718136849428871 0.14582163936673781 0 0.25881600506319752 0.14247570042022531 0 0.25270998014602059 0.15868141745007261 0 0.24880186532544779 0.17141868754398379 0 0.25270998014602059 0.15868141745007261 0 0.25806746919434292 0.1717213214653984 0 0.25270998014602059 0.15868141745007261 0 0.25806746919434292 0.1717213214653984 0 0.26115840608356028 0.16317752611207489 0 0.25806746919434292 0.1717213214653984 0 0.26115840608356028 0.16317752611207489 0 0.2721961777782822 0.1704422128363442 0 0.26679022889061582 0.1540467313307454 0 0.25270998014602059 0.15868141745007261 0 0.26115840608356028 0.16317752611207489 0 0.2430509576257906 0.1782428790590608 0 0.2533764568832888 0.1801615451987901 0 0.25573313105287498 0.19368949404512251 0 0.2533764568832888 0.1801615451987901 0 0.26190749049699502 0.18537564194426959 0 0.25573313105287498 0.19368949404512251 0 0.24880186532544779 0.17141868754398379 0 0.25806746919434292 0.1717213214653984 0 0.2533764568832888 0.1801615451987901 0 0.25806746919434292 0.1717213214653984 0 0.2533764568832888 0.1801615451987901 0 0.26190749049699502 0.18537564194426959 0 0.25806746919434292 0.1717213214653984 0 0.26190749049699502 0.18537564194426959 0 0.2721961777782822 0.1704422128363442 0 0.26190749049699502 0.18537564194426959 0 0.27335951068527592 0.17993629467213679 0 0.277604711708063 0.1866477462129833 0 0.26190749049699502 0.18537564194426959 0 0.2721961777782822 0.1704422128363442 0 0.26190749049699502 0.18537564194426959 0 0.27335951068527592 0.17993629467213679 0 0.2721961777782822 0.1704422128363442 0 0.27335951068527592 0.17993629467213679 0 0.2721961777782822 0.1704422128363442 0 0.2817296627577634 0.17727957769495009 0 0.27335951068527592 0.17993629467213679 0 0.277604711708063 0.1866477462129833 0 0.2817296627577634 0.17727957769495009 0 0.26679022889061582 0.1540467313307454 0 0.26115840608356028 0.16317752611207489 0 0.2721961777782822 0.1704422128363442 0 0.26679022889061582 0.1540467313307454 0 0.2721961777782822 0.1704422128363442 0 0.28248486505956832 0.155508783728418 0 0.2721961777782822 0.1704422128363442 0 0.28697054406703049 0.16567248124475481 0 0.2817296627577634 0.17727957769495009 0 0.2721961777782822 0.1704422128363442 0 0.28697054406703049 0.16567248124475481 0 0.28248486505956832 0.155508783728418 0 0.2721961777782822 0.1704422128363442 0 0.28248486505956832 0.155508783728418 0 0.28697054406703049 0.16567248124475481 0 0.28248486505956832 0.155508783728418 0 0.28697054406703049 0.16567248124475481 0 0.29238407922976289 0.15822209381059379 0 0.28248486505956832 0.155508783728418 0 0.29514107404428952 0.16522892070749229 0 0.29148247170386937 0.1736281346241263 0 0.29873706508564091 0.17162098712721521 0 0.28697054406703049 0.16567248124475481 0 0.29514107404428952 0.16522892070749229 0 0.29148247170386937 0.1736281346241263 0 0.28697054406703049 0.16567248124475481 0 0.29514107404428952 0.16522892070749229 0 0.29238407922976289 0.15822209381059379 0 0.29514107404428952 0.16522892070749229 0 0.29238407922976289 0.15822209381059379 0 0.30095465584757608 0.1572373083200885 0 0.28564469909236939 0.18602330441469361 0 0.2817296627577634 0.17727957769495009 0 0.29041664458222849 0.18182328024806119 0 0.277604711708063 0.1866477462129833 0 0.28564469909236939 0.18602330441469361 0 0.2817296627577634 0.17727957769495009 0 0.2817296627577634 0.17727957769495009 0 0.29148247170386937 0.1736281346241263 0 0.29041664458222849 0.18182328024806119 0 0.28697054406703049 0.16567248124475481 0 0.2817296627577634 0.17727957769495009 0 0.29148247170386937 0.1736281346241263 0 0.29148247170386937 0.1736281346241263 0 0.29873245439055129 0.18056236023027811 0 0.29873706508564091 0.17162098712721521 0 0.29148247170386937 0.1736281346241263 0 0.29041664458222849 0.18182328024806119 0 0.29873245439055129 0.18056236023027811 0 0.28564469909236939 0.18602330441469361 0 0.29041664458222849 0.18182328024806119 0 0.29773671176559818 0.19291325915372071 0 0.29041664458222849 0.18182328024806119 0 0.29873245439055129 0.18056236023027811 0 0.29773671176559818 0.19291325915372071 0 0.3071728998606848 0.18275212493630341 0 0.3113338377628877 0.16841406630250039 0 0.31473765888300281 0.19437385954368849 0 0.29873245439055129 0.18056236023027811 0 0.3071728998606848 0.18275212493630341 0 0.29773671176559818 0.19291325915372071 0 0.29873245439055129 0.18056236023027811 0 0.30369187200970499 0.17411840391664199 0 0.29873706508564091 0.17162098712721521 0 0.29873245439055129 0.18056236023027811 0 0.30369187200970499 0.17411840391664199 0 0.3071728998606848 0.18275212493630341 0 0.30369187200970499 0.17411840391664199 0 0.3071728998606848 0.18275212493630341 0 0.3113338377628877 0.16841406630250039 0 0.3113338377628877 0.16841406630250039 0 0.31162390837372611 0.1610010036012586 0 0.30793001664277259 0.14245427306131239 0 0.29514107404428952 0.16522892070749229 0 0.30095465584757608 0.1572373083200885 0 0.30248310294876002 0.16724248098691269 0 0.29514107404428952 0.16522892070749229 0 0.29873706508564091 0.17162098712721521 0 0.30248310294876002 0.16724248098691269 0 0.30369187200970499 0.17411840391664199 0 0.29873706508564091 0.17162098712721521 0 0.30248310294876002 0.16724248098691269 0 0.30369187200970499 0.17411840391664199 0 0.30248310294876002 0.16724248098691269 0 0.3113338377628877 0.16841406630250039 0 0.30095465584757608 0.1572373083200885 0 0.30248310294876002 0.16724248098691269 0 0.3113338377628877 0.16841406630250039 0 0.3113338377628877 0.16841406630250039 0 0.30793001664277259 0.14245427306131239 0 0.31162390837372611 0.1610010036012586 0 0.30793001664277259 0.14245427306131239 0 0.31715731281396659 0.149207922236435 0 0.30095465584757608 0.1572373083200885 0 0.3113338377628877 0.16841406630250039 0 0.30793001664277259 0.14245427306131239 0 0.30095465584757608 0.1572373083200885 0 0.30793001664277259 0.14245427306131239 0 0.29571888209198582 0.15019946667752559 0 0.30793001664277259 0.14245427306131239 0 0.29484079368024918 0.1375748744672152 0 0.29571888209198582 0.15019946667752559 0 0.30719672230092893 0.1196409652060114 0 0.31011008953121649 0.132610482508109 0 0.29484079368024918 0.1375748744672152 0 0.30793001664277259 0.14245427306131239 0 0.31011008953121649 0.132610482508109 0 0.31926360728617209 0.13842538477308111 0 0.30719672230092893 0.1196409652060114 0 0.29484079368024918 0.1375748744672152 0 0.30793001664277259 0.14245427306131239 0 0.31011008953121649 0.132610482508109 0 0.29484079368024918 0.1375748744672152 0 0.28886850701188682 0.1161942547232831 0 0.272984110026676 0.13398187550105789 0 0.29484079368024918 0.1375748744672152 0 0.272984110026676 0.13398187550105789 0 0.29484079368024918 0.1375748744672152 0 0.28248486505956832 0.155508783728418 0 0.29484079368024918 0.1375748744672152 0 0.28248486505956832 0.155508783728418 0 0.29484079368024918 0.1375748744672152 0 0.28248486505956832 0.155508783728418 0 0.29571888209198582 0.15019946667752559 0 0.29238407922976289 0.15822209381059379 0 0.30095465584757608 0.1572373083200885 0 0.29571888209198582 0.15019946667752559 0 0.29238407922976289 0.15822209381059379 0 0.28248486505956832 0.155508783728418 0 0.29571888209198582 0.15019946667752559 0 0.26796497087459092 0.24498030807344609 0 0.29231120299374358 0.24702818448738331 0 0.26796497087459092 0.24498030807344609 0 0.28009577872146868 0.2233626759126861 0 0.29231120299374358 0.24702818448738331 0 0.24361873875543821 0.24293243165950959 0 0.26796497087459092 0.24498030807344609 0 0.2551345362036832 0.22495942205538511 0 0.24361873875543821 0.24293243165950959 0 0.26796497087459092 0.24498030807344609 0 0.26796497087459092 0.24498030807344609 0 0.2551345362036832 0.22495942205538511 0 0.26746140486291792 0.22507220462319449 0 0.2551345362036832 0.22495942205538511 0 0.26746140486291792 0.22507220462319449 0 0.26665033365192897 0.20698641245126101 0 0.26796497087459092 0.24498030807344609 0 0.26746140486291792 0.22507220462319449 0 0.28009577872146868 0.2233626759126861 0 0.28009577872146868 0.2233626759126861 0 0.27793871329932668 0.20688360328710539 0 0.26665033365192897 0.20698641245126101 0 0.26746140486291792 0.22507220462319449 0 0.28009577872146868 0.2233626759126861 0 0.26665033365192897 0.20698641245126101 0 0.28009577872146868 0.2233626759126861 0 0.26665033365192897 0.20698641245126101 0 0.27793871329932668 0.20688360328710539 0 0.26665033365192897 0.20698641245126101 0 0.27366716306566652 0.19603506123043379 0 0.2551345362036832 0.22495942205538511 0 0.26665033365192897 0.20698641245126101 0 0.2551345362036832 0.22495942205538511 0 0.26665033365192897 0.20698641245126101 0 0.25176131172314981 0.2140080222830662 0 0.24759964644662921 0.20563296174650381 0 0.25176131172314981 0.2140080222830662 0 0.25500577163605398 0.20541682824369289 0 0.26665033365192897 0.20698641245126101 0 0.25176131172314981 0.2140080222830662 0 0.25500577163605398 0.20541682824369289 0 0.24759964644662921 0.20563296174650381 0 0.25500577163605398 0.20541682824369289 0 0.25051184467687082 0.19976735916025609 0 0.26665033365192897 0.20698641245126101 0 0.25573313105287498 0.19368949404512251 0 0.26665033365192897 0.20698641245126101 0 0.25500577163605398 0.20541682824369289 0 0.25573313105287498 0.19368949404512251 0 0.26190749049699502 0.18537564194426959 0 0.277604711708063 0.1866477462129833 0 0.25573313105287498 0.19368949404512251 0 0.26665033365192897 0.20698641245126101 0 0.25573313105287498 0.19368949404512251 0 0.27366716306566652 0.19603506123043379 0 0.244843411396472 0.19719553510323951 0 0.25051184467687082 0.19976735916025609 0 0.25573313105287498 0.19368949404512251 0 0.25500577163605398 0.20541682824369289 0 0.25051184467687082 0.19976735916025609 0 0.25573313105287498 0.19368949404512251 0 0.244843411396472 0.19719553510323951 0 0.25573313105287498 0.19368949404512251 0 0.25573313105287498 0.19368949404512251 0 0.27193519261869947 0.19195624006307299 0 0.27366716306566652 0.19603506123043379 0 0.277604711708063 0.1866477462129833 0 0.25573313105287498 0.19368949404512251 0 0.27193519261869947 0.19195624006307299 0 0.277604711708063 0.1866477462129833 0 0.25573313105287498 0.19368949404512251 0 0.26665033365192897 0.20698641245126101 0 0.27366716306566652 0.19603506123043379 0 0.27366716306566652 0.19603506123043379 0 0.28073576464819372 0.19145265876375259 0 0.28137373615530142 0.2001798137976237 0 0.27793871329932668 0.20688360328710539 0 0.27366716306566652 0.19603506123043379 0 0.28137373615530142 0.2001798137976237 0 0.277604711708063 0.1866477462129833 0 0.27193519261869947 0.19195624006307299 0 0.28073576464819372 0.19145265876375259 0 0.27193519261869947 0.19195624006307299 0 0.27366716306566652 0.19603506123043379 0 0.28073576464819372 0.19145265876375259 0 0.28073576464819372 0.19145265876375259 0 0.29773671176559818 0.19291325915372071 0 0.28137373615530142 0.2001798137976237 0 0.29773671176559818 0.19291325915372071 0 0.28790655490226802 0.2078540530435227 0 0.29773671176559818 0.19291325915372071 0 0.30368788484543607 0.20806700868491521 0 0.28790655490226802 0.2078540530435227 0 0.28564469909236939 0.18602330441469361 0 0.28073576464819372 0.19145265876375259 0 0.29773671176559818 0.19291325915372071 0 0.28073576464819372 0.19145265876375259 0 0.28137373615530142 0.2001798137976237 0 0.29773671176559818 0.19291325915372071 0 0.277604711708063 0.1866477462129833 0 0.28564469909236939 0.18602330441469361 0 0.28073576464819372 0.19145265876375259 0 0.29773671176559818 0.19291325915372071 0 0.30368788484543607 0.20806700868491521 0 0.31473765888300281 0.19437385954368849 0 0.3071728998606848 0.18275212493630341 0 0.29773671176559818 0.19291325915372071 0 0.31473765888300281 0.19437385954368849 0 0.29773671176559818 0.19291325915372071 0 0.31473765888300281 0.19437385954368849 0 0.30368788484543607 0.20806700868491521 0 0.31804033030051371 0.21956221819023919 0 0.31473765888300281 0.19437385954368849 0 0.30368788484543607 0.20806700868491521 0 0.28790655490226802 0.2078540530435227 0 0.30001816837579781 0.22563165349340489 0 0.30368788484543607 0.20806700868491521 0 0.30001816837579781 0.22563165349340489 0 0.31804033030051371 0.21956221819023919 0 0.28009577872146868 0.2233626759126861 0 0.27793871329932668 0.20688360328710539 0 0.28790655490226802 0.2078540530435227 0 0.27793871329932668 0.20688360328710539 0 0.28137373615530142 0.2001798137976237 0 0.28790655490226802 0.2078540530435227 0 0.28009577872146868 0.2233626759126861 0 0.28790655490226802 0.2078540530435227 0 0.30001816837579781 0.22563165349340489 0 0.28009577872146868 0.2233626759126861 0 0.30001816837579781 0.22563165349340489 0 0.29231120299374358 0.24702818448738331 0 0.30001816837579781 0.22563165349340489 0 0.31665743511289618 0.24907606090132059 0 0.31804033030051371 0.21956221819023919 0 0.30001816837579781 0.22563165349340489 0 0.29231120299374358 0.24702818448738331 0 0.31665743511289618 0.24907606090132059 0 0.29231120299374358 0.24702818448738331 0 0.31665743511289618 0.24907606090132059 0 0.34100366723204889 0.25112393731525778 0 0.31665743511289618 0.24907606090132059 0 0.33654674482895819 0.22874257236347389 0 0.34100366723204889 0.25112393731525778 0 0.33654674482895819 0.22874257236347389 0 0.3537865659103237 0.23186132248192681 0 0.31665743511289618 0.24907606090132059 0 0.31804033030051371 0.21956221819023919 0 0.33654674482895819 0.22874257236347389 0 0.31804033030051371 0.21956221819023919 0 0.33654674482895819 0.22874257236347389 0 0.33232279542047999 0.21070404894316169 0 0.33654674482895819 0.22874257236347389 0 0.33232279542047999 0.21070404894316169 0 0.35169253521121657 0.2142461096095897 0 0.33232279542047999 0.21070404894316169 0 0.3405967078787086 0.19659548500881749 0 0.35169253521121657 0.2142461096095897 0 0.31804033030051371 0.21956221819023919 0 0.31473765888300281 0.19437385954368849 0 0.31804033030051371 0.21956221819023919 0 0.33232279542047999 0.21070404894316169 0 0.31473765888300281 0.19437385954368849 0 0.31473765888300281 0.19437385954368849 0 0.3405967078787086 0.19659548500881749 0 0.32481838160429582 0.1820812115918693 0 0.31473765888300281 0.19437385954368849 0 0.3405967078787086 0.19659548500881749 0 0.33232279542047999 0.21070404894316169 0 0.31473765888300281 0.19437385954368849 0 0.3405967078787086 0.19659548500881749 0 0.3405967078787086 0.19659548500881749 0 0.3664557568744144 0.19881711047394621 0 0.3405967078787086 0.19659548500881749 0 0.35873126673835221 0.1941822269392231 0 0.3664557568744144 0.19881711047394621 0 0.3405967078787086 0.19659548500881749 0 0.35873126673835221 0.1941822269392231 0 0.34842273094199522 0.18606136757878841 0 0.35873126673835221 0.1941822269392231 0 0.34842273094199522 0.18606136757878841 0 0.36119034786668142 0.18302785062956911 0 0.35873126673835221 0.1941822269392231 0 0.3664557568744144 0.19881711047394621 0 0.36119034786668142 0.18302785062956911 0 0.35873126673835221 0.1941822269392231 0 0.36119034786668142 0.18302785062956911 0 0.3664557568744144 0.19881711047394621 0 0.36119034786668142 0.18302785062956911 0 0.37749839063242407 0.190274987341567 0 0.3664557568744144 0.19881711047394621 0 0.37467813071442962 0.217759523736623 0 0.37749839063242407 0.190274987341567 0 0.3664557568744144 0.19881711047394621 0 0.36415309715865002 0.21175274075951961 0 0.35169253521121657 0.2142461096095897 0 0.3664557568744144 0.19881711047394621 0 0.37467813071442962 0.217759523736623 0 0.36415309715865002 0.21175274075951961 0 0.37467813071442962 0.217759523736623 0 0.36415309715865002 0.21175274075951961 0 0.36184756832488463 0.22153580572107989 0 0.36415309715865002 0.21175274075951961 0 0.35169253521121657 0.2142461096095897 0 0.36184756832488463 0.22153580572107989 0 0.3405967078787086 0.19659548500881749 0 0.3664557568744144 0.19881711047394621 0 0.35169253521121657 0.2142461096095897 0 0.33654674482895819 0.22874257236347389 0 0.35169253521121657 0.2142461096095897 0 0.3537865659103237 0.23186132248192681 0 0.35169253521121657 0.2142461096095897 0 0.3537865659103237 0.23186132248192681 0 0.36184756832488463 0.22153580572107989 0 0.37467813071442962 0.217759523736623 0 0.3718578707964344 0.24524406013167921 0 0.37467813071442962 0.217759523736623 0 0.36184756832488463 0.22153580572107989 0 0.36492751262980327 0.23205933201774021 0 0.37467813071442962 0.217759523736623 0 0.36492751262980327 0.23205933201774021 0 0.3718578707964344 0.24524406013167921 0 0.3537865659103237 0.23186132248192681 0 0.36184756832488463 0.22153580572107989 0 0.36492751262980327 0.23205933201774021 0 0.36492751262980327 0.23205933201774021 0 0.3718578707964344 0.24524406013167921 0 0.35938510318396227 0.24269209313515991 0 0.37099565353147862 0.25364670474182438 0 0.3718578707964344 0.24524406013167921 0 0.36534989935120171 0.25317181372919573 0 0.3718578707964344 0.24524406013167921 0 0.37099565353147862 0.25364670474182438 0 0.3718578707964344 0.24524406013167921 0 0.37705914132571833 0.25002333554334621 0 0.36534989935120171 0.25317181372919573 0 0.3718578707964344 0.24524406013167921 0 0.35938510318396227 0.24269209313515991 0 0.34100366723204889 0.25112393731525778 0 0.3537865659103237 0.23186132248192681 0 0.35938510318396227 0.24269209313515991 0 0.34100366723204889 0.25112393731525778 0 0.36534989935120171 0.25317181372919573 0 0.35938510318396227 0.24269209313515991 0 0.3537865659103237 0.23186132248192681 0 0.36492751262980327 0.23205933201774021 0 0.35938510318396227 0.24269209313515991 0 0.33626756539213221 0.1453671843050755 0 0.32974195462460948 0.13721318033022961 0 0.32607280183011472 0.14746575303799109 0 0.33626756539213221 0.1453671843050755 0 0.32607280183011472 0.14746575303799109 0 0.33493408118851398 0.15797778741521759 0 0.32607280183011472 0.14746575303799109 0 0.32493852293823061 0.15779403744935869 0 0.33493408118851398 0.15797778741521759 0 0.343395247423604 0.1518624282582052 0 0.33626756539213221 0.1453671843050755 0 0.33493408118851398 0.15797778741521759 0 0.33626756539213221 0.1453671843050755 0 0.34019360069061422 0.13471294950290821 0 0.34639829793605881 0.14239995007339731 0 0.343395247423604 0.1518624282582052 0 0.33626756539213221 0.1453671843050755 0 0.34639829793605881 0.14239995007339731 0 0.34552765589005852 0.1225662580257747 0 0.34019360069061422 0.13471294950290821 0 0.33262675453952401 0.1257256660761317 0 0.34019360069061422 0.13471294950290821 0 0.33262675453952401 0.1257256660761317 0 0.32974195462460948 0.13721318033022961 0 0.33626756539213221 0.1453671843050755 0 0.34019360069061422 0.13471294950290821 0 0.32974195462460948 0.13721318033022961 0 0.32974195462460948 0.13721318033022961 0 0.32116128593483362 0.12825144094693841 0 0.31926360728617209 0.13842538477308111 0 0.33262675453952401 0.1257256660761317 0 0.32974195462460948 0.13721318033022961 0 0.32116128593483362 0.12825144094693841 0 0.30719672230092893 0.1196409652060114 0 0.31011008953121649 0.132610482508109 0 0.32116128593483362 0.12825144094693841 0 0.31011008953121649 0.132610482508109 0 0.32116128593483362 0.12825144094693841 0 0.31926360728617209 0.13842538477308111 0 0.30793001664277259 0.14245427306131239 0 0.31926360728617209 0.13842538477308111 0 0.31715731281396659 0.149207922236435 0 0.32974195462460948 0.13721318033022961 0 0.31926360728617209 0.13842538477308111 0 0.32607280183011472 0.14746575303799109 0 0.31926360728617209 0.13842538477308111 0 0.32607280183011472 0.14746575303799109 0 0.31715731281396659 0.149207922236435 0 0.32607280183011472 0.14746575303799109 0 0.31715731281396659 0.149207922236435 0 0.32493852293823061 0.15779403744935869 0 0.31162390837372611 0.1610010036012586 0 0.31715731281396659 0.149207922236435 0 0.32493852293823061 0.15779403744935869 0 0.31162390837372611 0.1610010036012586 0 0.33640712812020301 0.17201442711541551 0 0.3113338377628877 0.16841406630250039 0 0.31162390837372611 0.1610010036012586 0 0.33640712812020301 0.17201442711541551 0 0.31162390837372611 0.1610010036012586 0 0.32493852293823061 0.15779403744935869 0 0.33640712812020301 0.17201442711541551 0 0.3113338377628877 0.16841406630250039 0 0.32481838160429582 0.1820812115918693 0 0.33640712812020301 0.17201442711541551 0 0.3113338377628877 0.16841406630250039 0 0.31473765888300281 0.19437385954368849 0 0.3113338377628877 0.16841406630250039 0 0.31473765888300281 0.19437385954368849 0 0.32481838160429582 0.1820812115918693 0 0.3405967078787086 0.19659548500881749 0 0.32481838160429582 0.1820812115918693 0 0.33640712812020301 0.17201442711541551 0 0.3405967078787086 0.19659548500881749 0 0.33640712812020301 0.17201442711541551 0 0.34842273094199522 0.18606136757878841 0 0.33640712812020301 0.17201442711541551 0 0.33493408118851398 0.15797778741521759 0 0.35248271206517312 0.16561798129890851 0 0.343395247423604 0.1518624282582052 0 0.33493408118851398 0.15797778741521759 0 0.35248271206517312 0.16561798129890851 0 0.32493852293823061 0.15779403744935869 0 0.33640712812020301 0.17201442711541551 0 0.33493408118851398 0.15797778741521759 0 0.343395247423604 0.1518624282582052 0 0.35248271206517312 0.16561798129890851 0 0.35361154403863859 0.15371568970576399 0 0.35248271206517312 0.16561798129890851 0 0.36736374875513739 0.15502534358461159 0 0.35361154403863859 0.15371568970576399 0 0.33640712812020301 0.17201442711541551 0 0.35248271206517312 0.16561798129890851 0 0.36119034786668142 0.18302785062956911 0 0.33640712812020301 0.17201442711541551 0 0.34842273094199522 0.18606136757878841 0 0.36119034786668142 0.18302785062956911 0 0.33640712812020301 0.17201442711541551 0 0.36119034786668142 0.18302785062956911 0 0.36119034786668142 0.18302785062956911 0 0.37749839063242407 0.190274987341567 0 0.36119034786668142 0.18302785062956911 0 0.37160256682110809 0.17268432510288559 0 0.37749839063242407 0.190274987341567 0 0.36119034786668142 0.18302785062956911 0 0.36736374875513739 0.15502534358461159 0 0.35248271206517312 0.16561798129890851 0 0.36119034786668142 0.18302785062956911 0 0.36736374875513739 0.15502534358461159 0 0.37160256682110809 0.17268432510288559 0 0.36736374875513739 0.15502534358461159 0 0.38035778003018972 0.1624091188557947 0 0.36119034786668142 0.18302785062956911 0 0.37160256682110809 0.17268432510288559 0 0.36736374875513739 0.15502534358461159 0 0.36736374875513739 0.15502534358461159 0 0.37353714964359269 0.12702283653965399 0 0.36736374875513739 0.15502534358461159 0 0.35646504891724801 0.1438327807155366 0 0.36157218666994401 0.1343450094694057 0 0.36736374875513739 0.15502534358461159 0 0.35361154403863859 0.15371568970576399 0 0.35646504891724801 0.1438327807155366 0 0.35361154403863859 0.15371568970576399 0 0.35646504891724801 0.1438327807155366 0 0.34639829793605881 0.14239995007339731 0 0.343395247423604 0.1518624282582052 0 0.35361154403863859 0.15371568970576399 0 0.34639829793605881 0.14239995007339731 0 0.34552765589005852 0.1225662580257747 0 0.35091984351045402 0.1338439197433266 0 0.35599012235683392 0.12540994831616989 0 0.34552765589005852 0.1225662580257747 0 0.34019360069061422 0.13471294950290821 0 0.35091984351045402 0.1338439197433266 0 0.34019360069061422 0.13471294950290821 0 0.34639829793605881 0.14239995007339731 0 0.35091984351045402 0.1338439197433266 0 0.35646504891724801 0.1438327807155366 0 0.34639829793605881 0.14239995007339731 0 0.35091984351045402 0.1338439197433266 0 0.35646504891724801 0.1438327807155366 0 0.35091984351045402 0.1338439197433266 0 0.36157218666994401 0.1343450094694057 0 0.35091984351045402 0.1338439197433266 0 0.35599012235683392 0.12540994831616989 0 0.36157218666994401 0.1343450094694057 0 0.36262644821365592 0.1229223894631926 0 0.35599012235683392 0.12540994831616989 0 0.36157218666994401 0.1343450094694057 0 0.36736374875513739 0.15502534358461159 0 0.37353714964359269 0.12702283653965399 0 0.38321716942795542 0.1345432503700224 0 0.36262644821365592 0.1229223894631926 0 0.36157218666994401 0.1343450094694057 0 0.37353714964359269 0.12702283653965399 0 0.36736374875513739 0.15502534358461159 0 0.36157218666994401 0.1343450094694057 0 0.37353714964359269 0.12702283653965399 0 0.38321716942795542 0.1345432503700224 0 0.39534094258916119 0.13043600057333149 0 0.39528220406742121 0.11789121407096891 0 0.39534094258916119 0.13043600057333149 0 0.40336011378990982 0.13426622820541231 0 0.3938366917400854 0.14288615924560549 0 0.38321716942795542 0.1345432503700224 0 0.39534094258916119 0.13043600057333149 0 0.3938366917400854 0.14288615924560549 0 0.39534094258916119 0.13043600057333149 0 0.40336011378990982 0.13426622820541231 0 0.40100853392043428 0.1225931509746481 0 0.40336011378990982 0.13426622820541231 0 0.41426077641282327 0.12910623488873851 0 0.40100853392043428 0.1225931509746481 0 0.40336011378990982 0.13426622820541231 0 0.3938366917400854 0.14288615924560549 0 0.41511238942987783 0.1458422992314751 0 0.40448646908223651 0.15558222606454269 0 0.3938366917400854 0.14288615924560549 0 0.41511238942987783 0.1458422992314751 0 0.3938366917400854 0.14288615924560549 0 0.41511238942987783 0.1458422992314751 0 0.40448646908223651 0.15558222606454269 0 0.3938366917400854 0.14288615924560549 0 0.39251237634633118 0.15144818979218241 0 0.38321716942795542 0.1345432503700224 0 0.39251237634633118 0.15144818979218241 0 0.38763762574787192 0.15577753147479539 0 0.38321716942795542 0.1345432503700224 0 0.38763762574787192 0.15577753147479539 0 0.38035778003018972 0.1624091188557947 0 0.36736374875513739 0.15502534358461159 0 0.38321716942795542 0.1345432503700224 0 0.38035778003018972 0.1624091188557947 0 0.38321716942795542 0.1345432503700224 0 0.38035778003018972 0.1624091188557947 0 0.38321716942795542 0.1345432503700224 0 0.3938366917400854 0.14288615924560549 0 0.39251237634633118 0.15144818979218241 0 0.3797120087860813 0.16870241230308841 0 0.38714397037801701 0.1658820329817389 0 0.39954278223366252 0.1803290866820276 0 0.37160256682110809 0.17268432510288559 0 0.38035778003018972 0.1624091188557947 0 0.3797120087860813 0.16870241230308841 0 0.38035778003018972 0.1624091188557947 0 0.3797120087860813 0.16870241230308841 0 0.38714397037801701 0.1658820329817389 0 0.38035778003018972 0.1624091188557947 0 0.3797120087860813 0.16870241230308841 0 0.38763762574787192 0.15577753147479539 0 0.38714397037801701 0.1658820329817389 0 0.39495683255686631 0.16460506537423869 0 0.38763762574787192 0.15577753147479539 0 0.38035778003018972 0.1624091188557947 0 0.38714397037801701 0.1658820329817389 0 0.3797120087860813 0.16870241230308841 0 0.39954278223366252 0.1803290866820276 0 0.37160256682110809 0.17268432510288559 0 0.3797120087860813 0.16870241230308841 0 0.37749839063242407 0.190274987341567 0 0.3797120087860813 0.16870241230308841 0 0.38631267548427167 0.18040835716906739 0 0.39954278223366252 0.1803290866820276 0 0.3797120087860813 0.16870241230308841 0 0.38631267548427167 0.18040835716906739 0 0.37749839063242407 0.190274987341567 0 0.3797120087860813 0.16870241230308841 0 0.37749839063242407 0.190274987341567 0 0.38631267548427167 0.18040835716906739 0 0.39954278223366252 0.1803290866820276 0 0.39643368610006963 0.18835458738725119 0 0.39954278223366252 0.1803290866820276 0 0.40437646092405172 0.16953660240211271 0 0.41258235013931838 0.1762253624667709 0 0.39954278223366252 0.1803290866820276 0 0.39643368610006963 0.18835458738725119 0 0.40503655340217681 0.18809804398001079 0 0.38714397037801701 0.1658820329817389 0 0.39954278223366252 0.1803290866820276 0 0.39495683255686631 0.16460506537423869 0 0.39954278223366252 0.1803290866820276 0 0.39495683255686631 0.16460506537423869 0 0.40437646092405172 0.16953660240211271 0 0.40448646908223651 0.15558222606454269 0 0.39251237634633118 0.15144818979218241 0 0.39495683255686631 0.16460506537423869 0 0.39251237634633118 0.15144818979218241 0 0.38763762574787192 0.15577753147479539 0 0.39495683255686631 0.16460506537423869 0 0.40448646908223651 0.15558222606454269 0 0.39495683255686631 0.16460506537423869 0 0.40437646092405172 0.16953660240211271 0 0.40448646908223651 0.15558222606454269 0 0.41425642553916359 0.1670275144830648 0 0.42197991093085202 0.15703428869722891 0 0.40448646908223651 0.15558222606454269 0 0.40437646092405172 0.16953660240211271 0 0.41425642553916359 0.1670275144830648 0 0.40437646092405172 0.16953660240211271 0 0.41425642553916359 0.1670275144830648 0 0.41258235013931838 0.1762253624667709 0 0.41425642553916359 0.1670275144830648 0 0.41258235013931838 0.1762253624667709 0 0.42769848219495948 0.1703583898380108 0 0.41425642553916359 0.1670275144830648 0 0.42197991093085202 0.15703428869722891 0 0.42769848219495948 0.1703583898380108 0 0.39954278223366252 0.1803290866820276 0 0.41900887727024888 0.191918340458679 0 0.39954278223366252 0.1803290866820276 0 0.41258235013931838 0.1762253624667709 0 0.41900887727024888 0.191918340458679 0 0.41258235013931838 0.1762253624667709 0 0.42769848219495948 0.1703583898380108 0 0.41900887727024888 0.191918340458679 0 0.39954278223366252 0.1803290866820276 0 0.40503655340217681 0.18809804398001079 0 0.41900887727024888 0.191918340458679 0 0.43377453127173837 0.18526303465223309 0 0.42769848219495948 0.1703583898380108 0 0.41900887727024888 0.191918340458679 0 0.42769848219495948 0.1703583898380108 0 0.41900887727024888 0.191918340458679 0 0.43377453127173837 0.18526303465223309 0 0.42769848219495948 0.1703583898380108 0 0.44045816003021632 0.1788369629606931 0 0.42769848219495948 0.1703583898380108 0 0.43638808711967042 0.14879843921734279 0 0.4424696153421766 0.1602339240175972 0 0.42769848219495948 0.1703583898380108 0 0.43638808711967042 0.14879843921734279 0 0.42197991093085202 0.15703428869722891 0 0.42769848219495948 0.1703583898380108 0 0.43638808711967042 0.14879843921734279 0 0.43638808711967042 0.14879843921734279 0 0.41511238942987783 0.1458422992314751 0 0.43638808711967042 0.14879843921734279 0 0.42738934798011502 0.13589705017274301 0 0.41511238942987783 0.1458422992314751 0 0.42197991093085202 0.15703428869722891 0 0.43638808711967042 0.14879843921734279 0 0.41511238942987783 0.1458422992314751 0 0.43638808711967042 0.14879843921734279 0 0.42738934798011502 0.13589705017274301 0 0.4422805091527181 0.1341786343850887 0 0.42738934798011502 0.13589705017274301 0 0.4422805091527181 0.1341786343850887 0 0.42890497778548492 0.1215596431410699 0 0.42738934798011502 0.13589705017274301 0 0.41426077641282327 0.12910623488873851 0 0.42890497778548492 0.1215596431410699 0 0.42738934798011502 0.13589705017274301 0 0.41426077641282327 0.12910623488873851 0 0.41511238942987783 0.1458422992314751 0 0.40336011378990982 0.13426622820541231 0 0.41426077641282327 0.12910623488873851 0 0.41511238942987783 0.1458422992314751 0 0.40448646908223651 0.15558222606454269 0 0.42197991093085202 0.15703428869722891 0 0.41511238942987783 0.1458422992314751 0 0.40529903042243348 0.25025499417346209 0 0.39367090866082288 0.25181065467480102 0 0.39768079342857232 0.24044438491138151 0 0.40529903042243348 0.25025499417346209 0 0.39768079342857232 0.24044438491138151 0 0.40835822148005402 0.2393566034126198 0 0.39768079342857232 0.24044438491138151 0 0.40204974050513043 0.22898874974979741 0 0.40835822148005402 0.2393566034126198 0 0.39768079342857232 0.24044438491138151 0 0.38441199810286403 0.24172068400396091 0 0.3935657645860795 0.2335377584137262 0 0.39367090866082288 0.25181065467480102 0 0.39768079342857232 0.24044438491138151 0 0.38441199810286403 0.24172068400396091 0 0.39367090866082288 0.25181065467480102 0 0.3824321552584245 0.25460868284298788 0 0.38441199810286403 0.24172068400396091 0 0.3718578707964344 0.24524406013167921 0 0.38441199810286403 0.24172068400396091 0 0.39012052630775168 0.2229972149897651 0 0.3718578707964344 0.24524406013167921 0 0.37705914132571833 0.25002333554334621 0 0.38441199810286403 0.24172068400396091 0 0.3824321552584245 0.25460868284298788 0 0.37705914132571833 0.25002333554334621 0 0.38441199810286403 0.24172068400396091 0 0.3718578707964344 0.24524406013167921 0 0.39012052630775168 0.2229972149897651 0 0.38441199810286403 0.24172068400396091 0 0.39012052630775168 0.2229972149897651 0 0.3935657645860795 0.2335377584137262 0 0.37467813071442962 0.217759523736623 0 0.3718578707964344 0.24524406013167921 0 0.39012052630775168 0.2229972149897651 0 0.39768079342857232 0.24044438491138151 0 0.3935657645860795 0.2335377584137262 0 0.40204974050513043 0.22898874974979741 0 0.39012052630775168 0.2229972149897651 0 0.3935657645860795 0.2335377584137262 0 0.40204974050513043 0.22898874974979741 0 0.39012052630775168 0.2229972149897651 0 0.40204974050513043 0.22898874974979741 0 0.4047443534401165 0.21736407942113439 0 0.39012052630775168 0.2229972149897651 0 0.39460783281958228 0.2059341026791324 0 0.40838318181906957 0.2007503698478518 0 0.39012052630775168 0.2229972149897651 0 0.40838318181906957 0.2007503698478518 0 0.39012052630775168 0.2229972149897651 0 0.4047443534401165 0.21736407942113439 0 0.40838318181906957 0.2007503698478518 0 0.37467813071442962 0.217759523736623 0 0.3854522454813582 0.20659095353883539 0 0.37749839063242407 0.190274987341567 0 0.39012052630775168 0.2229972149897651 0 0.39460783281958228 0.2059341026791324 0 0.3854522454813582 0.20659095353883539 0 0.37467813071442962 0.217759523736623 0 0.39012052630775168 0.2229972149897651 0 0.3854522454813582 0.20659095353883539 0 0.37467813071442962 0.217759523736623 0 0.37749839063242407 0.190274987341567 0 0.39460783281958228 0.2059341026791324 0 0.3854522454813582 0.20659095353883539 0 0.39035634693260329 0.19598893894708949 0 0.3854522454813582 0.20659095353883539 0 0.39035634693260329 0.19598893894708949 0 0.37749839063242407 0.190274987341567 0 0.39035634693260329 0.19598893894708949 0 0.37749839063242407 0.190274987341567 0 0.38631267548427167 0.18040835716906739 0 0.39035634693260329 0.19598893894708949 0 0.37749839063242407 0.190274987341567 0 0.39035634693260329 0.19598893894708949 0 0.39643368610006963 0.18835458738725119 0 0.39946393561933807 0.19638347463523759 0 0.38631267548427167 0.18040835716906739 0 0.39035634693260329 0.19598893894708949 0 0.39643368610006963 0.18835458738725119 0 0.39460783281958228 0.2059341026791324 0 0.39035634693260329 0.19598893894708949 0 0.39946393561933807 0.19638347463523759 0 0.39460783281958228 0.2059341026791324 0 0.39946393561933807 0.19638347463523759 0 0.40838318181906957 0.2007503698478518 0 0.39946393561933807 0.19638347463523759 0 0.40503655340217681 0.18809804398001079 0 0.40838318181906957 0.2007503698478518 0 0.39643368610006963 0.18835458738725119 0 0.39946393561933807 0.19638347463523759 0 0.40503655340217681 0.18809804398001079 0 0.40503655340217681 0.18809804398001079 0 0.40838318181906957 0.2007503698478518 0 0.41208333080651072 0.1962429945937654 0 0.40503655340217681 0.18809804398001079 0 0.41208333080651072 0.1962429945937654 0 0.41900887727024888 0.191918340458679 0 0.40503655340217681 0.18809804398001079 0 0.40838318181906957 0.2007503698478518 0 0.40838318181906957 0.2007503698478518 0 0.41208333080651072 0.1962429945937654 0 0.41314077228789831 0.20647781177556379 0 0.40838318181906957 0.2007503698478518 0 0.41208333080651072 0.1962429945937654 0 0.41900887727024888 0.191918340458679 0 0.41314077228789831 0.20647781177556379 0 0.41900887727024888 0.191918340458679 0 0.42006660383587968 0.20550295632494689 0 0.41314077228789831 0.20647781177556379 0 0.41900887727024888 0.191918340458679 0 0.42553649852343928 0.20293344640378089 0 0.42006660383587968 0.20550295632494689 0 0.41208333080651072 0.1962429945937654 0 0.41900887727024888 0.191918340458679 0 0.41314077228789831 0.20647781177556379 0 0.41900887727024888 0.191918340458679 0 0.42553649852343928 0.20293344640378089 0 0.43765078236976701 0.2030169079254743 0 0.43377453127173837 0.18526303465223309 0 0.41900887727024888 0.191918340458679 0 0.43613819569365858 0.19444662480076699 0 0.41900887727024888 0.191918340458679 0 0.43765078236976701 0.2030169079254743 0 0.41900887727024888 0.191918340458679 0 0.43613819569365858 0.19444662480076699 0 0.43765078236976701 0.2030169079254743 0 0.42553649852343928 0.20293344640378089 0 0.42559065448839101 0.20845058584285911 0 0.42006660383587968 0.20550295632494689 0 0.42559065448839101 0.20845058584285911 0 0.4213814014054223 0.21362502612668269 0 0.42006660383587968 0.20550295632494689 0 0.42559065448839101 0.20845058584285911 0 0.43125602028044902 0.20746955780212831 0 0.42971274839676438 0.21272194255675689 0 0.42553649852343928 0.20293344640378089 0 0.42559065448839101 0.20845058584285911 0 0.43125602028044902 0.20746955780212831 0 0.42553649852343928 0.20293344640378089 0 0.43125602028044902 0.20746955780212831 0 0.43765078236976701 0.2030169079254743 0 0.43125602028044902 0.20746955780212831 0 0.43570233091086819 0.21098011162998431 0 0.43765078236976701 0.2030169079254743 0 0.43125602028044902 0.20746955780212831 0 0.43570233091086819 0.21098011162998431 0 0.42971274839676438 0.21272194255675689 0 0.43501706387314121 0.21698628445568741 0 0.42971274839676438 0.21272194255675689 0 0.4270835078669179 0.22191484848873649 0 0.43501706387314121 0.21698628445568741 0 0.43570233091086819 0.21098011162998431 0 0.42971274839676438 0.21272194255675689 0 0.42971274839676438 0.21272194255675689 0 0.4213814014054223 0.21362502612668269 0 0.4270835078669179 0.22191484848873649 0 0.42559065448839101 0.20845058584285911 0 0.42971274839676438 0.21272194255675689 0 0.4213814014054223 0.21362502612668269 0 0.40838318181906957 0.2007503698478518 0 0.41504824162106801 0.2259484193587698 0 0.40838318181906957 0.2007503698478518 0 0.41314077228789831 0.20647781177556379 0 0.41504824162106801 0.2259484193587698 0 0.4213814014054223 0.21362502612668269 0 0.41314077228789831 0.20647781177556379 0 0.41504824162106801 0.2259484193587698 0 0.4047443534401165 0.21736407942113439 0 0.40838318181906957 0.2007503698478518 0 0.41504824162106801 0.2259484193587698 0 0.4213814014054223 0.21362502612668269 0 0.42006660383587968 0.20550295632494689 0 0.41314077228789831 0.20647781177556379 0 0.40204974050513043 0.22898874974979741 0 0.4047443534401165 0.21736407942113439 0 0.41504824162106801 0.2259484193587698 0 0.40204974050513043 0.22898874974979741 0 0.41504824162106801 0.2259484193587698 0 0.40835822148005402 0.2393566034126198 0 0.4213814014054223 0.21362502612668269 0 0.41504824162106801 0.2259484193587698 0 0.4270835078669179 0.22191484848873649 0 0.43501706387314121 0.21698628445568741 0 0.4270835078669179 0.22191484848873649 0 0.43764248186141658 0.22438428651665129 0 0.4270835078669179 0.22191484848873649 0 0.42895718250100079 0.23744056102818739 0 0.43764248186141658 0.22438428651665129 0 0.42895718250100079 0.23744056102818739 0 0.4438551585445053 0.23263841013221889 0 0.43764248186141658 0.22438428651665129 0 0.41504824162106801 0.2259484193587698 0 0.4270835078669179 0.22191484848873649 0 0.42895718250100079 0.23744056102818739 0 0.42895718250100079 0.23744056102818739 0 0.44215758531266119 0.24226256032126581 0 0.43821113475429302 0.25000115871653422 0 0.43001071716495332 0.25281982215425508 0 0.42895718250100079 0.23744056102818739 0 0.43821113475429302 0.25000115871653422 0 0.4217133014230659 0.25114646886968811 0 0.43001071716495332 0.25281982215425508 0 0.42895718250100079 0.23744056102818739 0 0.4217133014230659 0.25114646886968811 0 0.41504824162106801 0.2259484193587698 0 0.4217133014230659 0.25114646886968811 0 0.41504824162106801 0.2259484193587698 0 0.40835822148005402 0.2393566034126198 0 0.4217133014230659 0.25114646886968811 0 0.41504824162106801 0.2259484193587698 0 0.42895718250100079 0.23744056102818739 0 0.40529903042243348 0.25025499417346209 0 0.4217133014230659 0.25114646886968811 0 0.40835822148005402 0.2393566034126198 0 0.4636161910840555 0.23462623942917149 0 0.46044187928157942 0.2452867636306221 0 0.47523650712389942 0.23510897427831509 0 0.4636161910840555 0.23462623942917149 0 0.46044187928157942 0.2452867636306221 0 0.45227994380755759 0.23848346083280461 0 0.46044187928157942 0.2452867636306221 0 0.44872211326218148 0.24711147046875909 0 0.45227994380755759 0.23848346083280461 0 0.44872211326218148 0.24711147046875909 0 0.44215758531266119 0.24226256032126581 0 0.45227994380755759 0.23848346083280461 0 0.44872211326218148 0.24711147046875909 0 0.44215758531266119 0.24226256032126581 0 0.43821113475429302 0.25000115871653422 0 0.42895718250100079 0.23744056102818739 0 0.44215758531266119 0.24226256032126581 0 0.4438551585445053 0.23263841013221889 0 0.44215758531266119 0.24226256032126581 0 0.45227994380755759 0.23848346083280461 0 0.4438551585445053 0.23263841013221889 0 0.4438551585445053 0.23263841013221889 0 0.44753481210907697 0.2227520991005123 0 0.4548867353603625 0.2289753210147904 0 0.45227994380755759 0.23848346083280461 0 0.4438551585445053 0.23263841013221889 0 0.4548867353603625 0.2289753210147904 0 0.4438551585445053 0.23263841013221889 0 0.43764248186141658 0.22438428651665129 0 0.44753481210907697 0.2227520991005123 0 0.43764248186141658 0.22438428651665129 0 0.44753481210907697 0.2227520991005123 0 0.44261496541482293 0.21464090227080951 0 0.44753481210907697 0.2227520991005123 0 0.45432564156572092 0.22103894574685681 0 0.4548867353603625 0.2289753210147904 0 0.44753481210907697 0.2227520991005123 0 0.45432564156572092 0.22103894574685681 0 0.44833315418816949 0.21499651674269729 0 0.45629268746928547 0.21411547539226899 0 0.47545519458781088 0.22522556207255731 0 0.45432564156572092 0.22103894574685681 0 0.4548867353603625 0.2289753210147904 0 0.46295737769562278 0.22464618984523271 0 0.46295737769562278 0.22464618984523271 0 0.45629268746928547 0.21411547539226899 0 0.47545519458781088 0.22522556207255731 0 0.45432564156572092 0.22103894574685681 0 0.46295737769562278 0.22464618984523271 0 0.45629268746928547 0.21411547539226899 0 0.4636161910840555 0.23462623942917149 0 0.45227994380755759 0.23848346083280461 0 0.4548867353603625 0.2289753210147904 0 0.4636161910840555 0.23462623942917149 0 0.4548867353603625 0.2289753210147904 0 0.46295737769562278 0.22464618984523271 0 0.4636161910840555 0.23462623942917149 0 0.46295737769562278 0.22464618984523271 0 0.46918616711809541 0.22989886160294579 0 0.45872294354722992 0.20840761799348159 0 0.45629268746928547 0.21411547539226899 0 0.47566507231082777 0.21574029934976499 0 0.45872294354722992 0.20840761799348159 0 0.47566507231082777 0.21574029934976499 0 0.46753717082244373 0.2049502490235415 0 0.45872294354722992 0.20840761799348159 0 0.47566507231082777 0.21574029934976499 0 0.46753717082244373 0.2049502490235415 0 0.45872294354722992 0.20840761799348159 0 0.45890288539406088 0.20168161672987989 0 0.44753481210907697 0.2227520991005123 0 0.44833315418816949 0.21499651674269729 0 0.44261496541482293 0.21464090227080951 0 0.45629268746928547 0.21411547539226899 0 0.44833315418816949 0.21499651674269729 0 0.43765078236976701 0.2030169079254743 0 0.45872294354722992 0.20840761799348159 0 0.45629268746928547 0.21411547539226899 0 0.44178081478363262 0.2010749366371968 0 0.45629268746928547 0.21411547539226899 0 0.44178081478363262 0.2010749366371968 0 0.43765078236976701 0.2030169079254743 0 0.45872294354722992 0.20840761799348159 0 0.44178081478363262 0.2010749366371968 0 0.45432564156572092 0.22103894574685681 0 0.45629268746928547 0.21411547539226899 0 0.44833315418816949 0.21499651674269729 0 0.45629268746928547 0.21411547539226899 0 0.43765078236976701 0.2030169079254743 0 0.43501706387314121 0.21698628445568741 0 0.43764248186141658 0.22438428651665129 0 0.44261496541482293 0.21464090227080951 0 0.43501706387314121 0.21698628445568741 0 0.43570233091086819 0.21098011162998431 0 0.44261496541482293 0.21464090227080951 0 0.44833315418816949 0.21499651674269729 0 0.44261496541482293 0.21464090227080951 0 0.43765078236976701 0.2030169079254743 0 0.43570233091086819 0.21098011162998431 0 0.44261496541482293 0.21464090227080951 0 0.43765078236976701 0.2030169079254743 0 0.45872294354722992 0.20840761799348159 0 0.45282877019809381 0.19878738165782331 0 0.44178081478363262 0.2010749366371968 0 0.45282877019809381 0.19878738165782331 0 0.44619951480619502 0.19549055991774589 0 0.44178081478363262 0.2010749366371968 0 0.43613819569365858 0.19444662480076699 0 0.44178081478363262 0.2010749366371968 0 0.43765078236976701 0.2030169079254743 0 0.44619951480619502 0.19549055991774589 0 0.44178081478363262 0.2010749366371968 0 0.44173230955423087 0.19537265851533031 0 0.43613819569365858 0.19444662480076699 0 0.44178081478363262 0.2010749366371968 0 0.44173230955423087 0.19537265851533031 0 0.43377453127173837 0.18526303465223309 0 0.43613819569365858 0.19444662480076699 0 0.44300043554382962 0.18929280046581751 0 0.43613819569365858 0.19444662480076699 0 0.44173230955423087 0.19537265851533031 0 0.44300043554382962 0.18929280046581751 0 0.44619951480619502 0.19549055991774589 0 0.44173230955423087 0.19537265851533031 0 0.44300043554382962 0.18929280046581751 0 0.44300043554382962 0.18929280046581751 0 0.45060430334968382 0.19143668721887641 0 0.45075823086090888 0.18276473562140641 0 0.45060430334968382 0.19143668721887641 0 0.45789553087339258 0.18935342854396109 0 0.45075823086090888 0.18276473562140641 0 0.44619951480619502 0.19549055991774589 0 0.44300043554382962 0.18929280046581751 0 0.45060430334968382 0.19143668721887641 0 0.45282877019809381 0.19878738165782331 0 0.44619951480619502 0.19549055991774589 0 0.45060430334968382 0.19143668721887641 0 0.45282877019809381 0.19878738165782331 0 0.45060430334968382 0.19143668721887641 0 0.45789553087339258 0.18935342854396109 0 0.45789553087339258 0.18935342854396109 0 0.46508508409516941 0.19832850218344281 0 0.47611716608028942 0.19530826817929531 0 0.45789553087339258 0.18935342854396109 0 0.45890288539406088 0.20168161672987989 0 0.46508508409516941 0.19832850218344281 0 0.45872294354722992 0.20840761799348159 0 0.45282877019809381 0.19878738165782331 0 0.45890288539406088 0.20168161672987989 0 0.45282877019809381 0.19878738165782331 0 0.45789553087339258 0.18935342854396109 0 0.45890288539406088 0.20168161672987989 0 0.46753717082244373 0.2049502490235415 0 0.45890288539406088 0.20168161672987989 0 0.46508508409516941 0.19832850218344281 0 0.46753717082244373 0.2049502490235415 0 0.46508508409516941 0.19832850218344281 0 0.47611716608028942 0.19530826817929531 0 0.47611716608028942 0.19530826817929531 0 0.5 0.1964305220329543 0 0.48852638976703527 0.1807945508230909 0 0.47611716608028942 0.19530826817929531 0 0.5 0.1964305220329543 0 0.48910718397736658 0.20927040340931941 0 0.5 0.1964305220329543 0 0.48910718397736658 0.20927040340931941 0 0.50000000000000222 0.22627263994656149 0 0.48910718397736658 0.20927040340931941 0 0.47566507231082777 0.21574029934976499 0 0.50000000000000222 0.22627263994656149 0 0.47611716608028942 0.19530826817929531 0 0.47566507231082777 0.21574029934976499 0 0.47611716608028942 0.19530826817929531 0 0.48910718397736658 0.20927040340931941 0 0.47566507231082777 0.21574029934976499 0 0.46753717082244373 0.2049502490235415 0 0.47611716608028942 0.19530826817929531 0 0.47566507231082777 0.21574029934976499 0 0.45629268746928547 0.21411547539226899 0 0.47566507231082777 0.21574029934976499 0 0.47545519458781088 0.22522556207255731 0 0.47566507231082777 0.21574029934976499 0 0.47545519458781088 0.22522556207255731 0 0.48243953069816647 0.23295085168799939 0 0.47566507231082777 0.21574029934976499 0 0.48243953069816647 0.23295085168799939 0 0.48760082903211238 0.2285669212970009 0 0.46295737769562278 0.22464618984523271 0 0.47545519458781088 0.22522556207255731 0 0.46918616711809541 0.22989886160294579 0 0.47566507231082777 0.21574029934976499 0 0.47545519458781088 0.22522556207255731 0 0.47545519458781088 0.22522556207255731 0 0.47523650712389942 0.23510897427831509 0 0.4636161910840555 0.23462623942917149 0 0.46918616711809541 0.22989886160294579 0 0.47523650712389942 0.23510897427831509 0 0.47545519458781088 0.22522556207255731 0 0.46918616711809541 0.22989886160294579 0 0.47523650712389942 0.23510897427831509 0 0.47545519458781088 0.22522556207255731 0 0.48243953069816647 0.23295085168799939 0 0.47523650712389942 0.23510897427831509 0 0.47566507231082777 0.21574029934976499 0 0.50000000000000222 0.22627263994656149 0 0.48760082903211238 0.2285669212970009 0 0.48243953069816647 0.23295085168799939 0 0.48760082903211238 0.2285669212970009 0 0.49999999999999911 0.23533079215191591 0 0.47566507231082777 0.21574029934976499 0 0.50000000000000222 0.22627263994656149 0 0.50000000000000222 0.22627263994656149 0 0.48760082903211238 0.2285669212970009 0 0.49999999999999911 0.23533079215191591 0 0.49999999999999911 0.23533079215191591 0 0.49286357021616328 0.24875869520616531 0 0.48022093964078932 0.24030877789126889 0 0.50000000000000067 0.2621865982604149 0 0.49999999999999911 0.23533079215191591 0 0.49286357021616328 0.24875869520616531 0 0.49999999999999911 0.23533079215191591 0 0.48022093964078932 0.24030877789126889 0 0.48243953069816647 0.23295085168799939 0 0.49999999999999911 0.23533079215191591 0 0.48022093964078932 0.24030877789126889 0 0.48469580451171151 0.25251553598463539 0 0.49286357021616328 0.24875869520616531 0 0.48022093964078932 0.24030877789126889 0 0.46044187928157942 0.2452867636306221 0 0.48022093964078932 0.24030877789126889 0 0.47216813690829312 0.25009565085581797 0 0.48469580451171151 0.25251553598463539 0 0.48022093964078932 0.24030877789126889 0 0.46044187928157942 0.2452867636306221 0 0.48022093964078932 0.24030877789126889 0 0.47523650712389942 0.23510897427831509 0 0.47216813690829312 0.25009565085581797 0 0.46044187928157942 0.2452867636306221 0 0.48022093964078932 0.24030877789126889 0 0.48243953069816647 0.23295085168799939 0 0.48022093964078932 0.24030877789126889 0 0.47523650712389942 0.23510897427831509 0 0.45670472036944049 0.1516213225278511 0 0.47702135361921122 0.15444420583835569 0 0.45670472036944049 0.1516213225278511 0 0.4652354671643244 0.13718343837439509 0 0.47702135361921122 0.15444420583835569 0 0.45670472036944049 0.1516213225278511 0 0.4652354671643244 0.13718343837439509 0 0.45178993828594233 0.13985288766974729 0 0.4652354671643244 0.13718343837439509 0 0.45834090762355761 0.12748260384405891 0 0.46583102023387019 0.1238830504881954 0 0.4652354671643244 0.13718343837439509 0 0.45834090762355761 0.12748260384405891 0 0.45178993828594233 0.13985288766974729 0 0.45834090762355761 0.12748260384405891 0 0.4422805091527181 0.1341786343850887 0 0.44817293118576729 0.1195588295528352 0 0.4422805091527181 0.1341786343850887 0 0.44817293118576729 0.1195588295528352 0 0.42890497778548492 0.1215596431410699 0 0.45834090762355761 0.12748260384405891 0 0.45178993828594233 0.13985288766974729 0 0.4422805091527181 0.1341786343850887 0 0.4422805091527181 0.1341786343850887 0 0.44817293118576729 0.1195588295528352 0 0.43638808711967042 0.14879843921734279 0 0.45178993828594233 0.13985288766974729 0 0.4422805091527181 0.1341786343850887 0 0.43638808711967042 0.14879843921734279 0 0.45670472036944049 0.1516213225278511 0 0.4424696153421766 0.1602339240175972 0 0.43638808711967042 0.14879843921734279 0 0.45670472036944049 0.1516213225278511 0 0.43638808711967042 0.14879843921734279 0 0.4422805091527181 0.1341786343850887 0 0.43638808711967042 0.14879843921734279 0 0.45670472036944049 0.1516213225278511 0 0.45178993828594233 0.13985288766974729 0 0.45670472036944049 0.1516213225278511 0 0.4424696153421766 0.1602339240175972 0 0.44908717168463608 0.17015754448718409 0 0.42769848219495948 0.1703583898380108 0 0.4424696153421766 0.1602339240175972 0 0.44908717168463608 0.17015754448718409 0 0.42769848219495948 0.1703583898380108 0 0.44908717168463608 0.17015754448718409 0 0.44045816003021632 0.1788369629606931 0 0.44300043554382962 0.18929280046581751 0 0.44045816003021632 0.1788369629606931 0 0.45075823086090888 0.18276473562140641 0 0.43377453127173837 0.18526303465223309 0 0.44300043554382962 0.18929280046581751 0 0.44045816003021632 0.1788369629606931 0 0.44908717168463608 0.17015754448718409 0 0.44045816003021632 0.1788369629606931 0 0.45075823086090888 0.18276473562140641 0 0.45789553087339258 0.18935342854396109 0 0.47611716608028942 0.19530826817929531 0 0.46233426645069581 0.17676372510809271 0 0.45789553087339258 0.18935342854396109 0 0.45075823086090888 0.18276473562140641 0 0.46233426645069581 0.17676372510809271 0 0.44908717168463608 0.17015754448718409 0 0.45075823086090888 0.18276473562140641 0 0.46233426645069581 0.17676372510809271 0 0.46233426645069581 0.17676372510809271 0 0.46528286009918451 0.1644054887760317 0 0.47656925984975052 0.1748762370088254 0 0.45670472036944049 0.1516213225278511 0 0.46528286009918451 0.1644054887760317 0 0.47702135361921122 0.15444420583835569 0 0.44908717168463608 0.17015754448718409 0 0.46233426645069581 0.17676372510809271 0 0.46528286009918451 0.1644054887760317 0 0.45670472036944049 0.1516213225278511 0 0.44908717168463608 0.17015754448718409 0 0.46528286009918451 0.1644054887760317 0 0.46528286009918451 0.1644054887760317 0 0.47656925984975052 0.1748762370088254 0 0.47702135361921122 0.15444420583835569 0 0.47656925984975052 0.1748762370088254 0 0.48518393370201351 0.16675339862012789 0 0.47702135361921122 0.15444420583835569 0 0.47656925984975052 0.1748762370088254 0 0.47702135361921122 0.15444420583835569 0 0.48518393370201351 0.16675339862012789 0 0.48142187067250869 0.15505563323356791 0 0.47702135361921122 0.15444420583835569 0 0.47611716608028942 0.19530826817929531 0 0.46233426645069581 0.17676372510809271 0 0.47656925984975052 0.1748762370088254 0 0.47611716608028942 0.19530826817929531 0 0.47656925984975052 0.1748762370088254 0 0.48852638976703527 0.1807945508230909 0 0.47611716608028942 0.19530826817929531 0 0.47656925984975052 0.1748762370088254 0 0.47656925984975052 0.1748762370088254 0 0.48852638976703527 0.1807945508230909 0 0.48518393370201351 0.16675339862012789 0 0.5 0.1964305220329543 0 0.48852638976703527 0.1807945508230909 0 0.5 0.16658840411934689 0 0.48518393370201351 0.16675339862012789 0 0.5 0.16658840411934689 0 0.48142187067250869 0.15505563323356791 0 0.48852638976703527 0.1807945508230909 0 0.48518393370201351 0.16675339862012789 0 0.5 0.16658840411934689 0 0.48142187067250869 0.15505563323356791 0 0.48401840695721132 0.14329119679904509 0 0.5 0.1367462862057397 0 0.5 0.16658840411934689 0 0.48142187067250869 0.15505563323356791 0 0.5 0.1367462862057397 0 0.47702135361921122 0.15444420583835569 0 0.47763040353712521 0.12691866191851731 0 0.47702135361921122 0.15444420583835569 0 0.48401840695721132 0.14329119679904509 0 0.47763040353712521 0.12691866191851731 0 0.48142187067250869 0.15505563323356791 0 0.47702135361921122 0.15444420583835569 0 0.48401840695721132 0.14329119679904509 0 0.48142187067250869 0.15505563323356791 0 0.47702135361921122 0.15444420583835569 0 0.4652354671643244 0.13718343837439509 0 0.47702135361921122 0.15444420583835569 0 0.47763040353712521 0.12691866191851731 0 0.4652354671643244 0.13718343837439509 0 0.47763040353712521 0.12691866191851731 0 0.46583102023387019 0.1238830504881954 0 0.48401840695721132 0.14329119679904509 0 0.47763040353712521 0.12691866191851731 0 0.5 0.1367462862057397 0 0.47763040353712521 0.12691866191851731 0 0.5 0.10690416829213251 0 0.47823945345503888 0.099393117998679031 0 0.47763040353712521 0.12691866191851731 0 0.5 0.1367462862057397 0 0.5 0.10690416829213251 0 0.5 0.10690416829213251 0 0.47823945345503888 0.099393117998679031 0 0.48538749282401972 0.086715269884528878 0 0.47823945345503888 0.099393117998679031 0 0.47311688125012052 0.087221366493469413 0 0.46769776492448528 0.097699040101108858 0 0.47823945345503888 0.099393117998679031 0 0.46729506447774388 0.1106057594947818 0 0.46769776492448528 0.097699040101108858 0 0.47763040353712521 0.12691866191851731 0 0.46583102023387019 0.1238830504881954 0 0.46729506447774388 0.1106057594947818 0 0.47763040353712521 0.12691866191851731 0 0.47823945345503888 0.099393117998679031 0 0.47763040353712521 0.12691866191851731 0 0.47823945345503888 0.099393117998679031 0 0.46729506447774388 0.1106057594947818 0 0.5 0.077062050378525093 0 0.48558967191520519 0.073251584224968566 0 0.48701655923400078 0.058189522764648907 0 0.5 0.10690416829213251 0 0.5 0.077062050378525093 0 0.48538749282401972 0.086715269884528878 0 0.5 0.077062050378525093 0 0.48558967191520519 0.073251584224968566 0 0.48538749282401972 0.086715269884528878 0 0.47823945345503888 0.099393117998679031 0 0.48538749282401972 0.086715269884528878 0 0.47311688125012052 0.087221366493469413 0 0.47311688125012052 0.087221366493469413 0 0.47656208776809211 0.07706950762453435 0 0.46680707080877087 0.073325297233296755 0 0.48558967191520519 0.073251584224968566 0 0.48538749282401972 0.086715269884528878 0 0.47656208776809211 0.07706950762453435 0 0.48538749282401972 0.086715269884528878 0 0.47311688125012052 0.087221366493469413 0 0.47656208776809211 0.07706950762453435 0 0.46680707080877087 0.073325297233296755 0 0.47314965659411151 0.057588582212981618 0 0.47758838177516838 0.067762863671058923 0 0.46680707080877087 0.073325297233296755 0 0.47314965659411151 0.057588582212981618 0 0.48558967191520519 0.073251584224968566 0 0.47656208776809211 0.07706950762453435 0 0.47758838177516838 0.067762863671058923 0 0.47656208776809211 0.07706950762453435 0 0.47758838177516838 0.067762863671058923 0 0.46680707080877087 0.073325297233296755 0 0.48558967191520519 0.073251584224968566 0 0.47758838177516838 0.067762863671058923 0 0.48701655923400078 0.058189522764648907 0 0.46233244383343641 0.066556840091762784 0 0.46046448502343029 0.089062012253611864 0 0.46233244383343641 0.066556840091762784 0 0.46680707080877087 0.073325297233296755 0 0.47314965659411151 0.057588582212981618 0 0.46233244383343641 0.066556840091762784 0 0.46680707080877087 0.073325297233296755 0 0.46046448502343029 0.089062012253611864 0 0.46233244383343641 0.066556840091762784 0 0.46046448502343029 0.089062012253611864 0 0.4504602692522679 0.078115265936708478 0 0.46233244383343641 0.066556840091762784 0 0.4504602692522679 0.078115265936708478 0 0.45022276114493331 0.065250536566251807 0 0.47311688125012052 0.087221366493469413 0 0.46680707080877087 0.073325297233296755 0 0.46046448502343029 0.089062012253611864 0 0.46046448502343029 0.089062012253611864 0 0.4510891421439413 0.093741824289196085 0 0.4504602692522679 0.078115265936708478 0 0.46680707080877087 0.073325297233296755 0 0.46046448502343029 0.089062012253611864 0 0.47311688125012052 0.087221366493469413 0 0.46046448502343029 0.089062012253611864 0 0.46769776492448528 0.097699040101108858 0 0.44132913367283971 0.090212340125828239 0 0.4504602692522679 0.078115265936708478 0 0.44001522832298662 0.07175016750190262 0 0.4510891421439413 0.093741824289196085 0 0.44132913367283971 0.090212340125828239 0 0.4504602692522679 0.078115265936708478 0 0.44001522832298662 0.07175016750190262 0 0.45022276114493331 0.065250536566251807 0 0.43575027890718482 0.053696124707718833 0 0.4504602692522679 0.078115265936708478 0 0.44001522832298662 0.07175016750190262 0 0.45022276114493331 0.065250536566251807 0 0.45796258051016042 0.1107825486050133 0 0.45431870810459829 0.1043104209032234 0 0.44817293118576729 0.1195588295528352 0 0.45796258051016042 0.1107825486050133 0 0.46065325836659998 0.117224788809224 0 0.44817293118576729 0.1195588295528352 0 0.45834090762355761 0.12748260384405891 0 0.46065325836659998 0.117224788809224 0 0.44817293118576729 0.1195588295528352 0 0.45834090762355761 0.12748260384405891 0 0.44817293118576729 0.1195588295528352 0 0.45834090762355761 0.12748260384405891 0 0.46065325836659998 0.117224788809224 0 0.46583102023387019 0.1238830504881954 0 0.46065325836659998 0.117224788809224 0 0.46583102023387019 0.1238830504881954 0 0.46729506447774388 0.1106057594947818 0 0.45796258051016042 0.1107825486050133 0 0.46065325836659998 0.117224788809224 0 0.46729506447774388 0.1106057594947818 0 0.46729506447774388 0.1106057594947818 0 0.46769776492448528 0.097699040101108858 0 0.45937294041609272 0.1022129442650022 0 0.45796258051016042 0.1107825486050133 0 0.46729506447774388 0.1106057594947818 0 0.45937294041609272 0.1022129442650022 0 0.46046448502343029 0.089062012253611864 0 0.46769776492448528 0.097699040101108858 0 0.45937294041609272 0.1022129442650022 0 0.46046448502343029 0.089062012253611864 0 0.45937294041609272 0.1022129442650022 0 0.45431870810459829 0.1043104209032234 0 0.46046448502343029 0.089062012253611864 0 0.4510891421439413 0.093741824289196085 0 0.45431870810459829 0.1043104209032234 0 0.46046448502343029 0.089062012253611864 0 0.45937294041609272 0.1022129442650022 0 0.46046448502343029 0.089062012253611864 0 0.45431870810459829 0.1043104209032234 0 0.45796258051016042 0.1107825486050133 0 0.45937294041609272 0.1022129442650022 0 0.45431870810459829 0.1043104209032234 0 0.44084244730712502 0.1036939135779533 0 0.44817293118576729 0.1195588295528352 0 0.42735681177647528 0.10333709331773711 0 0.45431870810459829 0.1043104209032234 0 0.44776524497603098 0.1070917530270078 0 0.44772689330663351 0.10080384807401931 0 0.44776524497603098 0.1070917530270078 0 0.44772689330663351 0.10080384807401931 0 0.44084244730712502 0.1036939135779533 0 0.4510891421439413 0.093741824289196085 0 0.45431870810459829 0.1043104209032234 0 0.44772689330663351 0.10080384807401931 0 0.4510891421439413 0.093741824289196085 0 0.44132913367283971 0.090212340125828239 0 0.44772689330663351 0.10080384807401931 0 0.44132913367283971 0.090212340125828239 0 0.44772689330663351 0.10080384807401931 0 0.44084244730712502 0.1036939135779533 0 0.44776524497603098 0.1070917530270078 0 0.44084244730712502 0.1036939135779533 0 0.44817293118576729 0.1195588295528352 0 0.44817293118576729 0.1195588295528352 0 0.42735681177647528 0.10333709331773711 0 0.45431870810459829 0.1043104209032234 0 0.44776524497603098 0.1070917530270078 0 0.44817293118576729 0.1195588295528352 0 0.45431870810459829 0.1043104209032234 0 0.44817293118576729 0.1195588295528352 0 0.42890497778548492 0.1215596431410699 0 0.41040073439000269 0.10811079598569 0 0.42735681177647528 0.10333709331773711 0 0.44817293118576729 0.1195588295528352 0 0.42890497778548492 0.1215596431410699 0 0.42735681177647528 0.10333709331773711 0 0.41426077641282327 0.12910623488873851 0 0.42890497778548492 0.1215596431410699 0 0.41040073439000269 0.10811079598569 0 0.41426077641282327 0.12910623488873851 0 0.41040073439000269 0.10811079598569 0 0.40100853392043428 0.1225931509746481 0 0.41426077641282327 0.12910623488873851 0 0.41040073439000269 0.10811079598569 0 0.41040073439000269 0.10811079598569 0 0.42735681177647528 0.10333709331773711 0 0.40654069236718138 0.087115357082641454 0 0.42735681177647528 0.10333709331773711 0 0.40654069236718138 0.087115357082641454 0 0.41040073439000269 0.10811079598569 0 0.40654069236718138 0.087115357082641454 0 0.44132913367283971 0.090212340125828239 0 0.42735681177647528 0.10333709331773711 0 0.42524696279148722 0.088805968555774717 0 0.44132913367283971 0.090212340125828239 0 0.44084244730712502 0.1036939135779533 0 0.42735681177647528 0.10333709331773711 0 0.44132913367283971 0.090212340125828239 0 0.44001522832298662 0.07175016750190262 0 0.42576121334945222 0.074559083696892098 0 0.44132913367283971 0.090212340125828239 0 0.42524696279148722 0.088805968555774717 0 0.42576121334945222 0.074559083696892098 0 0.44001522832298662 0.07175016750190262 0 0.42576121334945222 0.074559083696892098 0 0.43575027890718482 0.053696124707718833 0 0.42576121334945222 0.074559083696892098 0 0.41650613251011492 0.063889331672230446 0 0.43575027890718482 0.053696124707718833 0 0.42576121334945222 0.074559083696892098 0 0.41650613251011492 0.063889331672230446 0 0.40654069236718138 0.087115357082641454 0 0.41650613251011492 0.063889331672230446 0 0.40654069236718138 0.087115357082641454 0 0.40221470851736951 0.06358557966639819 0 0.42735681177647528 0.10333709331773711 0 0.42524696279148722 0.088805968555774717 0 0.40654069236718138 0.087115357082641454 0 0.42524696279148722 0.088805968555774717 0 0.42576121334945222 0.074559083696892098 0 0.40654069236718138 0.087115357082641454 0 0.40654069236718138 0.087115357082641454 0 0.38893594822348659 0.078811513398477764 0 0.39499031245261862 0.094280915222494543 0 0.40654069236718138 0.087115357082641454 0 0.38588395142050252 0.071017822449738532 0 0.38893594822348659 0.078811513398477764 0 0.40654069236718138 0.087115357082641454 0 0.38588395142050252 0.071017822449738532 0 0.40654069236718138 0.087115357082641454 0 0.40221470851736951 0.06358557966639819 0 0.38588395142050252 0.071017822449738532 0 0.40654069236718138 0.087115357082641454 0 0.40221470851736951 0.06358557966639819 0 0.36952982539922308 0.058273260725414139 0 0.38588395142050252 0.071017822449738532 0 0.36952982539922308 0.058273260725414139 0 0.38588395142050252 0.071017822449738532 0 0.38171290019943638 0.059504931571589988 0 0.37437052547156002 0.075421036388670343 0 0.36952982539922308 0.058273260725414139 0 0.38588395142050252 0.071017822449738532 0 0.3744397415558699 0.086341087212534418 0 0.37437052547156002 0.075421036388670343 0 0.38588395142050252 0.071017822449738532 0 0.38588395142050252 0.071017822449738532 0 0.38893594822348659 0.078811513398477764 0 0.37971055053204789 0.099020329494696371 0 0.38588395142050252 0.071017822449738532 0 0.37971055053204789 0.099020329494696371 0 0.3744397415558699 0.086341087212534418 0 0.38588395142050252 0.071017822449738532 0 0.37971055053204789 0.099020329494696371 0 0.38893594822348659 0.078811513398477764 0 0.38607655882572101 0.10667738188425011 0 0.39499031245261862 0.094280915222494543 0 0.38893594822348659 0.078811513398477764 0 0.38607655882572101 0.10667738188425011 0 0.38893594822348659 0.078811513398477764 0 0.37971055053204789 0.099020329494696371 0 0.38607655882572101 0.10667738188425011 0 0.37353714964359269 0.12702283653965399 0 0.37971055053204789 0.099020329494696371 0 0.38607655882572101 0.10667738188425011 0 0.38321716942795542 0.1345432503700224 0 0.38607655882572101 0.10667738188425011 0 0.37353714964359269 0.12702283653965399 0 0.38321716942795542 0.1345432503700224 0 0.38607655882572101 0.10667738188425011 0 0.37353714964359269 0.12702283653965399 0 0.37971055053204789 0.099020329494696371 0 0.38321716942795542 0.1345432503700224 0 0.38607655882572101 0.10667738188425011 0 0.39528220406742121 0.11789121407096891 0 0.38607655882572101 0.10667738188425011 0 0.39528220406742121 0.11789121407096891 0 0.39840805039408539 0.1045194085246088 0 0.39534094258916119 0.13043600057333149 0 0.39528220406742121 0.11789121407096891 0 0.40100853392043428 0.1225931509746481 0 0.41040073439000269 0.10811079598569 0 0.39528220406742121 0.11789121407096891 0 0.39840805039408539 0.1045194085246088 0 0.41040073439000269 0.10811079598569 0 0.39528220406742121 0.11789121407096891 0 0.40100853392043428 0.1225931509746481 0 0.41040073439000269 0.10811079598569 0 0.40654069236718138 0.087115357082641454 0 0.39840805039408539 0.1045194085246088 0 0.40654069236718138 0.087115357082641454 0 0.39499031245261862 0.094280915222494543 0 0.39840805039408539 0.1045194085246088 0 0.38607655882572101 0.10667738188425011 0 0.39499031245261862 0.094280915222494543 0 0.39840805039408539 0.1045194085246088 0 0.40034789333347393 0.021247929496978079 0 0.39609851540861962 0.0077548751215693974 0 0.38902263528534542 0.019618640221381271 0 0.39479256194511958 0.03060842194525042 0 0.40034789333347393 0.021247929496978079 0 0.38902263528534542 0.019618640221381271 0 0.39479256194511958 0.03060842194525042 0 0.40034789333347393 0.021247929496978079 0 0.40811207770188501 0.031231301905466701 0 0.40034789333347393 0.021247929496978079 0 0.39609851540861962 0.0077548751215693974 0 0.41371367632639988 0.017026408291222591 0 0.39609851540861962 0.0077548751215693974 0 0.37873334006080328 0.0090585985067660347 0 0.38071497791941461 -0.0053118919655108128 0 0.39609851540861962 0.0077548751215693974 0 0.37873334006080328 0.0090585985067660347 0 0.38902263528534542 0.019618640221381271 0 0.36642895304847711 0.0028477869111517432 0 0.37873334006080328 0.0090585985067660347 0 0.38071497791941461 -0.0053118919655108128 0 0.37873334006080328 0.0090585985067660347 0 0.37707555299081907 0.02016698353034516 0 0.38902263528534542 0.019618640221381271 0 0.37707555299081907 0.02016698353034516 0 0.38902263528534542 0.019618640221381271 0 0.38255320990286801 0.029986968475170812 0 0.39479256194511958 0.03060842194525042 0 0.38902263528534542 0.019618640221381271 0 0.38255320990286801 0.029986968475170812 0 0.36959097908565319 0.032143088342111083 0 0.37707555299081907 0.02016698353034516 0 0.38255320990286801 0.029986968475170812 0 0.38255320990286801 0.029986968475170812 0 0.37524330567798497 0.038399978651358337 0 0.38444240458797369 0.039712615782326682 0 0.39479256194511958 0.03060842194525042 0 0.38444240458797369 0.039712615782326682 0 0.39033825668281141 0.050813122197494599 0 0.36959097908565319 0.032143088342111083 0 0.38255320990286801 0.029986968475170812 0 0.37524330567798497 0.038399978651358337 0 0.37524330567798497 0.038399978651358337 0 0.38444240458797369 0.039712615782326682 0 0.3792846887310849 0.048754587642359237 0 0.38444240458797369 0.039712615782326682 0 0.3792846887310849 0.048754587642359237 0 0.39033825668281141 0.050813122197494599 0 0.39479256194511958 0.03060842194525042 0 0.38255320990286801 0.029986968475170812 0 0.38444240458797369 0.039712615782326682 0 0.38588395142050252 0.071017822449738532 0 0.39033825668281141 0.050813122197494599 0 0.38588395142050252 0.071017822449738532 0 0.38171290019943638 0.059504931571589988 0 0.39033825668281141 0.050813122197494599 0 0.36952982539922308 0.058273260725414139 0 0.38171290019943638 0.059504931571589988 0 0.3792846887310849 0.048754587642359237 0 0.38171290019943638 0.059504931571589988 0 0.3792846887310849 0.048754587642359237 0 0.39033825668281141 0.050813122197494599 0 0.40221470851736951 0.06358557966639819 0 0.39033825668281141 0.050813122197494599 0 0.39788872466755698 0.040055802250155051 0 0.40221470851736951 0.06358557966639819 0 0.38588395142050252 0.071017822449738532 0 0.39033825668281141 0.050813122197494599 0 0.40221470851736951 0.06358557966639819 0 0.39788872466755698 0.040055802250155051 0 0.40840196678402402 0.045319677100549599 0 0.40221470851736951 0.06358557966639819 0 0.39788872466755698 0.040055802250155051 0 0.39479256194511958 0.03060842194525042 0 0.39033825668281141 0.050813122197494599 0 0.39479256194511958 0.03060842194525042 0 0.39033825668281141 0.050813122197494599 0 0.39788872466755698 0.040055802250155051 0 0.39479256194511958 0.03060842194525042 0 0.39788872466755698 0.040055802250155051 0 0.40811207770188501 0.031231301905466701 0 0.39788872466755698 0.040055802250155051 0 0.40840196678402402 0.045319677100549599 0 0.40811207770188501 0.031231301905466701 0 0.41832330785649879 0.040516358434610503 0 0.4257879680246287 0.02966373080824276 0 0.40811207770188501 0.031231301905466701 0 0.40840196678402402 0.045319677100549599 0 0.41832330785649879 0.040516358434610503 0 0.40811207770188501 0.031231301905466701 0 0.40840196678402402 0.045319677100549599 0 0.41832330785649879 0.040516358434610503 0 0.41547101517680951 0.051209343246117547 0 0.40221470851736951 0.06358557966639819 0 0.40840196678402402 0.045319677100549599 0 0.41547101517680951 0.051209343246117547 0 0.41650613251011492 0.063889331672230446 0 0.40221470851736951 0.06358557966639819 0 0.41547101517680951 0.051209343246117547 0 0.41650613251011492 0.063889331672230446 0 0.41547101517680951 0.051209343246117547 0 0.43575027890718482 0.053696124707718833 0 0.41832330785649879 0.040516358434610503 0 0.41547101517680951 0.051209343246117547 0 0.43575027890718482 0.053696124707718833 0 0.41832330785649879 0.040516358434610503 0 0.43575027890718482 0.053696124707718833 0 0.4257879680246287 0.02966373080824276 0 0.43575027890718482 0.053696124707718833 0 0.4257879680246287 0.02966373080824276 0 0.44774859279791579 0.028138282616315541 0 0.4257879680246287 0.02966373080824276 0 0.43373192603638289 0.01040266456964275 0 0.44774859279791579 0.028138282616315541 0 0.4257879680246287 0.02966373080824276 0 0.41371367632639988 0.017026408291222591 0 0.43373192603638289 0.01040266456964275 0 0.4257879680246287 0.02966373080824276 0 0.41371367632639988 0.017026408291222591 0 0.40811207770188501 0.031231301905466701 0 0.40034789333347393 0.021247929496978079 0 0.41371367632639988 0.017026408291222591 0 0.40811207770188501 0.031231301905466701 0 0.39609851540861962 0.0077548751215693974 0 0.41371367632639988 0.017026408291222591 0 0.41650333971669179 0.00050237777190450389 0 0.41371367632639988 0.017026408291222591 0 0.41650333971669179 0.00050237777190450389 0 0.43373192603638289 0.01040266456964275 0 0.43373192603638289 0.01040266456964275 0 0.44774859279791579 0.028138282616315541 0 0.45974690668864687 0.0025804405249122519 0 0.44774859279791579 0.028138282616315541 0 0.46606836145344871 0.021546495768064809 0 0.46420040264344248 0.044051667929913808 0 0.44774859279791579 0.028138282616315541 0 0.46606836145344871 0.021546495768064809 0 0.45974690668864687 0.0025804405249122519 0 0.44774859279791579 0.028138282616315541 0 0.45974690668864687 0.0025804405249122519 0 0.45022276114493331 0.065250536566251807 0 0.43575027890718482 0.053696124707718833 0 0.45211113416515331 0.052396517114886708 0 0.43575027890718482 0.053696124707718833 0 0.44774859279791579 0.028138282616315541 0 0.43575027890718482 0.053696124707718833 0 0.44774859279791579 0.028138282616315541 0 0.45211113416515331 0.052396517114886708 0 0.44774859279791579 0.028138282616315541 0 0.45211113416515331 0.052396517114886708 0 0.46420040264344248 0.044051667929913808 0 0.46606836145344871 0.021546495768064809 0 0.46420040264344248 0.044051667929913808 0 0.46233244383343641 0.066556840091762784 0 0.45211113416515331 0.052396517114886708 0 0.46420040264344248 0.044051667929913808 0 0.46233244383343641 0.066556840091762784 0 0.46420040264344248 0.044051667929913808 0 0.46233244383343641 0.066556840091762784 0 0.46420040264344248 0.044051667929913808 0 0.47314965659411151 0.057588582212981618 0 0.46233244383343641 0.066556840091762784 0 0.45022276114493331 0.065250536566251807 0 0.45211113416515331 0.052396517114886708 0 0.47314965659411151 0.057588582212981618 0 0.48185520193382669 0.035757735787976037 0 0.48701655923400078 0.058189522764648907 0 0.47758838177516838 0.067762863671058923 0 0.47314965659411151 0.057588582212981618 0 0.48701655923400078 0.058189522764648907 0 0.46420040264344248 0.044051667929913808 0 0.47314965659411151 0.057588582212981618 0 0.48185520193382669 0.035757735787976037 0 0.46606836145344871 0.021546495768064809 0 0.46420040264344248 0.044051667929913808 0 0.48185520193382669 0.035757735787976037 0 0.48185520193382669 0.035757735787976037 0 0.5 0.047219932464917513 0 0.5 0.017377814551310041 0 0.5 0.077062050378525093 0 0.5 0.047219932464917513 0 0.48701655923400078 0.058189522764648907 0 0.48185520193382669 0.035757735787976037 0 0.5 0.047219932464917513 0 0.48701655923400078 0.058189522764648907 0 0.46606836145344871 0.021546495768064809 0 0.45974690668864687 0.0025804405249122519 0 0.48136924481065968 0.0059101465580164323 0 0.46606836145344871 0.021546495768064809 0 0.48185520193382669 0.035757735787976037 0 0.48136924481065968 0.0059101465580164323 0 0.48185520193382669 0.035757735787976037 0 0.48136924481065968 0.0059101465580164323 0 0.5 0.017377814551310041 0 0.48136924481065968 0.0059101465580164323 0 0.5 0.017377814551310041 0 0.5 -0.01246430336229748 0 0.45974690668864687 0.0025804405249122519 0 0.48136924481065968 0.0059101465580164323 0 0.47174522057937801 -0.022977401566491019 0 0.48136924481065968 0.0059101465580164323 0 0.5 -0.01246430336229748 0 0.47174522057937801 -0.022977401566491019 0 0.5 -0.01246430336229748 0 0.47174522057937801 -0.022977401566491019 0 0.5 -0.042306421275904997 0 0.47174522057937801 -0.022977401566491019 0 0.5 -0.042306421275904997 0 0.47001409945669348 -0.057048293687022023 0 0.5 -0.042306421275904997 0 0.47001409945669348 -0.057048293687022023 0 0.5 -0.072148539189512528 0 0.47174522057937801 -0.022977401566491019 0 0.47001409945669348 -0.057048293687022023 0 0.4532850235887852 -0.036249015680938787 0 0.47001409945669348 -0.057048293687022023 0 0.4532850235887852 -0.036249015680938787 0 0.44733394050767639 -0.05886331785652308 0 0.4532850235887852 -0.036249015680938787 0 0.43921346449248788 -0.015484528702947829 0 0.43399561952917642 -0.045101994580794891 0 0.4532850235887852 -0.036249015680938787 0 0.44733394050767639 -0.05886331785652308 0 0.43399561952917642 -0.045101994580794891 0 0.4532850235887852 -0.036249015680938787 0 0.43921346449248788 -0.015484528702947829 0 0.45634870539300598 -0.014610138340569101 0 0.43373192603638289 0.01040266456964275 0 0.45974690668864687 0.0025804405249122519 0 0.43921346449248788 -0.015484528702947829 0 0.45974690668864687 0.0025804405249122519 0 0.43921346449248788 -0.015484528702947829 0 0.45634870539300598 -0.014610138340569101 0 0.45974690668864687 0.0025804405249122519 0 0.47174522057937801 -0.022977401566491019 0 0.45974690668864687 0.0025804405249122519 0 0.47174522057937801 -0.022977401566491019 0 0.45634870539300598 -0.014610138340569101 0 0.47174522057937801 -0.022977401566491019 0 0.4532850235887852 -0.036249015680938787 0 0.45634870539300598 -0.014610138340569101 0 0.5 -0.10199065710312009 0 0.47719545063300961 -0.085059985253759823 0 0.46510100449075947 -0.10857633725362149 0 0.5 -0.10199065710312009 0 0.46510100449075947 -0.10857633725362149 0 0.47893506117769907 -0.1263546263232769 0 0.5 -0.10199065710312009 0 0.5 -0.1318327750167276 0 0.47893506117769907 -0.1263546263232769 0 0.5 -0.10199065710312009 0 0.47719545063300961 -0.085059985253759823 0 0.5 -0.072148539189512528 0 0.47001409945669348 -0.057048293687022023 0 0.47719545063300961 -0.085059985253759823 0 0.5 -0.072148539189512528 0 0.47001409945669348 -0.057048293687022023 0 0.44733394050767639 -0.05886331785652308 0 0.45086214921759471 -0.08553609903552295 0 0.47001409945669348 -0.057048293687022023 0 0.47719545063300961 -0.085059985253759823 0 0.45086214921759471 -0.08553609903552295 0 0.44733394050767639 -0.05886331785652308 0 0.45086214921759471 -0.08553609903552295 0 0.42851281074613212 -0.070381186298336715 0 0.47719545063300961 -0.085059985253759823 0 0.45086214921759471 -0.08553609903552295 0 0.46510100449075947 -0.10857633725362149 0 0.45086214921759471 -0.08553609903552295 0 0.46510100449075947 -0.10857633725362149 0 0.43145869800402109 -0.116595334878867 0 0.46510100449075947 -0.10857633725362149 0 0.43145869800402109 -0.116595334878867 0 0.45080130582426631 -0.1338309287863732 0 0.46510100449075947 -0.10857633725362149 0 0.45080130582426631 -0.1338309287863732 0 0.47893506117769907 -0.1263546263232769 0 0.43145869800402109 -0.116595334878867 0 0.40472615041640198 -0.1039652598749705 0 0.40713859993403051 -0.13340844657761061 0 0.45086214921759471 -0.08553609903552295 0 0.43145869800402109 -0.116595334878867 0 0.42415935089261719 -0.091384430588953153 0 0.43145869800402109 -0.116595334878867 0 0.42415935089261719 -0.091384430588953153 0 0.40472615041640198 -0.1039652598749705 0 0.42415935089261719 -0.091384430588953153 0 0.40231370089877361 -0.074522073172330575 0 0.40472615041640198 -0.1039652598749705 0 0.42415935089261719 -0.091384430588953153 0 0.42851281074613212 -0.070381186298336715 0 0.40231370089877361 -0.074522073172330575 0 0.45086214921759471 -0.08553609903552295 0 0.42415935089261719 -0.091384430588953153 0 0.42851281074613212 -0.070381186298336715 0 0.42851281074613212 -0.070381186298336715 0 0.40231370089877361 -0.074522073172330575 0 0.40773324916104242 -0.04825592149458436 0 0.40231370089877361 -0.074522073172330575 0 0.37571274685922229 -0.074054421797236744 0 0.38717147853693001 -0.06027092646118605 0 0.37571274685922229 -0.074054421797236744 0 0.38717147853693001 -0.06027092646118605 0 0.36424568480138531 -0.063181076578594925 0 0.37571274685922229 -0.074054421797236744 0 0.38567181383313082 -0.091351942300314848 0 0.36764953323896649 -0.092074926850790301 0 0.40231370089877361 -0.074522073172330575 0 0.37571274685922229 -0.074054421797236744 0 0.38567181383313082 -0.091351942300314848 0 0.40231370089877361 -0.074522073172330575 0 0.40472615041640198 -0.1039652598749705 0 0.40231370089877361 -0.074522073172330575 0 0.38567181383313082 -0.091351942300314848 0 0.40472615041640198 -0.1039652598749705 0 0.38567181383313082 -0.091351942300314848 0 0.40472615041640198 -0.1039652598749705 0 0.38819227338683687 -0.1078627665926651 0 0.38567181383313082 -0.091351942300314848 0 0.37644409074456048 -0.1036623315085025 0 0.38819227338683687 -0.1078627665926651 0 0.38567181383313082 -0.091351942300314848 0 0.37644409074456048 -0.1036623315085025 0 0.36764953323896649 -0.092074926850790301 0 0.38819227338683687 -0.1078627665926651 0 0.38061125384645461 -0.1169874577188753 0 0.39317968796985858 -0.1218441630815677 0 0.37644409074456048 -0.1036623315085025 0 0.38819227338683687 -0.1078627665926651 0 0.38061125384645461 -0.1169874577188753 0 0.37644409074456048 -0.1036623315085025 0 0.38061125384645461 -0.1169874577188753 0 0.37042076319628198 -0.1149998034366868 0 0.38061125384645461 -0.1169874577188753 0 0.37042076319628198 -0.1149998034366868 0 0.38209816509985928 -0.12927992000057059 0 0.38061125384645461 -0.1169874577188753 0 0.38384258531298943 -0.1268543400121912 0 0.38209816509985928 -0.12927992000057059 0 0.37042076319628198 -0.1149998034366868 0 0.38209816509985928 -0.12927992000057059 0 0.38061125384645461 -0.1169874577188753 0 0.39317968796985858 -0.1218441630815677 0 0.38384258531298943 -0.1268543400121912 0 0.40472615041640198 -0.1039652598749705 0 0.40713859993403051 -0.13340844657761061 0 0.40472615041640198 -0.1039652598749705 0 0.39317968796985858 -0.1218441630815677 0 0.40713859993403051 -0.13340844657761061 0 0.40472615041640198 -0.1039652598749705 0 0.38819227338683687 -0.1078627665926651 0 0.39317968796985858 -0.1218441630815677 0 0.41650333971669179 0.00050237777190450389 0 0.41974119136922861 -0.027947699350020661 0 0.39908412141158889 -0.020725440344928171 0 0.41650333971669179 0.00050237777190450389 0 0.39908412141158889 -0.020725440344928171 0 0.41650333971669179 0.00050237777190450389 0 0.43373192603638289 0.01040266456964275 0 0.43921346449248788 -0.015484528702947829 0 0.41650333971669179 0.00050237777190450389 0 0.43921346449248788 -0.015484528702947829 0 0.41974119136922861 -0.027947699350020661 0 0.43921346449248788 -0.015484528702947829 0 0.41974119136922861 -0.027947699350020661 0 0.43399561952917642 -0.045101994580794891 0 0.44733394050767639 -0.05886331785652308 0 0.42851281074613212 -0.070381186298336715 0 0.43399561952917642 -0.045101994580794891 0 0.42851281074613212 -0.070381186298336715 0 0.43399561952917642 -0.045101994580794891 0 0.40773324916104242 -0.04825592149458436 0 0.41974119136922861 -0.027947699350020661 0 0.43399561952917642 -0.045101994580794891 0 0.40773324916104242 -0.04825592149458436 0 0.41974119136922861 -0.027947699350020661 0 0.40773324916104242 -0.04825592149458436 0 0.39908412141158889 -0.020725440344928171 0 0.40773324916104242 -0.04825592149458436 0 0.38166490310648621 -0.041953258461760672 0 0.39908412141158889 -0.020725440344928171 0 0.40773324916104242 -0.04825592149458436 0 0.38717147853693001 -0.06027092646118605 0 0.38166490310648621 -0.041953258461760672 0 0.40231370089877361 -0.074522073172330575 0 0.40773324916104242 -0.04825592149458436 0 0.38717147853693001 -0.06027092646118605 0 0.38717147853693001 -0.06027092646118605 0 0.38166490310648621 -0.041953258461760672 0 0.36424568480138531 -0.063181076578594925 0 0.38166490310648621 -0.041953258461760672 0 0.39908412141158889 -0.020725440344928171 0 0.38166490310648621 -0.041953258461760672 0 0.37982675169876629 -0.022900903775348751 0 0.39908412141158889 -0.020725440344928171 0 0.37982675169876629 -0.022900903775348751 0 0.39908412141158889 -0.020725440344928171 0 0.38071497791941461 -0.0053118919655108128 0 0.39609851540861962 0.0077548751215693974 0 0.41650333971669179 0.00050237777190450389 0 0.39908412141158889 -0.020725440344928171 0 0.39609851540861962 0.0077548751215693974 0 0.39908412141158889 -0.020725440344928171 0 0.38071497791941461 -0.0053118919655108128 0 0.37982675169876629 -0.022900903775348751 0 0.38071497791941461 -0.0053118919655108128 0 0.36595777630272669 -0.009468117787350518 0 0.36595777630272669 -0.009468117787350518 0 0.36229153434858308 -0.025151596548009959 0 0.35281410748661701 -0.011577531556830381 0 0.36642895304847711 0.0028477869111517432 0 0.38071497791941461 -0.0053118919655108128 0 0.36595777630272669 -0.009468117787350518 0 0.36642895304847711 0.0028477869111517432 0 0.36595777630272669 -0.009468117787350518 0 0.35515594858733218 -0.00054995058001772016 0 0.37982675169876629 -0.022900903775348751 0 0.36595777630272669 -0.009468117787350518 0 0.36229153434858308 -0.025151596548009959 0 0.38166490310648621 -0.041953258461760672 0 0.37982675169876629 -0.022900903775348751 0 0.36229153434858308 -0.025151596548009959 0 0.36229153434858308 -0.025151596548009959 0 0.34733000253562252 -0.021919449839552831 0 0.34684616589099981 -0.033865848033349653 0 0.36229153434858308 -0.025151596548009959 0 0.34733000253562252 -0.021919449839552831 0 0.35281410748661701 -0.011577531556830381 0 0.36595777630272669 -0.009468117787350518 0 0.35515594858733218 -0.00054995058001772016 0 0.35281410748661701 -0.011577531556830381 0 0.34733000253562252 -0.021919449839552831 0 0.35281410748661701 -0.011577531556830381 0 0.34196296707861978 -0.01174916033336334 0 0.35281410748661701 -0.011577531556830381 0 0.34467921555257031 -0.002962009106727068 0 0.34196296707861978 -0.01174916033336334 0 0.35515594858733218 -0.00054995058001772016 0 0.35281410748661701 -0.011577531556830381 0 0.34467921555257031 -0.002962009106727068 0 0.33759069584632828 0.0048298461918768196 0 0.34467921555257031 -0.002962009106727068 0 0.33440601945123971 -0.0057011628620716199 0 0.34467921555257031 -0.002962009106727068 0 0.33440601945123971 -0.0057011628620716199 0 0.34196296707861978 -0.01174916033336334 0 0.32906798822248451 0.0022292724924981222 0 0.33440601945123971 -0.0057011628620716199 0 0.323678360089515 -0.0081542079124204137 0 0.33440601945123971 -0.0057011628620716199 0 0.33206196739172278 -0.01566830483433691 0 0.323678360089515 -0.0081542079124204137 0 0.34196296707861978 -0.01174916033336334 0 0.3393758629930686 -0.019053747571807299 0 0.33206196739172278 -0.01566830483433691 0 0.33440601945123971 -0.0057011628620716199 0 0.34196296707861978 -0.01174916033336334 0 0.33206196739172278 -0.01566830483433691 0 0.33669658715383038 -0.02673965769025884 0 0.3186642516041831 -0.019941771459701989 0 0.33388439123833891 -0.03439176467547149 0 0.3393758629930686 -0.019053747571807299 0 0.33669658715383038 -0.02673965769025884 0 0.33206196739172278 -0.01566830483433691 0 0.34733000253562252 -0.021919449839552831 0 0.3393758629930686 -0.019053747571807299 0 0.33669658715383038 -0.02673965769025884 0 0.34733000253562252 -0.021919449839552831 0 0.34196296707861978 -0.01174916033336334 0 0.3393758629930686 -0.019053747571807299 0 0.33669658715383038 -0.02673965769025884 0 0.33206196739172278 -0.01566830483433691 0 0.3186642516041831 -0.019941771459701989 0 0.34733000253562252 -0.021919449839552831 0 0.33669658715383038 -0.02673965769025884 0 0.34684616589099981 -0.033865848033349653 0 0.33669658715383038 -0.02673965769025884 0 0.3186642516041831 -0.019941771459701989 0 0.3186642516041831 -0.019941771459701989 0 0.33388439123833891 -0.03439176467547149 0 0.31933739796647281 0.0098329004768663974 0 0.323678360089515 -0.0081542079124204137 0 0.30421077638851429 -0.0062545263384160207 0 0.3186642516041831 -0.019941771459701989 0 0.323678360089515 -0.0081542079124204137 0 0.30421077638851429 -0.0062545263384160207 0 0.3186642516041831 -0.019941771459701989 0 0.323678360089515 -0.0081542079124204137 0 0.33206196739172278 -0.01566830483433691 0 0.3186642516041831 -0.019941771459701989 0 0.323678360089515 -0.0081542079124204137 0 0.32286567100023839 -0.042448718912449057 0 0.33162927748541909 -0.05197211981014082 0 0.32096282467687581 -0.063043515467711669 0 0.32096282467687581 -0.063043515467711669 0 0.30948998068361849 -0.066302038455037474 0 0.30913025320800791 -0.042857925244523323 0 0.32286567100023839 -0.042448718912449057 0 0.32096282467687581 -0.063043515467711669 0 0.30913025320800791 -0.042857925244523323 0 0.3186642516041831 -0.019941771459701989 0 0.32286567100023839 -0.042448718912449057 0 0.33388439123833891 -0.03439176467547149 0 0.3186642516041831 -0.019941771459701989 0 0.30913025320800791 -0.042857925244523323 0 0.3186642516041831 -0.019941771459701989 0 0.32286567100023839 -0.042448718912449057 0 0.30913025320800791 -0.042857925244523323 0 0.33388439123833891 -0.03439176467547149 0 0.33162927748541909 -0.05197211981014082 0 0.34906503801986211 -0.048786420627033131 0 0.32286567100023839 -0.042448718912449057 0 0.33388439123833891 -0.03439176467547149 0 0.33162927748541909 -0.05197211981014082 0 0.33388439123833891 -0.03439176467547149 0 0.34906503801986211 -0.048786420627033131 0 0.34684616589099981 -0.033865848033349653 0 0.33669658715383038 -0.02673965769025884 0 0.33388439123833891 -0.03439176467547149 0 0.34684616589099981 -0.033865848033349653 0 0.33388439123833891 -0.03439176467547149 0 0.34906503801986211 -0.048786420627033131 0 0.33162927748541909 -0.05197211981014082 0 0.33549774607107291 -0.072191485692539678 0 0.32096282467687581 -0.063043515467711669 0 0.33162927748541909 -0.05197211981014082 0 0.34073734096791419 -0.060283281705210037 0 0.33549774607107291 -0.072191485692539678 0 0.33162927748541909 -0.05197211981014082 0 0.34073734096791419 -0.060283281705210037 0 0.34906503801986211 -0.048786420627033131 0 0.34906503801986211 -0.048786420627033131 0 0.36082266523346329 -0.042587640049749673 0 0.36424568480138531 -0.063181076578594925 0 0.34073734096791419 -0.060283281705210037 0 0.34906503801986211 -0.048786420627033131 0 0.34865853619414411 -0.066874417493027194 0 0.34906503801986211 -0.048786420627033131 0 0.36424568480138531 -0.063181076578594925 0 0.34865853619414411 -0.066874417493027194 0 0.34906503801986211 -0.048786420627033131 0 0.36424568480138531 -0.063181076578594925 0 0.36229153434858308 -0.025151596548009959 0 0.34684616589099981 -0.033865848033349653 0 0.36082266523346329 -0.042587640049749673 0 0.34906503801986211 -0.048786420627033131 0 0.34684616589099981 -0.033865848033349653 0 0.36082266523346329 -0.042587640049749673 0 0.38166490310648621 -0.041953258461760672 0 0.36229153434858308 -0.025151596548009959 0 0.36082266523346329 -0.042587640049749673 0 0.38166490310648621 -0.041953258461760672 0 0.36082266523346329 -0.042587640049749673 0 0.36424568480138531 -0.063181076578594925 0 0.38166490310648621 -0.041953258461760672 0 0.36424568480138531 -0.063181076578594925 0 0.37571274685922229 -0.074054421797236744 0 0.36424568480138531 -0.063181076578594925 0 0.36238898357212701 -0.080406066962201969 0 0.37571274685922229 -0.074054421797236744 0 0.36424568480138531 -0.063181076578594925 0 0.37571274685922229 -0.074054421797236744 0 0.36764953323896649 -0.092074926850790301 0 0.36238898357212701 -0.080406066962201969 0 0.36764953323896649 -0.092074926850790301 0 0.36238898357212701 -0.080406066962201969 0 0.35654435898541548 -0.08948837991478685 0 0.36238898357212701 -0.080406066962201969 0 0.35654435898541548 -0.08948837991478685 0 0.34779259397564549 -0.083231529669600984 0 0.34790141253243201 -0.09274446347104226 0 0.34779259397564549 -0.083231529669600984 0 0.34001303374106101 -0.090251333178132054 0 0.35654435898541548 -0.08948837991478685 0 0.34790141253243201 -0.09274446347104226 0 0.34779259397564549 -0.083231529669600984 0 0.34779259397564549 -0.083231529669600984 0 0.34865853619414411 -0.066874417493027194 0 0.33549774607107291 -0.072191485692539678 0 0.36424568480138531 -0.063181076578594925 0 0.36238898357212701 -0.080406066962201969 0 0.34779259397564549 -0.083231529669600984 0 0.36424568480138531 -0.063181076578594925 0 0.34779259397564549 -0.083231529669600984 0 0.34865853619414411 -0.066874417493027194 0 0.36424568480138531 -0.063181076578594925 0 0.34779259397564549 -0.083231529669600984 0 0.37042076319628198 -0.1149998034366868 0 0.36426675148307641 -0.10438676964435741 0 0.3515848859579897 -0.113524083837899 0 0.36457778891387421 -0.12454968055256389 0 0.37042076319628198 -0.1149998034366868 0 0.38209816509985928 -0.12927992000057059 0 0.36457778891387421 -0.12454968055256389 0 0.37042076319628198 -0.1149998034366868 0 0.3515848859579897 -0.113524083837899 0 0.36457778891387421 -0.12454968055256389 0 0.3515848859579897 -0.113524083837899 0 0.36291655003088052 -0.12685959863317781 0 0.37644409074456048 -0.1036623315085025 0 0.37042076319628198 -0.1149998034366868 0 0.36426675148307641 -0.10438676964435741 0 0.37644409074456048 -0.1036623315085025 0 0.36764953323896649 -0.092074926850790301 0 0.36426675148307641 -0.10438676964435741 0 0.36764953323896649 -0.092074926850790301 0 0.36426675148307641 -0.10438676964435741 0 0.35446275282649248 -0.1000434015431893 0 0.36764953323896649 -0.092074926850790301 0 0.35654435898541548 -0.08948837991478685 0 0.35446275282649248 -0.1000434015431893 0 0.35654435898541548 -0.08948837991478685 0 0.34790141253243201 -0.09274446347104226 0 0.35446275282649248 -0.1000434015431893 0 0.34790141253243201 -0.09274446347104226 0 0.35446275282649248 -0.1000434015431893 0 0.34069432313354542 -0.100707673049502 0 0.35446275282649248 -0.1000434015431893 0 0.3515848859579897 -0.113524083837899 0 0.34069432313354542 -0.100707673049502 0 0.3515848859579897 -0.113524083837899 0 0.34069432313354542 -0.100707673049502 0 0.36426675148307641 -0.10438676964435741 0 0.35446275282649248 -0.1000434015431893 0 0.3515848859579897 -0.113524083837899 0 0.3515848859579897 -0.113524083837899 0 0.33337756916658601 -0.1179945242301995 0 0.34638748672144748 -0.12597683533878179 0 0.3515848859579897 -0.113524083837899 0 0.34638748672144748 -0.12597683533878179 0 0.36291655003088052 -0.12685959863317781 0 0.3515848859579897 -0.113524083837899 0 0.36291655003088052 -0.12685959863317781 0 0.36457778891387421 -0.12454968055256389 0 0.3515848859579897 -0.113524083837899 0 0.3515848859579897 -0.113524083837899 0 0.33337756916658601 -0.1179945242301995 0 0.33445786999106347 -0.098990336328345391 0 0.33337756916658601 -0.1179945242301995 0 0.3375689484773442 -0.12991599439942211 0 0.34638748672144748 -0.12597683533878179 0 0.33337756916658601 -0.1179945242301995 0 0.33445786999106347 -0.098990336328345391 0 0.31777144291511861 -0.10338944880681181 0 0.3515848859579897 -0.113524083837899 0 0.34069432313354542 -0.100707673049502 0 0.33445786999106347 -0.098990336328345391 0 0.3515848859579897 -0.113524083837899 0 0.33445786999106347 -0.098990336328345391 0 0.34790141253243201 -0.09274446347104226 0 0.34069432313354542 -0.100707673049502 0 0.34001303374106101 -0.090251333178132054 0 0.34069432313354542 -0.100707673049502 0 0.32980376030910119 -0.087891262261105024 0 0.34069432313354542 -0.100707673049502 0 0.33445786999106347 -0.098990336328345391 0 0.32980376030910119 -0.087891262261105024 0 0.33445786999106347 -0.098990336328345391 0 0.31777144291511861 -0.10338944880681181 0 0.31733085402413719 -0.084456588818791839 0 0.31777144291511861 -0.10338944880681181 0 0.31651364794240328 -0.1206559409031467 0 0.30717762796492848 -0.11177722782406049 0 0.33337756916658601 -0.1179945242301995 0 0.31777144291511861 -0.10338944880681181 0 0.31651364794240328 -0.1206559409031467 0 0.33337756916658601 -0.1179945242301995 0 0.31651364794240328 -0.1206559409031467 0 0.32817104058804958 -0.13248690569769581 0 0.34073734096791419 -0.060283281705210037 0 0.34865853619414411 -0.066874417493027194 0 0.33549774607107291 -0.072191485692539678 0 0.33549774607107291 -0.072191485692539678 0 0.34001303374106101 -0.090251333178132054 0 0.32980376030910119 -0.087891262261105024 0 0.34779259397564549 -0.083231529669600984 0 0.33549774607107291 -0.072191485692539678 0 0.34001303374106101 -0.090251333178132054 0 0.33549774607107291 -0.072191485692539678 0 0.32980376030910119 -0.087891262261105024 0 0.32589879627029678 -0.076895713060037049 0 0.34069432313354542 -0.100707673049502 0 0.34001303374106101 -0.090251333178132054 0 0.32980376030910119 -0.087891262261105024 0 0.33445786999106347 -0.098990336328345391 0 0.32980376030910119 -0.087891262261105024 0 0.31733085402413719 -0.084456588818791839 0 0.33445786999106347 -0.098990336328345391 0 0.31733085402413719 -0.084456588818791839 0 0.31777144291511861 -0.10338944880681181 0 0.31733085402413719 -0.084456588818791839 0 0.30824056676581479 -0.09196117370959174 0 0.32980376030910119 -0.087891262261105024 0 0.31733085402413719 -0.084456588818791839 0 0.32589879627029678 -0.076895713060037049 0 0.31733085402413719 -0.084456588818791839 0 0.32096282467687581 -0.063043515467711669 0 0.30948998068361849 -0.066302038455037474 0 0.31733085402413719 -0.084456588818791839 0 0.32589879627029678 -0.076895713060037049 0 0.32096282467687581 -0.063043515467711669 0 0.33549774607107291 -0.072191485692539678 0 0.32589879627029678 -0.076895713060037049 0 0.32096282467687581 -0.063043515467711669 0 0.31733085402413719 -0.084456588818791839 0 0.30948998068361849 -0.066302038455037474 0 0.30020383805721002 -0.069922841309239411 0 0.31733085402413719 -0.084456588818791839 0 0.30020383805721002 -0.069922841309239411 0 0.30948998068361849 -0.066302038455037474 0 0.30020383805721002 -0.069922841309239411 0 0.29953889802346528 -0.065737581124648475 0 0.30020383805721002 -0.069922841309239411 0 0.29953889802346528 -0.065737581124648475 0 0.30020383805721002 -0.069922841309239411 0 0.2984192425329279 -0.068408458371388203 0 0.29953889802346528 -0.065737581124648475 0 0.2984192425329279 -0.068408458371388203 0 0.29953889802346528 -0.065737581124648475 0 0.30020383805721002 -0.069922841309239411 0 0.2984192425329279 -0.068408458371388203 0 0.30020383805721002 -0.069922841309239411 0 0.30189662121391292 -0.080577543368630558 0 0.31733085402413719 -0.084456588818791839 0 0.30020383805721002 -0.069922841309239411 0 0.30189662121391292 -0.080577543368630558 0 0.31733085402413719 -0.084456588818791839 0 0.30824056676581479 -0.09196117370959174 0 0.30189662121391292 -0.080577543368630558 0 0.30824056676581479 -0.09196117370959174 0 0.29999679485602032 -0.090721993320212885 0 0.30189662121391292 -0.080577543368630558 0 0.30020383805721002 -0.069922841309239411 0 0.30189662121391292 -0.080577543368630558 0 0.29146739420938428 -0.084991714263092988 0 0.29999679485602032 -0.090721993320212885 0 0.30189662121391292 -0.080577543368630558 0 0.29146739420938428 -0.084991714263092988 0 0.29146739420938428 -0.084991714263092988 0 0.28451554588584033 -0.10157497015479749 0 0.29146739420938428 -0.084991714263092988 0 0.28277589884066889 -0.095644351484990703 0 0.27455964172546898 -0.076379322651736595 0 0.29999679485602032 -0.090721993320212885 0 0.29146739420938428 -0.084991714263092988 0 0.29346680135426129 -0.098780409851602219 0 0.2984192425329279 -0.068408458371388203 0 0.29146739420938428 -0.084991714263092988 0 0.29146739420938428 -0.084991714263092988 0 0.28237949976131022 -0.066541835787739603 0 0.27455964172546898 -0.076379322651736595 0 0.30020383805721002 -0.069922841309239411 0 0.2984192425329279 -0.068408458371388203 0 0.29146739420938428 -0.084991714263092988 0 0.2984192425329279 -0.068408458371388203 0 0.29146739420938428 -0.084991714263092988 0 0.28237949976131022 -0.066541835787739603 0 0.31651364794240328 -0.1206559409031467 0 0.3009645321064674 -0.1233779458503491 0 0.30717762796492848 -0.11177722782406049 0 0.3009645321064674 -0.1233779458503491 0 0.30717762796492848 -0.11177722782406049 0 0.29643139604076812 -0.1108025093264832 0 0.30717762796492848 -0.11177722782406049 0 0.30420712081988538 -0.1006602942335116 0 0.29643139604076812 -0.1108025093264832 0 0.30420712081988538 -0.1006602942335116 0 0.29346680135426129 -0.098780409851602219 0 0.29643139604076812 -0.1108025093264832 0 0.31777144291511861 -0.10338944880681181 0 0.30717762796492848 -0.11177722782406049 0 0.30420712081988538 -0.1006602942335116 0 0.31777144291511861 -0.10338944880681181 0 0.30824056676581479 -0.09196117370959174 0 0.30420712081988538 -0.1006602942335116 0 0.29999679485602032 -0.090721993320212885 0 0.30420712081988538 -0.1006602942335116 0 0.29346680135426129 -0.098780409851602219 0 0.30824056676581479 -0.09196117370959174 0 0.29999679485602032 -0.090721993320212885 0 0.30420712081988538 -0.1006602942335116 0 0.29146739420938428 -0.084991714263092988 0 0.29346680135426129 -0.098780409851602219 0 0.28451554588584033 -0.10157497015479749 0 0.29146739420938428 -0.084991714263092988 0 0.28277589884066889 -0.095644351484990703 0 0.28451554588584033 -0.10157497015479749 0 0.28294711883340179 -0.097605713871195515 0 0.28277589884066889 -0.095644351484990703 0 0.28294711883340179 -0.097605713871195515 0 0.28350422026734018 -0.10398743238654989 0 0.28294711883340179 -0.097605713871195515 0 0.28451554588584033 -0.10157497015479749 0 0.28294711883340179 -0.097605713871195515 0 0.28451554588584033 -0.10157497015479749 0 0.28350422026734018 -0.10398743238654989 0 0.28294711883340179 -0.097605713871195515 0 0.28277589884066889 -0.095644351484990703 0 0.28451554588584033 -0.10157497015479749 0 0.29346680135426129 -0.098780409851602219 0 0.28571910633615399 -0.104620849701877 0 0.28451554588584033 -0.10157497015479749 0 0.28571910633615399 -0.104620849701877 0 0.28451554588584033 -0.10157497015479749 0 0.28571910633615399 -0.104620849701877 0 0.28451554588584033 -0.10157497015479749 0 0.28350422026734018 -0.10398743238654989 0 0.28451554588584033 -0.10157497015479749 0 0.28350422026734018 -0.10398743238654989 0 0.28350422026734018 -0.10398743238654989 0 0.28148065356360191 -0.1088145406461471 0 0.29346680135426129 -0.098780409851602219 0 0.28571910633615399 -0.104620849701877 0 0.29643139604076812 -0.1108025093264832 0 0.3009645321064674 -0.1233779458503491 0 0.29643139604076812 -0.1108025093264832 0 0.28557040677683038 -0.1276560498062046 0 0.28350422026734018 -0.10398743238654989 0 0.28148065356360191 -0.1088145406461471 0 0.28557040677683038 -0.1276560498062046 0 0.28571910633615399 -0.104620849701877 0 0.29643139604076812 -0.1108025093264832 0 0.28557040677683038 -0.1276560498062046 0 0.28350422026734018 -0.10398743238654989 0 0.28557040677683038 -0.1276560498062046 0 0.28571910633615399 -0.104620849701877 0 0.28350422026734018 -0.10398743238654989 0 0.28557040677683038 -0.1276560498062046 0 0.28148065356360191 -0.1088145406461471 0 0.27556184609684181 -0.1203791388481444 0 0.28557040677683038 -0.1276560498062046 0 0.27556184609684181 -0.1203791388481444 0 0.27012238598064381 -0.110486785026315 0 0.26265347992112259 -0.12251615335900159 0 0.28148065356360191 -0.1088145406461471 0 0.27556184609684181 -0.1203791388481444 0 0.27012238598064381 -0.110486785026315 0 0.27012238598064381 -0.110486785026315 0 0.27268515252031139 -0.1012717288214582 0 0.25823079780134123 -0.099452363456823706 0 0.28148065356360191 -0.1088145406461471 0 0.27012238598064381 -0.110486785026315 0 0.27268515252031139 -0.1012717288214582 0 0.28350422026734018 -0.10398743238654989 0 0.28148065356360191 -0.1088145406461471 0 0.27268515252031139 -0.1012717288214582 0 0.28294711883340179 -0.097605713871195515 0 0.28350422026734018 -0.10398743238654989 0 0.27268515252031139 -0.1012717288214582 0 0.25823079780134123 -0.099452363456823706 0 0.26265347992112259 -0.12251615335900159 0 0.2390550231981283 -0.11095140769565939 0 0.27012238598064381 -0.110486785026315 0 0.25823079780134123 -0.099452363456823706 0 0.26265347992112259 -0.12251615335900159 0 0.27455964172546898 -0.076379322651736595 0 0.26617216461753651 -0.055152931432277563 0 0.28237949976131022 -0.066541835787739603 0 0.27455964172546898 -0.076379322651736595 0 0.26617216461753651 -0.055152931432277563 0 0.28294711883340179 -0.097605713871195515 0 0.27455964172546898 -0.076379322651736595 0 0.27268515252031139 -0.1012717288214582 0 0.25823079780134123 -0.099452363456823706 0 0.27455964172546898 -0.076379322651736595 0 0.28294711883340179 -0.097605713871195515 0 0.27268515252031139 -0.1012717288214582 0 0.27455964172546898 -0.076379322651736595 0 0.28294711883340179 -0.097605713871195515 0 0.28277589884066889 -0.095644351484990703 0 0.27455964172546898 -0.076379322651736595 0 0.25823079780134123 -0.099452363456823706 0 0.27455964172546898 -0.076379322651736595 0 0.25282332103220789 -0.077768968400902472 0 0.27455964172546898 -0.076379322651736595 0 0.25282332103220789 -0.077768968400902472 0 0.26617216461753651 -0.055152931432277563 0 0.25282332103220789 -0.077768968400902472 0 0.26617216461753651 -0.055152931432277563 0 0.2448580173371929 -0.055519512242431797 0 0.26617216461753651 -0.055152931432277563 0 0.25778468750960382 -0.033926540212818643 0 0.2448580173371929 -0.055519512242431797 0 0.28237949976131022 -0.066541835787739603 0 0.26617216461753651 -0.055152931432277563 0 0.27810196502126588 -0.051167499292103333 0 0.26617216461753651 -0.055152931432277563 0 0.27810196502126588 -0.051167499292103333 0 0.26914770643282188 -0.043569040009353341 0 0.27810196502126588 -0.051167499292103333 0 0.26914770643282188 -0.043569040009353341 0 0.26914770643282188 -0.043569040009353341 0 0.2659905529418628 -0.027216094557826129 0 0.28074456418233651 -0.03121125375791203 0 0.26914770643282188 -0.043569040009353341 0 0.28074456418233651 -0.03121125375791203 0 0.27919270149207182 -0.041158845437418892 0 0.26914770643282188 -0.043569040009353341 0 0.28074456418233651 -0.03121125375791203 0 0.27810196502126588 -0.051167499292103333 0 0.27919270149207182 -0.041158845437418892 0 0.26914770643282188 -0.043569040009353341 0 0.26914770643282188 -0.043569040009353341 0 0.25778468750960382 -0.033926540212818643 0 0.2659905529418628 -0.027216094557826129 0 0.26914770643282188 -0.043569040009353341 0 0.25778468750960382 -0.033926540212818643 0 0.26617216461753651 -0.055152931432277563 0 0.26914770643282188 -0.043569040009353341 0 0.25778468750960382 -0.033926540212818643 0 0.26617216461753651 -0.055152931432277563 0 0.25778468750960382 -0.033926540212818643 0 0.25778468750960382 -0.033926540212818643 0 0.25103947100691021 -0.016717951780026191 0 0.25632214367837608 -0.021785600485782469 0 0.25778468750960382 -0.033926540212818643 0 0.25103947100691021 -0.016717951780026191 0 0.25103947100691021 -0.016717951780026191 0 0.25726582168459072 -0.016637676568549649 0 0.2484089677875449 -0.01463295254214088 0 0.25103947100691021 -0.016717951780026191 0 0.25726582168459072 -0.016637676568549649 0 0.25632214367837608 -0.021785600485782469 0 0.25103947100691021 -0.016717951780026191 0 0.25726582168459072 -0.016637676568549649 0 0.25726582168459072 -0.016637676568549649 0 0.25632214367837608 -0.021785600485782469 0 0.25726582168459072 -0.016637676568549649 0 0.25632214367837608 -0.021785600485782469 0 0.2659905529418628 -0.027216094557826129 0 0.25778468750960382 -0.033926540212818643 0 0.25632214367837608 -0.021785600485782469 0 0.2659905529418628 -0.027216094557826129 0 0.25726582168459072 -0.016637676568549649 0 0.25895612448261401 -0.0074167875110536467 0 0.27446671242227749 -0.016415908599953379 0 0.2606787272139568 0.001980303172608151 0 0.25042228605187061 -0.0047491306960444736 0 0.25895612448261401 -0.0074167875110536467 0 0.25895612448261401 -0.0074167875110536467 0 0.2484089677875449 -0.01463295254214088 0 0.25042228605187061 -0.0047491306960444736 0 0.25895612448261401 -0.0074167875110536467 0 0.2484089677875449 -0.01463295254214088 0 0.25726582168459072 -0.016637676568549649 0 0.25895612448261401 -0.0074167875110536467 0 0.2484089677875449 -0.01463295254214088 0 0.25726582168459072 -0.016637676568549649 0 0.25895612448261401 -0.0074167875110536467 0 0.2606787272139568 0.001980303172608151 0 0.25895612448261401 -0.0074167875110536467 0 0.25895612448261401 -0.0074167875110536467 0 0.26841754345374957 -0.00094346368570095117 0 0.2606787272139568 0.001980303172608151 0 0.25895612448261401 -0.0074167875110536467 0 0.26841754345374957 -0.00094346368570095117 0 0.26841754345374957 -0.00094346368570095117 0 0.27446671242227749 -0.016415908599953379 0 0.2905745917446767 -0.0093145170178452665 0 0.26841754345374957 -0.00094346368570095117 0 0.2905745917446767 -0.0093145170178452665 0 0.25895612448261401 -0.0074167875110536467 0 0.26841754345374957 -0.00094346368570095117 0 0.27446671242227749 -0.016415908599953379 0 0.25726582168459072 -0.016637676568549649 0 0.27446671242227749 -0.016415908599953379 0 0.25726582168459072 -0.016637676568549649 0 0.2659905529418628 -0.027216094557826129 0 0.27446671242227749 -0.016415908599953379 0 0.2659905529418628 -0.027216094557826129 0 0.27446671242227749 -0.016415908599953379 0 0.28074456418233651 -0.03121125375791203 0 0.28074456418233651 -0.03121125375791203 0 0.29212974019068072 -0.019102919793883909 0 0.29583431910707347 -0.042420250459266097 0 0.27446671242227749 -0.016415908599953379 0 0.29212974019068072 -0.019102919793883909 0 0.29166760315996437 -0.016194140631357039 0 0.28074456418233651 -0.03121125375791203 0 0.29212974019068072 -0.019102919793883909 0 0.29212974019068072 -0.019102919793883909 0 0.29583431910707347 -0.042420250459266097 0 0.27446671242227749 -0.016415908599953379 0 0.29166760315996437 -0.016194140631357039 0 0.29212974019068072 -0.019102919793883909 0 0.30098284681711568 -0.029986846563416311 0 0.29583431910707347 -0.042420250459266097 0 0.27446671242227749 -0.016415908599953379 0 0.28074456418233651 -0.03121125375791203 0 0.29212974019068072 -0.019102919793883909 0 0.29212974019068072 -0.019102919793883909 0 0.29166760315996437 -0.016194140631357039 0 0.29212974019068072 -0.019102919793883909 0 0.29166760315996437 -0.016194140631357039 0 0.29490403005316862 -0.016152413965654259 0 0.29212974019068072 -0.019102919793883909 0 0.29490403005316862 -0.016152413965654259 0 0.2997659788524436 -0.021407626834704329 0 0.29166760315996437 -0.016194140631357039 0 0.29490403005316862 -0.016152413965654259 0 0.29212974019068072 -0.019102919793883909 0 0.29490403005316862 -0.016152413965654259 0 0.27446671242227749 -0.016415908599953379 0 0.29166760315996437 -0.016194140631357039 0 0.2905745917446767 -0.0093145170178452665 0 0.28758352426337419 0.00951183574126775 0 0.2905745917446767 -0.0093145170178452665 0 0.30421077638851429 -0.0062545263384160207 0 0.28758352426337419 0.00951183574126775 0 0.26841754345374957 -0.00094346368570095117 0 0.2905745917446767 -0.0093145170178452665 0 0.29490403005316862 -0.016152413965654259 0 0.2905745917446767 -0.0093145170178452665 0 0.29851336108009452 -0.012313827243004061 0 0.2905745917446767 -0.0093145170178452665 0 0.29851336108009452 -0.012313827243004061 0 0.29166760315996437 -0.016194140631357039 0 0.29490403005316862 -0.016152413965654259 0 0.2905745917446767 -0.0093145170178452665 0 0.29166760315996437 -0.016194140631357039 0 0.2905745917446767 -0.0093145170178452665 0 0.29490403005316862 -0.016152413965654259 0 0.29851336108009452 -0.012313827243004061 0 0.3186642516041831 -0.019941771459701989 0 0.30421077638851429 -0.0062545263384160207 0 0.29851336108009452 -0.012313827243004061 0 0.2905745917446767 -0.0093145170178452665 0 0.30421077638851429 -0.0062545263384160207 0 0.29851336108009452 -0.012313827243004061 0 0.29490403005316862 -0.016152413965654259 0 0.29851336108009452 -0.012313827243004061 0 0.30340928492385921 -0.016042757255205729 0 0.30421077638851429 -0.0062545263384160207 0 0.29851336108009452 -0.012313827243004061 0 0.3186642516041831 -0.019941771459701989 0 0.30421077638851429 -0.0062545263384160207 0 0.3186642516041831 -0.019941771459701989 0 0.29851336108009452 -0.012313827243004061 0 0.3186642516041831 -0.019941771459701989 0 0.30771137009437149 -0.024701976591482419 0 0.30913025320800791 -0.042857925244523323 0 0.3186642516041831 -0.019941771459701989 0 0.29851336108009452 -0.012313827243004061 0 0.30340928492385921 -0.016042757255205729 0 0.29212974019068072 -0.019102919793883909 0 0.30098284681711568 -0.029986846563416311 0 0.2997659788524436 -0.021407626834704329 0 0.30098284681711568 -0.029986846563416311 0 0.2997659788524436 -0.021407626834704329 0 0.30771137009437149 -0.024701976591482419 0 0.29490403005316862 -0.016152413965654259 0 0.30340928492385921 -0.016042757255205729 0 0.2997659788524436 -0.021407626834704329 0 0.30340928492385921 -0.016042757255205729 0 0.2997659788524436 -0.021407626834704329 0 0.30771137009437149 -0.024701976591482419 0 0.29490403005316862 -0.016152413965654259 0 0.30340928492385921 -0.016042757255205729 0 0.3186642516041831 -0.019941771459701989 0 0.30340928492385921 -0.016042757255205729 0 0.30771137009437149 -0.024701976591482419 0 0.30098284681711568 -0.029986846563416311 0 0.30771137009437149 -0.024701976591482419 0 0.30913025320800791 -0.042857925244523323 0 0.30098284681711568 -0.029986846563416311 0 0.30913025320800791 -0.042857925244523323 0 0.29583431910707347 -0.042420250459266097 0 0.29953889802346528 -0.065737581124648475 0 0.30913025320800791 -0.042857925244523323 0 0.30948998068361849 -0.066302038455037474 0 0.29953889802346528 -0.065737581124648475 0 0.30913025320800791 -0.042857925244523323 0 0.29953889802346528 -0.065737581124648475 0 0.29583431910707347 -0.042420250459266097 0 0.29953889802346528 -0.065737581124648475 0 0.30913025320800791 -0.042857925244523323 0 0.29583431910707347 -0.042420250459266097 0 0.2984192425329279 -0.068408458371388203 0 0.28237949976131022 -0.066541835787739603 0 0.27810196502126588 -0.051167499292103333 0 0.2984192425329279 -0.068408458371388203 0 0.27810196502126588 -0.051167499292103333 0 0.2984192425329279 -0.068408458371388203 0 0.29953889802346528 -0.065737581124648475 0 0.27810196502126588 -0.051167499292103333 0 0.29953889802346528 -0.065737581124648475 0 0.27810196502126588 -0.051167499292103333 0 0.29583431910707347 -0.042420250459266097 0 0.27810196502126588 -0.051167499292103333 0 0.27919270149207182 -0.041158845437418892 0 0.29583431910707347 -0.042420250459266097 0 0.27919270149207182 -0.041158845437418892 0 0.28074456418233651 -0.03121125375791203 0 0.29583431910707347 -0.042420250459266097 0 0.29333955001705031 -0.21665328126936781 0 0.29114553567962759 -0.19152036818181181 0 0.3002547503081946 -0.2062732317861985 0 0.29333955001705031 -0.21665328126936781 0 0.29114553567962759 -0.19152036818181181 0 0.27683915405330239 -0.2140224707109184 0 0.29333955001705031 -0.21665328126936781 0 0.29114553567962759 -0.19152036818181181 0 0.29114553567962759 -0.19152036818181181 0 0.27683915405330239 -0.2140224707109184 0 0.29114553567962759 -0.19152036818181181 0 0.27683915405330239 -0.2140224707109184 0 0.27886950995850263 -0.19460032777127231 0 0.29114553567962759 -0.19152036818181181 0 0.27886950995850263 -0.19460032777127231 0 0.28441891254200768 -0.18612551619971099 0 0.29114553567962759 -0.19152036818181181 0 0.29901218131319951 -0.1963449861599291 0 0.2983128208727267 -0.1922029460193993 0 0.29114553567962759 -0.19152036818181181 0 0.2983128208727267 -0.1922029460193993 0 0.29639264413514121 -0.18326733988079241 0 0.29114553567962759 -0.19152036818181181 0 0.29901218131319951 -0.1963449861599291 0 0.3002547503081946 -0.2062732317861985 0 0.30633561839225021 -0.19538339865230681 0 0.29639264413514121 -0.18326733988079241 0 0.32180431566128298 -0.19790946714530711 0 0.29639264413514121 -0.18326733988079241 0 0.31225694122570058 -0.18500124555472369 0 0.32180431566128298 -0.19790946714530711 0 0.29639264413514121 -0.18326733988079241 0 0.32180431566128298 -0.19790946714530711 0 0.29901218131319951 -0.1963449861599291 0 0.30633561839225021 -0.19538339865230681 0 0.3002547503081946 -0.2062732317861985 0 0.2983128208727267 -0.1922029460193993 0 0.30633561839225021 -0.19538339865230681 0 0.29639264413514121 -0.18326733988079241 0 0.29901218131319951 -0.1963449861599291 0 0.2983128208727267 -0.1922029460193993 0 0.30633561839225021 -0.19538339865230681 0 0.30633561839225021 -0.19538339865230681 0 0.31144694552304891 -0.20494256224519569 0 0.3002547503081946 -0.2062732317861985 0 0.31144694552304891 -0.20494256224519569 0 0.3002547503081946 -0.2062732317861985 0 0.30863404331767502 -0.21425010542374101 0 0.29333955001705031 -0.21665328126936781 0 0.3002547503081946 -0.2062732317861985 0 0.30863404331767502 -0.21425010542374101 0 0.29333955001705031 -0.21665328126936781 0 0.30863404331767502 -0.21425010542374101 0 0.30609394213912988 -0.23049255693837839 0 0.30863404331767502 -0.21425010542374101 0 0.30609394213912988 -0.23049255693837839 0 0.31896719687669672 -0.22429015409881439 0 0.30609394213912988 -0.23049255693837839 0 0.28886667570605501 -0.24790102732276209 0 0.31116260676228258 -0.25520978919645698 0 0.30609394213912988 -0.23049255693837839 0 0.28886667570605501 -0.24790102732276209 0 0.28465841464186797 -0.2298781053302576 0 0.29333955001705031 -0.21665328126936781 0 0.30609394213912988 -0.23049255693837839 0 0.28465841464186797 -0.2298781053302576 0 0.29333955001705031 -0.21665328126936781 0 0.28465841464186797 -0.2298781053302576 0 0.27683915405330239 -0.2140224707109184 0 0.26253277242697598 -0.23652457324002391 0 0.26123602946445063 -0.21329805140087149 0 0.27683915405330239 -0.2140224707109184 0 0.28465841464186797 -0.2298781053302576 0 0.26253277242697598 -0.23652457324002391 0 0.27683915405330239 -0.2140224707109184 0 0.26253277242697598 -0.23652457324002391 0 0.27683915405330239 -0.2140224707109184 0 0.28886667570605501 -0.24790102732276209 0 0.28465841464186797 -0.2298781053302576 0 0.26253277242697598 -0.23652457324002391 0 0.28886667570605501 -0.24790102732276209 0 0.26253277242697598 -0.23652457324002391 0 0.27240628394206667 -0.26305032971744569 0 0.26253277242697598 -0.23652457324002391 0 0.24822639080064951 -0.25902667576912952 0 0.26253277242697598 -0.23652457324002391 0 0.26123602946445063 -0.21329805140087149 0 0.24732968082171039 -0.21963088721378529 0 0.26123602946445063 -0.21329805140087149 0 0.25333909334810889 -0.20072535138459779 0 0.24732968082171039 -0.21963088721378529 0 0.26123602946445063 -0.21329805140087149 0 0.26613944667215489 -0.19558697445503201 0 0.25333909334810889 -0.20072535138459779 0 0.26123602946445063 -0.21329805140087149 0 0.27683915405330239 -0.2140224707109184 0 0.26613944667215489 -0.19558697445503201 0 0.27683915405330239 -0.2140224707109184 0 0.27886950995850263 -0.19460032777127231 0 0.26613944667215489 -0.19558697445503201 0 0.27886950995850263 -0.19460032777127231 0 0.26613944667215489 -0.19558697445503201 0 0.27580450084542157 -0.185746309308888 0 0.27886950995850263 -0.19460032777127231 0 0.27580450084542157 -0.185746309308888 0 0.28441891254200768 -0.18612551619971099 0 0.26613944667215489 -0.19558697445503201 0 0.27580450084542157 -0.185746309308888 0 0.26605369026567749 -0.18400718938920441 0 0.26613944667215489 -0.19558697445503201 0 0.25333909334810889 -0.20072535138459779 0 0.25595476691424252 -0.1854888113912414 0 0.26613944667215489 -0.19558697445503201 0 0.25595476691424252 -0.1854888113912414 0 0.26605369026567749 -0.18400718938920441 0 0.25333909334810889 -0.20072535138459779 0 0.25595476691424252 -0.1854888113912414 0 0.24617234226859469 -0.19037293896087859 0 0.25934997631317958 -0.1778472473506052 0 0.26513011087971389 -0.16525396401662781 0 0.23874702685181459 -0.17800668437057801 0 0.25595476691424252 -0.1854888113912414 0 0.25934997631317958 -0.1778472473506052 0 0.23874702685181459 -0.17800668437057801 0 0.25595476691424252 -0.1854888113912414 0 0.25934997631317958 -0.1778472473506052 0 0.26605369026567749 -0.18400718938920441 0 0.25934997631317958 -0.1778472473506052 0 0.26513011087971389 -0.16525396401662781 0 0.27029705667314902 -0.1767724778867201 0 0.25934997631317958 -0.1778472473506052 0 0.26605369026567749 -0.18400718938920441 0 0.27029705667314902 -0.1767724778867201 0 0.25259957891731538 -0.1635399997034708 0 0.26513011087971389 -0.16525396401662781 0 0.23874702685181459 -0.17800668437057801 0 0.26513011087971389 -0.16525396401662781 0 0.23874702685181459 -0.17800668437057801 0 0.26513011087971389 -0.16525396401662781 0 0.28126914090541771 -0.15745288448839359 0 0.2794053870147723 -0.16570988080025251 0 0.25259957891731538 -0.1635399997034708 0 0.28126914090541771 -0.15745288448839359 0 0.268422500879968 -0.15262826127910389 0 0.26513011087971389 -0.16525396401662781 0 0.28126914090541771 -0.15745288448839359 0 0.25259957891731538 -0.1635399997034708 0 0.26513011087971389 -0.16525396401662781 0 0.28126914090541771 -0.15745288448839359 0 0.26513011087971389 -0.16525396401662781 0 0.2794053870147723 -0.16570988080025251 0 0.28239809727786841 -0.17520372486504521 0 0.25259957891731538 -0.1635399997034708 0 0.28126914090541771 -0.15745288448839359 0 0.26513011087971389 -0.16525396401662781 0 0.28239809727786841 -0.17520372486504521 0 0.27580450084542157 -0.185746309308888 0 0.27029705667314902 -0.1767724778867201 0 0.28239809727786841 -0.17520372486504521 0 0.26513011087971389 -0.16525396401662781 0 0.27029705667314902 -0.1767724778867201 0 0.28239809727786841 -0.17520372486504521 0 0.27580450084542157 -0.185746309308888 0 0.28441891254200768 -0.18612551619971099 0 0.28239809727786841 -0.17520372486504521 0 0.27580450084542157 -0.185746309308888 0 0.28239809727786841 -0.17520372486504521 0 0.27580450084542157 -0.185746309308888 0 0.26605369026567749 -0.18400718938920441 0 0.27029705667314902 -0.1767724778867201 0 0.26265347992112259 -0.12251615335900159 0 0.26084971529328721 -0.1389731334530897 0 0.24588425228157709 -0.1352284829746653 0 0.25259957891731538 -0.1635399997034708 0 0.25327638948015557 -0.14878864317275439 0 0.268422500879968 -0.15262826127910389 0 0.26084971529328721 -0.1389731334530897 0 0.25327638948015557 -0.14878864317275439 0 0.268422500879968 -0.15262826127910389 0 0.26084971529328721 -0.1389731334530897 0 0.25327638948015557 -0.14878864317275439 0 0.24588425228157709 -0.1352284829746653 0 0.268422500879968 -0.15262826127910389 0 0.27401195390361249 -0.13570412647992319 0 0.28763659328631991 -0.15132466722585941 0 0.268422500879968 -0.15262826127910389 0 0.28763659328631991 -0.15132466722585941 0 0.26084971529328721 -0.1389731334530897 0 0.268422500879968 -0.15262826127910389 0 0.27401195390361249 -0.13570412647992319 0 0.28126914090541771 -0.15745288448839359 0 0.268422500879968 -0.15262826127910389 0 0.28763659328631991 -0.15132466722585941 0 0.26265347992112259 -0.12251615335900159 0 0.26084971529328721 -0.1389731334530897 0 0.27401195390361249 -0.13570412647992319 0 0.27556184609684181 -0.1203791388481444 0 0.27401195390361249 -0.13570412647992319 0 0.28557040677683038 -0.1276560498062046 0 0.27556184609684181 -0.1203791388481444 0 0.26265347992112259 -0.12251615335900159 0 0.27401195390361249 -0.13570412647992319 0 0.27401195390361249 -0.13570412647992319 0 0.28557040677683038 -0.1276560498062046 0 0.28763659328631991 -0.15132466722585941 0 0.28557040677683038 -0.1276560498062046 0 0.2958143663572515 -0.13772863070888081 0 0.28763659328631991 -0.15132466722585941 0 0.28557040677683038 -0.1276560498062046 0 0.28763659328631991 -0.15132466722585941 0 0.3009645321064674 -0.1233779458503491 0 0.28557040677683038 -0.1276560498062046 0 0.2958143663572515 -0.13772863070888081 0 0.2958143663572515 -0.13772863070888081 0 0.28763659328631991 -0.15132466722585941 0 0.29776231709695822 -0.1506376801402789 0 0.28126914090541771 -0.15745288448839359 0 0.28763659328631991 -0.15132466722585941 0 0.28367308654227202 -0.15629089575271349 0 0.28763659328631991 -0.15132466722585941 0 0.28804595823815088 -0.156014032094591 0 0.28763659328631991 -0.15132466722585941 0 0.28804595823815088 -0.156014032094591 0 0.28367308654227202 -0.15629089575271349 0 0.28763659328631991 -0.15132466722585941 0 0.28804595823815088 -0.156014032094591 0 0.29220440102088818 -0.15310869794901899 0 0.28804595823815088 -0.156014032094591 0 0.29220440102088818 -0.15310869794901899 0 0.29537273546212378 -0.15445841233534779 0 0.28804595823815088 -0.156014032094591 0 0.29537273546212378 -0.15445841233534779 0 0.28763659328631991 -0.15132466722585941 0 0.29220440102088818 -0.15310869794901899 0 0.29776231709695822 -0.1506376801402789 0 0.28763659328631991 -0.15132466722585941 0 0.29776231709695822 -0.1506376801402789 0 0.29220440102088818 -0.15310869794901899 0 0.29537273546212378 -0.15445841233534779 0 0.29776231709695822 -0.1506376801402789 0 0.29537273546212378 -0.15445841233534779 0 0.29776231709695822 -0.1506376801402789 0 0.29776231709695822 -0.1506376801402789 0 0.31315088546769948 -0.14124157660423761 0 0.31879941661251121 -0.14720400105126619 0 0.29776231709695822 -0.1506376801402789 0 0.31879941661251121 -0.14720400105126619 0 0.32016191108809261 -0.1491179634185921 0 0.29776231709695822 -0.1506376801402789 0 0.32016191108809261 -0.1491179634185921 0 0.30198203552455 -0.1530551271722303 0 0.31275586267212913 -0.16108849366463679 0 0.32016191108809261 -0.1491179634185921 0 0.29776231709695822 -0.1506376801402789 0 0.30198203552455 -0.1530551271722303 0 0.32016191108809261 -0.1491179634185921 0 0.29537273546212378 -0.15445841233534779 0 0.30198203552455 -0.1530551271722303 0 0.29537273546212378 -0.15445841233534779 0 0.29776231709695822 -0.1506376801402789 0 0.30198203552455 -0.1530551271722303 0 0.29776231709695822 -0.1506376801402789 0 0.30713798251968177 -0.13564681052171351 0 0.31315088546769948 -0.14124157660423761 0 0.2958143663572515 -0.13772863070888081 0 0.29776231709695822 -0.1506376801402789 0 0.30713798251968177 -0.13564681052171351 0 0.29776231709695822 -0.1506376801402789 0 0.30713798251968177 -0.13564681052171351 0 0.31651364794240328 -0.1206559409031467 0 0.3009645321064674 -0.1233779458503491 0 0.30713798251968177 -0.13564681052171351 0 0.31651364794240328 -0.1206559409031467 0 0.30713798251968177 -0.13564681052171351 0 0.3009645321064674 -0.1233779458503491 0 0.2958143663572515 -0.13772863070888081 0 0.30713798251968177 -0.13564681052171351 0 0.29536171676832518 -0.17231274188055859 0 0.29010900897520048 -0.17964672855654151 0 0.29639264413514121 -0.18326733988079241 0 0.29010900897520048 -0.17964672855654151 0 0.28882419899608952 -0.1649289498309425 0 0.29536171676832518 -0.17231274188055859 0 0.29010900897520048 -0.17964672855654151 0 0.28882419899608952 -0.1649289498309425 0 0.29114553567962759 -0.19152036818181181 0 0.29639264413514121 -0.18326733988079241 0 0.29114553567962759 -0.19152036818181181 0 0.29010900897520048 -0.17964672855654151 0 0.29639264413514121 -0.18326733988079241 0 0.29114553567962759 -0.19152036818181181 0 0.29010900897520048 -0.17964672855654151 0 0.29010900897520048 -0.17964672855654151 0 0.29639264413514121 -0.18326733988079241 0 0.29114553567962759 -0.19152036818181181 0 0.29010900897520048 -0.17964672855654151 0 0.28441891254200768 -0.18612551619971099 0 0.29010900897520048 -0.17964672855654151 0 0.28441891254200768 -0.18612551619971099 0 0.28239809727786841 -0.17520372486504521 0 0.29010900897520048 -0.17964672855654151 0 0.28239809727786841 -0.17520372486504521 0 0.28882419899608952 -0.1649289498309425 0 0.29010900897520048 -0.17964672855654151 0 0.28239809727786841 -0.17520372486504521 0 0.2794053870147723 -0.16570988080025251 0 0.28239809727786841 -0.17520372486504521 0 0.28882419899608952 -0.1649289498309425 0 0.28239809727786841 -0.17520372486504521 0 0.28882419899608952 -0.1649289498309425 0 0.28804595823815088 -0.156014032094591 0 0.28882419899608952 -0.1649289498309425 0 0.28126914090541771 -0.15745288448839359 0 0.28804595823815088 -0.156014032094591 0 0.28882419899608952 -0.1649289498309425 0 0.28126914090541771 -0.15745288448839359 0 0.2794053870147723 -0.16570988080025251 0 0.28882419899608952 -0.1649289498309425 0 0.28126914090541771 -0.15745288448839359 0 0.28804595823815088 -0.156014032094591 0 0.28367308654227202 -0.15629089575271349 0 0.28126914090541771 -0.15745288448839359 0 0.28804595823815088 -0.156014032094591 0 0.28126914090541771 -0.15745288448839359 0 0.28367308654227202 -0.15629089575271349 0 0.29537273546212378 -0.15445841233534779 0 0.28882419899608952 -0.1649289498309425 0 0.29537273546212378 -0.15445841233534779 0 0.28882419899608952 -0.1649289498309425 0 0.29953315256501378 -0.1626456301999071 0 0.28804595823815088 -0.156014032094591 0 0.29537273546212378 -0.15445841233534779 0 0.28882419899608952 -0.1649289498309425 0 0.29536171676832518 -0.17231274188055859 0 0.28882419899608952 -0.1649289498309425 0 0.29953315256501378 -0.1626456301999071 0 0.29536171676832518 -0.17231274188055859 0 0.29953315256501378 -0.1626456301999071 0 0.30354686137501519 -0.17201467417873281 0 0.29537273546212378 -0.15445841233534779 0 0.30198203552455 -0.1530551271722303 0 0.29953315256501378 -0.1626456301999071 0 0.30198203552455 -0.1530551271722303 0 0.29953315256501378 -0.1626456301999071 0 0.31275586267212913 -0.16108849366463679 0 0.30354686137501519 -0.17201467417873281 0 0.31636157619138638 -0.17625174671495741 0 0.31275586267212913 -0.16108849366463679 0 0.29953315256501378 -0.1626456301999071 0 0.30354686137501519 -0.17201467417873281 0 0.31275586267212913 -0.16108849366463679 0 0.30713950573181081 -0.17913375158230149 0 0.30354686137501519 -0.17201467417873281 0 0.31636157619138638 -0.17625174671495741 0 0.29639264413514121 -0.18326733988079241 0 0.30713950573181081 -0.17913375158230149 0 0.31225694122570058 -0.18500124555472369 0 0.29639264413514121 -0.18326733988079241 0 0.30354686137501519 -0.17201467417873281 0 0.29536171676832518 -0.17231274188055859 0 0.29639264413514121 -0.18326733988079241 0 0.30354686137501519 -0.17201467417873281 0 0.29639264413514121 -0.18326733988079241 0 0.30713950573181081 -0.17913375158230149 0 0.30354686137501519 -0.17201467417873281 0 0.30713950573181081 -0.17913375158230149 0 0.31225694122570058 -0.18500124555472369 0 0.31636157619138638 -0.17625174671495741 0 0.31636157619138638 -0.17625174671495741 0 0.33201837337292872 -0.16577331360861899 0 0.32856960232277882 -0.18042740776457919 0 0.31225694122570058 -0.18500124555472369 0 0.32137912159237519 -0.18641800438531819 0 0.31636157619138638 -0.17625174671495741 0 0.32137912159237519 -0.18641800438531819 0 0.32856960232277882 -0.18042740776457919 0 0.32938619088921067 -0.1894185944985344 0 0.32137912159237519 -0.18641800438531819 0 0.31636157619138638 -0.17625174671495741 0 0.32856960232277882 -0.18042740776457919 0 0.31636157619138638 -0.17625174671495741 0 0.31275586267212913 -0.16108849366463679 0 0.33201837337292872 -0.16577331360861899 0 0.33201837337292872 -0.16577331360861899 0 0.32016191108809261 -0.1491179634185921 0 0.31275586267212913 -0.16108849366463679 0 0.33201837337292872 -0.16577331360861899 0 0.32016191108809261 -0.1491179634185921 0 0.33201837337292872 -0.16577331360861899 0 0.34708635936766452 -0.14729125467160339 0 0.35054387777073731 -0.17315549958677659 0 0.33201837337292872 -0.16577331360861899 0 0.32856960232277882 -0.18042740776457919 0 0.34387483565776422 -0.18242866379864631 0 0.33201837337292872 -0.16577331360861899 0 0.34387483565776422 -0.18242866379864631 0 0.35054387777073731 -0.17315549958677659 0 0.33201837337292872 -0.16577331360861899 0 0.34387483565776422 -0.18242866379864631 0 0.32856960232277882 -0.18042740776457919 0 0.34387483565776422 -0.18242866379864631 0 0.32938619088921067 -0.1894185944985344 0 0.31651364794240328 -0.1206559409031467 0 0.31807478240785669 -0.13482884553673641 0 0.32817104058804958 -0.13248690569769581 0 0.31651364794240328 -0.1206559409031467 0 0.30713798251968177 -0.13564681052171351 0 0.31807478240785669 -0.13482884553673641 0 0.31807478240785669 -0.13482884553673641 0 0.32128402161501718 -0.14133323291436839 0 0.31315088546769948 -0.14124157660423761 0 0.30713798251968177 -0.13564681052171351 0 0.31807478240785669 -0.13482884553673641 0 0.31315088546769948 -0.14124157660423761 0 0.32128402161501718 -0.14133323291436839 0 0.32918276172655198 -0.14222154223741529 0 0.32817104058804958 -0.13248690569769581 0 0.31807478240785669 -0.13482884553673641 0 0.32128402161501718 -0.14133323291436839 0 0.32817104058804958 -0.13248690569769581 0 0.32128402161501718 -0.14133323291436839 0 0.32016191108809261 -0.1491179634185921 0 0.32918276172655198 -0.14222154223741529 0 0.32128402161501718 -0.14133323291436839 0 0.31315088546769948 -0.14124157660423761 0 0.31879941661251121 -0.14720400105126619 0 0.32128402161501718 -0.14133323291436839 0 0.31879941661251121 -0.14720400105126619 0 0.32016191108809261 -0.1491179634185921 0 0.31879941661251121 -0.14720400105126619 0 0.32016191108809261 -0.1491179634185921 0 0.32016191108809261 -0.1491179634185921 0 0.32918276172655198 -0.14222154223741529 0 0.34708635936766452 -0.14729125467160339 0 0.32016191108809261 -0.1491179634185921 0 0.34708635936766452 -0.14729125467160339 0 0.32918276172655198 -0.14222154223741529 0 0.33737756269667979 -0.13952179436238829 0 0.34708635936766452 -0.14729125467160339 0 0.33201837337292872 -0.16577331360861899 0 0.32016191108809261 -0.1491179634185921 0 0.34708635936766452 -0.14729125467160339 0 0.33737756269667979 -0.13952179436238829 0 0.34640362207255182 -0.1421839833414614 0 0.34708635936766452 -0.14729125467160339 0 0.32918276172655198 -0.14222154223741529 0 0.33737756269667979 -0.13952179436238829 0 0.32817104058804958 -0.13248690569769581 0 0.33737756269667979 -0.13952179436238829 0 0.3375689484773442 -0.12991599439942211 0 0.32817104058804958 -0.13248690569769581 0 0.34362880439719579 -0.1345610448190187 0 0.33737756269667979 -0.13952179436238829 0 0.3375689484773442 -0.12991599439942211 0 0.34362880439719579 -0.1345610448190187 0 0.33737756269667979 -0.13952179436238829 0 0.34640362207255182 -0.1421839833414614 0 0.34362880439719579 -0.1345610448190187 0 0.3375689484773442 -0.12991599439942211 0 0.34638748672144748 -0.12597683533878179 0 0.33337756916658601 -0.1179945242301995 0 0.3375689484773442 -0.12991599439942211 0 0.32817104058804958 -0.13248690569769581 0 0.34638748672144748 -0.12597683533878179 0 0.35157163599186531 -0.134624356378722 0 0.36291655003088052 -0.12685959863317781 0 0.34362880439719579 -0.1345610448190187 0 0.34638748672144748 -0.12597683533878179 0 0.35157163599186531 -0.134624356378722 0 0.34362880439719579 -0.1345610448190187 0 0.35157163599186531 -0.134624356378722 0 0.34640362207255182 -0.1421839833414614 0 0.35157163599186531 -0.134624356378722 0 0.35102478934221037 -0.14083458750226269 0 0.34640362207255182 -0.1421839833414614 0 0.35157163599186531 -0.134624356378722 0 0.35903753993675991 -0.13923875561726401 0 0.36291655003088052 -0.12685959863317781 0 0.35157163599186531 -0.134624356378722 0 0.35903753993675991 -0.13923875561726401 0 0.35102478934221037 -0.14083458750226269 0 0.35903753993675991 -0.13923875561726401 0 0.34708635936766452 -0.14729125467160339 0 0.37027634611131421 -0.14571791317961211 0 0.34708635936766452 -0.14729125467160339 0 0.37027634611131421 -0.14571791317961211 0 0.34708635936766452 -0.14729125467160339 0 0.37027634611131421 -0.14571791317961211 0 0.36041011194102412 -0.15943670638319321 0 0.35903753993675991 -0.13923875561726401 0 0.35102478934221037 -0.14083458750226269 0 0.34708635936766452 -0.14729125467160339 0 0.35102478934221037 -0.14083458750226269 0 0.34640362207255182 -0.1421839833414614 0 0.34708635936766452 -0.14729125467160339 0 0.34640362207255182 -0.1421839833414614 0 0.34708635936766452 -0.14729125467160339 0 0.37027634611131421 -0.14571791317961211 0 0.36041011194102412 -0.15943670638319321 0 0.3745378201666798 -0.154281555636786 0 0.37027634611131421 -0.14571791317961211 0 0.36041011194102412 -0.15943670638319321 0 0.3745378201666798 -0.154281555636786 0 0.37027634611131421 -0.14571791317961211 0 0.37846883024056138 -0.1451620881442007 0 0.37027634611131421 -0.14571791317961211 0 0.37424821410377163 -0.14019511342845631 0 0.37846883024056138 -0.1451620881442007 0 0.37027634611131421 -0.14571791317961211 0 0.37846883024056138 -0.1451620881442007 0 0.37027634611131421 -0.14571791317961211 0 0.37424821410377163 -0.14019511342845631 0 0.37027634611131421 -0.14571791317961211 0 0.36669110641604108 -0.1389498559087422 0 0.37424821410377163 -0.14019511342845631 0 0.35903753993675991 -0.13923875561726401 0 0.37027634611131421 -0.14571791317961211 0 0.36669110641604108 -0.1389498559087422 0 0.36457778891387421 -0.12454968055256389 0 0.38209816509985928 -0.12927992000057059 0 0.37757069186975689 -0.13557527726723079 0 0.35903753993675991 -0.13923875561726401 0 0.36669110641604108 -0.1389498559087422 0 0.36291655003088052 -0.12685959863317781 0 0.37424821410377163 -0.14019511342845631 0 0.36291655003088052 -0.12685959863317781 0 0.36669110641604108 -0.1389498559087422 0 0.37424821410377163 -0.14019511342845631 0 0.36291655003088052 -0.12685959863317781 0 0.37424821410377163 -0.14019511342845631 0 0.36291655003088052 -0.12685959863317781 0 0.37757069186975689 -0.13557527726723079 0 0.36457778891387421 -0.12454968055256389 0 0.37757069186975689 -0.13557527726723079 0 0.36457778891387421 -0.12454968055256389 0 0.36291655003088052 -0.12685959863317781 0 0.37757069186975689 -0.13557527726723079 0 0.35054387777073731 -0.17315549958677659 0 0.36374431615798009 -0.18277786161494289 0 0.35361201610700599 -0.19610695554786481 0 0.34387483565776422 -0.18242866379864631 0 0.35054387777073731 -0.17315549958677659 0 0.35361201610700599 -0.19610695554786481 0 0.35054387777073731 -0.17315549958677659 0 0.35361201610700599 -0.19610695554786481 0 0.35054387777073731 -0.17315549958677659 0 0.36331903177870212 -0.1709081917649718 0 0.36374431615798009 -0.18277786161494289 0 0.34387483565776422 -0.18242866379864631 0 0.35054387777073731 -0.17315549958677659 0 0.34708635936766452 -0.14729125467160339 0 0.35054387777073731 -0.17315549958677659 0 0.34708635936766452 -0.14729125467160339 0 0.35054387777073731 -0.17315549958677659 0 0.36041011194102412 -0.15943670638319321 0 0.35054387777073731 -0.17315549958677659 0 0.36041011194102412 -0.15943670638319321 0 0.35054387777073731 -0.17315549958677659 0 0.36331903177870212 -0.1709081917649718 0 0.36041011194102412 -0.15943670638319321 0 0.36331903177870212 -0.1709081917649718 0 0.36041011194102412 -0.15943670638319321 0 0.37441454860088041 -0.1633951642406648 0 0.3745378201666798 -0.154281555636786 0 0.36041011194102412 -0.15943670638319321 0 0.37441454860088041 -0.1633951642406648 0 0.36331903177870212 -0.1709081917649718 0 0.37441454860088041 -0.1633951642406648 0 0.37438402626523398 -0.1729639662641283 0 0.36331903177870212 -0.1709081917649718 0 0.37438402626523398 -0.1729639662641283 0 0.36374431615798009 -0.18277786161494289 0 0.37438402626523398 -0.1729639662641283 0 0.36374431615798009 -0.18277786161494289 0 0.37425567076866378 -0.18533855326745499 0 0.36374431615798009 -0.18277786161494289 0 0.37001985463819981 -0.19682690048023091 0 0.35361201610700599 -0.19610695554786481 0 0.37001985463819981 -0.19682690048023091 0 0.36554136733290782 -0.21286469638438299 0 0.35361201610700599 -0.19610695554786481 0 0.36374431615798009 -0.18277786161494289 0 0.37425567076866378 -0.18533855326745499 0 0.37001985463819981 -0.19682690048023091 0 0.37425567076866378 -0.18533855326745499 0 0.37001985463819981 -0.19682690048023091 0 0.37809303991463977 -0.19294214575591639 0 0.37001985463819981 -0.19682690048023091 0 0.36554136733290782 -0.21286469638438299 0 0.37550062820536861 -0.20739925349929511 0 0.36554136733290782 -0.21286469638438299 0 0.35361201610700599 -0.19610695554786481 0 0.36554136733290782 -0.21286469638438299 0 0.37700685555775421 -0.21811638160781691 0 0.37550062820536861 -0.20739925349929511 0 0.36554136733290782 -0.21286469638438299 0 0.36701943389134761 -0.22312731310443981 0 0.37700685555775421 -0.21811638160781691 0 0.36554136733290782 -0.21286469638438299 0 0.35574511412585219 -0.21206376709756231 0 0.36701943389134761 -0.22312731310443981 0 0.35574511412585219 -0.21206376709756231 0 0.35361201610700599 -0.19610695554786481 0 0.36554136733290782 -0.21286469638438299 0 0.35574511412585219 -0.21206376709756231 0 0.35361201610700599 -0.19610695554786481 0 0.35574511412585219 -0.21206376709756231 0 0.34721598718742452 -0.2125515944098226 0 0.34473208129219679 -0.20102922520404909 0 0.35574511412585219 -0.21206376709756231 0 0.34721598718742452 -0.2125515944098226 0 0.34877643536687769 -0.2214071450446666 0 0.34721598718742452 -0.2125515944098226 0 0.33803603477717042 -0.22130283959098371 0 0.34877643536687769 -0.2214071450446666 0 0.34387483565776422 -0.18242866379864631 0 0.35361201610700599 -0.19610695554786481 0 0.34473208129219679 -0.20102922520404909 0 0.35574511412585219 -0.21206376709756231 0 0.35361201610700599 -0.19610695554786481 0 0.34473208129219679 -0.20102922520404909 0 0.34387483565776422 -0.18242866379864631 0 0.35361201610700599 -0.19610695554786481 0 0.34387483565776422 -0.18242866379864631 0 0.32938619088921067 -0.1894185944985344 0 0.33130307921185193 -0.1999094293988212 0 0.34387483565776422 -0.18242866379864631 0 0.34473208129219679 -0.20102922520404909 0 0.33130307921185193 -0.1999094293988212 0 0.34387483565776422 -0.18242866379864631 0 0.33130307921185193 -0.1999094293988212 0 0.34721598718742452 -0.2125515944098226 0 0.34473208129219679 -0.20102922520404909 0 0.33130307921185193 -0.1999094293988212 0 0.34721598718742452 -0.2125515944098226 0 0.33130307921185193 -0.1999094293988212 0 0.32180431566128298 -0.19790946714530711 0 0.34721598718742452 -0.2125515944098226 0 0.32180431566128298 -0.19790946714530711 0 0.34721598718742452 -0.2125515944098226 0 0.33128724488394212 -0.21179867533037591 0 0.33803603477717042 -0.22130283959098371 0 0.34721598718742452 -0.2125515944098226 0 0.33128724488394212 -0.21179867533037591 0 0.32180431566128298 -0.19790946714530711 0 0.33128724488394212 -0.21179867533037591 0 0.3273512393959318 -0.21886579065119341 0 0.33803603477717042 -0.22130283959098371 0 0.33128724488394212 -0.21179867533037591 0 0.32020599993584159 -0.21089660821842521 0 0.32180431566128298 -0.19790946714530711 0 0.33128724488394212 -0.21179867533037591 0 0.32020599993584159 -0.21089660821842521 0 0.3273512393959318 -0.21886579065119341 0 0.32020599993584159 -0.21089660821842521 0 0.31896719687669672 -0.22429015409881439 0 0.3273512393959318 -0.21886579065119341 0 0.30863404331767502 -0.21425010542374101 0 0.32020599993584159 -0.21089660821842521 0 0.31896719687669672 -0.22429015409881439 0 0.31144694552304891 -0.20494256224519569 0 0.32020599993584159 -0.21089660821842521 0 0.32180431566128298 -0.19790946714530711 0 0.31144694552304891 -0.20494256224519569 0 0.30863404331767502 -0.21425010542374101 0 0.32020599993584159 -0.21089660821842521 0 0.30633561839225021 -0.19538339865230681 0 0.31144694552304891 -0.20494256224519569 0 0.32180431566128298 -0.19790946714530711 0 0.31225694122570058 -0.18500124555472369 0 0.32137912159237519 -0.18641800438531819 0 0.32180431566128298 -0.19790946714530711 0 0.32137912159237519 -0.18641800438531819 0 0.32938619088921067 -0.1894185944985344 0 0.32180431566128298 -0.19790946714530711 0 0.32938619088921067 -0.1894185944985344 0 0.33130307921185193 -0.1999094293988212 0 0.32180431566128298 -0.19790946714530711 0 0.32239174967606121 -0.2400385828231702 0 0.33467405686431478 -0.25403352688329378 0 0.31116260676228258 -0.25520978919645698 0 0.30609394213912988 -0.23049255693837839 0 0.32239174967606121 -0.2400385828231702 0 0.31116260676228258 -0.25520978919645698 0 0.30609394213912988 -0.23049255693837839 0 0.32239174967606121 -0.2400385828231702 0 0.31896719687669672 -0.22429015409881439 0 0.32239174967606121 -0.2400385828231702 0 0.31896719687669672 -0.22429015409881439 0 0.32994652978230032 -0.23051567385137589 0 0.31896719687669672 -0.22429015409881439 0 0.3273512393959318 -0.21886579065119341 0 0.32994652978230032 -0.23051567385137589 0 0.3273512393959318 -0.21886579065119341 0 0.32994652978230032 -0.23051567385137589 0 0.33803603477717042 -0.22130283959098371 0 0.33803603477717042 -0.22130283959098371 0 0.34877643536687769 -0.2214071450446666 0 0.34391136146736778 -0.23089615766602689 0 0.32994652978230032 -0.23051567385137589 0 0.33803603477717042 -0.22130283959098371 0 0.34391136146736778 -0.23089615766602689 0 0.32994652978230032 -0.23051567385137589 0 0.33654429324514218 -0.2401333941095169 0 0.34391136146736778 -0.23089615766602689 0 0.33654429324514218 -0.2401333941095169 0 0.34967544245789572 -0.2443134457238238 0 0.34391136146736778 -0.23089615766602689 0 0.32239174967606121 -0.2400385828231702 0 0.32994652978230032 -0.23051567385137589 0 0.33654429324514218 -0.2401333941095169 0 0.32239174967606121 -0.2400385828231702 0 0.33654429324514218 -0.2401333941095169 0 0.33467405686431478 -0.25403352688329378 0 0.33654429324514218 -0.2401333941095169 0 0.34967544245789572 -0.2443134457238238 0 0.33467405686431478 -0.25403352688329378 0 0.34967544245789572 -0.2443134457238238 0 0.36561893428624798 -0.24212901235086301 0 0.35235384180926338 -0.26032904590845918 0 0.34967544245789572 -0.2443134457238238 0 0.35787821214469812 -0.22802057864725991 0 0.36561893428624798 -0.24212901235086301 0 0.34967544245789572 -0.2443134457238238 0 0.34391136146736778 -0.23089615766602689 0 0.35787821214469812 -0.22802057864725991 0 0.35574511412585219 -0.21206376709756231 0 0.35787821214469812 -0.22802057864725991 0 0.35574511412585219 -0.21206376709756231 0 0.34877643536687769 -0.2214071450446666 0 0.35787821214469812 -0.22802057864725991 0 0.34877643536687769 -0.2214071450446666 0 0.34391136146736778 -0.23089615766602689 0 0.35787821214469812 -0.22802057864725991 0 0.35787821214469812 -0.22802057864725991 0 0.36701943389134761 -0.22312731310443981 0 0.36561893428624798 -0.24212901235086301 0 0.36701943389134761 -0.22312731310443981 0 0.36561893428624798 -0.24212901235086301 0 0.37831534243895171 -0.2308091533345768 0 0.35574511412585219 -0.21206376709756231 0 0.35787821214469812 -0.22802057864725991 0 0.36701943389134761 -0.22312731310443981 0 0.36701943389134761 -0.22312731310443981 0 0.37831534243895171 -0.2308091533345768 0 0.37700685555775421 -0.21811638160781691 0 0.36561893428624798 -0.24212901235086301 0 0.37831534243895171 -0.2308091533345768 0 0.38012602394156392 -0.25066493177732307 0 0.39272233904544418 -0.23880463392300411 0 0.37831534243895171 -0.2308091533345768 0 0.38012602394156392 -0.25066493177732307 0 0.39272233904544418 -0.23880463392300411 0 0.40667831507287738 -0.2468677815449665 0 0.40025736077907892 -0.26165138605837213 0 0.39272233904544418 -0.23880463392300411 0 0.40610054579626981 -0.22675815641953101 0 0.40667831507287738 -0.2468677815449665 0 0.40610054579626981 -0.22675815641953101 0 0.39096495313129809 -0.2243054612068959 0 0.40221293993193757 -0.21148607065381059 0 0.39272233904544418 -0.23880463392300411 0 0.40610054579626981 -0.22675815641953101 0 0.39096495313129809 -0.2243054612068959 0 0.39272233904544418 -0.23880463392300411 0 0.39096495313129809 -0.2243054612068959 0 0.37831534243895171 -0.2308091533345768 0 0.39096495313129809 -0.2243054612068959 0 0.37831534243895171 -0.2308091533345768 0 0.37700685555775421 -0.21811638160781691 0 0.37700685555775421 -0.21811638160781691 0 0.37550062820536861 -0.20739925349929511 0 0.38748563112314333 -0.2106393579756142 0 0.37550062820536861 -0.20739925349929511 0 0.38748563112314333 -0.2106393579756142 0 0.38233974262366233 -0.2008910365509482 0 0.38748563112314333 -0.2106393579756142 0 0.38233974262366233 -0.2008910365509482 0 0.39549637669360288 -0.1983333026970848 0 0.39096495313129809 -0.2243054612068959 0 0.37700685555775421 -0.21811638160781691 0 0.38748563112314333 -0.2106393579756142 0 0.37425567076866378 -0.18533855326745499 0 0.37809303991463977 -0.19294214575591639 0 0.3856337888875539 -0.1888290184975176 0 0.37809303991463977 -0.19294214575591639 0 0.38233974262366233 -0.2008910365509482 0 0.3856337888875539 -0.1888290184975176 0 0.37001985463819981 -0.19682690048023091 0 0.37809303991463977 -0.19294214575591639 0 0.38233974262366233 -0.2008910365509482 0 0.37001985463819981 -0.19682690048023091 0 0.37550062820536861 -0.20739925349929511 0 0.38233974262366233 -0.2008910365509482 0 0.38233974262366233 -0.2008910365509482 0 0.3856337888875539 -0.1888290184975176 0 0.39549637669360288 -0.1983333026970848 0 0.3856337888875539 -0.1888290184975176 0 0.39549637669360288 -0.1983333026970848 0 0.3955263843686454 -0.18460178902894189 0 0.39549637669360288 -0.1983333026970848 0 0.40221293993193757 -0.21148607065381059 0 0.40862716156523088 -0.199022532385145 0 0.39549637669360288 -0.1983333026970848 0 0.40551859825046332 -0.18858783670458931 0 0.40862716156523088 -0.199022532385145 0 0.39549637669360288 -0.1983333026970848 0 0.40551859825046332 -0.18858783670458931 0 0.3955263843686454 -0.18460178902894189 0 0.39096495313129809 -0.2243054612068959 0 0.38748563112314333 -0.2106393579756142 0 0.40221293993193757 -0.21148607065381059 0 0.38748563112314333 -0.2106393579756142 0 0.39549637669360288 -0.1983333026970848 0 0.40221293993193757 -0.21148607065381059 0 0.40610054579626981 -0.22675815641953101 0 0.40221293993193757 -0.21148607065381059 0 0.42189656846093321 -0.2063941138303092 0 0.40610054579626981 -0.22675815641953101 0 0.42189656846093321 -0.2063941138303092 0 0.40221293993193757 -0.21148607065381059 0 0.42189656846093321 -0.2063941138303092 0 0.40862716156523088 -0.199022532385145 0 0.42189656846093321 -0.2063941138303092 0 0.40862716156523088 -0.199022532385145 0 0.41801132448921741 -0.19031133803993089 0 0.40551859825046332 -0.18858783670458931 0 0.40862716156523088 -0.199022532385145 0 0.41801132448921741 -0.19031133803993089 0 0.42189656846093321 -0.2063941138303092 0 0.43769259112559661 -0.1860300712410875 0 0.42189656846093321 -0.2063941138303092 0 0.43769259112559661 -0.1860300712410875 0 0.44847705899260831 -0.20022240538491451 0 0.42189656846093321 -0.2063941138303092 0 0.41801132448921741 -0.19031133803993089 0 0.43769259112559661 -0.1860300712410875 0 0.42189656846093321 -0.2063941138303092 0 0.43667764301212852 -0.21837221601266971 0 0.44847705899260831 -0.20022240538491451 0 0.42189656846093321 -0.2063941138303092 0 0.43667764301212852 -0.21837221601266971 0 0.42191264157861019 -0.23069713874237671 0 0.43667764301212852 -0.21837221601266971 0 0.42191264157861019 -0.23069713874237671 0 0.43818789223654148 -0.23372463980076491 0 0.43818789223654148 -0.23372463980076491 0 0.45171449724366902 -0.25415975521038581 0 0.42193488489291092 -0.25206592484601897 0 0.42191264157861019 -0.23069713874237671 0 0.43818789223654148 -0.23372463980076491 0 0.42193488489291092 -0.25206592484601897 0 0.40610054579626981 -0.22675815641953101 0 0.42191264157861019 -0.23069713874237671 0 0.40667831507287738 -0.2468677815449665 0 0.42191264157861019 -0.23069713874237671 0 0.40667831507287738 -0.2468677815449665 0 0.42193488489291092 -0.25206592484601897 0 0.40610054579626981 -0.22675815641953101 0 0.42189656846093321 -0.2063941138303092 0 0.42191264157861019 -0.23069713874237671 0 0.39317968796985858 -0.1218441630815677 0 0.39675438666933732 -0.13278332807507201 0 0.40713859993403051 -0.13340844657761061 0 0.39675438666933732 -0.13278332807507201 0 0.3958246072757593 -0.14606577664041051 0 0.40713859993403051 -0.13340844657761061 0 0.39675438666933732 -0.13278332807507201 0 0.39099256622295991 -0.13104754271958891 0 0.3958246072757593 -0.14606577664041051 0 0.39317968796985858 -0.1218441630815677 0 0.39675438666933732 -0.13278332807507201 0 0.39099256622295991 -0.13104754271958891 0 0.39099256622295991 -0.13104754271958891 0 0.38209816509985928 -0.12927992000057059 0 0.3958246072757593 -0.14606577664041051 0 0.39317968796985858 -0.1218441630815677 0 0.39099256622295991 -0.13104754271958891 0 0.38384258531298943 -0.1268543400121912 0 0.38209816509985928 -0.12927992000057059 0 0.38953656958383881 -0.14492401606392399 0 0.38428896951277419 -0.14127631422259929 0 0.39099256622295991 -0.13104754271958891 0 0.38384258531298943 -0.1268543400121912 0 0.38209816509985928 -0.12927992000057059 0 0.38209816509985928 -0.12927992000057059 0 0.38953656958383881 -0.14492401606392399 0 0.3958246072757593 -0.14606577664041051 0 0.38209816509985928 -0.12927992000057059 0 0.3958246072757593 -0.14606577664041051 0 0.38384258531298943 -0.1268543400121912 0 0.38209816509985928 -0.12927992000057059 0 0.38209816509985928 -0.12927992000057059 0 0.37757069186975689 -0.13557527726723079 0 0.38209816509985928 -0.12927992000057059 0 0.37757069186975689 -0.13557527726723079 0 0.38428896951277419 -0.14127631422259929 0 0.37424821410377163 -0.14019511342845631 0 0.37757069186975689 -0.13557527726723079 0 0.37954458226550769 -0.14141070825570201 0 0.37424821410377163 -0.14019511342845631 0 0.37757069186975689 -0.13557527726723079 0 0.37757069186975689 -0.13557527726723079 0 0.38428896951277419 -0.14127631422259929 0 0.37757069186975689 -0.13557527726723079 0 0.38428896951277419 -0.14127631422259929 0 0.37954458226550769 -0.14141070825570201 0 0.38953656958383881 -0.14492401606392399 0 0.38314620560067458 -0.14484474821602261 0 0.38428896951277419 -0.14127631422259929 0 0.38314620560067458 -0.14484474821602261 0 0.37954458226550769 -0.14141070825570201 0 0.37846883024056138 -0.1451620881442007 0 0.38314620560067458 -0.14484474821602261 0 0.38428896951277419 -0.14127631422259929 0 0.37954458226550769 -0.14141070825570201 0 0.38314620560067458 -0.14484474821602261 0 0.37846883024056138 -0.1451620881442007 0 0.37424821410377163 -0.14019511342845631 0 0.37846883024056138 -0.1451620881442007 0 0.37424821410377163 -0.14019511342845631 0 0.37954458226550769 -0.14141070825570201 0 0.37846883024056138 -0.1451620881442007 0 0.3745378201666798 -0.154281555636786 0 0.37846883024056138 -0.1451620881442007 0 0.38911926393961871 -0.15769590623625809 0 0.37846883024056138 -0.1451620881442007 0 0.38911926393961871 -0.15769590623625809 0 0.38953656958383881 -0.14492401606392399 0 0.38314620560067458 -0.14484474821602261 0 0.38911926393961871 -0.15769590623625809 0 0.38314620560067458 -0.14484474821602261 0 0.37846883024056138 -0.1451620881442007 0 0.38911926393961871 -0.15769590623625809 0 0.3958246072757593 -0.14606577664041051 0 0.39857399731001159 -0.16117956089557561 0 0.38911926393961871 -0.15769590623625809 0 0.3958246072757593 -0.14606577664041051 0 0.40955104945165888 -0.16285163328025071 0 0.40713859993403051 -0.13340844657761061 0 0.3958246072757593 -0.14606577664041051 0 0.40955104945165888 -0.16285163328025071 0 0.38953656958383881 -0.14492401606392399 0 0.3958246072757593 -0.14606577664041051 0 0.38911926393961871 -0.15769590623625809 0 0.3958246072757593 -0.14606577664041051 0 0.39857399731001159 -0.16117956089557561 0 0.40955104945165888 -0.16285163328025071 0 0.39857399731001159 -0.16117956089557561 0 0.40398579080408398 -0.16748848781021569 0 0.40955104945165888 -0.16285163328025071 0 0.40398579080408398 -0.16748848781021569 0 0.39855095189735318 -0.16843309797269451 0 0.40317926663939357 -0.17574786590246219 0 0.40398579080408398 -0.16748848781021569 0 0.40317926663939357 -0.17574786590246219 0 0.41007368872200273 -0.16923028100009571 0 0.39857399731001159 -0.16117956089557561 0 0.40398579080408398 -0.16748848781021569 0 0.39855095189735318 -0.16843309797269451 0 0.39857399731001159 -0.16117956089557561 0 0.39855095189735318 -0.16843309797269451 0 0.3926755329956671 -0.1656548940375448 0 0.39855095189735318 -0.16843309797269451 0 0.3926755329956671 -0.1656548940375448 0 0.39380618019344332 -0.17398228753743439 0 0.39857399731001159 -0.16117956089557561 0 0.3926755329956671 -0.1656548940375448 0 0.38911926393961871 -0.15769590623625809 0 0.3926755329956671 -0.1656548940375448 0 0.38911926393961871 -0.15769590623625809 0 0.38477985413066668 -0.1687907731667784 0 0.3745378201666798 -0.154281555636786 0 0.37441454860088041 -0.1633951642406648 0 0.38911926393961871 -0.15769590623625809 0 0.37441454860088041 -0.1633951642406648 0 0.38911926393961871 -0.15769590623625809 0 0.38477985413066668 -0.1687907731667784 0 0.37441454860088041 -0.1633951642406648 0 0.37438402626523398 -0.1729639662641283 0 0.38477985413066668 -0.1687907731667784 0 0.3926755329956671 -0.1656548940375448 0 0.38477985413066668 -0.1687907731667784 0 0.39380618019344332 -0.17398228753743439 0 0.38477985413066668 -0.1687907731667784 0 0.38409949840948959 -0.17836010087947571 0 0.39380618019344332 -0.17398228753743439 0 0.37438402626523398 -0.1729639662641283 0 0.37425567076866378 -0.18533855326745499 0 0.38409949840948959 -0.17836010087947571 0 0.37438402626523398 -0.1729639662641283 0 0.38477985413066668 -0.1687907731667784 0 0.38409949840948959 -0.17836010087947571 0 0.37425567076866378 -0.18533855326745499 0 0.3856337888875539 -0.1888290184975176 0 0.38409949840948959 -0.17836010087947571 0 0.3856337888875539 -0.1888290184975176 0 0.38409949840948959 -0.17836010087947571 0 0.3955263843686454 -0.18460178902894189 0 0.38409949840948959 -0.17836010087947571 0 0.3955263843686454 -0.18460178902894189 0 0.39380618019344332 -0.17398228753743439 0 0.3955263843686454 -0.18460178902894189 0 0.39380618019344332 -0.17398228753743439 0 0.40317926663939357 -0.17574786590246219 0 0.39855095189735318 -0.16843309797269451 0 0.39380618019344332 -0.17398228753743439 0 0.40317926663939357 -0.17574786590246219 0 0.40551859825046332 -0.18858783670458931 0 0.3955263843686454 -0.18460178902894189 0 0.40317926663939357 -0.17574786590246219 0 0.40551859825046332 -0.18858783670458931 0 0.40317926663939357 -0.17574786590246219 0 0.41191152661829489 -0.18069757159880859 0 0.40551859825046332 -0.18858783670458931 0 0.41801132448921741 -0.19031133803993089 0 0.41191152661829489 -0.18069757159880859 0 0.40317926663939357 -0.17574786590246219 0 0.41191152661829489 -0.18069757159880859 0 0.41007368872200273 -0.16923028100009571 0 0.41191152661829489 -0.18069757159880859 0 0.42327578940386068 -0.17963540829671079 0 0.41007368872200273 -0.16923028100009571 0 0.41801132448921741 -0.19031133803993089 0 0.41191152661829489 -0.18069757159880859 0 0.42327578940386068 -0.17963540829671079 0 0.41801132448921741 -0.19031133803993089 0 0.42327578940386068 -0.17963540829671079 0 0.43769259112559661 -0.1860300712410875 0 0.43518516196992479 -0.1734063857044747 0 0.42327578940386068 -0.17963540829671079 0 0.42697757523339641 -0.16260480327083621 0 0.43518516196992479 -0.1734063857044747 0 0.42327578940386068 -0.17963540829671079 0 0.43769259112559661 -0.1860300712410875 0 0.42327578940386068 -0.17963540829671079 0 0.41007368872200273 -0.16923028100009571 0 0.40955104945165888 -0.16285163328025071 0 0.42327578940386068 -0.17963540829671079 0 0.42697757523339641 -0.16260480327083621 0 0.40955104945165888 -0.16285163328025071 0 0.42697757523339641 -0.16260480327083621 0 0.41907750840102659 -0.15678924335342831 0 0.40955104945165888 -0.16285163328025071 0 0.42327578940386068 -0.17963540829671079 0 0.40955104945165888 -0.16285163328025071 0 0.41007368872200273 -0.16923028100009571 0 0.40955104945165888 -0.16285163328025071 0 0.40398579080408398 -0.16748848781021569 0 0.41007368872200273 -0.16923028100009571 0 0.40955104945165888 -0.16285163328025071 0 0.41907750840102659 -0.15678924335342831 0 0.40955104945165888 -0.16285163328025071 0 0.41751462854716331 -0.14698750229050561 0 0.40955104945165888 -0.16285163328025071 0 0.41751462854716331 -0.14698750229050561 0 0.40713859993403051 -0.13340844657761061 0 0.40955104945165888 -0.16285163328025071 0 0.40713859993403051 -0.13340844657761061 0 0.42697757523339641 -0.16260480327083621 0 0.41907750840102659 -0.15678924335342831 0 0.43235848455481218 -0.14712002538813049 0 0.41907750840102659 -0.15678924335342831 0 0.41751462854716331 -0.14698750229050561 0 0.43235848455481218 -0.14712002538813049 0 0.41751462854716331 -0.14698750229050561 0 0.43235848455481218 -0.14712002538813049 0 0.42558593924295562 -0.13429420064865299 0 0.43145869800402109 -0.116595334878867 0 0.42558593924295562 -0.13429420064865299 0 0.45080130582426631 -0.1338309287863732 0 0.43235848455481218 -0.14712002538813049 0 0.42558593924295562 -0.13429420064865299 0 0.45080130582426631 -0.1338309287863732 0 0.43145869800402109 -0.116595334878867 0 0.42558593924295562 -0.13429420064865299 0 0.40713859993403051 -0.13340844657761061 0 0.41751462854716331 -0.14698750229050561 0 0.42558593924295562 -0.13429420064865299 0 0.40713859993403051 -0.13340844657761061 0 0.43235848455481218 -0.14712002538813049 0 0.45080130582426631 -0.1338309287863732 0 0.45348861379026001 -0.1656660286518658 0 0.45080130582426631 -0.1338309287863732 0 0.45348861379026001 -0.1656660286518658 0 0.4692846364549233 -0.14530198606264411 0 0.45080130582426631 -0.1338309287863732 0 0.4692846364549233 -0.14530198606264411 0 0.47893506117769907 -0.1263546263232769 0 0.45348861379026001 -0.1656660286518658 0 0.4692846364549233 -0.14530198606264411 0 0.45348861379026001 -0.1656660286518658 0 0.47506318347525478 -0.17573853506283271 0 0.4692846364549233 -0.14530198606264411 0 0.42697757523339641 -0.16260480327083621 0 0.43235848455481218 -0.14712002538813049 0 0.45348861379026001 -0.1656660286518658 0 0.43518516196992479 -0.1734063857044747 0 0.42697757523339641 -0.16260480327083621 0 0.45348861379026001 -0.1656660286518658 0 0.45348861379026001 -0.1656660286518658 0 0.43769259112559661 -0.1860300712410875 0 0.45348861379026001 -0.1656660286518658 0 0.43769259112559661 -0.1860300712410875 0 0.45448626647965568 -0.18242954998067451 0 0.43518516196992479 -0.1734063857044747 0 0.45348861379026001 -0.1656660286518658 0 0.43769259112559661 -0.1860300712410875 0 0.45348861379026001 -0.1656660286518658 0 0.45448626647965568 -0.18242954998067451 0 0.47506318347525478 -0.17573853506283271 0 0.45448626647965568 -0.18242954998067451 0 0.47506318347525478 -0.17573853506283271 0 0.46683919931761741 -0.19004236122096579 0 0.47506318347525478 -0.17573853506283271 0 0.46683919931761741 -0.19004236122096579 0 0.48051098480368259 -0.1947095892999354 0 0.47506318347525478 -0.17573853506283271 0 0.48051098480368259 -0.1947095892999354 0 0.5 -0.1915170108439426 0 0.47506318347525478 -0.17573853506283271 0 0.5 -0.1616748929303351 0 0.5 -0.1915170108439426 0 0.47506318347525478 -0.17573853506283271 0 0.5 -0.1616748929303351 0 0.4692846364549233 -0.14530198606264411 0 0.5 -0.1616748929303351 0 0.4692846364549233 -0.14530198606264411 0 0.5 -0.1318327750167276 0 0.4692846364549233 -0.14530198606264411 0 0.5 -0.1318327750167276 0 0.47893506117769907 -0.1263546263232769 0 0.46029907222142907 -0.23570672211869639 0 0.4537090660826294 -0.2165500913215784 0 0.46998551973788988 -0.22177866073311309 0 0.46029907222142907 -0.23570672211869639 0 0.46744699422300939 -0.25482463116619097 0 0.45171449724366902 -0.25415975521038581 0 0.46029907222142907 -0.23570672211869639 0 0.43818789223654148 -0.23372463980076491 0 0.45171449724366902 -0.25415975521038581 0 0.46029907222142907 -0.23570672211869639 0 0.43818789223654148 -0.23372463980076491 0 0.4537090660826294 -0.2165500913215784 0 0.43667764301212852 -0.21837221601266971 0 0.43818789223654148 -0.23372463980076491 0 0.4537090660826294 -0.2165500913215784 0 0.43667764301212852 -0.21837221601266971 0 0.44847705899260831 -0.20022240538491451 0 0.4537090660826294 -0.2165500913215784 0 0.43769259112559661 -0.1860300712410875 0 0.45448626647965568 -0.18242954998067451 0 0.44847705899260831 -0.20022240538491451 0 0.45448626647965568 -0.18242954998067451 0 0.44847705899260831 -0.20022240538491451 0 0.46683919931761741 -0.19004236122096579 0 0.44847705899260831 -0.20022240538491451 0 0.46683919931761741 -0.19004236122096579 0 0.46729258193800699 -0.2058370168345165 0 0.44847705899260831 -0.20022240538491451 0 0.46729258193800699 -0.2058370168345165 0 0.4537090660826294 -0.2165500913215784 0 0.46729258193800699 -0.2058370168345165 0 0.4537090660826294 -0.2165500913215784 0 0.46998551973788988 -0.22177866073311309 0 0.46729258193800699 -0.2058370168345165 0 0.48423366269361462 -0.21171899304659161 0 0.48051098480368259 -0.1947095892999354 0 0.46729258193800699 -0.2058370168345165 0 0.48423366269361462 -0.21171899304659161 0 0.46998551973788988 -0.22177866073311309 0 0.46683919931761741 -0.19004236122096579 0 0.46729258193800699 -0.2058370168345165 0 0.48051098480368259 -0.1947095892999354 0 0.48423366269361462 -0.21171899304659161 0 0.48051098480368259 -0.1947095892999354 0 0.5 -0.1915170108439426 0 0.48423366269361462 -0.21171899304659161 0 0.5 -0.1915170108439426 0 0.5 -0.22135912875755009 0 0.48423366269361462 -0.21171899304659161 0 0.5 -0.22135912875755009 0 0.48073596708074778 -0.2403562919432416 0 0.48423366269361462 -0.21171899304659161 0 0.46998551973788988 -0.22177866073311309 0 0.48073596708074778 -0.2403562919432416 0 0.46029907222142907 -0.23570672211869639 0 0.46998551973788988 -0.22177866073311309 0 0.48073596708074778 -0.2403562919432416 0 0.48423366269361462 -0.21171899304659161 0 0.48073596708074778 -0.2403562919432416 0 0.46029907222142907 -0.23570672211869639 0 0.48073596708074778 -0.2403562919432416 0 0.46744699422300939 -0.25482463116619097 0 0.5 -0.22135912875755009 0 0.48073596708074778 -0.2403562919432416 0 0.5 -0.25120124667115762 0 0.48073596708074778 -0.2403562919432416 0 0.5 -0.25120124667115762 0 0.47723827146788089 -0.26899359083989172 0 0.5 -0.25120124667115762 0 0.5 -0.2810433645847652 0 0.47723827146788089 -0.26899359083989172 0 0.47723827146788089 -0.26899359083989172 0 0.46744699422300939 -0.25482463116619097 0 0.46377431883141951 -0.27760097994591082 0 0.48073596708074778 -0.2403562919432416 0 0.47723827146788089 -0.26899359083989172 0 0.46744699422300939 -0.25482463116619097 0 0.48073596708074778 -0.2403562919432416 0 0.47723827146788089 -0.26899359083989172 0 0.46744699422300939 -0.25482463116619097 0 0.46377431883141951 -0.27760097994591082 0 0.45171449724366902 -0.25415975521038581 0 0.46377431883141951 -0.27760097994591082 0 0.44790449498144519 -0.27572645099439069 0 0.45171449724366902 -0.25415975521038581 0 0.44790449498144519 -0.27572645099439069 0 0.43380520309506071 -0.26856266110690918 0 0.43345618623396032 -0.28463470201609947 0 0.44790449498144519 -0.27572645099439069 0 0.45171449724366902 -0.25415975521038581 0 0.43380520309506071 -0.26856266110690918 0 0.44790449498144519 -0.27572645099439069 0 0.45171449724366902 -0.25415975521038581 0 0.44409449271922152 -0.2972931467783958 0 0.45701253315600449 -0.3082453661494704 0 0.44028449045699702 -0.31885984256240069 0 0.44409449271922152 -0.2972931467783958 0 0.44028449045699702 -0.31885984256240069 0 0.44790449498144519 -0.27572645099439069 0 0.44409449271922152 -0.2972931467783958 0 0.45897016910118771 -0.2928418891441445 0 0.44790449498144519 -0.27572645099439069 0 0.44409449271922152 -0.2972931467783958 0 0.43345618623396032 -0.28463470201609947 0 0.44790449498144519 -0.27572645099439069 0 0.44409449271922152 -0.2972931467783958 0 0.46377431883141951 -0.27760097994591082 0 0.44790449498144519 -0.27572645099439069 0 0.45897016910118771 -0.2928418891441445 0 0.46377431883141951 -0.27760097994591082 0 0.45897016910118771 -0.2928418891441445 0 0.47374057585501322 -0.29763088973654173 0 0.45897016910118771 -0.2928418891441445 0 0.45701253315600449 -0.3082453661494704 0 0.47374057585501322 -0.29763088973654173 0 0.45701253315600449 -0.3082453661494704 0 0.47374057585501322 -0.29763088973654173 0 0.47133228677845551 -0.3173486987595403 0 0.45701253315600449 -0.3082453661494704 0 0.47374057585501322 -0.29763088973654173 0 0.44409449271922152 -0.2972931467783958 0 0.45897016910118771 -0.2928418891441445 0 0.45701253315600449 -0.3082453661494704 0 0.47374057585501322 -0.29763088973654173 0 0.47133228677845551 -0.3173486987595403 0 0.47631882395867092 -0.31077078775378891 0 0.47374057585501322 -0.29763088973654173 0 0.47133228677845551 -0.3173486987595403 0 0.47374057585501322 -0.29763088973654173 0 0.48206798335679929 -0.30702196232580109 0 0.47737438191857351 -0.29532512393686788 0 0.47631882395867092 -0.31077078775378891 0 0.47374057585501322 -0.29763088973654173 0 0.48206798335679929 -0.30702196232580109 0 0.47631882395867092 -0.31077078775378891 0 0.48206798335679929 -0.30702196232580109 0 0.48267629259836742 -0.31462455806082668 0 0.47723827146788089 -0.26899359083989172 0 0.47374057585501322 -0.29763088973654173 0 0.47737438191857351 -0.29532512393686788 0 0.47723827146788089 -0.26899359083989172 0 0.47374057585501322 -0.29763088973654173 0 0.47723827146788089 -0.26899359083989172 0 0.46377431883141951 -0.27760097994591082 0 0.47374057585501322 -0.29763088973654173 0 0.47374057585501322 -0.29763088973654173 0 0.47737438191857351 -0.29532512393686788 0 0.5 -0.2810433645847652 0 0.47723827146788089 -0.26899359083989172 0 0.47737438191857351 -0.29532512393686788 0 0.5 -0.2810433645847652 0 0.47737438191857351 -0.29532512393686788 0 0.5 -0.31088548249837272 0 0.48206798335679929 -0.30702196232580109 0 0.5 -0.31088548249837272 0 0.48267629259836742 -0.31462455806082668 0 0.48206798335679929 -0.30702196232580109 0 0.47737438191857351 -0.29532512393686788 0 0.5 -0.31088548249837272 0 0.5 -0.31088548249837272 0 0.48267629259836742 -0.31462455806082668 0 0.48211301858623817 -0.32520136537368871 0 0.5 -0.31088548249837272 0 0.5 -0.34072760041198019 0 0.48211301858623817 -0.32520136537368871 0 0.5 -0.34072760041198019 0 0.48211301858623817 -0.32520136537368871 0 0.46776736436792182 -0.34653641544881669 0 0.47133228677845551 -0.3173486987595403 0 0.48211301858623817 -0.32520136537368871 0 0.46776736436792182 -0.34653641544881669 0 0.47133228677845551 -0.3173486987595403 0 0.46776736436792182 -0.34653641544881669 0 0.47631882395867092 -0.31077078775378891 0 0.47133228677845551 -0.3173486987595403 0 0.48267629259836742 -0.31462455806082668 0 0.47133228677845551 -0.3173486987595403 0 0.48267629259836742 -0.31462455806082668 0 0.48211301858623817 -0.32520136537368871 0 0.5 -0.34072760041198019 0 0.5 -0.37056971832558772 0 0.46776736436792182 -0.34653641544881669 0 0.5 -0.37056971832558772 0 0.46776736436792182 -0.34653641544881669 0 0.4642024419573928 -0.37572413213809353 0 0.45274079925745758 -0.35843563327128253 0 0.4642024419573928 -0.37572413213809353 0 0.42903771468272589 -0.38252274220936028 0 0.46776736436792182 -0.34653641544881669 0 0.4642024419573928 -0.37572413213809353 0 0.46776736436792182 -0.34653641544881669 0 0.45274079925745758 -0.35843563327128253 0 0.4642024419573928 -0.37572413213809353 0 0.46776736436792182 -0.34653641544881669 0 0.45274079925745758 -0.35843563327128253 0 0.44973819336257359 -0.34143634601891831 0 0.45274079925745758 -0.35843563327128253 0 0.44973819336257359 -0.34143634601891831 0 0.43401830795558782 -0.35432986132718952 0 0.45274079925745758 -0.35843563327128253 0 0.43401830795558782 -0.35432986132718952 0 0.42903771468272589 -0.38252274220936028 0 0.45701253315600449 -0.3082453661494704 0 0.47133228677845551 -0.3173486987595403 0 0.45516559400345319 -0.32174283960228511 0 0.47133228677845551 -0.3173486987595403 0 0.45516559400345319 -0.32174283960228511 0 0.46776736436792182 -0.34653641544881669 0 0.45516559400345319 -0.32174283960228511 0 0.44973819336257359 -0.34143634601891831 0 0.47133228677845551 -0.3173486987595403 0 0.46776736436792182 -0.34653641544881669 0 0.45516559400345319 -0.32174283960228511 0 0.45516559400345319 -0.32174283960228511 0 0.44973819336257359 -0.34143634601891831 0 0.43899890122844792 -0.32613698044501832 0 0.44973819336257359 -0.34143634601891831 0 0.43899890122844792 -0.32613698044501832 0 0.43401830795558782 -0.35432986132718952 0 0.45701253315600449 -0.3082453661494704 0 0.45516559400345319 -0.32174283960228511 0 0.44028449045699702 -0.31885984256240069 0 0.45701253315600449 -0.3082453661494704 0 0.44028449045699702 -0.31885984256240069 0 0.45516559400345319 -0.32174283960228511 0 0.43899890122844792 -0.32613698044501832 0 0.44028449045699702 -0.31885984256240069 0 0.45516559400345319 -0.32174283960228511 0 0.43899890122844792 -0.32613698044501832 0 0.43899890122844792 -0.32613698044501832 0 0.44028449045699702 -0.31885984256240069 0 0.44028449045699702 -0.31885984256240069 0 0.42118566771478899 -0.33097865449751818 0 0.42647603065857492 -0.30300241996458599 0 0.44028449045699702 -0.31885984256240069 0 0.42118566771478899 -0.33097865449751818 0 0.43899890122844792 -0.32613698044501832 0 0.44028449045699702 -0.31885984256240069 0 0.42118566771478899 -0.33097865449751818 0 0.43899890122844792 -0.32613698044501832 0 0.42118566771478899 -0.33097865449751818 0 0.43899890122844792 -0.32613698044501832 0 0.43401830795558782 -0.35432986132718952 0 0.43899890122844792 -0.32613698044501832 0 0.42118566771478899 -0.33097865449751818 0 0.43401830795558782 -0.35432986132718952 0 0.42118566771478899 -0.33097865449751818 0 0.40548290877088478 -0.34094255567992499 0 0.42118566771478899 -0.33097865449751818 0 0.40548290877088478 -0.34094255567992499 0 0.39538544089821442 -0.33799121000186633 0 0.42118566771478899 -0.33097865449751818 0 0.39538544089821442 -0.33799121000186633 0 0.42118566771478899 -0.33097865449751818 0 0.41797768436149391 -0.3464132917208097 0 0.40548290877088478 -0.34094255567992499 0 0.42118566771478899 -0.33097865449751818 0 0.40542315408083762 -0.30591574196159221 0 0.42647603065857492 -0.30300241996458599 0 0.43401830795558782 -0.35432986132718952 0 0.42903771468272589 -0.38252274220936028 0 0.43401830795558782 -0.35432986132718952 0 0.41122385300471381 -0.35940209537860612 0 0.42903771468272589 -0.38252274220936028 0 0.42118566771478899 -0.33097865449751818 0 0.43401830795558782 -0.35432986132718952 0 0.41797768436149391 -0.3464132917208097 0 0.41797768436149391 -0.3464132917208097 0 0.41122385300471381 -0.35940209537860612 0 0.40548290877088478 -0.34094255567992499 0 0.43401830795558782 -0.35432986132718952 0 0.41797768436149391 -0.3464132917208097 0 0.41122385300471381 -0.35940209537860612 0 0.41122385300471381 -0.35940209537860612 0 0.42903771468272589 -0.38252274220936028 0 0.40407500085438769 -0.38092611273875221 0 0.41122385300471381 -0.35940209537860612 0 0.39156612542334812 -0.35975494507046479 0 0.40407500085438769 -0.38092611273875221 0 0.41122385300471381 -0.35940209537860612 0 0.39747951429745748 -0.34957569187324089 0 0.40548290877088478 -0.34094255567992499 0 0.41122385300471381 -0.35940209537860612 0 0.39156612542334812 -0.35975494507046479 0 0.39747951429745748 -0.34957569187324089 0 0.39156612542334812 -0.35975494507046479 0 0.39747951429745748 -0.34957569187324089 0 0.36958521408164052 -0.34500376550621659 0 0.39156612542334812 -0.35975494507046479 0 0.36685353553590039 -0.36133708086115329 0 0.36958521408164052 -0.34500376550621659 0 0.39747951429745748 -0.34957569187324089 0 0.39538544089821442 -0.33799121000186633 0 0.36958521408164052 -0.34500376550621659 0 0.39156612542334812 -0.35975494507046479 0 0.36958521408164052 -0.34500376550621659 0 0.39156612542334812 -0.35975494507046479 0 0.36695763669327452 -0.37819216663504862 0 0.36685353553590039 -0.36133708086115329 0 0.39156612542334812 -0.35975494507046479 0 0.38557257998941108 -0.38465734676092012 0 0.36695763669327452 -0.37819216663504862 0 0.42118566771478899 -0.33097865449751818 0 0.3910141209925585 -0.32074068083138563 0 0.40542315408083762 -0.30591574196159221 0 0.42118566771478899 -0.33097865449751818 0 0.3910141209925585 -0.32074068083138563 0 0.39538544089821442 -0.33799121000186633 0 0.39747951429745748 -0.34957569187324089 0 0.40548290877088478 -0.34094255567992499 0 0.39538544089821442 -0.33799121000186633 0 0.3910141209925585 -0.32074068083138563 0 0.36560850351062069 -0.32578636129799132 0 0.36958521408164052 -0.34500376550621659 0 0.39538544089821442 -0.33799121000186633 0 0.36958521408164052 -0.34500376550621659 0 0.3910141209925585 -0.32074068083138563 0 0.39538544089821442 -0.33799121000186633 0 0.36958521408164052 -0.34500376550621659 0 0.3910141209925585 -0.32074068083138563 0 0.37349573076860731 -0.31192017957886359 0 0.36560850351062069 -0.32578636129799132 0 0.3910141209925585 -0.32074068083138563 0 0.38635984308664167 -0.30167989529436567 0 0.37349573076860731 -0.31192017957886359 0 0.38635984308664167 -0.30167989529436567 0 0.36734954511041812 -0.29666387180185172 0 0.37349573076860731 -0.31192017957886359 0 0.38635984308664167 -0.30167989529436567 0 0.40542315408083762 -0.30591574196159221 0 0.39537643139123518 -0.283367421194131 0 0.3910141209925585 -0.32074068083138563 0 0.38635984308664167 -0.30167989529436567 0 0.40542315408083762 -0.30591574196159221 0 0.40542315408083762 -0.30591574196159221 0 0.39537643139123518 -0.283367421194131 0 0.41598546730767949 -0.28095119000477992 0 0.38635984308664167 -0.30167989529436567 0 0.37814345421661172 -0.28283798652441761 0 0.36734954511041812 -0.29666387180185172 0 0.38635984308664167 -0.30167989529436567 0 0.39537643139123518 -0.283367421194131 0 0.37814345421661172 -0.28283798652441761 0 0.39537643139123518 -0.283367421194131 0 0.37814345421661172 -0.28283798652441761 0 0.38466456719786052 -0.26854075433183361 0 0.37814345421661172 -0.28283798652441761 0 0.38466456719786052 -0.26854075433183361 0 0.36941956566081269 -0.26418204610492407 0 0.38466456719786052 -0.26854075433183361 0 0.38012602394156392 -0.25066493177732307 0 0.40025736077907892 -0.26165138605837213 0 0.38466456719786052 -0.26854075433183361 0 0.38012602394156392 -0.25066493177732307 0 0.36941956566081269 -0.26418204610492407 0 0.39272233904544418 -0.23880463392300411 0 0.38012602394156392 -0.25066493177732307 0 0.40025736077907892 -0.26165138605837213 0 0.39537643139123518 -0.283367421194131 0 0.40025736077907892 -0.26165138605837213 0 0.41598546730767949 -0.28095119000477992 0 0.39537643139123518 -0.283367421194131 0 0.38466456719786052 -0.26854075433183361 0 0.40025736077907892 -0.26165138605837213 0 0.40667831507287738 -0.2468677815449665 0 0.40025736077907892 -0.26165138605837213 0 0.42193488489291092 -0.25206592484601897 0 0.40025736077907892 -0.26165138605837213 0 0.41598546730767949 -0.28095119000477992 0 0.42193488489291092 -0.25206592484601897 0 0.45171449724366902 -0.25415975521038581 0 0.42193488489291092 -0.25206592484601897 0 0.43380520309506071 -0.26856266110690918 0 0.41598546730767949 -0.28095119000477992 0 0.42193488489291092 -0.25206592484601897 0 0.43380520309506071 -0.26856266110690918 0 0.41598546730767949 -0.28095119000477992 0 0.43380520309506071 -0.26856266110690918 0 0.43345618623396032 -0.28463470201609947 0 0.44409449271922152 -0.2972931467783958 0 0.43345618623396032 -0.28463470201609947 0 0.42647603065857492 -0.30300241996458599 0 0.41598546730767949 -0.28095119000477992 0 0.43345618623396032 -0.28463470201609947 0 0.42647603065857492 -0.30300241996458599 0 0.44409449271922152 -0.2972931467783958 0 0.44028449045699702 -0.31885984256240069 0 0.42647603065857492 -0.30300241996458599 0 0.40542315408083762 -0.30591574196159221 0 0.41598546730767949 -0.28095119000477992 0 0.42647603065857492 -0.30300241996458599 0 0.45006768496536831 -0.49145211582056492 0 0.44902366551711043 -0.49999999999999878 0 0.42383252637783292 -0.50000000000000022 0 0.45006768496536831 -0.49145211582056492 0 0.44902366551711043 -0.49999999999999878 0 0.45006768496536831 -0.49145211582056492 0 0.4413399204534747 -0.47492725321573448 0 0.45350767472580578 -0.46328728220592408 0 0.45006768496536831 -0.49145211582056492 0 0.4413399204534747 -0.47492725321573448 0 0.42244963948311892 -0.48223661470101209 0 0.45006768496536831 -0.49145211582056492 0 0.45350767472580578 -0.46328728220592408 0 0.4413399204534747 -0.47492725321573448 0 0.45350767472580578 -0.46328728220592408 0 0.45006768496536831 -0.49145211582056492 0 0.46799534889508132 -0.47827702833074132 0 0.45350767472580578 -0.46328728220592408 0 0.45006768496536831 -0.49145211582056492 0 0.47568494125798932 -0.50000000000000011 0 0.45006768496536831 -0.49145211582056492 0 0.44902366551711043 -0.49999999999999878 0 0.47568494125798932 -0.50000000000000011 0 0.45006768496536831 -0.49145211582056492 0 0.46799534889508132 -0.47827702833074132 0 0.47568494125798932 -0.50000000000000011 0 0.46799534889508132 -0.47827702833074132 0 0.47568494125798932 -0.50000000000000011 0 0.48632163406219459 -0.48387499136282103 0 0.5 -0.5 0 0.48632163406219459 -0.48387499136282103 0 0.5 -0.45282052105360338 0 0.47568494125798932 -0.50000000000000011 0 0.5 -0.5 0 0.48632163406219459 -0.48387499136282103 0 0.46799534889508132 -0.47827702833074132 0 0.48632163406219459 -0.48387499136282103 0 0.48062786463726298 -0.46951711668825602 0 0.46799534889508132 -0.47827702833074132 0 0.48062786463726298 -0.46951711668825602 0 0.47031614025307927 -0.46175689996266028 0 0.47031614025307927 -0.46175689996266028 0 0.48172650950997697 -0.45375327398203907 0 0.47192108812144101 -0.44567256108978232 0 0.48062786463726298 -0.46951711668825602 0 0.47031614025307927 -0.46175689996266028 0 0.48172650950997697 -0.45375327398203907 0 0.48632163406219459 -0.48387499136282103 0 0.48062786463726298 -0.46951711668825602 0 0.5 -0.45282052105360338 0 0.48062786463726298 -0.46951711668825602 0 0.48172650950997697 -0.45375327398203907 0 0.5 -0.45282052105360338 0 0.5 -0.45282052105360338 0 0.48621043885989151 -0.43985380185010697 0 0.49033450151707608 -0.42805783997364061 0 0.48172650950997697 -0.45375327398203907 0 0.5 -0.45282052105360338 0 0.48621043885989151 -0.43985380185010697 0 0.48621043885989151 -0.43985380185010697 0 0.47192108812144101 -0.44567256108978232 0 0.49033450151707608 -0.42805783997364061 0 0.48172650950997697 -0.45375327398203907 0 0.48621043885989151 -0.43985380185010697 0 0.47192108812144101 -0.44567256108978232 0 0.47192108812144101 -0.44567256108978232 0 0.45350767472580578 -0.46328728220592408 0 0.45707259713633502 -0.4340995655166473 0 0.45350767472580578 -0.46328728220592408 0 0.45707259713633502 -0.4340995655166473 0 0.47031614025307927 -0.46175689996266028 0 0.47192108812144101 -0.44567256108978232 0 0.45350767472580578 -0.46328728220592408 0 0.47192108812144101 -0.44567256108978232 0 0.45350767472580578 -0.46328728220592408 0 0.46799534889508132 -0.47827702833074132 0 0.47031614025307927 -0.46175689996266028 0 0.45350767472580578 -0.46328728220592408 0 0.4413399204534747 -0.47492725321573448 0 0.45350767472580578 -0.46328728220592408 0 0.44021544003957619 -0.46157206652326987 0 0.45350767472580578 -0.46328728220592408 0 0.44021544003957619 -0.46157206652326987 0 0.43826435327999719 -0.4483124010580915 0 0.45350767472580578 -0.46328728220592408 0 0.43826435327999719 -0.4483124010580915 0 0.45707259713633502 -0.4340995655166473 0 0.43826435327999719 -0.4483124010580915 0 0.44001395641981361 -0.42268600517101979 0 0.45707259713633502 -0.4340995655166473 0 0.44001395641981361 -0.42268600517101979 0 0.46063751954686383 -0.40491184882737041 0 0.44230935972030572 -0.39924154862443939 0 0.44001395641981361 -0.42268600517101979 0 0.45707259713633502 -0.4340995655166473 0 0.46063751954686383 -0.40491184882737041 0 0.45707259713633502 -0.4340995655166473 0 0.47222264863266028 -0.42441502609964032 0 0.46063751954686383 -0.40491184882737041 0 0.45707259713633502 -0.4340995655166473 0 0.46063751954686383 -0.40491184882737041 0 0.47192108812144101 -0.44567256108978232 0 0.45707259713633502 -0.4340995655166473 0 0.47222264863266028 -0.42441502609964032 0 0.47192108812144101 -0.44567256108978232 0 0.49033450151707608 -0.42805783997364061 0 0.47192108812144101 -0.44567256108978232 0 0.47222264863266028 -0.42441502609964032 0 0.49033450151707608 -0.42805783997364061 0 0.5 -0.45282052105360338 0 0.49033450151707608 -0.42805783997364061 0 0.50000000000000056 -0.41881158798509999 0 0.48621043885989151 -0.43985380185010697 0 0.49033450151707608 -0.42805783997364061 0 0.49033450151707608 -0.42805783997364061 0 0.50000000000000056 -0.41881158798509999 0 0.49033450151707608 -0.42805783997364061 0 0.48114753684158601 -0.40933331509076071 0 0.49999999999999978 -0.40041183623919518 0 0.49033450151707608 -0.42805783997364061 0 0.50000000000000056 -0.41881158798509999 0 0.49999999999999978 -0.40041183623919518 0 0.49033450151707608 -0.42805783997364061 0 0.49999999999999978 -0.40041183623919518 0 0.47222264863266028 -0.42441502609964032 0 0.48114753684158601 -0.40933331509076071 0 0.46063751954686383 -0.40491184882737041 0 0.47222264863266028 -0.42441502609964032 0 0.49033450151707608 -0.42805783997364061 0 0.48114753684158601 -0.40933331509076071 0 0.5 -0.37056971832558772 0 0.48119749966916842 -0.39219017012420149 0 0.4642024419573928 -0.37572413213809353 0 0.48114753684158601 -0.40933331509076071 0 0.48119749966916842 -0.39219017012420149 0 0.46063751954686383 -0.40491184882737041 0 0.48114753684158601 -0.40933331509076071 0 0.48119749966916842 -0.39219017012420149 0 0.49999999999999978 -0.40041183623919518 0 0.5 -0.37056971832558772 0 0.48119749966916842 -0.39219017012420149 0 0.49999999999999978 -0.40041183623919518 0 0.4642024419573928 -0.37572413213809353 0 0.44230935972030572 -0.39924154862443939 0 0.42903771468272589 -0.38252274220936028 0 0.4642024419573928 -0.37572413213809353 0 0.46063751954686383 -0.40491184882737041 0 0.48119749966916842 -0.39219017012420149 0 0.4642024419573928 -0.37572413213809353 0 0.46063751954686383 -0.40491184882737041 0 0.4642024419573928 -0.37572413213809353 0 0.46063751954686383 -0.40491184882737041 0 0.44230935972030572 -0.39924154862443939 0 0.42903771468272589 -0.38252274220936028 0 0.42405712140986401 -0.41071562309153092 0 0.44230935972030572 -0.39924154862443939 0 0.42903771468272589 -0.38252274220936028 0 0.42405712140986401 -0.41071562309153092 0 0.42903771468272589 -0.38252274220936028 0 0.41205766639330021 -0.39756339330285551 0 0.42405712140986401 -0.41071562309153092 0 0.42903771468272589 -0.38252274220936028 0 0.41205766639330021 -0.39756339330285551 0 0.40407500085438769 -0.38092611273875221 0 0.40407500085438769 -0.38092611273875221 0 0.38557257998941108 -0.38465734676092012 0 0.39232908054498578 -0.40252008194595329 0 0.39156612542334812 -0.35975494507046479 0 0.40407500085438769 -0.38092611273875221 0 0.38557257998941108 -0.38465734676092012 0 0.38557257998941108 -0.38465734676092012 0 0.37293505643105918 -0.40189342741438139 0 0.36695763669327452 -0.37819216663504862 0 0.38557257998941108 -0.38465734676092012 0 0.39232908054498578 -0.40252008194595329 0 0.37293505643105918 -0.40189342741438139 0 0.41205766639330021 -0.39756339330285551 0 0.39232908054498578 -0.40252008194595329 0 0.41078941447453748 -0.41113240652868049 0 0.41205766639330021 -0.39756339330285551 0 0.40407500085438769 -0.38092611273875221 0 0.39232908054498578 -0.40252008194595329 0 0.39232908054498578 -0.40252008194595329 0 0.3821006462237943 -0.42159032402315999 0 0.4027737821351472 -0.42566448621328368 0 0.39232908054498578 -0.40252008194595329 0 0.4027737821351472 -0.42566448621328368 0 0.41078941447453748 -0.41113240652868049 0 0.39232908054498578 -0.40252008194595329 0 0.3821006462237943 -0.42159032402315999 0 0.37293505643105918 -0.40189342741438139 0 0.3821006462237943 -0.42159032402315999 0 0.39225118224436217 -0.43792937193440851 0 0.3750388307604704 -0.44979865387140477 0 0.3821006462237943 -0.42159032402315999 0 0.4027737821351472 -0.42566448621328368 0 0.39225118224436217 -0.43792937193440851 0 0.4027737821351472 -0.42566448621328368 0 0.40496290722425599 -0.44368861860320741 0 0.39225118224436217 -0.43792937193440851 0 0.4179067160970924 -0.42388209648387448 0 0.42405712140986401 -0.41071562309153092 0 0.4190765281370018 -0.43890850397370151 0 0.4027737821351472 -0.42566448621328368 0 0.4190765281370018 -0.43890850397370151 0 0.40496290722425599 -0.44368861860320741 0 0.42405712140986401 -0.41071562309153092 0 0.4190765281370018 -0.43890850397370151 0 0.4027737821351472 -0.42566448621328368 0 0.4179067160970924 -0.42388209648387448 0 0.4190765281370018 -0.43890850397370151 0 0.4179067160970924 -0.42388209648387448 0 0.4190765281370018 -0.43890850397370151 0 0.4027737821351472 -0.42566448621328368 0 0.4179067160970924 -0.42388209648387448 0 0.41078941447453748 -0.41113240652868049 0 0.41205766639330021 -0.39756339330285551 0 0.41078941447453748 -0.41113240652868049 0 0.42405712140986401 -0.41071562309153092 0 0.4179067160970924 -0.42388209648387448 0 0.41078941447453748 -0.41113240652868049 0 0.42405712140986401 -0.41071562309153092 0 0.44001395641981361 -0.42268600517101979 0 0.44230935972030572 -0.39924154862443939 0 0.42405712140986401 -0.41071562309153092 0 0.43826435327999719 -0.4483124010580915 0 0.44001395641981361 -0.42268600517101979 0 0.4190765281370018 -0.43890850397370151 0 0.44001395641981361 -0.42268600517101979 0 0.42405712140986401 -0.41071562309153092 0 0.4190765281370018 -0.43890850397370151 0 0.43826435327999719 -0.4483124010580915 0 0.42076308381006061 -0.4605725593373568 0 0.4190765281370018 -0.43890850397370151 0 0.4413399204534747 -0.47492725321573448 0 0.44021544003957619 -0.46157206652326987 0 0.42076308381006061 -0.4605725593373568 0 0.44021544003957619 -0.46157206652326987 0 0.43826435327999719 -0.4483124010580915 0 0.42076308381006061 -0.4605725593373568 0 0.42076308381006061 -0.4605725593373568 0 0.41555625719602712 -0.45883516207940239 0 0.41203598625505239 -0.47876182018510333 0 0.41555625719602712 -0.45883516207940239 0 0.40258919574994972 -0.46141958001256939 0 0.41203598625505239 -0.47876182018510333 0 0.41555625719602712 -0.45883516207940239 0 0.40496290722425599 -0.44368861860320741 0 0.40258919574994972 -0.46141958001256939 0 0.41555625719602712 -0.45883516207940239 0 0.4190765281370018 -0.43890850397370151 0 0.40496290722425599 -0.44368861860320741 0 0.41555625719602712 -0.45883516207940239 0 0.4190765281370018 -0.43890850397370151 0 0.42076308381006061 -0.4605725593373568 0 0.4190765281370018 -0.43890850397370151 0 0.42076308381006061 -0.4605725593373568 0 0.41555625719602712 -0.45883516207940239 0 0.4190765281370018 -0.43890850397370151 0 0.40496290722425599 -0.44368861860320741 0 0.39361088671261241 -0.45158666505325828 0 0.40258919574994972 -0.46141958001256939 0 0.40496290722425599 -0.44368861860320741 0 0.39361088671261241 -0.45158666505325828 0 0.39225118224436217 -0.43792937193440851 0 0.39361088671261241 -0.45158666505325828 0 0.39225118224436217 -0.43792937193440851 0 0.3750388307604704 -0.44979865387140477 0 0.3750388307604704 -0.44979865387140477 0 0.39155366247108991 -0.46270424635703211 0 0.38756374776750269 -0.47489932693570142 0 0.39361088671261241 -0.45158666505325828 0 0.3750388307604704 -0.44979865387140477 0 0.39155366247108991 -0.46270424635703211 0 0.3750388307604704 -0.44979865387140477 0 0.38756374776750269 -0.47489932693570142 0 0.39155366247108991 -0.46270424635703211 0 0.40258919574994972 -0.46141958001256939 0 0.39758158192869247 -0.47393872076129823 0 0.39361088671261241 -0.45158666505325828 0 0.39155366247108991 -0.46270424635703211 0 0.40258919574994972 -0.46141958001256939 0 0.39758158192869247 -0.47393872076129823 0 0.41203598625505239 -0.47876182018510333 0 0.3750388307604704 -0.44979865387140477 0 0.38756374776750269 -0.47489932693570142 0 0.37203456272057489 -0.48185938291261909 0 0.40258919574994972 -0.46141958001256939 0 0.39758158192869247 -0.47393872076129823 0 0.41203598625505239 -0.47876182018510333 0 0.39758158192869247 -0.47393872076129823 0 0.40111080016068301 -0.48551997357642068 0 0.41203598625505239 -0.47876182018510333 0 0.39758158192869247 -0.47393872076129823 0 0.38756374776750269 -0.47489932693570142 0 0.40111080016068301 -0.48551997357642068 0 0.39155366247108991 -0.46270424635703211 0 0.39758158192869247 -0.47393872076129823 0 0.38756374776750269 -0.47489932693570142 0 0.38756374776750269 -0.47489932693570142 0 0.3835035203692414 -0.48929007580863998 0 0.37203456272057489 -0.48185938291261909 0 0.3835035203692414 -0.48929007580863998 0 0.37357110853876252 -0.5 0 0.37203456272057489 -0.48185938291261909 0 0.38756374776750269 -0.47489932693570142 0 0.3835035203692414 -0.48929007580863998 0 0.40008866477453431 -0.49999999999999828 0 0.3835035203692414 -0.48929007580863998 0 0.40008866477453431 -0.49999999999999828 0 0.37357110853876252 -0.5 0 0.38756374776750269 -0.47489932693570142 0 0.40111080016068301 -0.48551997357642068 0 0.40008866477453431 -0.49999999999999828 0 0.38756374776750269 -0.47489932693570142 0 0.40008866477453431 -0.49999999999999828 0 0.40111080016068301 -0.48551997357642068 0 0.40008866477453431 -0.49999999999999828 0 0.40828402007763298 -0.50000000000000067 0 0.40828402007763298 -0.50000000000000067 0 0.41665054304840948 -0.49024960872152912 0 0.41203598625505239 -0.47876182018510333 0 0.40828402007763298 -0.50000000000000067 0 0.41203598625505239 -0.47876182018510333 0 0.41665054304840948 -0.49024960872152912 0 0.42244963948311892 -0.48223661470101209 0 0.42383252637783292 -0.50000000000000022 0 0.40111080016068301 -0.48551997357642068 0 0.40828402007763298 -0.50000000000000067 0 0.41203598625505239 -0.47876182018510333 0 0.40828402007763298 -0.50000000000000067 0 0.41665054304840948 -0.49024960872152912 0 0.42383252637783292 -0.50000000000000022 0 0.42076308381006061 -0.4605725593373568 0 0.42244963948311892 -0.48223661470101209 0 0.42076308381006061 -0.4605725593373568 0 0.41203598625505239 -0.47876182018510333 0 0.42244963948311892 -0.48223661470101209 0 0.41555625719602712 -0.45883516207940239 0 0.41203598625505239 -0.47876182018510333 0 0.41665054304840948 -0.49024960872152912 0 0.41203598625505239 -0.47876182018510333 0 0.42244963948311892 -0.48223661470101209 0 0.41203598625505239 -0.47876182018510333 0 0.42244963948311892 -0.48223661470101209 0 0.4413399204534747 -0.47492725321573448 0 0.42076308381006061 -0.4605725593373568 0 0.42244963948311892 -0.48223661470101209 0 0.45006768496536831 -0.49145211582056492 0 0.42244963948311892 -0.48223661470101209 0 0.42244963948311892 -0.48223661470101209 0 0.42383252637783292 -0.50000000000000022 0 0.45006768496536831 -0.49145211582056492 0 0.42244963948311892 -0.48223661470101209 0 0.42383252637783292 -0.50000000000000022 0 0.32053599606721922 -0.5 0 0.32756558746738867 -0.48163000583685078 0 0.3066468073325056 -0.48460631014136502 0 0.32756558746738867 -0.48163000583685078 0 0.32277234999257942 -0.46747040439178228 0 0.3066468073325056 -0.48460631014136502 0 0.32756558746738867 -0.48163000583685078 0 0.3066468073325056 -0.48460631014136502 0 0.32756558746738867 -0.48163000583685078 0 0.33759371226550761 -0.46591836948919418 0 0.32277234999257942 -0.46747040439178228 0 0.32756558746738867 -0.48163000583685078 0 0.34244467723574579 -0.48012858574810108 0 0.33759371226550761 -0.46591836948919418 0 0.32053599606721922 -0.5 0 0.32756558746738867 -0.48163000583685078 0 0.34705355230299079 -0.5 0 0.32756558746738867 -0.48163000583685078 0 0.34244467723574579 -0.48012858574810108 0 0.34705355230299079 -0.5 0 0.34705355230299079 -0.5 0 0.37203456272057489 -0.48185938291261909 0 0.35756585690709591 -0.47296596766635951 0 0.34705355230299079 -0.5 0 0.37357110853876252 -0.5 0 0.37203456272057489 -0.48185938291261909 0 0.34244467723574579 -0.48012858574810108 0 0.35756585690709591 -0.47296596766635951 0 0.33759371226550761 -0.46591836948919418 0 0.34244467723574579 -0.48012858574810108 0 0.34705355230299079 -0.5 0 0.35756585690709591 -0.47296596766635951 0 0.35756585690709591 -0.47296596766635951 0 0.34930741319273789 -0.44966693568152888 0 0.33759371226550761 -0.46591836948919418 0 0.3750388307604704 -0.44979865387140477 0 0.37203456272057489 -0.48185938291261909 0 0.35756585690709591 -0.47296596766635951 0 0.3750388307604704 -0.44979865387140477 0 0.35756585690709591 -0.47296596766635951 0 0.34930741319273789 -0.44966693568152888 0 0.3750388307604704 -0.44979865387140477 0 0.34930741319273789 -0.44966693568152888 0 0.36251391375343811 -0.42469798080710819 0 0.34930741319273789 -0.44966693568152888 0 0.32534572164003578 -0.45306276402461731 0 0.33422126184491951 -0.43718100953402977 0 0.34930741319273789 -0.44966693568152888 0 0.33759371226550761 -0.46591836948919418 0 0.32534572164003578 -0.45306276402461731 0 0.33759371226550761 -0.46591836948919418 0 0.32277234999257942 -0.46747040439178228 0 0.32534572164003578 -0.45306276402461731 0 0.32277234999257942 -0.46747040439178228 0 0.32534572164003578 -0.45306276402461731 0 0.30674861974397882 -0.46367658623463259 0 0.31299673794008942 -0.4426130041374865 0 0.32534572164003578 -0.45306276402461731 0 0.30674861974397882 -0.46367658623463259 0 0.31299673794008942 -0.4426130041374865 0 0.32534572164003578 -0.45306276402461731 0 0.33422126184491951 -0.43718100953402977 0 0.31299673794008942 -0.4426130041374865 0 0.32548253014170953 -0.42122169365930567 0 0.33422126184491951 -0.43718100953402977 0 0.32548253014170953 -0.42122169365930567 0 0.30329595680996568 -0.42748040447116908 0 0.31299673794008942 -0.4426130041374865 0 0.32548253014170953 -0.42122169365930567 0 0.30329595680996568 -0.42748040447116908 0 0.32548253014170953 -0.42122169365930567 0 0.32745935917048091 -0.40069389881203171 0 0.30764880489700841 -0.40630593238840201 0 0.34352263182166642 -0.42088247131815859 0 0.34998899674640582 -0.39959730774281171 0 0.32745935917048091 -0.40069389881203171 0 0.32548253014170953 -0.42122169365930567 0 0.34352263182166642 -0.42088247131815859 0 0.32745935917048091 -0.40069389881203171 0 0.32548253014170953 -0.42122169365930567 0 0.34352263182166642 -0.42088247131815859 0 0.33422126184491951 -0.43718100953402977 0 0.34930741319273789 -0.44966693568152888 0 0.34352263182166642 -0.42088247131815859 0 0.33422126184491951 -0.43718100953402977 0 0.34930741319273789 -0.44966693568152888 0 0.34352263182166642 -0.42088247131815859 0 0.36251391375343811 -0.42469798080710819 0 0.3750388307604704 -0.44979865387140477 0 0.36251391375343811 -0.42469798080710819 0 0.3821006462237943 -0.42159032402315999 0 0.3750388307604704 -0.44979865387140477 0 0.36251391375343811 -0.42469798080710819 0 0.36251391375343811 -0.42469798080710819 0 0.34998899674640582 -0.39959730774281171 0 0.37293505643105918 -0.40189342741438139 0 0.3821006462237943 -0.42159032402315999 0 0.36251391375343811 -0.42469798080710819 0 0.37293505643105918 -0.40189342741438139 0 0.34352263182166642 -0.42088247131815859 0 0.36251391375343811 -0.42469798080710819 0 0.34998899674640582 -0.39959730774281171 0 0.36251391375343811 -0.42469798080710819 0 0.34998899674640582 -0.39959730774281171 0 0.34998899674640582 -0.39959730774281171 0 0.37293505643105918 -0.40189342741438139 0 0.36695763669327452 -0.37819216663504862 0 0.34998899674640582 -0.39959730774281171 0 0.36695763669327452 -0.37819216663504862 0 0.35055457022257119 -0.37764807999970329 0 0.34998899674640582 -0.39959730774281171 0 0.35055457022257119 -0.37764807999970329 0 0.33471427717752761 -0.37873457774728381 0 0.35055457022257119 -0.37764807999970329 0 0.33471427717752761 -0.37873457774728381 0 0.34523965564666059 -0.36909360110537381 0 0.34998899674640582 -0.39959730774281171 0 0.33471427717752761 -0.37873457774728381 0 0.32745935917048091 -0.40069389881203171 0 0.32745935917048091 -0.40069389881203171 0 0.31776943633306831 -0.38374186464776872 0 0.31237548801909298 -0.39482882133466901 0 0.32745935917048091 -0.40069389881203171 0 0.31237548801909298 -0.39482882133466901 0 0.30764880489700841 -0.40630593238840201 0 0.33471427717752761 -0.37873457774728381 0 0.31776943633306831 -0.38374186464776872 0 0.32251348985286121 -0.37386759494360727 0 0.33471427717752761 -0.37873457774728381 0 0.32745935917048091 -0.40069389881203171 0 0.31776943633306831 -0.38374186464776872 0 0.31776943633306831 -0.38374186464776872 0 0.31565306185085651 -0.37618273431003579 0 0.32251348985286121 -0.37386759494360727 0 0.31776943633306831 -0.38374186464776872 0 0.31565306185085651 -0.37618273431003579 0 0.31092403190228401 -0.37958302565439911 0 0.29918969205750562 -0.37967206755043809 0 0.30499004509240701 -0.38485280788976067 0 0.29337172910848658 -0.39034576286348349 0 0.29918969205750562 -0.37967206755043809 0 0.30623747480848079 -0.37930149886009717 0 0.30499004509240701 -0.38485280788976067 0 0.29918969205750562 -0.37967206755043809 0 0.30623747480848079 -0.37930149886009717 0 0.30997014142660712 -0.37383622256433308 0 0.30623747480848079 -0.37930149886009717 0 0.31092403190228401 -0.37958302565439911 0 0.30499004509240701 -0.38485280788976067 0 0.31776943633306831 -0.38374186464776872 0 0.31092403190228401 -0.37958302565439911 0 0.30499004509240701 -0.38485280788976067 0 0.31565306185085651 -0.37618273431003579 0 0.31092403190228401 -0.37958302565439911 0 0.30997014142660712 -0.37383622256433308 0 0.30623747480848079 -0.37930149886009717 0 0.31092403190228401 -0.37958302565439911 0 0.30997014142660712 -0.37383622256433308 0 0.31776943633306831 -0.38374186464776872 0 0.30499004509240701 -0.38485280788976067 0 0.31237548801909298 -0.39482882133466901 0 0.30499004509240701 -0.38485280788976067 0 0.30593715187545178 -0.39598634197324323 0 0.31237548801909298 -0.39482882133466901 0 0.30593715187545178 -0.39598634197324323 0 0.31237548801909298 -0.39482882133466901 0 0.30764880489700841 -0.40630593238840201 0 0.2987342694932989 -0.39795780628014132 0 0.29549666440552741 -0.40973397137235362 0 0.30764880489700841 -0.40630593238840201 0 0.30593715187545178 -0.39598634197324323 0 0.2987342694932989 -0.39795780628014132 0 0.30764880489700841 -0.40630593238840201 0 0.30499004509240701 -0.38485280788976067 0 0.30593715187545178 -0.39598634197324323 0 0.2987342694932989 -0.39795780628014132 0 0.30499004509240701 -0.38485280788976067 0 0.28680495438119852 -0.40057536085256618 0 0.30499004509240701 -0.38485280788976067 0 0.28680495438119852 -0.40057536085256618 0 0.29337172910848658 -0.39034576286348349 0 0.30499004509240701 -0.38485280788976067 0 0.2987342694932989 -0.39795780628014132 0 0.28680495438119852 -0.40057536085256618 0 0.2987342694932989 -0.39795780628014132 0 0.293559922775811 -0.40286836789170621 0 0.29549666440552741 -0.40973397137235362 0 0.2987342694932989 -0.39795780628014132 0 0.293559922775811 -0.40286836789170621 0 0.28680495438119852 -0.40057536085256618 0 0.293559922775811 -0.40286836789170621 0 0.28680495438119852 -0.40057536085256618 0 0.28631829755167038 -0.40974785020910343 0 0.28680495438119852 -0.40057536085256618 0 0.28282224638058501 -0.39647327125871301 0 0.29337172910848658 -0.39034576286348349 0 0.29918969205750562 -0.37967206755043809 0 0.28282224638058501 -0.39647327125871301 0 0.29918969205750562 -0.37967206755043809 0 0.28282224638058501 -0.39647327125871301 0 0.28711320058817569 -0.3865777823925643 0 0.29918969205750562 -0.37967206755043809 0 0.28282224638058501 -0.39647327125871301 0 0.29337172910848658 -0.39034576286348349 0 0.28282224638058501 -0.39647327125871301 0 0.28711320058817569 -0.3865777823925643 0 0.27916941557062708 -0.38775591674259691 0 0.28711320058817569 -0.3865777823925643 0 0.28727144834398521 -0.38240987401850929 0 0.27916941557062708 -0.38775591674259691 0 0.29918969205750562 -0.37967206755043809 0 0.28711320058817569 -0.3865777823925643 0 0.28727144834398521 -0.38240987401850929 0 0.29918969205750562 -0.37967206755043809 0 0.29221573952856239 -0.37691409734713788 0 0.28727144834398521 -0.38240987401850929 0 0.29918969205750562 -0.37967206755043809 0 0.29221573952856239 -0.37691409734713788 0 0.29677953628994741 -0.37328229009256159 0 0.28727144834398521 -0.38240987401850929 0 0.28051289523917983 -0.37793277748497922 0 0.27916941557062708 -0.38775591674259691 0 0.29221573952856239 -0.37691409734713788 0 0.28727144834398521 -0.38240987401850929 0 0.28051289523917983 -0.37793277748497922 0 0.28051289523917983 -0.37793277748497922 0 0.26859083245597087 -0.38880456958096982 0 0.26084768714352508 -0.37286806244875198 0 0.27916941557062708 -0.38775591674259691 0 0.26859083245597087 -0.38880456958096982 0 0.27521715538838348 -0.39310896940269902 0 0.28051289523917983 -0.37793277748497922 0 0.27916941557062708 -0.38775591674259691 0 0.26859083245597087 -0.38880456958096982 0 0.26859083245597087 -0.38880456958096982 0 0.26084768714352508 -0.37286806244875198 0 0.24755933536825281 -0.38688758237221521 0 0.26084768714352508 -0.37286806244875198 0 0.24842279325543079 -0.37396775914526681 0 0.24755933536825281 -0.38688758237221521 0 0.26084768714352508 -0.37286806244875198 0 0.24755933536825281 -0.38688758237221521 0 0.26859083245597087 -0.38880456958096982 0 0.2570070680359573 -0.4000810286696006 0 0.24755933536825281 -0.38688758237221521 0 0.2570070680359573 -0.4000810286696006 0 0.24755933536825281 -0.38688758237221521 0 0.26859083245597087 -0.38880456958096982 0 0.2570070680359573 -0.4000810286696006 0 0.27028612714635092 -0.39940212002851661 0 0.2570070680359573 -0.4000810286696006 0 0.27028612714635092 -0.39940212002851661 0 0.26645480070366212 -0.41327447496698572 0 0.28680495438119852 -0.40057536085256618 0 0.28282224638058501 -0.39647327125871301 0 0.26645480070366212 -0.41327447496698572 0 0.28282224638058501 -0.39647327125871301 0 0.27028612714635092 -0.39940212002851661 0 0.26645480070366212 -0.41327447496698572 0 0.28282224638058501 -0.39647327125871301 0 0.26645480070366212 -0.41327447496698572 0 0.26859083245597087 -0.38880456958096982 0 0.27028612714635092 -0.39940212002851661 0 0.27521715538838348 -0.39310896940269902 0 0.28282224638058501 -0.39647327125871301 0 0.27916941557062708 -0.38775591674259691 0 0.27521715538838348 -0.39310896940269902 0 0.28282224638058501 -0.39647327125871301 0 0.27028612714635092 -0.39940212002851661 0 0.27521715538838348 -0.39310896940269902 0 0.28680495438119852 -0.40057536085256618 0 0.26861986366998808 -0.41629791381536979 0 0.26645480070366212 -0.41327447496698572 0 0.28680495438119852 -0.40057536085256618 0 0.26861986366998808 -0.41629791381536979 0 0.26861986366998808 -0.41629791381536979 0 0.2871100825258272 -0.4192636371135211 0 0.28631829755167038 -0.40974785020910343 0 0.28680495438119852 -0.40057536085256618 0 0.26861986366998808 -0.41629791381536979 0 0.28631829755167038 -0.40974785020910343 0 0.26861986366998808 -0.41629791381536979 0 0.26645480070366212 -0.41327447496698572 0 0.2570070680359573 -0.4000810286696006 0 0.26645480070366212 -0.41327447496698572 0 0.254241536280572 -0.41322500987920252 0 0.2570070680359573 -0.4000810286696006 0 0.26645480070366212 -0.41327447496698572 0 0.26861986366998808 -0.41629791381536979 0 0.26645480070366212 -0.41327447496698572 0 0.25461036409595073 -0.42543280413966672 0 0.26645480070366212 -0.41327447496698572 0 0.254241536280572 -0.41322500987920252 0 0.25461036409595073 -0.42543280413966672 0 0.26645480070366212 -0.41327447496698572 0 0.25461036409595073 -0.42543280413966672 0 0.2507646469428147 -0.42011770442954421 0 0.254241536280572 -0.41322500987920252 0 0.24529057633248821 -0.41719125275567348 0 0.2507646469428147 -0.42011770442954421 0 0.254241536280572 -0.41322500987920252 0 0.25461036409595073 -0.42543280413966672 0 0.2570070680359573 -0.4000810286696006 0 0.254241536280572 -0.41322500987920252 0 0.24635520515690479 -0.40805365165468149 0 0.26861986366998808 -0.41629791381536979 0 0.25062434725315252 -0.43185656372534281 0 0.26606929398440637 -0.4379818421484587 0 0.26861986366998808 -0.41629791381536979 0 0.25062434725315252 -0.43185656372534281 0 0.26861986366998808 -0.41629791381536979 0 0.25062434725315252 -0.43185656372534281 0 0.25461036409595073 -0.42543280413966672 0 0.25062434725315252 -0.43185656372534281 0 0.26606929398440637 -0.4379818421484587 0 0.25102920449059068 -0.44222456901388479 0 0.2507646469428147 -0.42011770442954421 0 0.25461036409595073 -0.42543280413966672 0 0.24771162834454169 -0.42522020283389139 0 0.26861986366998808 -0.41629791381536979 0 0.28110938347822262 -0.43373911528303433 0 0.26606929398440637 -0.4379818421484587 0 0.26861986366998808 -0.41629791381536979 0 0.28110938347822262 -0.43373911528303433 0 0.2871100825258272 -0.4192636371135211 0 0.26861986366998808 -0.41629791381536979 0 0.28110938347822262 -0.43373911528303433 0 0.28110938347822262 -0.43373911528303433 0 0.26606929398440637 -0.4379818421484587 0 0.28110938347822262 -0.43373911528303433 0 0.2871100825258272 -0.4192636371135211 0 0.30329595680996568 -0.42748040447116908 0 0.28110938347822262 -0.43373911528303433 0 0.30329595680996568 -0.42748040447116908 0 0.28110938347822262 -0.43373911528303433 0 0.30329595680996568 -0.42748040447116908 0 0.29329335181409721 -0.45075362422208493 0 0.2871100825258272 -0.4192636371135211 0 0.29549666440552741 -0.40973397137235362 0 0.30329595680996568 -0.42748040447116908 0 0.293559922775811 -0.40286836789170621 0 0.28631829755167038 -0.40974785020910343 0 0.29549666440552741 -0.40973397137235362 0 0.2871100825258272 -0.4192636371135211 0 0.28631829755167038 -0.40974785020910343 0 0.29549666440552741 -0.40973397137235362 0 0.32548253014170953 -0.42122169365930567 0 0.30764880489700841 -0.40630593238840201 0 0.30329595680996568 -0.42748040447116908 0 0.29549666440552741 -0.40973397137235362 0 0.30764880489700841 -0.40630593238840201 0 0.30329595680996568 -0.42748040447116908 0 0.31299673794008942 -0.4426130041374865 0 0.30674861974397882 -0.46367658623463259 0 0.29329335181409721 -0.45075362422208493 0 0.31299673794008942 -0.4426130041374865 0 0.30329595680996568 -0.42748040447116908 0 0.29329335181409721 -0.45075362422208493 0 0.2864388903447011 -0.46462661425127738 0 0.29329335181409721 -0.45075362422208493 0 0.27705915967164829 -0.45024242965575639 0 0.30674861974397882 -0.46367658623463259 0 0.2864388903447011 -0.46462661425127738 0 0.29480381839785519 -0.47636991885425939 0 0.30674861974397882 -0.46367658623463259 0 0.2864388903447011 -0.46462661425127738 0 0.29329335181409721 -0.45075362422208493 0 0.28110938347822262 -0.43373911528303433 0 0.29329335181409721 -0.45075362422208493 0 0.27705915967164829 -0.45024242965575639 0 0.28110938347822262 -0.43373911528303433 0 0.29329335181409721 -0.45075362422208493 0 0.28110938347822262 -0.43373911528303433 0 0.27705915967164829 -0.45024242965575639 0 0.26606929398440637 -0.4379818421484587 0 0.27705915967164829 -0.45024242965575639 0 0.26606929398440637 -0.4379818421484587 0 0.26563168068936871 -0.4542611371790356 0 0.26606929398440637 -0.4379818421484587 0 0.25102920449059068 -0.44222456901388479 0 0.26563168068936871 -0.4542611371790356 0 0.26606929398440637 -0.4379818421484587 0 0.25102920449059068 -0.44222456901388479 0 0.25102920449059068 -0.44222456901388479 0 0.25824032843333983 -0.46751803126679969 0 0.24274741074966841 -0.45733983911222448 0 0.25102920449059068 -0.44222456901388479 0 0.25824032843333983 -0.46751803126679969 0 0.25102920449059068 -0.44222456901388479 0 0.26563168068936871 -0.4542611371790356 0 0.25824032843333983 -0.46751803126679969 0 0.26563168068936871 -0.4542611371790356 0 0.25824032843333983 -0.46751803126679969 0 0.26699036810843041 -0.46651679681846492 0 0.25824032843333983 -0.46751803126679969 0 0.26699036810843041 -0.46651679681846492 0 0.26699036810843041 -0.46651679681846492 0 0.27440172944779612 -0.46108315417084927 0 0.27674491531956619 -0.46982170292918901 0 0.26563168068936871 -0.4542611371790356 0 0.26699036810843041 -0.46651679681846492 0 0.27440172944779612 -0.46108315417084927 0 0.27705915967164829 -0.45024242965575639 0 0.26563168068936871 -0.4542611371790356 0 0.27440172944779612 -0.46108315417084927 0 0.2864388903447011 -0.46462661425127738 0 0.27705915967164829 -0.45024242965575639 0 0.27440172944779612 -0.46108315417084927 0 0.2864388903447011 -0.46462661425127738 0 0.27440172944779612 -0.46108315417084927 0 0.27674491531956619 -0.46982170292918901 0 0.27674491531956619 -0.46982170292918901 0 0.27284964495664549 -0.47927409074970251 0 0.2833130592432781 -0.4755349882460615 0 0.27284964495664549 -0.47927409074970251 0 0.28572802719762252 -0.48758261444587919 0 0.2833130592432781 -0.4755349882460615 0 0.27284964495664549 -0.47927409074970251 0 0.26206567120129171 -0.48093565710069108 0 0.27284964495664549 -0.47927409074970251 0 0.26206567120129171 -0.48093565710069108 0 0.26480924706273951 -0.4905589187503937 0 0.26699036810843041 -0.46651679681846492 0 0.27284964495664549 -0.47927409074970251 0 0.26206567120129171 -0.48093565710069108 0 0.26699036810843041 -0.46651679681846492 0 0.27674491531956619 -0.46982170292918901 0 0.27284964495664549 -0.47927409074970251 0 0.25824032843333983 -0.46751803126679969 0 0.26206567120129171 -0.48093565710069108 0 0.25824032843333983 -0.46751803126679969 0 0.26699036810843041 -0.46651679681846492 0 0.26206567120129171 -0.48093565710069108 0 0.25824032843333983 -0.46751803126679969 0 0.26206567120129171 -0.48093565710069108 0 0.24830717598121979 -0.47582208519826868 0 0.26480924706273951 -0.4905589187503937 0 0.23532761845034461 -0.49475353705879271 0 0.26480924706273951 -0.4905589187503937 0 0.26750088359567581 -0.499999999999999 0 0.23977752504085109 -0.5 0 0.26206567120129171 -0.48093565710069108 0 0.26480924706273951 -0.4905589187503937 0 0.23787794103592361 -0.48466243903296491 0 0.26206567120129171 -0.48093565710069108 0 0.26480924706273951 -0.4905589187503937 0 0.27284964495664549 -0.47927409074970251 0 0.26480924706273951 -0.4905589187503937 0 0.28572802719762252 -0.48758261444587919 0 0.26480924706273951 -0.4905589187503937 0 0.26750088359567581 -0.499999999999999 0 0.26480924706273951 -0.4905589187503937 0 0.28572802719762252 -0.48758261444587919 0 0.26480924706273951 -0.4905589187503937 0 0.26750088359567581 -0.499999999999999 0 0.28572802719762252 -0.48758261444587919 0 0.26750088359567581 -0.499999999999999 0 0.29401843983144749 -0.5 0 0.28572802719762252 -0.48758261444587919 0 0.29401843983144749 -0.5 0 0.28572802719762252 -0.48758261444587919 0 0.3066468073325056 -0.48460631014136502 0 0.28572802719762252 -0.48758261444587919 0 0.3066468073325056 -0.48460631014136502 0 0.28572802719762252 -0.48758261444587919 0 0.2833130592432781 -0.4755349882460615 0 0.29480381839785519 -0.47636991885425939 0 0.28572802719762252 -0.48758261444587919 0 0.29480381839785519 -0.47636991885425939 0 0.3066468073325056 -0.48460631014136502 0 0.2864388903447011 -0.46462661425127738 0 0.2833130592432781 -0.4755349882460615 0 0.29480381839785519 -0.47636991885425939 0 0.2864388903447011 -0.46462661425127738 0 0.27674491531956619 -0.46982170292918901 0 0.2833130592432781 -0.4755349882460615 0 0.32277234999257942 -0.46747040439178228 0 0.30674861974397882 -0.46367658623463259 0 0.3066468073325056 -0.48460631014136502 0 0.30674861974397882 -0.46367658623463259 0 0.29480381839785519 -0.47636991885425939 0 0.3066468073325056 -0.48460631014136502 0 0.32053599606721922 -0.5 0 0.29401843983144749 -0.5 0 0.3066468073325056 -0.48460631014136502 0 0.32955537803513102 -0.29461205946523572 0 0.31906930309781922 -0.27527763233314539 0 0.34048783567004598 -0.27592254866642518 0 0.32955537803513102 -0.29461205946523572 0 0.34048783567004598 -0.27592254866642518 0 0.35050905701727358 -0.29349674846504531 0 0.32955537803513102 -0.29461205946523572 0 0.34213268829606958 -0.30890168542521268 0 0.32550652154843412 -0.31542297613827341 0 0.32955537803513102 -0.29461205946523572 0 0.34213268829606958 -0.30890168542521268 0 0.35050905701727358 -0.29349674846504531 0 0.32550652154843412 -0.31542297613827341 0 0.30346717528183142 -0.30063258145430122 0 0.32955537803513102 -0.29461205946523572 0 0.32550652154843412 -0.31542297613827341 0 0.30346717528183142 -0.30063258145430122 0 0.32955537803513102 -0.29461205946523572 0 0.31906930309781922 -0.27527763233314539 0 0.30346717528183142 -0.30063258145430122 0 0.31906930309781922 -0.27527763233314539 0 0.33467405686431478 -0.25403352688329378 0 0.31116260676228258 -0.25520978919645698 0 0.33467405686431478 -0.25403352688329378 0 0.34048783567004598 -0.27592254866642518 0 0.35235384180926338 -0.26032904590845918 0 0.31906930309781922 -0.27527763233314539 0 0.33467405686431478 -0.25403352688329378 0 0.34048783567004598 -0.27592254866642518 0 0.34048783567004598 -0.27592254866642518 0 0.3588690719947577 -0.2785856329684781 0 0.35235384180926338 -0.26032904590845918 0 0.34967544245789572 -0.2443134457238238 0 0.33467405686431478 -0.25403352688329378 0 0.35235384180926338 -0.26032904590845918 0 0.36561893428624798 -0.24212901235086301 0 0.38012602394156392 -0.25066493177732307 0 0.36941956566081269 -0.26418204610492407 0 0.36561893428624798 -0.24212901235086301 0 0.35235384180926338 -0.26032904590845918 0 0.36941956566081269 -0.26418204610492407 0 0.37814345421661172 -0.28283798652441761 0 0.3588690719947577 -0.2785856329684781 0 0.36941956566081269 -0.26418204610492407 0 0.3588690719947577 -0.2785856329684781 0 0.35235384180926338 -0.26032904590845918 0 0.36941956566081269 -0.26418204610492407 0 0.37814345421661172 -0.28283798652441761 0 0.3588690719947577 -0.2785856329684781 0 0.36734954511041812 -0.29666387180185172 0 0.34048783567004598 -0.27592254866642518 0 0.3588690719947577 -0.2785856329684781 0 0.35050905701727358 -0.29349674846504531 0 0.3588690719947577 -0.2785856329684781 0 0.36734954511041812 -0.29666387180185172 0 0.35050905701727358 -0.29349674846504531 0 0.34213268829606958 -0.30890168542521268 0 0.35050905701727358 -0.29349674846504531 0 0.35754661706447249 -0.31076327223526318 0 0.36734954511041812 -0.29666387180185172 0 0.35050905701727358 -0.29349674846504531 0 0.35754661706447249 -0.31076327223526318 0 0.36734954511041812 -0.29666387180185172 0 0.35754661706447249 -0.31076327223526318 0 0.37349573076860731 -0.31192017957886359 0 0.35754661706447249 -0.31076327223526318 0 0.37349573076860731 -0.31192017957886359 0 0.36560850351062069 -0.32578636129799132 0 0.36560850351062069 -0.32578636129799132 0 0.34754586781503688 -0.33021337082224572 0 0.36958521408164052 -0.34500376550621659 0 0.34754586781503688 -0.33021337082224572 0 0.36958521408164052 -0.34500376550621659 0 0.34563328297747892 -0.35151395037778083 0 0.34754586781503688 -0.33021337082224572 0 0.36958521408164052 -0.34500376550621659 0 0.35754661706447249 -0.31076327223526318 0 0.36560850351062069 -0.32578636129799132 0 0.34754586781503688 -0.33021337082224572 0 0.34213268829606958 -0.30890168542521268 0 0.35754661706447249 -0.31076327223526318 0 0.34754586781503688 -0.33021337082224572 0 0.36695763669327452 -0.37819216663504862 0 0.36685353553590039 -0.36133708086115329 0 0.35579509090640121 -0.36751143250097762 0 0.36685353553590039 -0.36133708086115329 0 0.36958521408164052 -0.34500376550621659 0 0.35062507219095379 -0.35752226845870688 0 0.36958521408164052 -0.34500376550621659 0 0.34563328297747892 -0.35151395037778083 0 0.36958521408164052 -0.34500376550621659 0 0.34563328297747892 -0.35151395037778083 0 0.35062507219095379 -0.35752226845870688 0 0.36685353553590039 -0.36133708086115329 0 0.35062507219095379 -0.35752226845870688 0 0.35579509090640121 -0.36751143250097762 0 0.36695763669327452 -0.37819216663504862 0 0.35055457022257119 -0.37764807999970329 0 0.35579509090640121 -0.36751143250097762 0 0.35062507219095379 -0.35752226845870688 0 0.34523965564666059 -0.36909360110537381 0 0.35579509090640121 -0.36751143250097762 0 0.35055457022257119 -0.37764807999970329 0 0.34523965564666059 -0.36909360110537381 0 0.35579509090640121 -0.36751143250097762 0 0.35062507219095379 -0.35752226845870688 0 0.33477072935196511 -0.36535082068584268 0 0.32168135187331842 -0.35802413524934851 0 0.35062507219095379 -0.35752226845870688 0 0.34523965564666059 -0.36909360110537381 0 0.33477072935196511 -0.36535082068584268 0 0.33471427717752761 -0.37873457774728381 0 0.32922551800670452 -0.37074164725591457 0 0.33477072935196511 -0.36535082068584268 0 0.33471427717752761 -0.37873457774728381 0 0.32922551800670452 -0.37074164725591457 0 0.32251348985286121 -0.37386759494360727 0 0.32922551800670452 -0.37074164725591457 0 0.33477072935196511 -0.36535082068584268 0 0.32362644265379731 -0.36673383414563271 0 0.33471427717752761 -0.37873457774728381 0 0.34523965564666059 -0.36909360110537381 0 0.33477072935196511 -0.36535082068584268 0 0.35062507219095379 -0.35752226845870688 0 0.32168135187331842 -0.35802413524934851 0 0.34563328297747892 -0.35151395037778083 0 0.35062507219095379 -0.35752226845870688 0 0.32168135187331842 -0.35802413524934851 0 0.34563328297747892 -0.35151395037778083 0 0.32168135187331842 -0.35802413524934851 0 0.33148074352712348 -0.33896617791979938 0 0.34563328297747892 -0.35151395037778083 0 0.32168135187331842 -0.35802413524934851 0 0.32168135187331842 -0.35802413524934851 0 0.33148074352712348 -0.33896617791979938 0 0.31300435557520651 -0.33821267919195769 0 0.32168135187331842 -0.35802413524934851 0 0.31536684859260722 -0.35974043042198989 0 0.33477072935196511 -0.36535082068584268 0 0.32168135187331842 -0.35802413524934851 0 0.32362644265379731 -0.36673383414563271 0 0.32362644265379731 -0.36673383414563271 0 0.31555713773442629 -0.36287086384216338 0 0.31721222098434199 -0.37062309195861343 0 0.32168135187331842 -0.35802413524934851 0 0.32362644265379731 -0.36673383414563271 0 0.31555713773442629 -0.36287086384216338 0 0.32168135187331842 -0.35802413524934851 0 0.31555713773442629 -0.36287086384216338 0 0.31536684859260722 -0.35974043042198989 0 0.31555713773442629 -0.36287086384216338 0 0.31721222098434199 -0.37062309195861343 0 0.30997014142660712 -0.37383622256433308 0 0.31565306185085651 -0.37618273431003579 0 0.31721222098434199 -0.37062309195861343 0 0.30997014142660712 -0.37383622256433308 0 0.31565306185085651 -0.37618273431003579 0 0.31721222098434199 -0.37062309195861343 0 0.32251348985286121 -0.37386759494360727 0 0.32362644265379731 -0.36673383414563271 0 0.31721222098434199 -0.37062309195861343 0 0.32251348985286121 -0.37386759494360727 0 0.32922551800670452 -0.37074164725591457 0 0.32362644265379731 -0.36673383414563271 0 0.32251348985286121 -0.37386759494360727 0 0.34754586781503688 -0.33021337082224572 0 0.32550652154843412 -0.31542297613827341 0 0.34213268829606958 -0.30890168542521268 0 0.34754586781503688 -0.33021337082224572 0 0.32550652154843412 -0.31542297613827341 0 0.34754586781503688 -0.33021337082224572 0 0.34563328297747892 -0.35151395037778083 0 0.33148074352712348 -0.33896617791979938 0 0.34754586781503688 -0.33021337082224572 0 0.33148074352712348 -0.33896617791979938 0 0.32550652154843412 -0.31542297613827341 0 0.33148074352712348 -0.33896617791979938 0 0.31300435557520651 -0.33821267919195769 0 0.32550652154843412 -0.31542297613827341 0 0.31300435557520651 -0.33821267919195769 0 0.32550652154843412 -0.31542297613827341 0 0.30487935252083598 -0.32039670007178672 0 0.30487935252083598 -0.32039670007178672 0 0.28309790884128549 -0.31712192356495711 0 0.30346717528183142 -0.30063258145430122 0 0.31300435557520651 -0.33821267919195769 0 0.30487935252083598 -0.32039670007178672 0 0.29455329966239802 -0.33730785797552421 0 0.29455329966239802 -0.33730785797552421 0 0.28309790884128549 -0.31712192356495711 0 0.27531210764948633 -0.33813009290428842 0 0.30487935252083598 -0.32039670007178672 0 0.29455329966239802 -0.33730785797552421 0 0.28309790884128549 -0.31712192356495711 0 0.29918969205750562 -0.37967206755043809 0 0.31555713773442629 -0.36287086384216338 0 0.30997014142660712 -0.37383622256433308 0 0.29918969205750562 -0.37967206755043809 0 0.31555713773442629 -0.36287086384216338 0 0.29918969205750562 -0.37967206755043809 0 0.31555713773442629 -0.36287086384216338 0 0.30322178079818152 -0.3671233415468329 0 0.31536684859260722 -0.35974043042198989 0 0.30322178079818152 -0.3671233415468329 0 0.29790869539605802 -0.35843633888731929 0 0.30322178079818152 -0.3671233415468329 0 0.29249093277553978 -0.36941965392583759 0 0.29677953628994741 -0.37328229009256159 0 0.29918969205750562 -0.37967206755043809 0 0.30322178079818152 -0.3671233415468329 0 0.29677953628994741 -0.37328229009256159 0 0.31555713773442629 -0.36287086384216338 0 0.31536684859260722 -0.35974043042198989 0 0.30322178079818152 -0.3671233415468329 0 0.30322178079818152 -0.3671233415468329 0 0.29790869539605802 -0.35843633888731929 0 0.29249093277553978 -0.36941965392583759 0 0.32168135187331842 -0.35802413524934851 0 0.31536684859260722 -0.35974043042198989 0 0.29790869539605802 -0.35843633888731929 0 0.32168135187331842 -0.35802413524934851 0 0.29790869539605802 -0.35843633888731929 0 0.32168135187331842 -0.35802413524934851 0 0.31300435557520651 -0.33821267919195769 0 0.29790869539605802 -0.35843633888731929 0 0.31300435557520651 -0.33821267919195769 0 0.29455329966239802 -0.33730785797552421 0 0.29790869539605802 -0.35843633888731929 0 0.29455329966239802 -0.33730785797552421 0 0.29790869539605802 -0.35843633888731929 0 0.27413603891879751 -0.35884854252528881 0 0.29790869539605802 -0.35843633888731929 0 0.27413603891879751 -0.35884854252528881 0 0.29455329966239802 -0.33730785797552421 0 0.27413603891879751 -0.35884854252528881 0 0.29455329966239802 -0.33730785797552421 0 0.27413603891879751 -0.35884854252528881 0 0.27531210764948633 -0.33813009290428842 0 0.29790869539605802 -0.35843633888731929 0 0.28117924989462012 -0.36750107505443541 0 0.27413603891879751 -0.35884854252528881 0 0.29790869539605802 -0.35843633888731929 0 0.29249093277553978 -0.36941965392583759 0 0.28117924989462012 -0.36750107505443541 0 0.29221573952856239 -0.37691409734713788 0 0.28051289523917983 -0.37793277748497922 0 0.29249093277553978 -0.36941965392583759 0 0.28051289523917983 -0.37793277748497922 0 0.29249093277553978 -0.36941965392583759 0 0.28117924989462012 -0.36750107505443541 0 0.29221573952856239 -0.37691409734713788 0 0.29249093277553978 -0.36941965392583759 0 0.29677953628994741 -0.37328229009256159 0 0.28117924989462012 -0.36750107505443541 0 0.27413603891879751 -0.35884854252528881 0 0.26084768714352508 -0.37286806244875198 0 0.28051289523917983 -0.37793277748497922 0 0.28117924989462012 -0.36750107505443541 0 0.26084768714352508 -0.37286806244875198 0 0.27413603891879751 -0.35884854252528881 0 0.26084768714352508 -0.37286806244875198 0 0.27413603891879751 -0.35884854252528881 0 0.26245823916668087 -0.34644250257639431 0 0.27531210764948633 -0.33813009290428842 0 0.27413603891879751 -0.35884854252528881 0 0.26245823916668087 -0.34644250257639431 0 0.2482378061525041 -0.35929760238418412 0 0.27413603891879751 -0.35884854252528881 0 0.2482378061525041 -0.35929760238418412 0 0.26245823916668087 -0.34644250257639431 0 0.25041270466484622 -0.34300512130720279 0 0.2482378061525041 -0.35929760238418412 0 0.27413603891879751 -0.35884854252528881 0 0.26084768714352508 -0.37286806244875198 0 0.2482378061525041 -0.35929760238418412 0 0.26084768714352508 -0.37286806244875198 0 0.24842279325543079 -0.37396775914526681 0 0.2482378061525041 -0.35929760238418412 0 0.28309790884128549 -0.31712192356495711 0 0.27531210764948633 -0.33813009290428842 0 0.26043756486876851 -0.32892812199754778 0 0.28309790884128549 -0.31712192356495711 0 0.26043756486876851 -0.32892812199754778 0 0.26159578616439683 -0.30369375052491221 0 0.26245823916668087 -0.34644250257639431 0 0.27531210764948633 -0.33813009290428842 0 0.26043756486876851 -0.32892812199754778 0 0.26245823916668087 -0.34644250257639431 0 0.26043756486876851 -0.32892812199754778 0 0.25041270466484622 -0.34300512130720279 0 0.26043756486876851 -0.32892812199754778 0 0.25041270466484622 -0.34300512130720279 0 0.23975626206512399 -0.33060637904071288 0 0.26043756486876851 -0.32892812199754778 0 0.26159578616439683 -0.30369375052491221 0 0.24523551865201021 -0.31441032332385888 0 0.28309790884128549 -0.31712192356495711 0 0.26159578616439683 -0.30369375052491221 0 0.28142782901522873 -0.28584218677032902 0 0.26159578616439683 -0.30369375052491221 0 0.2560132557158058 -0.28099947785389928 0 0.24123181443903341 -0.29554239328942228 0 0.26159578616439683 -0.30369375052491221 0 0.28142782901522873 -0.28584218677032902 0 0.2560132557158058 -0.28099947785389928 0 0.28309790884128549 -0.31712192356495711 0 0.28142782901522873 -0.28584218677032902 0 0.30346717528183142 -0.30063258145430122 0 0.28142782901522873 -0.28584218677032902 0 0.30346717528183142 -0.30063258145430122 0 0.29704169670833452 -0.27048659740379533 0 0.28142782901522873 -0.28584218677032902 0 0.30346717528183142 -0.30063258145430122 0 0.31906930309781922 -0.27527763233314539 0 0.30346717528183142 -0.30063258145430122 0 0.29704169670833452 -0.27048659740379533 0 0.32550652154843412 -0.31542297613827341 0 0.30487935252083598 -0.32039670007178672 0 0.30346717528183142 -0.30063258145430122 0 0.28886667570605501 -0.24790102732276209 0 0.31116260676228258 -0.25520978919645698 0 0.29704169670833452 -0.27048659740379533 0 0.31906930309781922 -0.27527763233314539 0 0.31116260676228258 -0.25520978919645698 0 0.29704169670833452 -0.27048659740379533 0 0.28142782901522873 -0.28584218677032902 0 0.29704169670833452 -0.27048659740379533 0 0.27240628394206667 -0.26305032971744569 0 0.28886667570605501 -0.24790102732276209 0 0.29704169670833452 -0.27048659740379533 0 0.27240628394206667 -0.26305032971744569 0 0.28142782901522873 -0.28584218677032902 0 0.27240628394206667 -0.26305032971744569 0 0.2560132557158058 -0.28099947785389928 0 0.27240628394206667 -0.26305032971744569 0 0.2560132557158058 -0.28099947785389928 0 0.24822639080064951 -0.25902667576912952 0 0.26253277242697598 -0.23652457324002391 0 0.27240628394206667 -0.26305032971744569 0 0.24822639080064951 -0.25902667576912952 0 0.2560132557158058 -0.28099947785389928 0 0.24822639080064951 -0.25902667576912952 0 0.23237158725208931 -0.27899916220500098 0 0.23237158725208931 -0.27899916220500098 0 0.21832928801110291 -0.26420276656682568 0 0.2124257277773885 -0.27776980583527461 0 0.24822639080064951 -0.25902667576912952 0 0.23237158725208931 -0.27899916220500098 0 0.21832928801110291 -0.26420276656682568 0 0.24822639080064951 -0.25902667576912952 0 0.21832928801110291 -0.26420276656682568 0 0.22416385264063279 -0.24714339016050391 0 0.21832928801110291 -0.26420276656682568 0 0.22416385264063279 -0.24714339016050391 0 0.20415350105738531 -0.24765143162995981 0 0.21832928801110291 -0.26420276656682568 0 0.1972688013004569 -0.26575360634737422 0 0.20415350105738531 -0.24765143162995981 0 0.21832928801110291 -0.26420276656682568 0 0.2124257277773885 -0.27776980583527461 0 0.1972688013004569 -0.26575360634737422 0 0.2124257277773885 -0.27776980583527461 0 0.1972688013004569 -0.26575360634737422 0 0.19454323686045161 -0.2853761476674711 0 0.1972688013004569 -0.26575360634737422 0 0.20415350105738531 -0.24765143162995981 0 0.1844852906525315 -0.24906604282928491 0 0.2028089127681737 -0.30690837564354162 0 0.1917951857258606 -0.31548157703836249 0 0.1870076674477591 -0.30415884183313918 0 0.2028089127681737 -0.30690837564354162 0 0.19454323686045161 -0.2853761476674711 0 0.1870076674477591 -0.30415884183313918 0 0.2028089127681737 -0.30690837564354162 0 0.19454323686045161 -0.2853761476674711 0 0.21961572546284169 -0.29451734638970101 0 0.19454323686045161 -0.2853761476674711 0 0.21961572546284169 -0.29451734638970101 0 0.2124257277773885 -0.27776980583527461 0 0.19454323686045161 -0.2853761476674711 0 0.21961572546284169 -0.29451734638970101 0 0.2028089127681737 -0.30690837564354162 0 0.21961572546284169 -0.29451734638970101 0 0.22508843486110211 -0.31563510009029239 0 0.24123181443903341 -0.29554239328942228 0 0.22508843486110211 -0.31563510009029239 0 0.21961572546284169 -0.29451734638970101 0 0.24123181443903341 -0.29554239328942228 0 0.22508843486110211 -0.31563510009029239 0 0.23237158725208931 -0.27899916220500098 0 0.21961572546284169 -0.29451734638970101 0 0.24123181443903341 -0.29554239328942228 0 0.23237158725208931 -0.27899916220500098 0 0.2124257277773885 -0.27776980583527461 0 0.21961572546284169 -0.29451734638970101 0 0.2560132557158058 -0.28099947785389928 0 0.23237158725208931 -0.27899916220500098 0 0.24123181443903341 -0.29554239328942228 0 0.24123181443903341 -0.29554239328942228 0 0.24523551865201021 -0.31441032332385888 0 0.22508843486110211 -0.31563510009029239 0 0.26159578616439683 -0.30369375052491221 0 0.24123181443903341 -0.29554239328942228 0 0.24523551865201021 -0.31441032332385888 0 0.24523551865201021 -0.31441032332385888 0 0.23975626206512399 -0.33060637904071288 0 0.22508843486110211 -0.31563510009029239 0 0.26043756486876851 -0.32892812199754778 0 0.24523551865201021 -0.31441032332385888 0 0.23975626206512399 -0.33060637904071288 0 0.25041270466484622 -0.34300512130720279 0 0.23989221908628799 -0.34141259577088789 0 0.23975626206512399 -0.33060637904071288 0 0.23989221908628799 -0.34141259577088789 0 0.23975626206512399 -0.33060637904071288 0 0.23009854403255081 -0.34262830244581732 0 0.2242726708858814 -0.33334666687087089 0 0.22508843486110211 -0.31563510009029239 0 0.20894505528317081 -0.33572780689116238 0 0.23975626206512399 -0.33060637904071288 0 0.23009854403255081 -0.34262830244581732 0 0.2242726708858814 -0.33334666687087089 0 0.23009854403255081 -0.34262830244581732 0 0.2242726708858814 -0.33334666687087089 0 0.21844304222935579 -0.346227641684 0 0.23975626206512399 -0.33060637904071288 0 0.2242726708858814 -0.33334666687087089 0 0.22508843486110211 -0.31563510009029239 0 0.23640941558487971 -0.37131708804769109 0 0.2482378061525041 -0.35929760238418412 0 0.23681155696059461 -0.35135759732171279 0 0.23640941558487971 -0.37131708804769109 0 0.23681155696059461 -0.35135759732171279 0 0.23640941558487971 -0.37131708804769109 0 0.24842279325543079 -0.37396775914526681 0 0.2482378061525041 -0.35929760238418412 0 0.25041270466484622 -0.34300512130720279 0 0.2482378061525041 -0.35929760238418412 0 0.23681155696059461 -0.35135759732171279 0 0.25041270466484622 -0.34300512130720279 0 0.23989221908628799 -0.34141259577088789 0 0.23681155696059461 -0.35135759732171279 0 0.23989221908628799 -0.34141259577088789 0 0.23009854403255081 -0.34262830244581732 0 0.23681155696059461 -0.35135759732171279 0 0.23009854403255081 -0.34262830244581732 0 0.23681155696059461 -0.35135759732171279 0 0.22742622890711719 -0.35877236486584591 0 0.23009854403255081 -0.34262830244581732 0 0.22742622890711719 -0.35877236486584591 0 0.21844304222935579 -0.346227641684 0 0.22742622890711719 -0.35877236486584591 0 0.21664002510210981 -0.3574010117572789 0 0.21844304222935579 -0.346227641684 0 0.22742622890711719 -0.35877236486584591 0 0.21844304222935579 -0.346227641684 0 0.23640941558487971 -0.37131708804769109 0 0.23681155696059461 -0.35135759732171279 0 0.22742622890711719 -0.35877236486584591 0 0.23640941558487971 -0.37131708804769109 0 0.22742622890711719 -0.35877236486584591 0 0.2203741311640571 -0.37046061497377419 0 0.23640941558487971 -0.37131708804769109 0 0.22742622890711719 -0.35877236486584591 0 0.22742622890711719 -0.35877236486584591 0 0.2203741311640571 -0.37046061497377419 0 0.21664002510210981 -0.3574010117572789 0 0.20666064898414069 -0.36352096135625722 0 0.19383993220812751 -0.36990380217594782 0 0.20977471384684471 -0.37640108130586508 0 0.2203741311640571 -0.37046061497377419 0 0.20666064898414069 -0.36352096135625722 0 0.20977471384684471 -0.37640108130586508 0 0.2203741311640571 -0.37046061497377419 0 0.20666064898414069 -0.36352096135625722 0 0.21664002510210981 -0.3574010117572789 0 0.20869808946080329 -0.35173958707614622 0 0.21844304222935579 -0.346227641684 0 0.20894505528317081 -0.33572780689116238 0 0.20869808946080329 -0.35173958707614622 0 0.1928016757052394 -0.35582051369203249 0 0.20894505528317081 -0.33572780689116238 0 0.20666064898414069 -0.36352096135625722 0 0.20869808946080329 -0.35173958707614622 0 0.21664002510210981 -0.3574010117572789 0 0.20869808946080329 -0.35173958707614622 0 0.21664002510210981 -0.3574010117572789 0 0.21844304222935579 -0.346227641684 0 0.20666064898414069 -0.36352096135625722 0 0.20869808946080329 -0.35173958707614622 0 0.1928016757052394 -0.35582051369203249 0 0.1928016757052394 -0.35582051369203249 0 0.20894505528317081 -0.33572780689116238 0 0.1922647667144953 -0.34161145648478569 0 0.1928016757052394 -0.35582051369203249 0 0.19383993220812751 -0.36990380217594782 0 0.17733954140005659 -0.34512730519882562 0 0.1928016757052394 -0.35582051369203249 0 0.20894505528317081 -0.33572780689116238 0 0.20666064898414069 -0.36352096135625722 0 0.1928016757052394 -0.35582051369203249 0 0.19383993220812751 -0.36990380217594782 0 0.22508843486110211 -0.31563510009029239 0 0.20894505528317081 -0.33572780689116238 0 0.2031069675853569 -0.32102765390589411 0 0.2028089127681737 -0.30690837564354162 0 0.22508843486110211 -0.31563510009029239 0 0.2031069675853569 -0.32102765390589411 0 0.22508843486110211 -0.31563510009029239 0 0.20894505528317081 -0.33572780689116238 0 0.2242726708858814 -0.33334666687087089 0 0.21844304222935579 -0.346227641684 0 0.20894505528317081 -0.33572780689116238 0 0.20894505528317081 -0.33572780689116238 0 0.18997279446951459 -0.32977020015712272 0 0.2031069675853569 -0.32102765390589411 0 0.20894505528317081 -0.33572780689116238 0 0.1922647667144953 -0.34161145648478569 0 0.18997279446951459 -0.32977020015712272 0 0.18997279446951459 -0.32977020015712272 0 0.2031069675853569 -0.32102765390589411 0 0.1917951857258606 -0.31548157703836249 0 0.2028089127681737 -0.30690837564354162 0 0.2031069675853569 -0.32102765390589411 0 0.1917951857258606 -0.31548157703836249 0 0.18997279446951459 -0.32977020015712272 0 0.1917951857258606 -0.31548157703836249 0 0.1760795863584986 -0.31554281365211517 0 0.18997279446951459 -0.32977020015712272 0 0.1760795863584986 -0.31554281365211517 0 0.17733954140005659 -0.34512730519882562 0 0.1922647667144953 -0.34161145648478569 0 0.18997279446951459 -0.32977020015712272 0 0.17733954140005659 -0.34512730519882562 0 0.16083915059198581 -0.32035080822170348 0 0.17733954140005659 -0.34512730519882562 0 0.15881899748219769 -0.33938988547688109 0 0.16083915059198581 -0.32035080822170348 0 0.17733954140005659 -0.34512730519882562 0 0.1760795863584986 -0.31554281365211517 0 0.16083915059198581 -0.32035080822170348 0 0.14860046722488171 -0.30670247048434118 0 0.1760795863584986 -0.31554281365211517 0 0.16083915059198581 -0.32035080822170348 0 0.17733954140005659 -0.34512730519882562 0 0.19383993220812751 -0.36990380217594782 0 0.17421872193789259 -0.36508830254489932 0 0.17733954140005659 -0.34512730519882562 0 0.17421872193789259 -0.36508830254489932 0 0.1824232098972863 -0.37404032922430691 0 0.1773093523695819 -0.38505399643968052 0 0.19383993220812751 -0.36990380217594782 0 0.17421872193789259 -0.36508830254489932 0 0.1824232098972863 -0.37404032922430691 0 0.19383993220812751 -0.36990380217594782 0 0.17733954140005659 -0.34512730519882562 0 0.1928016757052394 -0.35582051369203249 0 0.1922647667144953 -0.34161145648478569 0 0.17733954140005659 -0.34512730519882562 0 0.15881899748219769 -0.33938988547688109 0 0.17733954140005659 -0.34512730519882562 0 0.16026334792218419 -0.35666879759702541 0 0.17421872193789259 -0.36508830254489932 0 0.17733954140005659 -0.34512730519882562 0 0.16026334792218419 -0.35666879759702541 0 0.17421872193789259 -0.36508830254489932 0 0.16026334792218419 -0.35666879759702541 0 0.1588088041095771 -0.37754047112377159 0 0.16026334792218419 -0.35666879759702541 0 0.14651911112371699 -0.36504546374083541 0 0.1588088041095771 -0.37754047112377159 0 0.14651911112371699 -0.36504546374083541 0 0.14587491147966461 -0.34782135749693999 0 0.13053505761830031 -0.3611388042573625 0 0.15881899748219769 -0.33938988547688109 0 0.16026334792218419 -0.35666879759702541 0 0.14587491147966461 -0.34782135749693999 0 0.16026334792218419 -0.35666879759702541 0 0.14651911112371699 -0.36504546374083541 0 0.14587491147966461 -0.34782135749693999 0 0.14587491147966461 -0.34782135749693999 0 0.13053505761830031 -0.3611388042573625 0 0.12739182036291541 -0.3393093175555103 0 0.13053505761830031 -0.3611388042573625 0 0.12739182036291541 -0.3393093175555103 0 0.1180482941468379 -0.35379761702933921 0 0.14651911112371699 -0.36504546374083541 0 0.13053505761830031 -0.3611388042573625 0 0.13604401268595689 -0.38347614770530741 0 0.13053505761830031 -0.3611388042573625 0 0.13604401268595689 -0.38347614770530741 0 0.1095676493250143 -0.37262071837569999 0 0.14615032626334401 -0.3188080475135151 0 0.13044263649690241 -0.31800188151664283 0 0.14860046722488171 -0.30670247048434118 0 0.16083915059198581 -0.32035080822170348 0 0.14615032626334401 -0.3188080475135151 0 0.14471905073960581 -0.33017702983137281 0 0.16083915059198581 -0.32035080822170348 0 0.14615032626334401 -0.3188080475135151 0 0.14860046722488171 -0.30670247048434118 0 0.15881899748219769 -0.33938988547688109 0 0.16083915059198581 -0.32035080822170348 0 0.14471905073960581 -0.33017702983137281 0 0.15881899748219769 -0.33938988547688109 0 0.14587491147966461 -0.34782135749693999 0 0.14471905073960581 -0.33017702983137281 0 0.14587491147966461 -0.34782135749693999 0 0.14471905073960581 -0.33017702983137281 0 0.12739182036291541 -0.3393093175555103 0 0.14471905073960581 -0.33017702983137281 0 0.12739182036291541 -0.3393093175555103 0 0.13044263649690241 -0.31800188151664283 0 0.14615032626334401 -0.3188080475135151 0 0.14471905073960581 -0.33017702983137281 0 0.13044263649690241 -0.31800188151664283 0 0.13044263649690241 -0.31800188151664283 0 0.14860046722488171 -0.30670247048434118 0 0.1211213480912648 -0.29786212731656708 0 0.14860046722488171 -0.30670247048434118 0 0.1211213480912648 -0.29786212731656708 0 0.14860046722488171 -0.30670247048434118 0 0.1371947156539374 -0.29523768237882841 0 0.1211213480912648 -0.29786212731656708 0 0.14860046722488171 -0.30670247048434118 0 0.15302505087452889 -0.29422277520106499 0 0.1371947156539374 -0.29523768237882841 0 0.14860046722488171 -0.30670247048434118 0 0.15302505087452889 -0.29422277520106499 0 0.16264801629118941 -0.30308453619818448 0 0.1371947156539374 -0.29523768237882841 0 0.12670454144172449 -0.2808782289544734 0 0.1211213480912648 -0.29786212731656708 0 0.15302505087452889 -0.29422277520106499 0 0.12670454144172449 -0.2808782289544734 0 0.15302505087452889 -0.29422277520106499 0 0.1371947156539374 -0.29523768237882841 0 0.12670454144172449 -0.2808782289544734 0 0.12670454144172449 -0.2808782289544734 0 0.14439825965567141 -0.26709375022301141 0 0.1211469805498851 -0.26613371668915642 0 0.1265600254658609 -0.25575995917907818 0 0.14439825965567141 -0.26709375022301141 0 0.1386845243971537 -0.2497673514512139 0 0.1265600254658609 -0.25575995917907818 0 0.14439825965567141 -0.26709375022301141 0 0.1211469805498851 -0.26613371668915642 0 0.14439825965567141 -0.26709375022301141 0 0.16005888902464069 -0.2483339599913372 0 0.1386845243971537 -0.2497673514512139 0 0.15302505087452889 -0.29422277520106499 0 0.12670454144172449 -0.2808782289544734 0 0.14439825965567141 -0.26709375022301141 0 0.15302505087452889 -0.29422277520106499 0 0.14439825965567141 -0.26709375022301141 0 0.16947074825806141 -0.2762349489452412 0 0.14439825965567141 -0.26709375022301141 0 0.16947074825806141 -0.2762349489452412 0 0.16947074825806141 -0.2762349489452412 0 0.1844852906525315 -0.24906604282928491 0 0.16005888902464069 -0.2483339599913372 0 0.14439825965567141 -0.26709375022301141 0 0.16947074825806141 -0.2762349489452412 0 0.16005888902464069 -0.2483339599913372 0 0.1972688013004569 -0.26575360634737422 0 0.16947074825806141 -0.2762349489452412 0 0.1844852906525315 -0.24906604282928491 0 0.19454323686045161 -0.2853761476674711 0 0.16947074825806141 -0.2762349489452412 0 0.1972688013004569 -0.26575360634737422 0 0.19454323686045161 -0.2853761476674711 0 0.16947074825806141 -0.2762349489452412 0 0.19454323686045161 -0.2853761476674711 0 0.17288696070684831 -0.2958700854552167 0 0.1870076674477591 -0.30415884183313918 0 0.19454323686045161 -0.2853761476674711 0 0.16947074825806141 -0.2762349489452412 0 0.17288696070684831 -0.2958700854552167 0 0.1760795863584986 -0.31554281365211517 0 0.17288696070684831 -0.2958700854552167 0 0.1870076674477591 -0.30415884183313918 0 0.1917951857258606 -0.31548157703836249 0 0.1760795863584986 -0.31554281365211517 0 0.1870076674477591 -0.30415884183313918 0 0.1760795863584986 -0.31554281365211517 0 0.17288696070684831 -0.2958700854552167 0 0.16264801629118941 -0.30308453619818448 0 0.15302505087452889 -0.29422277520106499 0 0.17288696070684831 -0.2958700854552167 0 0.16264801629118941 -0.30308453619818448 0 0.1760795863584986 -0.31554281365211517 0 0.14860046722488171 -0.30670247048434118 0 0.16264801629118941 -0.30308453619818448 0 0.1760795863584986 -0.31554281365211517 0 0.14860046722488171 -0.30670247048434118 0 0.15302505087452889 -0.29422277520106499 0 0.16947074825806141 -0.2762349489452412 0 0.17288696070684831 -0.2958700854552167 0 0.1895024807051876 -0.49211600289751228 0 0.21369021087055559 -0.48838922096523862 0 0.1895024807051876 -0.49211600289751228 0 0.2058459898379498 -0.49894815536719189 0 0.1843308079312018 -0.49999999999999978 0 0.2058459898379498 -0.49894815536719189 0 0.21205416648602651 -0.5 0 0.1843308079312018 -0.49999999999999978 0 0.1895024807051876 -0.49211600289751228 0 0.2058459898379498 -0.49894815536719189 0 0.21369021087055559 -0.48838922096523862 0 0.1895024807051876 -0.49211600289751228 0 0.20092388063683669 -0.48220304925636132 0 0.21369021087055559 -0.48838922096523862 0 0.1895024807051876 -0.49211600289751228 0 0.18865363289629419 -0.47548057764425727 0 0.20092388063683669 -0.48220304925636132 0 0.18865363289629419 -0.47548057764425727 0 0.20697453136391089 -0.46959553093941953 0 0.2118491980753093 -0.47282639551843758 0 0.18865363289629419 -0.47548057764425727 0 0.20092388063683669 -0.48220304925636132 0 0.2118491980753093 -0.47282639551843758 0 0.18865363289629419 -0.47548057764425727 0 0.2118491980753093 -0.47282639551843758 0 0.18865363289629419 -0.47548057764425727 0 0.20697453136391089 -0.46959553093941953 0 0.19964262426377671 -0.46536960514059161 0 0.20092388063683669 -0.48220304925636132 0 0.2118491980753093 -0.47282639551843758 0 0.21369021087055559 -0.48838922096523862 0 0.2118491980753093 -0.47282639551843758 0 0.21369021087055559 -0.48838922096523862 0 0.22461552830902831 -0.47901256722731489 0 0.2058459898379498 -0.49894815536719189 0 0.21205416648602651 -0.5 0 0.23532761845034461 -0.49475353705879271 0 0.2058459898379498 -0.49894815536719189 0 0.21369021087055559 -0.48838922096523862 0 0.23532761845034461 -0.49475353705879271 0 0.21369021087055559 -0.48838922096523862 0 0.23532761845034461 -0.49475353705879271 0 0.23787794103592361 -0.48466243903296491 0 0.21205416648602651 -0.5 0 0.23977752504085109 -0.5 0 0.23532761845034461 -0.49475353705879271 0 0.2058459898379498 -0.49894815536719189 0 0.23532761845034461 -0.49475353705879271 0 0.21369021087055559 -0.48838922096523862 0 0.23787794103592361 -0.48466243903296491 0 0.26480924706273951 -0.4905589187503937 0 0.23532761845034461 -0.49475353705879271 0 0.23787794103592361 -0.48466243903296491 0 0.26480924706273951 -0.4905589187503937 0 0.23977752504085109 -0.5 0 0.23532761845034461 -0.49475353705879271 0 0.25824032843333983 -0.46751803126679969 0 0.24830717598121979 -0.47582208519826868 0 0.23504476325432461 -0.47017221339261878 0 0.26206567120129171 -0.48093565710069108 0 0.23787794103592361 -0.48466243903296491 0 0.24830717598121979 -0.47582208519826868 0 0.25824032843333983 -0.46751803126679969 0 0.23504476325432461 -0.47017221339261878 0 0.26206567120129171 -0.48093565710069108 0 0.23787794103592361 -0.48466243903296491 0 0.23787794103592361 -0.48466243903296491 0 0.24830717598121979 -0.47582208519826868 0 0.23504476325432461 -0.47017221339261878 0 0.21369021087055559 -0.48838922096523862 0 0.23787794103592361 -0.48466243903296491 0 0.22461552830902831 -0.47901256722731489 0 0.2118491980753093 -0.47282639551843758 0 0.23504476325432461 -0.47017221339261878 0 0.22461552830902831 -0.47901256722731489 0 0.2118491980753093 -0.47282639551843758 0 0.23504476325432461 -0.47017221339261878 0 0.23787794103592361 -0.48466243903296491 0 0.23504476325432461 -0.47017221339261878 0 0.22461552830902831 -0.47901256722731489 0 0.2118491980753093 -0.47282639551843758 0 0.23504476325432461 -0.47017221339261878 0 0.21980168110011311 -0.4585053722873666 0 0.21980168110011311 -0.4585053722873666 0 0.23255567148510531 -0.45835815960688081 0 0.23262883083631511 -0.4474152136353135 0 0.23504476325432461 -0.47017221339261878 0 0.21980168110011311 -0.4585053722873666 0 0.23255567148510531 -0.45835815960688081 0 0.25824032843333983 -0.46751803126679969 0 0.23504476325432461 -0.47017221339261878 0 0.24274741074966841 -0.45733983911222448 0 0.23504476325432461 -0.47017221339261878 0 0.23255567148510531 -0.45835815960688081 0 0.24274741074966841 -0.45733983911222448 0 0.23255567148510531 -0.45835815960688081 0 0.24274741074966841 -0.45733983911222448 0 0.23262883083631511 -0.4474152136353135 0 0.25102920449059068 -0.44222456901388479 0 0.24329021789568031 -0.43819754046778198 0 0.23262883083631511 -0.4474152136353135 0 0.25102920449059068 -0.44222456901388479 0 0.23262883083631511 -0.4474152136353135 0 0.25102920449059068 -0.44222456901388479 0 0.24274741074966841 -0.45733983911222448 0 0.23262883083631511 -0.4474152136353135 0 0.24329021789568031 -0.43819754046778198 0 0.2349818180578252 -0.44217306388742611 0 0.23262883083631511 -0.4474152136353135 0 0.24329021789568031 -0.43819754046778198 0 0.23262883083631511 -0.4474152136353135 0 0.2349818180578252 -0.44217306388742611 0 0.22688507127149979 -0.43998126692899447 0 0.23132651709347199 -0.43494104315193483 0 0.23262883083631511 -0.4474152136353135 0 0.2199813248404919 -0.44346206345123368 0 0.21432183153356971 -0.45257951786362471 0 0.2349818180578252 -0.44217306388742611 0 0.22688507127149979 -0.43998126692899447 0 0.23262883083631511 -0.4474152136353135 0 0.21980168110011311 -0.4585053722873666 0 0.23262883083631511 -0.4474152136353135 0 0.21432183153356971 -0.45257951786362471 0 0.23262883083631511 -0.4474152136353135 0 0.21432183153356971 -0.45257951786362471 0 0.21980168110011311 -0.4585053722873666 0 0.23262883083631511 -0.4474152136353135 0 0.22688507127149979 -0.43998126692899447 0 0.23262883083631511 -0.4474152136353135 0 0.2199813248404919 -0.44346206345123368 0 0.22688507127149979 -0.43998126692899447 0 0.2199813248404919 -0.44346206345123368 0 0.21854260991476029 -0.43524763519678772 0 0.21432183153356971 -0.45257951786362471 0 0.19601483223082439 -0.4577438220919362 0 0.20162075937727411 -0.4483954552380186 0 0.2199813248404919 -0.44346206345123368 0 0.20994257071562461 -0.44081112451503268 0 0.21854260991476029 -0.43524763519678772 0 0.20994257071562461 -0.44081112451503268 0 0.21432183153356971 -0.45257951786362471 0 0.20162075937727411 -0.4483954552380186 0 0.2199813248404919 -0.44346206345123368 0 0.20994257071562461 -0.44081112451503268 0 0.21432183153356971 -0.45257951786362471 0 0.21980168110011311 -0.4585053722873666 0 0.21432183153356971 -0.45257951786362471 0 0.2131356400106604 -0.45827727423244241 0 0.21980168110011311 -0.4585053722873666 0 0.2131356400106604 -0.45827727423244241 0 0.20968786496042879 -0.46238088142660733 0 0.21432183153356971 -0.45257951786362471 0 0.20375577467787279 -0.45984542809751461 0 0.19601483223082439 -0.4577438220919362 0 0.21432183153356971 -0.45257951786362471 0 0.19601483223082439 -0.4577438220919362 0 0.21432183153356971 -0.45257951786362471 0 0.2131356400106604 -0.45827727423244241 0 0.20873118244853031 -0.45964332535217117 0 0.20697453136391089 -0.46959553093941953 0 0.2118491980753093 -0.47282639551843758 0 0.21980168110011311 -0.4585053722873666 0 0.20697453136391089 -0.46959553093941953 0 0.21980168110011311 -0.4585053722873666 0 0.20697453136391089 -0.46959553093941953 0 0.21980168110011311 -0.4585053722873666 0 0.20968786496042879 -0.46238088142660733 0 0.20697453136391089 -0.46959553093941953 0 0.20968786496042879 -0.46238088142660733 0 0.20566136787485251 -0.46390940788717228 0 0.20968786496042879 -0.46238088142660733 0 0.20566136787485251 -0.46390940788717228 0 0.20873118244853031 -0.45964332535217117 0 0.20566136787485251 -0.46390940788717228 0 0.20873118244853031 -0.45964332535217117 0 0.20375577467787279 -0.45984542809751461 0 0.20697453136391089 -0.46959553093941953 0 0.20566136787485251 -0.46390940788717228 0 0.19964262426377671 -0.46536960514059161 0 0.21432183153356971 -0.45257951786362471 0 0.20873118244853031 -0.45964332535217117 0 0.20375577467787279 -0.45984542809751461 0 0.2131356400106604 -0.45827727423244241 0 0.20968786496042879 -0.46238088142660733 0 0.20873118244853031 -0.45964332535217117 0 0.19601483223082439 -0.4577438220919362 0 0.19214222559797209 -0.45569298999724528 0 0.20162075937727411 -0.4483954552380186 0 0.18865363289629419 -0.47548057764425727 0 0.19214222559797209 -0.45569298999724528 0 0.18865363289629419 -0.47548057764425727 0 0.19214222559797209 -0.45569298999724528 0 0.18392364625904439 -0.4618198513116904 0 0.18865363289629419 -0.47548057764425727 0 0.19601483223082439 -0.4577438220919362 0 0.19964262426377671 -0.46536960514059161 0 0.18865363289629419 -0.47548057764425727 0 0.19601483223082439 -0.4577438220919362 0 0.19214222559797209 -0.45569298999724528 0 0.20375577467787279 -0.45984542809751461 0 0.19601483223082439 -0.4577438220919362 0 0.19964262426377671 -0.46536960514059161 0 0.20566136787485251 -0.46390940788717228 0 0.20375577467787279 -0.45984542809751461 0 0.19964262426377671 -0.46536960514059161 0 0.19214222559797209 -0.45569298999724528 0 0.19563081829964679 -0.43590540235023267 0 0.19214222559797209 -0.45569298999724528 0 0.20162075937727411 -0.4483954552380186 0 0.19563081829964679 -0.43590540235023267 0 0.19214222559797209 -0.45569298999724528 0 0.19563081829964679 -0.43590540235023267 0 0.1851994960191084 -0.44407616030080282 0 0.19563081829964679 -0.43590540235023267 0 0.18210774281783201 -0.433425102544027 0 0.1851994960191084 -0.44407616030080282 0 0.20994257071562461 -0.44081112451503268 0 0.20162075937727411 -0.4483954552380186 0 0.19563081829964679 -0.43590540235023267 0 0.19563081829964679 -0.43590540235023267 0 0.20202618850408291 -0.4159008516727159 0 0.21041130239999031 -0.42872699132326331 0 0.19563081829964679 -0.43590540235023267 0 0.20202618850408291 -0.4159008516727159 0 0.18631802550287579 -0.41968578833387338 0 0.19563081829964679 -0.43590540235023267 0 0.18631802550287579 -0.41968578833387338 0 0.18210774281783201 -0.433425102544027 0 0.20202618850408291 -0.4159008516727159 0 0.1905542477324734 -0.40095564739681389 0 0.18631802550287579 -0.41968578833387338 0 0.20202618850408291 -0.4159008516727159 0 0.21418182210639711 -0.41730192569184799 0 0.21041130239999031 -0.42872699132326331 0 0.20202618850408291 -0.4159008516727159 0 0.21418182210639711 -0.41730192569184799 0 0.2103403230161984 -0.39468029915307001 0 0.22684071382426929 -0.41945679613019221 0 0.2103403230161984 -0.39468029915307001 0 0.21418182210639711 -0.41730192569184799 0 0.22684071382426929 -0.41945679613019221 0 0.2103403230161984 -0.39468029915307001 0 0.21418182210639711 -0.41730192569184799 0 0.21041130239999031 -0.42872699132326331 0 0.2221438048594303 -0.42719500851296338 0 0.20994257071562461 -0.44081112451503268 0 0.19563081829964679 -0.43590540235023267 0 0.21041130239999031 -0.42872699132326331 0 0.21041130239999031 -0.42872699132326331 0 0.21854260991476029 -0.43524763519678772 0 0.2221438048594303 -0.42719500851296338 0 0.20994257071562461 -0.44081112451503268 0 0.21041130239999031 -0.42872699132326331 0 0.21854260991476029 -0.43524763519678772 0 0.21854260991476029 -0.43524763519678772 0 0.2244166275868435 -0.4336913445437563 0 0.2221438048594303 -0.42719500851296338 0 0.22688507127149979 -0.43998126692899447 0 0.21854260991476029 -0.43524763519678772 0 0.2244166275868435 -0.4336913445437563 0 0.2349818180578252 -0.44217306388742611 0 0.23132651709347199 -0.43494104315193483 0 0.23545768390017721 -0.41855440527418108 0 0.2295341192329195 -0.42564346132623349 0 0.23132651709347199 -0.43494104315193483 0 0.23545768390017721 -0.41855440527418108 0 0.2244166275868435 -0.4336913445437563 0 0.2221438048594303 -0.42719500851296338 0 0.2275359366396805 -0.43050015588259749 0 0.2221438048594303 -0.42719500851296338 0 0.2295341192329195 -0.42564346132623349 0 0.2275359366396805 -0.43050015588259749 0 0.2221438048594303 -0.42719500851296338 0 0.2295341192329195 -0.42564346132623349 0 0.22684071382426929 -0.41945679613019221 0 0.2295341192329195 -0.42564346132623349 0 0.2275359366396805 -0.43050015588259749 0 0.23132651709347199 -0.43494104315193483 0 0.22688507127149979 -0.43998126692899447 0 0.2244166275868435 -0.4336913445437563 0 0.23132651709347199 -0.43494104315193483 0 0.2244166275868435 -0.4336913445437563 0 0.2275359366396805 -0.43050015588259749 0 0.23132651709347199 -0.43494104315193483 0 0.24329021789568031 -0.43819754046778198 0 0.2349818180578252 -0.44217306388742611 0 0.24271766142780521 -0.42696502331274078 0 0.2349818180578252 -0.44217306388742611 0 0.23545768390017721 -0.41855440527418108 0 0.2349818180578252 -0.44217306388742611 0 0.24271766142780521 -0.42696502331274078 0 0.23545768390017721 -0.41855440527418108 0 0.25461036409595073 -0.42543280413966672 0 0.24329021789568031 -0.43819754046778198 0 0.24771162834454169 -0.42522020283389139 0 0.24271766142780521 -0.42696502331274078 0 0.24771162834454169 -0.42522020283389139 0 0.24529057633248821 -0.41719125275567348 0 0.25062434725315252 -0.43185656372534281 0 0.25461036409595073 -0.42543280413966672 0 0.24329021789568031 -0.43819754046778198 0 0.24329021789568031 -0.43819754046778198 0 0.24271766142780521 -0.42696502331274078 0 0.24771162834454169 -0.42522020283389139 0 0.25062434725315252 -0.43185656372534281 0 0.25102920449059068 -0.44222456901388479 0 0.24329021789568031 -0.43819754046778198 0 0.25461036409595073 -0.42543280413966672 0 0.24329021789568031 -0.43819754046778198 0 0.25062434725315252 -0.43185656372534281 0 0.24329021789568031 -0.43819754046778198 0 0.23545768390017721 -0.41855440527418108 0 0.24126970842266271 -0.40798352465312232 0 0.2359335497425292 -0.39493574666093612 0 0.23545768390017721 -0.41855440527418108 0 0.2359335497425292 -0.39493574666093612 0 0.24635520515690479 -0.40805365165468149 0 0.24529057633248821 -0.41719125275567348 0 0.24126970842266271 -0.40798352465312232 0 0.254241536280572 -0.41322500987920252 0 0.24635520515690479 -0.40805365165468149 0 0.24529057633248821 -0.41719125275567348 0 0.2507646469428147 -0.42011770442954421 0 0.24771162834454169 -0.42522020283389139 0 0.24529057633248821 -0.41719125275567348 0 0.24271766142780521 -0.42696502331274078 0 0.24529057633248821 -0.41719125275567348 0 0.23545768390017721 -0.41855440527418108 0 0.24529057633248821 -0.41719125275567348 0 0.23545768390017721 -0.41855440527418108 0 0.24126970842266271 -0.40798352465312232 0 0.23545768390017721 -0.41855440527418108 0 0.22985291804187261 -0.40662735798781069 0 0.2359335497425292 -0.39493574666093612 0 0.22985291804187261 -0.40662735798781069 0 0.22684071382426929 -0.41945679613019221 0 0.2103403230161984 -0.39468029915307001 0 0.2295341192329195 -0.42564346132623349 0 0.23545768390017721 -0.41855440527418108 0 0.22684071382426929 -0.41945679613019221 0 0.23545768390017721 -0.41855440527418108 0 0.22985291804187261 -0.40662735798781069 0 0.22684071382426929 -0.41945679613019221 0 0.21418182210639711 -0.41730192569184799 0 0.2221438048594303 -0.42719500851296338 0 0.22684071382426929 -0.41945679613019221 0 0.22985291804187261 -0.40662735798781069 0 0.2241063302717585 -0.39288800011087222 0 0.2103403230161984 -0.39468029915307001 0 0.22985291804187261 -0.40662735798781069 0 0.2241063302717585 -0.39288800011087222 0 0.2359335497425292 -0.39493574666093612 0 0.24126970842266271 -0.40798352465312232 0 0.2359335497425292 -0.39493574666093612 0 0.243311526981214 -0.40118256692013898 0 0.2359335497425292 -0.39493574666093612 0 0.24205558465715329 -0.39269416727099971 0 0.243311526981214 -0.40118256692013898 0 0.2570070680359573 -0.4000810286696006 0 0.24205558465715329 -0.39269416727099971 0 0.243311526981214 -0.40118256692013898 0 0.2570070680359573 -0.4000810286696006 0 0.24205558465715329 -0.39269416727099971 0 0.24755933536825281 -0.38688758237221521 0 0.2570070680359573 -0.4000810286696006 0 0.24635520515690479 -0.40805365165468149 0 0.243311526981214 -0.40118256692013898 0 0.24635520515690479 -0.40805365165468149 0 0.24126970842266271 -0.40798352465312232 0 0.243311526981214 -0.40118256692013898 0 0.23640941558487971 -0.37131708804769109 0 0.2359335497425292 -0.39493574666093612 0 0.24205558465715329 -0.39269416727099971 0 0.23640941558487971 -0.37131708804769109 0 0.2359335497425292 -0.39493574666093612 0 0.23640941558487971 -0.37131708804769109 0 0.24205558465715329 -0.39269416727099971 0 0.24755933536825281 -0.38688758237221521 0 0.23640941558487971 -0.37131708804769109 0 0.24842279325543079 -0.37396775914526681 0 0.24755933536825281 -0.38688758237221521 0 0.24205558465715329 -0.39269416727099971 0 0.24755933536825281 -0.38688758237221521 0 0.23640941558487971 -0.37131708804769109 0 0.24755933536825281 -0.38688758237221521 0 0.23640941558487971 -0.37131708804769109 0 0.2203741311640571 -0.37046061497377419 0 0.22670832709516539 -0.38343547499037428 0 0.23640941558487971 -0.37131708804769109 0 0.2359335497425292 -0.39493574666093612 0 0.22670832709516539 -0.38343547499037428 0 0.2241063302717585 -0.39288800011087222 0 0.2359335497425292 -0.39493574666093612 0 0.22670832709516539 -0.38343547499037428 0 0.2241063302717585 -0.39288800011087222 0 0.22670832709516539 -0.38343547499037428 0 0.2176585338616997 -0.38343972887027611 0 0.2203741311640571 -0.37046061497377419 0 0.22670832709516539 -0.38343547499037428 0 0.2176585338616997 -0.38343972887027611 0 0.19383993220812751 -0.36990380217594782 0 0.20977471384684471 -0.37640108130586508 0 0.2103403230161984 -0.39468029915307001 0 0.20977471384684471 -0.37640108130586508 0 0.2176585338616997 -0.38343972887027611 0 0.2103403230161984 -0.39468029915307001 0 0.2203741311640571 -0.37046061497377419 0 0.20977471384684471 -0.37640108130586508 0 0.2176585338616997 -0.38343972887027611 0 0.2241063302717585 -0.39288800011087222 0 0.2176585338616997 -0.38343972887027611 0 0.2103403230161984 -0.39468029915307001 0 0.2103403230161984 -0.39468029915307001 0 0.1905542477324734 -0.40095564739681389 0 0.19089341304473351 -0.38492681487796387 0 0.20202618850408291 -0.4159008516727159 0 0.2103403230161984 -0.39468029915307001 0 0.1905542477324734 -0.40095564739681389 0 0.19383993220812751 -0.36990380217594782 0 0.2103403230161984 -0.39468029915307001 0 0.19089341304473351 -0.38492681487796387 0 0.19383993220812751 -0.36990380217594782 0 0.2103403230161984 -0.39468029915307001 0 0.19383993220812751 -0.36990380217594782 0 0.1824232098972863 -0.37404032922430691 0 0.19089341304473351 -0.38492681487796387 0 0.1905542477324734 -0.40095564739681389 0 0.19089341304473351 -0.38492681487796387 0 0.1773093523695819 -0.38505399643968052 0 0.1824232098972863 -0.37404032922430691 0 0.19089341304473351 -0.38492681487796387 0 0.1773093523695819 -0.38505399643968052 0 0.1905542477324734 -0.40095564739681389 0 0.1773093523695819 -0.38505399643968052 0 0.1738008530632156 -0.40703156960976777 0 0.1773093523695819 -0.38505399643968052 0 0.16577682301037289 -0.39479420637582319 0 0.1738008530632156 -0.40703156960976777 0 0.16204141257260571 -0.40392400707548481 0 0.15183313519649649 -0.39732309507877478 0 0.15675483902033779 -0.41654715723757341 0 0.16577682301037289 -0.39479420637582319 0 0.16204141257260571 -0.40392400707548481 0 0.1738008530632156 -0.40703156960976777 0 0.16577682301037289 -0.39479420637582319 0 0.16204141257260571 -0.40392400707548481 0 0.15183313519649649 -0.39732309507877478 0 0.17421872193789259 -0.36508830254489932 0 0.1773093523695819 -0.38505399643968052 0 0.1588088041095771 -0.37754047112377159 0 0.1773093523695819 -0.38505399643968052 0 0.16577682301037289 -0.39479420637582319 0 0.1588088041095771 -0.37754047112377159 0 0.16577682301037289 -0.39479420637582319 0 0.1588088041095771 -0.37754047112377159 0 0.15183313519649649 -0.39732309507877478 0 0.1588088041095771 -0.37754047112377159 0 0.13604401268595689 -0.38347614770530741 0 0.15183313519649649 -0.39732309507877478 0 0.14651911112371699 -0.36504546374083541 0 0.1588088041095771 -0.37754047112377159 0 0.13604401268595689 -0.38347614770530741 0 0.13604401268595689 -0.38347614770530741 0 0.1376677893640311 -0.39744914465913972 0 0.1226664249923597 -0.40014770133818578 0 0.1376677893640311 -0.39744914465913972 0 0.13765097140992111 -0.41011993222527171 0 0.1226664249923597 -0.40014770133818578 0 0.13604401268595689 -0.38347614770530741 0 0.1376677893640311 -0.39744914465913972 0 0.15183313519649649 -0.39732309507877478 0 0.1376677893640311 -0.39744914465913972 0 0.15183313519649649 -0.39732309507877478 0 0.13765097140992111 -0.41011993222527171 0 0.13765097140992111 -0.41011993222527171 0 0.14750468021091889 -0.42525532130861821 0 0.15675483902033779 -0.41654715723757341 0 0.15183313519649649 -0.39732309507877478 0 0.13765097140992111 -0.41011993222527171 0 0.15675483902033779 -0.41654715723757341 0 0.13765097140992111 -0.41011993222527171 0 0.13472620977138661 -0.42990273392592021 0 0.11475239821854601 -0.42320725819124572 0 0.13765097140992111 -0.41011993222527171 0 0.11475239821854601 -0.42320725819124572 0 0.13765097140992111 -0.41011993222527171 0 0.13472620977138661 -0.42990273392592021 0 0.14750468021091889 -0.42525532130861821 0 0.13472620977138661 -0.42990273392592021 0 0.15470002132422639 -0.43659820966059681 0 0.13472620977138661 -0.42990273392592021 0 0.15470002132422639 -0.43659820966059681 0 0.14720939586092349 -0.43844970876346201 0 0.13472620977138661 -0.42990273392592021 0 0.14750468021091889 -0.42525532130861821 0 0.15470002132422639 -0.43659820966059681 0 0.14750468021091889 -0.42525532130861821 0 0.1574085512625556 -0.42674496355153141 0 0.15675483902033779 -0.41654715723757341 0 0.14750468021091889 -0.42525532130861821 0 0.15470002132422639 -0.43659820966059681 0 0.1574085512625556 -0.42674496355153141 0 0.15470002132422639 -0.43659820966059681 0 0.1687233739716657 -0.42790449859440738 0 0.1574085512625556 -0.42674496355153141 0 0.15470002132422639 -0.43659820966059681 0 0.1687233739716657 -0.42790449859440738 0 0.1746738328770662 -0.44329368539527342 0 0.1687233739716657 -0.42790449859440738 0 0.1574085512625556 -0.42674496355153141 0 0.15675483902033779 -0.41654715723757341 0 0.1687233739716657 -0.42790449859440738 0 0.15675483902033779 -0.41654715723757341 0 0.1738008530632156 -0.40703156960976777 0 0.16204141257260571 -0.40392400707548481 0 0.15675483902033779 -0.41654715723757341 0 0.1738008530632156 -0.40703156960976777 0 0.1905542477324734 -0.40095564739681389 0 0.18631802550287579 -0.41968578833387338 0 0.1738008530632156 -0.40703156960976777 0 0.1687233739716657 -0.42790449859440738 0 0.18631802550287579 -0.41968578833387338 0 0.1738008530632156 -0.40703156960976777 0 0.1687233739716657 -0.42790449859440738 0 0.18631802550287579 -0.41968578833387338 0 0.18210774281783201 -0.433425102544027 0 0.1687233739716657 -0.42790449859440738 0 0.18210774281783201 -0.433425102544027 0 0.1746738328770662 -0.44329368539527342 0 0.18210774281783201 -0.433425102544027 0 0.1746738328770662 -0.44329368539527342 0 0.1851994960191084 -0.44407616030080282 0 0.19214222559797209 -0.45569298999724528 0 0.1851994960191084 -0.44407616030080282 0 0.18205723694599951 -0.45371352047465918 0 0.1746738328770662 -0.44329368539527342 0 0.1851994960191084 -0.44407616030080282 0 0.18205723694599951 -0.45371352047465918 0 0.1746738328770662 -0.44329368539527342 0 0.18205723694599951 -0.45371352047465918 0 0.17284148959591211 -0.46239231713060058 0 0.18865363289629419 -0.47548057764425727 0 0.18392364625904439 -0.4618198513116904 0 0.17284148959591211 -0.46239231713060058 0 0.19214222559797209 -0.45569298999724528 0 0.18205723694599951 -0.45371352047465918 0 0.18392364625904439 -0.4618198513116904 0 0.18205723694599951 -0.45371352047465918 0 0.18392364625904439 -0.4618198513116904 0 0.17284148959591211 -0.46239231713060058 0 0.17284148959591211 -0.46239231713060058 0 0.15452904286706109 -0.45198467339190629 0 0.1525559742019173 -0.4692431823520562 0 0.15470002132422639 -0.43659820966059681 0 0.1746738328770662 -0.44329368539527342 0 0.15470002132422639 -0.43659820966059681 0 0.1746738328770662 -0.44329368539527342 0 0.15452904286706109 -0.45198467339190629 0 0.1746738328770662 -0.44329368539527342 0 0.17284148959591211 -0.46239231713060058 0 0.15452904286706109 -0.45198467339190629 0 0.15470002132422639 -0.43659820966059681 0 0.15452904286706109 -0.45198467339190629 0 0.14720939586092349 -0.43844970876346201 0 0.15452904286706109 -0.45198467339190629 0 0.14720939586092349 -0.43844970876346201 0 0.14081674981022321 -0.45896647250897432 0 0.14720939586092349 -0.43844970876346201 0 0.14081674981022321 -0.45896647250897432 0 0.13472620977138661 -0.42990273392592021 0 0.14720939586092349 -0.43844970876346201 0 0.13380965239137951 -0.44474080835658708 0 0.14720939586092349 -0.43844970876346201 0 0.13380965239137951 -0.44474080835658708 0 0.14081674981022321 -0.45896647250897432 0 0.13380965239137951 -0.44474080835658708 0 0.12512198118755941 -0.45574894152044659 0 0.1203968852397459 -0.44333158210724349 0 0.13472620977138661 -0.42990273392592021 0 0.13380965239137951 -0.44474080835658708 0 0.1203968852397459 -0.44333158210724349 0 0.12512198118755941 -0.45574894152044659 0 0.14081674981022321 -0.45896647250897432 0 0.12247882745850321 -0.46970724767731697 0 0.13380965239137951 -0.44474080835658708 0 0.12512198118755941 -0.45574894152044659 0 0.14081674981022321 -0.45896647250897432 0 0.15452904286706109 -0.45198467339190629 0 0.14081674981022321 -0.45896647250897432 0 0.1525559742019173 -0.4692431823520562 0 0.1525559742019173 -0.4692431823520562 0 0.14208479367521459 -0.48080927645917232 0 0.16536921328575441 -0.47814492705171441 0 0.14081674981022321 -0.45896647250897432 0 0.1525559742019173 -0.4692431823520562 0 0.14208479367521459 -0.48080927645917232 0 0.14208479367521459 -0.48080927645917232 0 0.16536921328575441 -0.47814492705171441 0 0.14081674981022321 -0.45896647250897432 0 0.13442410375952291 -0.47948323625448652 0 0.14081674981022321 -0.45896647250897432 0 0.14208479367521459 -0.48080927645917232 0 0.13442410375952291 -0.47948323625448652 0 0.14081674981022321 -0.45896647250897432 0 0.13442410375952291 -0.47948323625448652 0 0.12247882745850321 -0.46970724767731697 0 0.13442410375952291 -0.47948323625448652 0 0.12247882745850321 -0.46970724767731697 0 0.124494395537148 -0.48277840966544022 0 0.13442410375952291 -0.47948323625448652 0 0.12803145770882279 -0.49999999999999889 0 0.124494395537148 -0.48277840966544022 0 0.13442410375952291 -0.47948323625448652 0 0.12803145770882279 -0.49999999999999889 0 0.14208479367521459 -0.48080927645917232 0 0.13442410375952291 -0.47948323625448652 0 0.12803145770882279 -0.49999999999999889 0 0.14208479367521459 -0.48080927645917232 0 0.15618113282001231 -0.5 0 0.16536921328575441 -0.47814492705171441 0 0.14208479367521459 -0.48080927645917232 0 0.12803145770882279 -0.49999999999999889 0 0.15618113282001231 -0.5 0 0.15618113282001231 -0.5 0 0.16536921328575441 -0.47814492705171441 0 0.1843308079312018 -0.49999999999999978 0 0.17284148959591211 -0.46239231713060058 0 0.1525559742019173 -0.4692431823520562 0 0.16536921328575441 -0.47814492705171441 0 0.18865363289629419 -0.47548057764425727 0 0.17284148959591211 -0.46239231713060058 0 0.16536921328575441 -0.47814492705171441 0 0.18865363289629419 -0.47548057764425727 0 0.16536921328575441 -0.47814492705171441 0 0.18865363289629419 -0.47548057764425727 0 0.16536921328575441 -0.47814492705171441 0 0.1843308079312018 -0.49999999999999978 0 0.18865363289629419 -0.47548057764425727 0 0.1843308079312018 -0.49999999999999978 0 0.1895024807051876 -0.49211600289751228 0 0.18865363289629419 -0.47548057764425727 0 0.1843308079312018 -0.49999999999999978 0 0.074703337553383764 -0.5 0 0.082246156740024418 -0.47664853205504032 0 0.056613990014464967 -0.48015623666629648 0 0.082246156740024418 -0.47664853205504032 0 0.063731688336222433 -0.45236735719239829 0 0.056613990014464967 -0.48015623666629648 0 0.082246156740024418 -0.47664853205504032 0 0.100159857406176 -0.47463755269591829 0 0.091714949186813888 -0.45768903535351058 0 0.074703337553383764 -0.5 0 0.082246156740024418 -0.47664853205504032 0 0.1013673976311034 -0.5 0 0.1013673976311034 -0.5 0 0.1130431932217433 -0.48192315472995712 0 0.100159857406176 -0.47463755269591829 0 0.12803145770882279 -0.49999999999999889 0 0.124494395537148 -0.48277840966544022 0 0.1130431932217433 -0.48192315472995712 0 0.12803145770882279 -0.49999999999999889 0 0.1013673976311034 -0.5 0 0.1130431932217433 -0.48192315472995712 0 0.12247882745850321 -0.46970724767731697 0 0.1130431932217433 -0.48192315472995712 0 0.1104404506253665 -0.46069903729665568 0 0.12247882745850321 -0.46970724767731697 0 0.124494395537148 -0.48277840966544022 0 0.1130431932217433 -0.48192315472995712 0 0.1130431932217433 -0.48192315472995712 0 0.100159857406176 -0.47463755269591829 0 0.1104404506253665 -0.46069903729665568 0 0.082246156740024418 -0.47664853205504032 0 0.1013673976311034 -0.5 0 0.100159857406176 -0.47463755269591829 0 0.100159857406176 -0.47463755269591829 0 0.1104404506253665 -0.46069903729665568 0 0.091714949186813888 -0.45768903535351058 0 0.1104404506253665 -0.46069903729665568 0 0.10530934530957139 -0.44454284412809592 0 0.091714949186813888 -0.45768903535351058 0 0.12512198118755941 -0.45574894152044659 0 0.1104404506253665 -0.46069903729665568 0 0.1203968852397459 -0.44333158210724349 0 0.12512198118755941 -0.45574894152044659 0 0.12247882745850321 -0.46970724767731697 0 0.1104404506253665 -0.46069903729665568 0 0.1104404506253665 -0.46069903729665568 0 0.1203968852397459 -0.44333158210724349 0 0.10530934530957139 -0.44454284412809592 0 0.10530934530957139 -0.44454284412809592 0 0.089242043277385025 -0.4377873076918235 0 0.091714949186813888 -0.45768903535351058 0 0.089242043277385025 -0.4377873076918235 0 0.091714949186813888 -0.45768903535351058 0 0.063731688336222433 -0.45236735719239829 0 0.082246156740024418 -0.47664853205504032 0 0.091714949186813888 -0.45768903535351058 0 0.063731688336222433 -0.45236735719239829 0 0.089242043277385025 -0.4377873076918235 0 0.063731688336222433 -0.45236735719239829 0 0.062818570485145761 -0.43582811307719982 0 0.089242043277385025 -0.4377873076918235 0 0.063731688336222433 -0.45236735719239829 0 0.089242043277385025 -0.4377873076918235 0 0.062818570485145761 -0.43582811307719982 0 0.067755799291487978 -0.42035257222093708 0 0.067755799291487978 -0.42035257222093708 0 0.086100063537063981 -0.41360263109770151 0 0.067755799291487978 -0.42035257222093708 0 0.086100063537063981 -0.41360263109770151 0 0.060529421835924059 -0.40503102669574947 0 0.086100063537063981 -0.41360263109770151 0 0.060529421835924059 -0.40503102669574947 0 0.089242043277385025 -0.4377873076918235 0 0.067755799291487978 -0.42035257222093708 0 0.086100063537063981 -0.41360263109770151 0 0.10530934530957139 -0.44454284412809592 0 0.089242043277385025 -0.4377873076918235 0 0.11475239821854601 -0.42320725819124572 0 0.089242043277385025 -0.4377873076918235 0 0.11475239821854601 -0.42320725819124572 0 0.089242043277385025 -0.4377873076918235 0 0.086100063537063981 -0.41360263109770151 0 0.11475239821854601 -0.42320725819124572 0 0.13472620977138661 -0.42990273392592021 0 0.11475239821854601 -0.42320725819124572 0 0.1203968852397459 -0.44333158210724349 0 0.10530934530957139 -0.44454284412809592 0 0.11475239821854601 -0.42320725819124572 0 0.13472620977138661 -0.42990273392592021 0 0.1203968852397459 -0.44333158210724349 0 0.11475239821854601 -0.42320725819124572 0 0.11475239821854601 -0.42320725819124572 0 0.10438324426471179 -0.40687516621794351 0 0.1226664249923597 -0.40014770133818578 0 0.13765097140992111 -0.41011993222527171 0 0.11475239821854601 -0.42320725819124572 0 0.1226664249923597 -0.40014770133818578 0 0.086100063537063981 -0.41360263109770151 0 0.11475239821854601 -0.42320725819124572 0 0.10438324426471179 -0.40687516621794351 0 0.086100063537063981 -0.41360263109770151 0 0.10438324426471179 -0.40687516621794351 0 0.086100063537063981 -0.41360263109770151 0 0.11475239821854601 -0.42320725819124572 0 0.10438324426471179 -0.40687516621794351 0 0.10811068047382261 -0.38931811285133522 0 0.091747886736371465 -0.39671519485079881 0 0.086100063537063981 -0.41360263109770151 0 0.10438324426471179 -0.40687516621794351 0 0.091747886736371465 -0.39671519485079881 0 0.13604401268595689 -0.38347614770530741 0 0.1226664249923597 -0.40014770133818578 0 0.10811068047382261 -0.38931811285133522 0 0.10438324426471179 -0.40687516621794351 0 0.1226664249923597 -0.40014770133818578 0 0.10438324426471179 -0.40687516621794351 0 0.1226664249923597 -0.40014770133818578 0 0.10811068047382261 -0.38931811285133522 0 0.13604401268595689 -0.38347614770530741 0 0.10811068047382261 -0.38931811285133522 0 0.1095676493250143 -0.37262071837569999 0 0.082446609809910754 -0.37754177495080909 0 0.1095676493250143 -0.37262071837569999 0 0.10811068047382261 -0.38931811285133522 0 0.082446609809910754 -0.37754177495080909 0 0.091747886736371465 -0.39671519485079881 0 0.10811068047382261 -0.38931811285133522 0 0.082446609809910754 -0.37754177495080909 0 0.1095676493250143 -0.37262071837569999 0 0.082446609809910754 -0.37754177495080909 0 0.091747886736371465 -0.39671519485079881 0 0.07769883559634827 -0.39623828913620462 0 0.086100063537063981 -0.41360263109770151 0 0.091747886736371465 -0.39671519485079881 0 0.07769883559634827 -0.39623828913620462 0 0.07769883559634827 -0.39623828913620462 0 0.05532557029480719 -0.38246283152591831 0 0.060529421835924059 -0.40503102669574947 0 0.086100063537063981 -0.41360263109770151 0 0.07769883559634827 -0.39623828913620462 0 0.060529421835924059 -0.40503102669574947 0 0.082446609809910754 -0.37754177495080909 0 0.07769883559634827 -0.39623828913620462 0 0.05532557029480719 -0.38246283152591831 0 0.082446609809910754 -0.37754177495080909 0 0.05532557029480719 -0.38246283152591831 0 0.060529421835924059 -0.40503102669574947 0 0.03495878013478429 -0.39645942229379699 0 0.05532557029480719 -0.38246283152591831 0 0.060529421835924059 -0.40503102669574947 0 0.03495878013478429 -0.39645942229379699 0 0.03495878013478429 -0.39645942229379699 0 0.030460405177229151 -0.40968868173691242 0 0.043920964778199893 -0.41237795554836132 0 0.060529421835924059 -0.40503102669574947 0 0.03495878013478429 -0.39645942229379699 0 0.043920964778199893 -0.41237795554836132 0 0.05532557029480719 -0.38246283152591831 0 0.028204530779703509 -0.38738388810102742 0 0.05532557029480719 -0.38246283152591831 0 0.028204530779703509 -0.38738388810102742 0 0.039411102058297877 -0.37373484016718561 0 0.05532557029480719 -0.38246283152591831 0 0.03495878013478429 -0.39645942229379699 0 0.028204530779703509 -0.38738388810102742 0 0.028204530779703509 -0.38738388810102742 0 0.039411102058297877 -0.37373484016718561 0 0.020599217944317589 -0.3742265213985253 0 0.028204530779703509 -0.38738388810102742 0 0.0093881384336444995 -0.38788781789184462 0 0.020599217944317589 -0.3742265213985253 0 0.03495878013478429 -0.39645942229379699 0 0.028204530779703509 -0.38738388810102742 0 0.0093881384336444995 -0.38788781789184462 0 0.0093881384336444995 -0.38788781789184462 0 0.020599217944317589 -0.3742265213985253 0 0.003309102918704366 -0.37262758108984068 0 0.0093881384336444995 -0.38788781789184462 0 0.0001548961855554003 -0.40425103983522143 0 0.018148557930421961 -0.40259418720964463 0 0.03495878013478429 -0.39645942229379699 0 0.018148557930421961 -0.40259418720964463 0 0.030460405177229151 -0.40968868173691242 0 0.03495878013478429 -0.39645942229379699 0 0.0093881384336444995 -0.38788781789184462 0 0.03495878013478429 -0.39645942229379699 0 0.0093881384336444995 -0.38788781789184462 0 0.018148557930421961 -0.40259418720964463 0 0.030460405177229151 -0.40968868173691242 0 0.015780569720896458 -0.41468397429044718 0 0.033528452246145243 -0.42475109823058738 0 0.018148557930421961 -0.40259418720964463 0 0.030460405177229151 -0.40968868173691242 0 0.015780569720896458 -0.41468397429044718 0 0.0001548961855554003 -0.40425103983522143 0 0.018148557930421961 -0.40259418720964463 0 0.015780569720896458 -0.41468397429044718 0 -0.0027692131281891888 -0.43342354364163282 0 0.0001548961855554003 -0.40425103983522143 0 0.015780569720896458 -0.41468397429044718 0 -0.0027692131281891888 -0.43342354364163282 0 0.015780569720896458 -0.41468397429044718 0 0.01764545227991263 -0.44312264952696362 0 0.015780569720896458 -0.41468397429044718 0 0.033528452246145243 -0.42475109823058738 0 0.01764545227991263 -0.44312264952696362 0 0.015780569720896458 -0.41468397429044718 0 0.01764545227991263 -0.44312264952696362 0 0.033528452246145243 -0.42475109823058738 0 0.049411535045912093 -0.42710251334417298 0 0.04395178647472129 -0.44153081493666713 0 0.033528452246145243 -0.42475109823058738 0 0.04395178647472129 -0.44153081493666713 0 0.01764545227991263 -0.44312264952696362 0 0.030460405177229151 -0.40968868173691242 0 0.033528452246145243 -0.42475109823058738 0 0.043920964778199893 -0.41237795554836132 0 0.033528452246145243 -0.42475109823058738 0 0.043920964778199893 -0.41237795554836132 0 0.049411535045912093 -0.42710251334417298 0 0.060529421835924059 -0.40503102669574947 0 0.043920964778199893 -0.41237795554836132 0 0.055404430237880997 -0.4162160169523052 0 0.067755799291487978 -0.42035257222093708 0 0.055404430237880997 -0.4162160169523052 0 0.049411535045912093 -0.42710251334417298 0 0.043920964778199893 -0.41237795554836132 0 0.055404430237880997 -0.4162160169523052 0 0.049411535045912093 -0.42710251334417298 0 0.067755799291487978 -0.42035257222093708 0 0.060529421835924059 -0.40503102669574947 0 0.055404430237880997 -0.4162160169523052 0 0.062818570485145761 -0.43582811307719982 0 0.049411535045912093 -0.42710251334417298 0 0.04395178647472129 -0.44153081493666713 0 0.062818570485145761 -0.43582811307719982 0 0.067755799291487978 -0.42035257222093708 0 0.049411535045912093 -0.42710251334417298 0 0.067755799291487978 -0.42035257222093708 0 0.049411535045912093 -0.42710251334417298 0 0.063731688336222433 -0.45236735719239829 0 0.062818570485145761 -0.43582811307719982 0 0.04395178647472129 -0.44153081493666713 0 0.063731688336222433 -0.45236735719239829 0 0.03822133339505971 -0.46694740669297341 0 0.063731688336222433 -0.45236735719239829 0 0.03822133339505971 -0.46694740669297341 0 0.056613990014464967 -0.48015623666629648 0 0.063731688336222433 -0.45236735719239829 0 0.03822133339505971 -0.46694740669297341 0 0.04395178647472129 -0.44153081493666713 0 0.03822133339505971 -0.46694740669297341 0 0.04395178647472129 -0.44153081493666713 0 0.01764545227991263 -0.44312264952696362 0 -0.0027692131281891888 -0.43342354364163282 0 0.01764545227991263 -0.44312264952696362 0 0.007382801424827435 -0.4580761117798875 0 0.01764545227991263 -0.44312264952696362 0 0.007382801424827435 -0.4580761117798875 0 0.019510334838928792 -0.47156132476348001 0 0.007382801424827435 -0.4580761117798875 0 0.019510334838928792 -0.47156132476348001 0 0.014702212203463299 -0.47466991368832878 0 0.01764545227991263 -0.44312264952696362 0 0.019510334838928792 -0.47156132476348001 0 0.03822133339505971 -0.46694740669297341 0 0.01764545227991263 -0.44312264952696362 0 0.019510334838928792 -0.47156132476348001 0 0.019510334838928792 -0.47156132476348001 0 0.014702212203463299 -0.47466991368832878 0 0.02137521739794471 -0.49999999999999639 0 0.03822133339505971 -0.46694740669297341 0 0.019510334838928792 -0.47156132476348001 0 0.032742146586435303 -0.48497412405736717 0 -0.012960156365352761 -0.47869733803054187 0 0.014702212203463299 -0.47466991368832878 0 0.0028652109536792029 -0.48687931248582872 0 -0.012960156365352761 -0.47869733803054187 0 0.014702212203463299 -0.47466991368832878 0 -0.012960156365352761 -0.47869733803054187 0 0.007382801424827435 -0.4580761117798875 0 0.014702212203463299 -0.47466991368832878 0 -0.0072485533882910569 -0.5 0 0.0028652109536792029 -0.48687931248582872 0 0.02137521739794471 -0.49999999999999639 0 0.014702212203463299 -0.47466991368832878 0 0.0028652109536792029 -0.48687931248582872 0 0.02137521739794471 -0.49999999999999639 0 0.019510334838928792 -0.47156132476348001 0 0.02137521739794471 -0.49999999999999639 0 0.032742146586435303 -0.48497412405736717 0 0.019510334838928792 -0.47156132476348001 0 0.02137521739794471 -0.49999999999999639 0 0.02137521739794471 -0.49999999999999639 0 0.032742146586435303 -0.48497412405736717 0 0.048039277475664277 -0.5 0 0.032742146586435303 -0.48497412405736717 0 0.056613990014464967 -0.48015623666629648 0 0.048039277475664277 -0.5 0 0.03822133339505971 -0.46694740669297341 0 0.032742146586435303 -0.48497412405736717 0 0.056613990014464967 -0.48015623666629648 0 0.074703337553383764 -0.5 0 0.056613990014464967 -0.48015623666629648 0 0.048039277475664277 -0.5 0 0.09364222895764783 -0.28902178414879309 0 0.079441456119940287 -0.30542407451580039 0 0.066163109824030869 -0.28018144098101899 0 0.09364222895764783 -0.28902178414879309 0 0.066163109824030869 -0.28018144098101899 0 0.079441456119940287 -0.30542407451580039 0 0.1011344095744002 -0.30548174397643318 0 0.098239838848499975 -0.32185858159115222 0 0.09364222895764783 -0.28902178414879309 0 0.079441456119940287 -0.30542407451580039 0 0.1011344095744002 -0.30548174397643318 0 0.079441456119940287 -0.30542407451580039 0 0.059012414287070387 -0.31508175476909939 0 0.058170578653031671 -0.29729217350020548 0 0.079441456119940287 -0.30542407451580039 0 0.066163109824030869 -0.28018144098101899 0 0.058170578653031671 -0.29729217350020548 0 0.066163109824030869 -0.28018144098101899 0 0.082160965515870141 -0.27084719573732219 0 0.057964510154616081 -0.26349263491543762 0 0.074063522576115412 -0.25418913646128999 0 0.082160965515870141 -0.27084719573732219 0 0.057964510154616081 -0.26349263491543762 0 0.074063522576115412 -0.25418913646128999 0 0.082160965515870141 -0.27084719573732219 0 0.1003840320089199 -0.26753368270788169 0 0.074063522576115412 -0.25418913646128999 0 0.1003840320089199 -0.26753368270788169 0 0.096223482391782161 -0.25066647691632232 0 0.074063522576115412 -0.25418913646128999 0 0.1003840320089199 -0.26753368270788169 0 0.09364222895764783 -0.28902178414879309 0 0.066163109824030869 -0.28018144098101899 0 0.082160965515870141 -0.27084719573732219 0 0.09364222895764783 -0.28902178414879309 0 0.082160965515870141 -0.27084719573732219 0 0.1003840320089199 -0.26753368270788169 0 0.09364222895764783 -0.28902178414879309 0 0.1003840320089199 -0.26753368270788169 0 0.11046303762488929 -0.28382395578192882 0 0.1003840320089199 -0.26753368270788169 0 0.096223482391782161 -0.25066647691632232 0 0.1128464104435675 -0.2555657971241207 0 0.1265600254658609 -0.25575995917907818 0 0.1128464104435675 -0.2555657971241207 0 0.1219956350411413 -0.2398427023391346 0 0.1003840320089199 -0.26753368270788169 0 0.1128464104435675 -0.2555657971241207 0 0.1211469805498851 -0.26613371668915642 0 0.1265600254658609 -0.25575995917907818 0 0.1128464104435675 -0.2555657971241207 0 0.1211469805498851 -0.26613371668915642 0 0.12670454144172449 -0.2808782289544734 0 0.1003840320089199 -0.26753368270788169 0 0.12670454144172449 -0.2808782289544734 0 0.1003840320089199 -0.26753368270788169 0 0.11046303762488929 -0.28382395578192882 0 0.12670454144172449 -0.2808782289544734 0 0.1003840320089199 -0.26753368270788169 0 0.1211469805498851 -0.26613371668915642 0 0.12670454144172449 -0.2808782289544734 0 0.11046303762488929 -0.28382395578192882 0 0.1211213480912648 -0.29786212731656708 0 0.09364222895764783 -0.28902178414879309 0 0.1211213480912648 -0.29786212731656708 0 0.09364222895764783 -0.28902178414879309 0 0.11046303762488929 -0.28382395578192882 0 0.1211213480912648 -0.29786212731656708 0 0.09364222895764783 -0.28902178414879309 0 0.1011344095744002 -0.30548174397643318 0 0.1211213480912648 -0.29786212731656708 0 0.13044263649690241 -0.31800188151664283 0 0.1211213480912648 -0.29786212731656708 0 0.113227175854648 -0.31324215230985319 0 0.1011344095744002 -0.30548174397643318 0 0.1211213480912648 -0.29786212731656708 0 0.113227175854648 -0.31324215230985319 0 0.13044263649690241 -0.31800188151664283 0 0.113227175854648 -0.31324215230985319 0 0.11469944668599839 -0.32784954085260398 0 0.12739182036291541 -0.3393093175555103 0 0.11469944668599839 -0.32784954085260398 0 0.1046986492811216 -0.34212162792878409 0 0.12739182036291541 -0.3393093175555103 0 0.13044263649690241 -0.31800188151664283 0 0.11469944668599839 -0.32784954085260398 0 0.1046986492811216 -0.34212162792878409 0 0.098239838848499975 -0.32185858159115222 0 0.080798369550145327 -0.32910956090988808 0 0.11469944668599839 -0.32784954085260398 0 0.1046986492811216 -0.34212162792878409 0 0.098239838848499975 -0.32185858159115222 0 0.1011344095744002 -0.30548174397643318 0 0.113227175854648 -0.31324215230985319 0 0.098239838848499975 -0.32185858159115222 0 0.113227175854648 -0.31324215230985319 0 0.11469944668599839 -0.32784954085260398 0 0.098239838848499975 -0.32185858159115222 0 0.13053505761830031 -0.3611388042573625 0 0.1095676493250143 -0.37262071837569999 0 0.1180482941468379 -0.35379761702933921 0 0.1046986492811216 -0.34212162792878409 0 0.1095676493250143 -0.37262071837569999 0 0.1180482941468379 -0.35379761702933921 0 0.12739182036291541 -0.3393093175555103 0 0.1046986492811216 -0.34212162792878409 0 0.1180482941468379 -0.35379761702933921 0 0.1046986492811216 -0.34212162792878409 0 0.1095676493250143 -0.37262071837569999 0 0.084220216417693811 -0.35112440022237013 0 0.082446609809910754 -0.37754177495080909 0 0.1095676493250143 -0.37262071837569999 0 0.084220216417693811 -0.35112440022237013 0 0.084220216417693811 -0.35112440022237013 0 0.061342670302081237 -0.33350472836387701 0 0.057621989123612133 -0.36044043621242822 0 0.082446609809910754 -0.37754177495080909 0 0.05532557029480719 -0.38246283152591831 0 0.057621989123612133 -0.36044043621242822 0 0.082446609809910754 -0.37754177495080909 0 0.084220216417693811 -0.35112440022237013 0 0.057621989123612133 -0.36044043621242822 0 0.079441456119940287 -0.30542407451580039 0 0.098239838848499975 -0.32185858159115222 0 0.080798369550145327 -0.32910956090988808 0 0.1046986492811216 -0.34212162792878409 0 0.084220216417693811 -0.35112440022237013 0 0.080798369550145327 -0.32910956090988808 0 0.084220216417693811 -0.35112440022237013 0 0.080798369550145327 -0.32910956090988808 0 0.061342670302081237 -0.33350472836387701 0 0.079441456119940287 -0.30542407451580039 0 0.080798369550145327 -0.32910956090988808 0 0.059012414287070387 -0.31508175476909939 0 0.080798369550145327 -0.32910956090988808 0 0.059012414287070387 -0.31508175476909939 0 0.061342670302081237 -0.33350472836387701 0 0.059012414287070387 -0.31508175476909939 0 0.061342670302081237 -0.33350472836387701 0 0.038987863132423167 -0.32794697964722219 0 0.061342670302081237 -0.33350472836387701 0 0.038987863132423167 -0.32794697964722219 0 0.044460252229555332 -0.34458552947701299 0 0.038987863132423167 -0.32794697964722219 0 0.044460252229555332 -0.34458552947701299 0 0.02735793523283175 -0.34493812919991912 0 0.038987863132423167 -0.32794697964722219 0 0.026481313254875131 -0.31767806179667218 0 0.041610375347043482 -0.30539665036557229 0 0.059012414287070387 -0.31508175476909939 0 0.038987863132423167 -0.32794697964722219 0 0.041610375347043482 -0.30539665036557229 0 0.05532557029480719 -0.38246283152591831 0 0.057621989123612133 -0.36044043621242822 0 0.039411102058297877 -0.37373484016718561 0 0.061342670302081237 -0.33350472836387701 0 0.057621989123612133 -0.36044043621242822 0 0.044460252229555332 -0.34458552947701299 0 0.044460252229555332 -0.34458552947701299 0 0.033790092491440597 -0.35938515789981212 0 0.02735793523283175 -0.34493812919991912 0 0.057621989123612133 -0.36044043621242822 0 0.044460252229555332 -0.34458552947701299 0 0.033790092491440597 -0.35938515789981212 0 0.057621989123612133 -0.36044043621242822 0 0.039411102058297877 -0.37373484016718561 0 0.033790092491440597 -0.35938515789981212 0 0.033790092491440597 -0.35938515789981212 0 0.020599217944317589 -0.3742265213985253 0 0.0083610369779037602 -0.36029506406098588 0 0.039411102058297877 -0.37373484016718561 0 0.033790092491440597 -0.35938515789981212 0 0.020599217944317589 -0.3742265213985253 0 0.033790092491440597 -0.35938515789981212 0 0.02735793523283175 -0.34493812919991912 0 0.0083610369779037602 -0.36029506406098588 0 0.02735793523283175 -0.34493812919991912 0 0.0083610369779037602 -0.36029506406098588 0 0.0111485868661024 -0.33716895756166398 0 -0.0074167715464010572 -0.35345822621748818 0 0.0083610369779037602 -0.36029506406098588 0 0.0111485868661024 -0.33716895756166398 0 0.0083610369779037602 -0.36029506406098588 0 0.0111485868661024 -0.33716895756166398 0 -0.0074167715464010572 -0.35345822621748818 0 0.0083610369779037602 -0.36029506406098588 0 0.003309102918704366 -0.37262758108984068 0 0.020599217944317589 -0.3742265213985253 0 0.0083610369779037602 -0.36029506406098588 0 0.003309102918704366 -0.37262758108984068 0 0.026481313254875131 -0.31767806179667218 0 0.0111485868661024 -0.33716895756166398 0 0.01393613675430104 -0.3140428510623422 0 0.038987863132423167 -0.32794697964722219 0 0.026481313254875131 -0.31767806179667218 0 0.0111485868661024 -0.33716895756166398 0 0.038987863132423167 -0.32794697964722219 0 0.02735793523283175 -0.34493812919991912 0 0.0111485868661024 -0.33716895756166398 0 -0.0057683781166291059 -0.33491740435489159 0 0.0111485868661024 -0.33716895756166398 0 0.0020100022948757179 -0.32433636602676391 0 0.0111485868661024 -0.33716895756166398 0 0.0020100022948757179 -0.32433636602676391 0 0.01393613675430104 -0.3140428510623422 0 0.0020100022948757179 -0.32433636602676391 0 0.01393613675430104 -0.3140428510623422 0 0.0035157764707993179 -0.30776509704669819 0 0.0111485868661024 -0.33716895756166398 0 0.01393613675430104 -0.3140428510623422 0 0.01393613675430104 -0.3140428510623422 0 0.0035157764707993179 -0.30776509704669819 0 0.01476752904565116 -0.29759670980490988 0 0.01393613675430104 -0.3140428510623422 0 0.01672368664249969 -0.2909167445630203 0 0.01393613675430104 -0.3140428510623422 0 0.01476752904565116 -0.29759670980490988 0 0.01672368664249969 -0.2909167445630203 0 0.0035157764707993179 -0.30776509704669819 0 0.01476752904565116 -0.29759670980490988 0 0.0044325185575511492 -0.29541951845712039 0 -0.0038510574782205579 -0.2997244586383831 0 0.0035157764707993179 -0.30776509704669819 0 0.0044325185575511492 -0.29541951845712039 0 -0.0038510574782205579 -0.2997244586383831 0 0.0044325185575511492 -0.29541951845712039 0 0.00069600354279332824 -0.2758447591784694 0 0.01476752904565116 -0.29759670980490988 0 0.00069600354279332824 -0.2758447591784694 0 0.01476752904565116 -0.29759670980490988 0 0.0044325185575511492 -0.29541951845712039 0 0.00069600354279332824 -0.2758447591784694 0 0.01476752904565116 -0.29759670980490988 0 0.01672368664249969 -0.2909167445630203 0 0.00069600354279332824 -0.2758447591784694 0 0.01672368664249969 -0.2909167445630203 0 0.029912518277450829 -0.28975916805556601 0 0.019511236530698351 -0.26779063806369829 0 0.01672368664249969 -0.2909167445630203 0 0.029912518277450829 -0.28975916805556601 0 0.026723604174505599 -0.3038348703465602 0 0.01393613675430104 -0.3140428510623422 0 0.01672368664249969 -0.2909167445630203 0 0.026723604174505599 -0.3038348703465602 0 0.026481313254875131 -0.31767806179667218 0 0.01393613675430104 -0.3140428510623422 0 0.026723604174505599 -0.3038348703465602 0 0.029912518277450829 -0.28975916805556601 0 0.026723604174505599 -0.3038348703465602 0 0.041610375347043482 -0.30539665036557229 0 0.026481313254875131 -0.31767806179667218 0 0.026723604174505599 -0.3038348703465602 0 0.041610375347043482 -0.30539665036557229 0 0.029912518277450829 -0.28975916805556601 0 0.041610375347043482 -0.30539665036557229 0 0.044993688692507042 -0.28085693693897912 0 0.041610375347043482 -0.30539665036557229 0 0.058170578653031671 -0.29729217350020548 0 0.044993688692507042 -0.28085693693897912 0 0.066163109824030869 -0.28018144098101899 0 0.058170578653031671 -0.29729217350020548 0 0.044993688692507042 -0.28085693693897912 0 0.059012414287070387 -0.31508175476909939 0 0.041610375347043482 -0.30539665036557229 0 0.058170578653031671 -0.29729217350020548 0 0.057964510154616081 -0.26349263491543762 0 0.039600740301934272 -0.2605762602427234 0 0.047743013143310857 -0.2408445902146984 0 0.074063522576115412 -0.25418913646128999 0 0.057964510154616081 -0.26349263491543762 0 0.047743013143310857 -0.2408445902146984 0 0.057964510154616081 -0.26349263491543762 0 0.044993688692507042 -0.28085693693897912 0 0.039600740301934272 -0.2605762602427234 0 0.066163109824030869 -0.28018144098101899 0 0.057964510154616081 -0.26349263491543762 0 0.044993688692507042 -0.28085693693897912 0 0.044993688692507042 -0.28085693693897912 0 0.039600740301934272 -0.2605762602427234 0 0.019511236530698351 -0.26779063806369829 0 0.029912518277450829 -0.28975916805556601 0 0.044993688692507042 -0.28085693693897912 0 0.019511236530698351 -0.26779063806369829 0 0.019511236530698351 -0.26779063806369829 0 0.01444385281763636 -0.24719258640733749 0 0.029531215177569299 -0.24795585691464619 0 0.039600740301934272 -0.2605762602427234 0 0.019511236530698351 -0.26779063806369829 0 0.029531215177569299 -0.24795585691464619 0 0.01672368664249969 -0.2909167445630203 0 0.019511236530698351 -0.26779063806369829 0 0.01672368664249969 -0.2909167445630203 0 0.019511236530698351 -0.26779063806369829 0 0.00069600354279332824 -0.2758447591784694 0 0.019511236530698351 -0.26779063806369829 0 0.00069600354279332824 -0.2758447591784694 0 0.0049407412643659313 -0.25867424517361032 0 0.019511236530698351 -0.26779063806369829 0 0.0049407412643659313 -0.25867424517361032 0 0.01444385281763636 -0.24719258640733749 0 0.0049407412643659313 -0.25867424517361032 0 0.00030022057776212072 -0.24629662869332139 0 0.01444385281763636 -0.24719258640733749 0 0.01444385281763636 -0.24719258640733749 0 0.0046442973170082603 -0.23576555496681531 0 0.021422503710506541 -0.2275000439681068 0 0.00030022057776212072 -0.24629662869332139 0 0.01444385281763636 -0.24719258640733749 0 0.0046442973170082603 -0.23576555496681531 0 -0.0025393444666661361 -0.22566425141104671 0 0.0046442973170082603 -0.23576555496681531 0 0.021422503710506541 -0.2275000439681068 0 -0.0048980057222967749 -0.2141554977215134 0 0.021422503710506541 -0.2275000439681068 0 -0.0025393444666661361 -0.22566425141104671 0 -0.0048980057222967749 -0.2141554977215134 0 0.021422503710506541 -0.2275000439681068 0 0.021422503710506541 -0.2275000439681068 0 0.022558160801513339 -0.21169105364246571 0 0.036181174417918592 -0.2188978712974145 0 0.01444385281763636 -0.24719258640733749 0 0.021422503710506541 -0.2275000439681068 0 0.029531215177569299 -0.24795585691464619 0 0.002640502934626776 -0.19032053178508629 0 0.0092436531184435858 -0.2048405990086179 0 0.023385311959184651 -0.1955257002957235 0 -0.0047882959264406531 -0.20141652287543249 0 0.002640502934626776 -0.19032053178508629 0 0.0092436531184435858 -0.2048405990086179 0 -0.0048980057222967749 -0.2141554977215134 0 0.021422503710506541 -0.2275000439681068 0 0.0092436531184435858 -0.2048405990086179 0 -0.0048980057222967749 -0.2141554977215134 0 0.0092436531184435858 -0.2048405990086179 0 0.022558160801513339 -0.21169105364246571 0 0.023385311959184651 -0.1955257002957235 0 0.036181174417918592 -0.2188978712974145 0 0.0092436531184435858 -0.2048405990086179 0 0.022558160801513339 -0.21169105364246571 0 0.023385311959184651 -0.1955257002957235 0 0.023385311959184651 -0.1955257002957235 0 0.036181174417918592 -0.2188978712974145 0 0.021422503710506541 -0.2275000439681068 0 0.0092436531184435858 -0.2048405990086179 0 0.022558160801513339 -0.21169105364246571 0 0.0092436531184435858 -0.2048405990086179 0 0.023385311959184651 -0.1955257002957235 0 0.038738931659369147 -0.2001139160944633 0 0.052673520202390217 -0.20323904256540909 0 0.042715720057983117 -0.18279305021930611 0 0.023385311959184651 -0.1955257002957235 0 0.038738931659369147 -0.2001139160944633 0 0.042715720057983117 -0.18279305021930611 0 0.023385311959184651 -0.1955257002957235 0 0.042715720057983117 -0.18279305021930611 0 0.023385311959184651 -0.1955257002957235 0 0.038738931659369147 -0.2001139160944633 0 0.036181174417918592 -0.2188978712974145 0 0.038738931659369147 -0.2001139160944633 0 0.052673520202390217 -0.20323904256540909 0 0.036181174417918592 -0.2188978712974145 0 0.052673520202390217 -0.20323904256540909 0 0.036181174417918592 -0.2188978712974145 0 0.055505548603182082 -0.22273634918066779 0 0.052673520202390217 -0.20323904256540909 0 0.055505548603182082 -0.22273634918066779 0 0.073016259408294731 -0.21451009283364311 0 0.052673520202390217 -0.20323904256540909 0 0.068122654445825631 -0.19098658640586441 0 0.042715720057983117 -0.18279305021930611 0 0.039600740301934272 -0.2605762602427234 0 0.029531215177569299 -0.24795585691464619 0 0.047743013143310857 -0.2408445902146984 0 0.021422503710506541 -0.2275000439681068 0 0.029531215177569299 -0.24795585691464619 0 0.047743013143310857 -0.2408445902146984 0 0.021422503710506541 -0.2275000439681068 0 0.036181174417918592 -0.2188978712974145 0 0.047743013143310857 -0.2408445902146984 0 0.021422503710506541 -0.2275000439681068 0 0.047743013143310857 -0.2408445902146984 0 0.036181174417918592 -0.2188978712974145 0 0.055505548603182082 -0.22273634918066779 0 0.047743013143310857 -0.2408445902146984 0 0.055505548603182082 -0.22273634918066779 0 0.047743013143310857 -0.2408445902146984 0 0.066968825383588601 -0.23318199557472871 0 0.074063522576115412 -0.25418913646128999 0 0.047743013143310857 -0.2408445902146984 0 0.074063522576115412 -0.25418913646128999 0 0.047743013143310857 -0.2408445902146984 0 0.066968825383588601 -0.23318199557472871 0 0.074063522576115412 -0.25418913646128999 0 0.084515783187039964 -0.23362980918334439 0 0.066968825383588601 -0.23318199557472871 0 0.074063522576115412 -0.25418913646128999 0 0.096223482391782161 -0.25066647691632232 0 0.084515783187039964 -0.23362980918334439 0 0.084515783187039964 -0.23362980918334439 0 0.073016259408294731 -0.21451009283364311 0 0.089990645524874902 -0.21790024485087839 0 0.055505548603182082 -0.22273634918066779 0 0.066968825383588601 -0.23318199557472871 0 0.073016259408294731 -0.21451009283364311 0 0.084515783187039964 -0.23362980918334439 0 0.066968825383588601 -0.23318199557472871 0 0.073016259408294731 -0.21451009283364311 0 0.052673520202390217 -0.20323904256540909 0 0.073016259408294731 -0.21451009283364311 0 0.068122654445825631 -0.19098658640586441 0 0.068122654445825631 -0.19098658640586441 0 0.094240221730366378 -0.19762914760304409 0 0.084044077119137722 -0.17768778507089489 0 0.073016259408294731 -0.21451009283364311 0 0.068122654445825631 -0.19098658640586441 0 0.094240221730366378 -0.19762914760304409 0 0.073016259408294731 -0.21451009283364311 0 0.089990645524874902 -0.21790024485087839 0 0.094240221730366378 -0.19762914760304409 0 0.094240221730366378 -0.19762914760304409 0 0.12015715315581491 -0.2009973826506419 0 0.10819031777379851 -0.2258319297834821 0 0.089990645524874902 -0.21790024485087839 0 0.094240221730366378 -0.19762914760304409 0 0.10819031777379851 -0.2258319297834821 0 0.094240221730366378 -0.19762914760304409 0 0.12015715315581491 -0.2009973826506419 0 0.1113087637087463 -0.17770296760239079 0 0.12015715315581491 -0.2009973826506419 0 0.10819031777379851 -0.2258319297834821 0 0.13016652006677931 -0.21805271629486039 0 0.12015715315581491 -0.2009973826506419 0 0.10819031777379851 -0.2258319297834821 0 0.1219956350411413 -0.2398427023391346 0 0.10819031777379851 -0.2258319297834821 0 0.13016652006677931 -0.21805271629486039 0 0.096223482391782161 -0.25066647691632232 0 0.1128464104435675 -0.2555657971241207 0 0.1219956350411413 -0.2398427023391346 0 0.096223482391782161 -0.25066647691632232 0 0.084515783187039964 -0.23362980918334439 0 0.10819031777379851 -0.2258319297834821 0 0.096223482391782161 -0.25066647691632232 0 0.1219956350411413 -0.2398427023391346 0 0.10819031777379851 -0.2258319297834821 0 0.096223482391782161 -0.25066647691632232 0 0.10819031777379851 -0.2258319297834821 0 0.084515783187039964 -0.23362980918334439 0 0.089990645524874902 -0.21790024485087839 0 0.10819031777379851 -0.2258319297834821 0 0.100706944354379 -0.14459509999005479 0 0.1056701384857462 -0.15850748947942381 0 0.092375510736758523 -0.16114144253047499 0 0.100706944354379 -0.14459509999005479 0 0.092375510736758523 -0.16114144253047499 0 0.100706944354379 -0.14459509999005479 0 0.1144580304594555 -0.1471050822959285 0 0.1056701384857462 -0.15850748947942381 0 0.100706944354379 -0.14459509999005479 0 0.1099290904545028 -0.1262797901245703 0 0.100706944354379 -0.14459509999005479 0 0.099790326417464506 -0.12875288665758061 0 0.090565026603239743 -0.1346908448953581 0 0.100706944354379 -0.14459509999005479 0 0.099790326417464506 -0.12875288665758061 0 0.1099290904545028 -0.1262797901245703 0 0.100706944354379 -0.14459509999005479 0 0.11435919899648719 -0.13560256448725189 0 0.1099290904545028 -0.1262797901245703 0 0.099790326417464506 -0.12875288665758061 0 0.090565026603239743 -0.1346908448953581 0 0.093050612780599368 -0.122731887022332 0 0.100706944354379 -0.14459509999005479 0 0.11435919899648719 -0.13560256448725189 0 0.11435919899648719 -0.13560256448725189 0 0.1099290904545028 -0.1262797901245703 0 0.1211019425767117 -0.12600779024960501 0 0.11435919899648719 -0.13560256448725189 0 0.1144580304594555 -0.1471050822959285 0 0.12885034326079009 -0.1383964124851868 0 0.11435919899648719 -0.13560256448725189 0 0.1211019425767117 -0.12600779024960501 0 0.12885034326079009 -0.1383964124851868 0 0.1144580304594555 -0.1471050822959285 0 0.1227035271998753 -0.15842384503772541 0 0.12885034326079009 -0.1383964124851868 0 0.1144580304594555 -0.1471050822959285 0 0.1227035271998753 -0.15842384503772541 0 0.1056701384857462 -0.15850748947942381 0 0.100706944354379 -0.14459509999005479 0 0.11435919899648719 -0.13560256448725189 0 0.1144580304594555 -0.1471050822959285 0 0.1227035271998753 -0.15842384503772541 0 0.1113087637087463 -0.17770296760239079 0 0.1056701384857462 -0.15850748947942381 0 0.1227035271998753 -0.15842384503772541 0 0.1113087637087463 -0.17770296760239079 0 0.13212398853783131 -0.17616283551780179 0 0.12015715315581491 -0.2009973826506419 0 0.1113087637087463 -0.17770296760239079 0 0.13212398853783131 -0.17616283551780179 0 0.094240221730366378 -0.19762914760304409 0 0.1113087637087463 -0.17770296760239079 0 0.097010706106607253 -0.17406410444695769 0 0.1113087637087463 -0.17770296760239079 0 0.097010706106607253 -0.17406410444695769 0 0.1056701384857462 -0.15850748947942381 0 0.097010706106607253 -0.17406410444695769 0 0.1056701384857462 -0.15850748947942381 0 0.092375510736758523 -0.16114144253047499 0 0.092375510736758523 -0.16114144253047499 0 0.084044077119137722 -0.17768778507089489 0 0.092375510736758523 -0.16114144253047499 0 0.081376536255580223 -0.15732775006647171 0 0.084044077119137722 -0.17768778507089489 0 0.097010706106607253 -0.17406410444695769 0 0.092375510736758523 -0.16114144253047499 0 0.084044077119137722 -0.17768778507089489 0 0.094240221730366378 -0.19762914760304409 0 0.097010706106607253 -0.17406410444695769 0 0.084044077119137722 -0.17768778507089489 0 0.068122654445825631 -0.19098658640586441 0 0.084044077119137722 -0.17768778507089489 0 0.062046128156781691 -0.1700604001428889 0 0.081376536255580223 -0.15732775006647171 0 0.069718342411558235 -0.15445175909099179 0 0.062046128156781691 -0.1700604001428889 0 0.081376536255580223 -0.15732775006647171 0 0.084044077119137722 -0.17768778507089489 0 0.062046128156781691 -0.1700604001428889 0 0.081376536255580223 -0.15732775006647171 0 0.062046128156781691 -0.1700604001428889 0 0.069718342411558235 -0.15445175909099179 0 0.059434280667925027 -0.15461512160141519 0 0.062046128156781691 -0.1700604001428889 0 0.069718342411558235 -0.15445175909099179 0 0.065908004491436245 -0.1460332173422231 0 0.059434280667925027 -0.15461512160141519 0 0.069718342411558235 -0.15445175909099179 0 0.065908004491436245 -0.1460332173422231 0 0.079826762486067959 -0.14422230630196031 0 0.065908004491436245 -0.1460332173422231 0 0.079826762486067959 -0.14422230630196031 0 0.071357189646504671 -0.13811889369221569 0 0.081376536255580223 -0.15732775006647171 0 0.069718342411558235 -0.15445175909099179 0 0.079826762486067959 -0.14422230630196031 0 0.100706944354379 -0.14459509999005479 0 0.079826762486067959 -0.14422230630196031 0 0.090565026603239743 -0.1346908448953581 0 0.100706944354379 -0.14459509999005479 0 0.081376536255580223 -0.15732775006647171 0 0.079826762486067959 -0.14422230630196031 0 0.100706944354379 -0.14459509999005479 0 0.081376536255580223 -0.15732775006647171 0 0.100706944354379 -0.14459509999005479 0 0.092375510736758523 -0.16114144253047499 0 0.081376536255580223 -0.15732775006647171 0 0.090565026603239743 -0.1346908448953581 0 0.079262881563485155 -0.13020642029344029 0 0.093050612780599368 -0.122731887022332 0 0.079826762486067959 -0.14422230630196031 0 0.090565026603239743 -0.1346908448953581 0 0.079262881563485155 -0.13020642029344029 0 0.079262881563485155 -0.13020642029344029 0 0.071357189646504671 -0.13811889369221569 0 0.06446619459724931 -0.1253099609031437 0 0.079826762486067959 -0.14422230630196031 0 0.079262881563485155 -0.13020642029344029 0 0.071357189646504671 -0.13811889369221569 0 0.071357189646504671 -0.13811889369221569 0 0.06446619459724931 -0.1253099609031437 0 0.061404006531261018 -0.13753046090530119 0 0.065908004491436245 -0.1460332173422231 0 0.071357189646504671 -0.13811889369221569 0 0.061404006531261018 -0.13753046090530119 0 0.06446619459724931 -0.1253099609031437 0 0.051635807288064342 -0.13298545869414549 0 0.048769993123480841 -0.121693477832837 0 0.06446619459724931 -0.1253099609031437 0 0.051635807288064342 -0.13298545869414549 0 0.061404006531261018 -0.13753046090530119 0 0.051635807288064342 -0.13298545869414549 0 0.040626961971112603 -0.12879376081557661 0 0.048769993123480841 -0.121693477832837 0 0.051635807288064342 -0.13298545869414549 0 0.053652836633050517 -0.14520477389477801 0 0.039576389524568101 -0.14066482215687509 0 0.051635807288064342 -0.13298545869414549 0 0.061404006531261018 -0.13753046090530119 0 0.053652836633050517 -0.14520477389477801 0 0.065908004491436245 -0.1460332173422231 0 0.061404006531261018 -0.13753046090530119 0 0.053652836633050517 -0.14520477389477801 0 0.065908004491436245 -0.1460332173422231 0 0.059434280667925027 -0.15461512160141519 0 0.053652836633050517 -0.14520477389477801 0 0.059434280667925027 -0.15461512160141519 0 0.053652836633050517 -0.14520477389477801 0 0.045320776459989623 -0.15544213136031221 0 0.045320776459989623 -0.15544213136031221 0 0.034594214117764442 -0.150220898589248 0 0.028092555491858611 -0.1628725387693227 0 0.053652836633050517 -0.14520477389477801 0 0.039576389524568101 -0.14066482215687509 0 0.045320776459989623 -0.15544213136031221 0 0.039576389524568101 -0.14066482215687509 0 0.045320776459989623 -0.15544213136031221 0 0.034594214117764442 -0.150220898589248 0 0.039576389524568101 -0.14066482215687509 0 0.034594214117764442 -0.150220898589248 0 0.02396816779194013 -0.14390695264698161 0 0.039576389524568101 -0.14066482215687509 0 0.040626961971112603 -0.12879376081557661 0 0.025901929012522879 -0.12957197652078919 0 0.040626961971112603 -0.12879376081557661 0 0.025901929012522879 -0.12957197652078919 0 0.037250690906926807 -0.119053068873236 0 0.051635807288064342 -0.13298545869414549 0 0.039576389524568101 -0.14066482215687509 0 0.040626961971112603 -0.12879376081557661 0 0.068122654445825631 -0.19098658640586441 0 0.062046128156781691 -0.1700604001428889 0 0.042715720057983117 -0.18279305021930611 0 0.062046128156781691 -0.1700604001428889 0 0.042715720057983117 -0.18279305021930611 0 0.059434280667925027 -0.15461512160141519 0 0.045320776459989623 -0.15544213136031221 0 0.062046128156781691 -0.1700604001428889 0 0.045320776459989623 -0.15544213136031221 0 0.062046128156781691 -0.1700604001428889 0 0.042715720057983117 -0.18279305021930611 0 0.045320776459989623 -0.15544213136031221 0 0.042715720057983117 -0.18279305021930611 0 0.028092555491858611 -0.1628725387693227 0 0.042715720057983117 -0.18279305021930611 0 0.025935169566058919 -0.17786022682525049 0 0.028092555491858611 -0.1628725387693227 0 0.023385311959184651 -0.1955257002957235 0 0.0095470907552092765 -0.17024961801664959 0 0.023385311959184651 -0.1955257002957235 0 0.042715720057983117 -0.18279305021930611 0 0.025935169566058919 -0.17786022682525049 0 0.023385311959184651 -0.1955257002957235 0 0.025935169566058919 -0.17786022682525049 0 0.0095470907552092765 -0.17024961801664959 0 0.028092555491858611 -0.1628725387693227 0 0.0095470907552092765 -0.17024961801664959 0 0.012011567451192411 -0.15441501401373781 0 0.025935169566058919 -0.17786022682525049 0 0.028092555491858611 -0.1628725387693227 0 0.0095470907552092765 -0.17024961801664959 0 -0.0042911304487681804 -0.1449735357375769 0 0.0095470907552092765 -0.17024961801664959 0 -0.0042911304487681804 -0.1449735357375769 0 0.0095470907552092765 -0.17024961801664959 0 0.012011567451192411 -0.15441501401373781 0 -0.01004160949427578 -0.1777901312346947 0 0.002640502934626776 -0.19032053178508629 0 0.0095470907552092765 -0.17024961801664959 0 0.002640502934626776 -0.19032053178508629 0 0.023385311959184651 -0.1955257002957235 0 0.0095470907552092765 -0.17024961801664959 0 0.01817616009271945 -0.13462436373369011 0 0.02396816779194013 -0.14390695264698161 0 0.011671393598408131 -0.13979394514381821 0 0.01817616009271945 -0.13462436373369011 0 0.025901929012522879 -0.12957197652078919 0 0.02396816779194013 -0.14390695264698161 0 0.01817616009271945 -0.13462436373369011 0 0.025901929012522879 -0.12957197652078919 0 0.01169385720694522 -0.12698793734381389 0 0.039576389524568101 -0.14066482215687509 0 0.025901929012522879 -0.12957197652078919 0 0.02396816779194013 -0.14390695264698161 0 0.034594214117764442 -0.150220898589248 0 0.028092555491858611 -0.1628725387693227 0 0.02396816779194013 -0.14390695264698161 0 0.028092555491858611 -0.1628725387693227 0 0.02396816779194013 -0.14390695264698161 0 0.012011567451192411 -0.15441501401373781 0 0.02396816779194013 -0.14390695264698161 0 0.012011567451192411 -0.15441501401373781 0 0.011671393598408131 -0.13979394514381821 0 0.012011567451192411 -0.15441501401373781 0 0.0048504143144322458 -0.1426287734379354 0 0.011671393598408131 -0.13979394514381821 0 -0.0042911304487681804 -0.1449735357375769 0 0.012011567451192411 -0.15441501401373781 0 0.0048504143144322458 -0.1426287734379354 0 9.826656896625493e-06 -0.1313325988566085 0 0.0048504143144322458 -0.1426287734379354 0 0.011671393598408131 -0.13979394514381821 0 9.826656896625493e-06 -0.1313325988566085 0 -0.0042911304487681804 -0.1449735357375769 0 0.0048504143144322458 -0.1426287734379354 0 0.01817616009271945 -0.13462436373369011 0 0.011671393598408131 -0.13979394514381821 0 0.01169385720694522 -0.12698793734381389 0 9.826656896625493e-06 -0.1313325988566085 0 0.011671393598408131 -0.13979394514381821 0 0.01169385720694522 -0.12698793734381389 0 9.826656896625493e-06 -0.1313325988566085 0 0.01169385720694522 -0.12698793734381389 0 0.0028017473852785121 -0.12509361147560369 0 0.01169385720694522 -0.12698793734381389 0 0.0028017473852785121 -0.12509361147560369 0 0.0050755095359780464 -0.1176346018525178 0 -0.0045801415063462221 -0.11901338943474531 0 0.0028017473852785121 -0.12509361147560369 0 0.0050755095359780464 -0.1176346018525178 0 -0.0035869806737475439 -0.109254310938091 0 0.0050755095359780464 -0.1176346018525178 0 0.0089923523344080086 -0.10818544093353499 0 0.018171681783115689 -0.1172734277028122 0 0.01924677849589012 -0.1076289805093784 0 0.0089923523344080086 -0.10818544093353499 0 0.0050755095359780464 -0.1176346018525178 0 0.018171681783115689 -0.1172734277028122 0 0.0089923523344080086 -0.10818544093353499 0 0.01169385720694522 -0.12698793734381389 0 0.0050755095359780464 -0.1176346018525178 0 0.018171681783115689 -0.1172734277028122 0 0.025901929012522879 -0.12957197652078919 0 0.01169385720694522 -0.12698793734381389 0 0.018171681783115689 -0.1172734277028122 0 0.018171681783115689 -0.1172734277028122 0 0.028079942048021521 -0.1101536609579184 0 0.01924677849589012 -0.1076289805093784 0 0.018171681783115689 -0.1172734277028122 0 0.028079942048021521 -0.1101536609579184 0 0.027351060937646721 -0.1190130335136889 0 0.028079942048021521 -0.1101536609579184 0 0.027351060937646721 -0.1190130335136889 0 0.037250690906926807 -0.119053068873236 0 0.025901929012522879 -0.12957197652078919 0 0.027351060937646721 -0.1190130335136889 0 0.037250690906926807 -0.119053068873236 0 0.025901929012522879 -0.12957197652078919 0 0.018171681783115689 -0.1172734277028122 0 0.027351060937646721 -0.1190130335136889 0 0.024722631010262831 -0.099798064711494772 0 0.028686338076388571 -0.091884180578159017 0 0.034395834988452188 -0.099044583937690792 0 0.024722631010262831 -0.099798064711494772 0 0.02104958487818015 -0.090640242662177656 0 0.028686338076388571 -0.091884180578159017 0 0.028079942048021521 -0.1101536609579184 0 0.024722631010262831 -0.099798064711494772 0 0.034395834988452188 -0.099044583937690792 0 0.028079942048021521 -0.1101536609579184 0 0.024722631010262831 -0.099798064711494772 0 0.01924677849589012 -0.1076289805093784 0 0.024722631010262831 -0.099798064711494772 0 0.01924677849589012 -0.1076289805093784 0 0.01668386460996488 -0.099094766715347241 0 0.024722631010262831 -0.099798064711494772 0 0.01668386460996488 -0.099094766715347241 0 0.02104958487818015 -0.090640242662177656 0 0.01668386460996488 -0.099094766715347241 0 0.0019506974199720399 -0.09965907405485358 0 0.0097988358855746038 -0.091209614697915914 0 0.01924677849589012 -0.1076289805093784 0 0.01668386460996488 -0.099094766715347241 0 0.0089923523344080086 -0.10818544093353499 0 0.01668386460996488 -0.099094766715347241 0 0.0089923523344080086 -0.10818544093353499 0 0.0019506974199720399 -0.09965907405485358 0 -0.0035869806737475439 -0.109254310938091 0 0.0089923523344080086 -0.10818544093353499 0 0.0019506974199720399 -0.09965907405485358 0 -0.0070486383949544054 -0.087522709136193089 0 0.0019506974199720399 -0.09965907405485358 0 0.0097988358855746038 -0.091209614697915914 0 -0.0070486383949544054 -0.087522709136193089 0 0.0097988358855746038 -0.091209614697915914 0 0.017065173630780351 -0.081386830177449077 0 -0.0070486383949544054 -0.087522709136193089 0 0.017065173630780351 -0.081386830177449077 0 -0.0070486383949544054 -0.087522709136193089 0 0.003715720870280929 -0.075830019088264103 0 0.017065173630780351 -0.081386830177449077 0 0.0036254775754798541 -0.064395336985159243 0 0.003715720870280929 -0.075830019088264103 0 0.01480513117842824 -0.069359283456252141 0 0.003715720870280929 -0.075830019088264103 0 0.01480513117842824 -0.069359283456252141 0 0.017065173630780351 -0.081386830177449077 0 0.0036254775754798541 -0.064395336985159243 0 0.01480513117842824 -0.069359283456252141 0 0.016663983053009999 -0.057941373095140768 0 0.023546103253069141 -0.072910320459944236 0 0.017065173630780351 -0.081386830177449077 0 0.041178985656515128 -0.075250951218705078 0 0.01480513117842824 -0.069359283456252141 0 0.023546103253069141 -0.072910320459944236 0 0.02423959759845962 -0.064187955456294077 0 0.01480513117842824 -0.069359283456252141 0 0.02423959759845962 -0.064187955456294077 0 0.016663983053009999 -0.057941373095140768 0 0.01480513117842824 -0.069359283456252141 0 0.023546103253069141 -0.072910320459944236 0 0.017065173630780351 -0.081386830177449077 0 0.023546103253069141 -0.072910320459944236 0 0.02423959759845962 -0.064187955456294077 0 0.029167657771797761 -0.067239330800239028 0 0.023546103253069141 -0.072910320459944236 0 0.029167657771797761 -0.067239330800239028 0 0.035751306475104258 -0.06876189055478682 0 0.02423959759845962 -0.064187955456294077 0 0.029167657771797761 -0.067239330800239028 0 0.033133623760558013 -0.063097156729930978 0 0.017065173630780351 -0.081386830177449077 0 0.029426398196090591 -0.084964291732488179 0 0.041178985656515128 -0.075250951218705078 0 0.017065173630780351 -0.081386830177449077 0 0.041178985656515128 -0.075250951218705078 0 0.0097988358855746038 -0.091209614697915914 0 0.02104958487818015 -0.090640242662177656 0 0.017065173630780351 -0.081386830177449077 0 0.01668386460996488 -0.099094766715347241 0 0.0097988358855746038 -0.091209614697915914 0 0.02104958487818015 -0.090640242662177656 0 0.02104958487818015 -0.090640242662177656 0 0.017065173630780351 -0.081386830177449077 0 0.029426398196090591 -0.084964291732488179 0 0.029426398196090591 -0.084964291732488179 0 0.028686338076388571 -0.091884180578159017 0 0.03158627363583822 -0.087126662229999582 0 0.02104958487818015 -0.090640242662177656 0 0.029426398196090591 -0.084964291732488179 0 0.028686338076388571 -0.091884180578159017 0 0.028686338076388571 -0.091884180578159017 0 0.036443974206387487 -0.091246577417726696 0 0.03158627363583822 -0.087126662229999582 0 0.036443974206387487 -0.091246577417726696 0 0.03158627363583822 -0.087126662229999582 0 0.036992033298841133 -0.083496883528438676 0 0.029426398196090591 -0.084964291732488179 0 0.036992033298841133 -0.083496883528438676 0 0.041178985656515128 -0.075250951218705078 0 0.029426398196090591 -0.084964291732488179 0 0.03158627363583822 -0.087126662229999582 0 0.036992033298841133 -0.083496883528438676 0 0.036992033298841133 -0.083496883528438676 0 0.042963272109452152 -0.080506823091663238 0 0.041178985656515128 -0.075250951218705078 0 0.036992033298841133 -0.083496883528438676 0 0.042963272109452152 -0.080506823091663238 0 0.044969570209950828 -0.087402791297020166 0 0.036443974206387487 -0.091246577417726696 0 0.044969570209950828 -0.087402791297020166 0 0.044681895593991217 -0.098324829466590602 0 0.036443974206387487 -0.091246577417726696 0 0.036992033298841133 -0.083496883528438676 0 0.044969570209950828 -0.087402791297020166 0 0.023546103253069141 -0.072910320459944236 0 0.043031100112117568 -0.072372093168837831 0 0.023546103253069141 -0.072910320459944236 0 0.035751306475104258 -0.06876189055478682 0 0.043031100112117568 -0.072372093168837831 0 0.023546103253069141 -0.072910320459944236 0 0.041178985656515128 -0.075250951218705078 0 0.043031100112117568 -0.072372093168837831 0 0.033133623760558013 -0.063097156729930978 0 0.035751306475104258 -0.06876189055478682 0 0.041065186070428403 -0.063602818443928705 0 0.029167657771797761 -0.067239330800239028 0 0.033133623760558013 -0.063097156729930978 0 0.035751306475104258 -0.06876189055478682 0 0.042963272109452152 -0.080506823091663238 0 0.041178985656515128 -0.075250951218705078 0 0.044007623679926083 -0.076030266163008342 0 0.041178985656515128 -0.075250951218705078 0 0.044007623679926083 -0.076030266163008342 0 0.043031100112117568 -0.072372093168837831 0 0.042963272109452152 -0.080506823091663238 0 0.044007623679926083 -0.076030266163008342 0 0.047922639523626007 -0.076981536545706136 0 0.044007623679926083 -0.076030266163008342 0 0.043031100112117568 -0.072372093168837831 0 0.047922639523626007 -0.076981536545706136 0 0.043031100112117568 -0.072372093168837831 0 0.044765942646973367 -0.066629269049012549 0 0.052612686629454557 -0.066277618833923926 0 0.035751306475104258 -0.06876189055478682 0 0.043031100112117568 -0.072372093168837831 0 0.041153383826155902 -0.06784151780414148 0 0.035751306475104258 -0.06876189055478682 0 0.041153383826155902 -0.06784151780414148 0 0.041065186070428403 -0.063602818443928705 0 0.043031100112117568 -0.072372093168837831 0 0.041153383826155902 -0.06784151780414148 0 0.044765942646973367 -0.066629269049012549 0 0.044765942646973367 -0.066629269049012549 0 0.041065186070428403 -0.063602818443928705 0 0.047552686955732011 -0.062423421899839862 0 0.041153383826155902 -0.06784151780414148 0 0.044765942646973367 -0.066629269049012549 0 0.041065186070428403 -0.063602818443928705 0 0.043031100112117568 -0.072372093168837831 0 0.047922639523626007 -0.076981536545706136 0 0.06251609697116603 -0.071833865877731523 0 0.043031100112117568 -0.072372093168837831 0 0.06251609697116603 -0.071833865877731523 0 0.043031100112117568 -0.072372093168837831 0 0.052612686629454557 -0.066277618833923926 0 0.06251609697116603 -0.071833865877731523 0 0.044765942646973367 -0.066629269049012549 0 0.052612686629454557 -0.066277618833923926 0 0.047552686955732011 -0.062423421899839862 0 0.052612686629454557 -0.066277618833923926 0 0.047552686955732011 -0.062423421899839862 0 0.05373385076633333 -0.05880892852443001 0 0.047922639523626007 -0.076981536545706136 0 0.06251609697116603 -0.071833865877731523 0 0.053014668458990541 -0.080830234086494396 0 0.052612686629454557 -0.066277618833923926 0 0.06251609697116603 -0.071833865877731523 0 0.05373385076633333 -0.05880892852443001 0 0.06251609697116603 -0.071833865877731523 0 0.060970444829032959 -0.093003564089118557 0 0.06251609697116603 -0.071833865877731523 0 0.053014668458990541 -0.080830234086494396 0 0.060970444829032959 -0.093003564089118557 0 0.044969570209950828 -0.087402791297020166 0 0.060970444829032959 -0.093003564089118557 0 0.044681895593991217 -0.098324829466590602 0 0.044969570209950828 -0.087402791297020166 0 0.053014668458990541 -0.080830234086494396 0 0.060970444829032959 -0.093003564089118557 0 0.042963272109452152 -0.080506823091663238 0 0.047922639523626007 -0.076981536545706136 0 0.053014668458990541 -0.080830234086494396 0 0.042963272109452152 -0.080506823091663238 0 0.044969570209950828 -0.087402791297020166 0 0.053014668458990541 -0.080830234086494396 0 0.060970444829032959 -0.093003564089118557 0 0.054827902623340023 -0.1034406971035006 0 0.06711923445118069 -0.1055865644253966 0 0.060970444829032959 -0.093003564089118557 0 0.054827902623340023 -0.1034406971035006 0 0.044681895593991217 -0.098324829466590602 0 0.054827902623340023 -0.1034406971035006 0 0.046171054302349621 -0.1101163332448488 0 0.044681895593991217 -0.098324829466590602 0 0.054827902623340023 -0.1034406971035006 0 0.05591936818679525 -0.1125590658426243 0 0.046171054302349621 -0.1101163332448488 0 0.054827902623340023 -0.1034406971035006 0 0.05591936818679525 -0.1125590658426243 0 0.06711923445118069 -0.1055865644253966 0 0.06446619459724931 -0.1253099609031437 0 0.05591936818679525 -0.1125590658426243 0 0.048769993123480841 -0.121693477832837 0 0.06446619459724931 -0.1253099609031437 0 0.05591936818679525 -0.1125590658426243 0 0.06711923445118069 -0.1055865644253966 0 0.05591936818679525 -0.1125590658426243 0 0.048769993123480841 -0.121693477832837 0 0.046171054302349621 -0.1101163332448488 0 0.046171054302349621 -0.1101163332448488 0 0.037250690906926807 -0.119053068873236 0 0.037552177598923278 -0.1073525816789718 0 0.048769993123480841 -0.121693477832837 0 0.046171054302349621 -0.1101163332448488 0 0.037250690906926807 -0.119053068873236 0 0.040626961971112603 -0.12879376081557661 0 0.048769993123480841 -0.121693477832837 0 0.037250690906926807 -0.119053068873236 0 0.028079942048021521 -0.1101536609579184 0 0.037250690906926807 -0.119053068873236 0 0.037552177598923278 -0.1073525816789718 0 0.037552177598923278 -0.1073525816789718 0 0.034395834988452188 -0.099044583937690792 0 0.044681895593991217 -0.098324829466590602 0 0.028079942048021521 -0.1101536609579184 0 0.037552177598923278 -0.1073525816789718 0 0.034395834988452188 -0.099044583937690792 0 0.036443974206387487 -0.091246577417726696 0 0.034395834988452188 -0.099044583937690792 0 0.044681895593991217 -0.098324829466590602 0 0.028686338076388571 -0.091884180578159017 0 0.036443974206387487 -0.091246577417726696 0 0.034395834988452188 -0.099044583937690792 0 0.046171054302349621 -0.1101163332448488 0 0.037552177598923278 -0.1073525816789718 0 0.044681895593991217 -0.098324829466590602 0 0.019587949351128071 0.002405934079128156 0 0.0086717366238725311 -0.0095015071444512437 0 0.032717044388414128 -0.00022294767518126881 0 0.023257713098001662 -0.01150505605419477 0 0.0086717366238725311 -0.0095015071444512437 0 0.032717044388414128 -0.00022294767518126881 0 0.023257713098001662 -0.01150505605419477 0 0.031929274908111697 -0.020182732918346581 0 0.032717044388414128 -0.00022294767518126881 0 0.0086717366238725311 -0.0095015071444512437 0 0.032717044388414128 -0.00022294767518126881 0 0.019587949351128071 0.002405934079128156 0 0.01057394725604094 -0.00023765587989192039 0 0.0086717366238725311 -0.0095015071444512437 0 0.0048101977232623471 0.0047236435778324742 0 0.01057394725604094 -0.00023765587989192039 0 0.0024568228245273188 -0.0058992493484748354 0 0.01057394725604094 -0.00023765587989192039 0 0.0024568228245273188 -0.0058992493484748354 0 0.0086717366238725311 -0.0095015071444512437 0 0.023257713098001662 -0.01150505605419477 0 0.0086717366238725311 -0.0095015071444512437 0 0.01458682804792308 -0.016670530511259999 0 0.0086717366238725311 -0.0095015071444512437 0 0.01458682804792308 -0.016670530511259999 0 0.0063899339633831931 -0.018225565178082201 0 0.01092406483339174 -0.02320537209454859 0 0.01458682804792308 -0.016670530511259999 0 0.0063899339633831931 -0.018225565178082201 0 -0.0015370784557240469 -0.02005925164403383 0 0.0086717366238725311 -0.0095015071444512437 0 0.0063899339633831931 -0.018225565178082201 0 -0.0015370784557240469 -0.02005925164403383 0 0.0063899339633831931 -0.018225565178082201 0 0.0023413406826586491 -0.025706590140771781 0 0.01092406483339174 -0.02320537209454859 0 0.0063899339633831931 -0.018225565178082201 0 0.0023413406826586491 -0.025706590140771781 0 0.01092406483339174 -0.02320537209454859 0 0.0023413406826586491 -0.025706590140771781 0 0.009850334754487251 -0.032177477531656472 0 0.0023413406826586491 -0.025706590140771781 0 0.009850334754487251 -0.032177477531656472 0 0.00026944013316385822 -0.035283918163044208 0 0.01092406483339174 -0.02320537209454859 0 0.021817212433368909 -0.026826339691437259 0 0.009850334754487251 -0.032177477531656472 0 0.021817212433368909 -0.026826339691437259 0 0.035378139579201939 -0.036554528672117358 0 0.031929274908111697 -0.020182732918346581 0 0.023257713098001662 -0.01150505605419477 0 0.01458682804792308 -0.016670530511259999 0 0.021817212433368909 -0.026826339691437259 0 0.01092406483339174 -0.02320537209454859 0 0.01458682804792308 -0.016670530511259999 0 0.021817212433368909 -0.026826339691437259 0 0.023257713098001662 -0.01150505605419477 0 0.021817212433368909 -0.026826339691437259 0 0.031929274908111697 -0.020182732918346581 0 0.021817212433368909 -0.026826339691437259 0 0.02379157485757161 -0.040850704057474707 0 0.035378139579201939 -0.036554528672117358 0 0.02379157485757161 -0.040850704057474707 0 0.0231046144986061 -0.049973643310759493 0 0.031537111094982931 -0.047795512364342672 0 0.02379157485757161 -0.040850704057474707 0 0.031537111094982931 -0.047795512364342672 0 0.035378139579201939 -0.036554528672117358 0 0.02379157485757161 -0.040850704057474707 0 0.015379084804312611 -0.038203862857614158 0 0.01574156347782189 -0.046975593310203193 0 0.02379157485757161 -0.040850704057474707 0 0.01574156347782189 -0.046975593310203193 0 0.0231046144986061 -0.049973643310759493 0 0.021817212433368909 -0.026826339691437259 0 0.015379084804312611 -0.038203862857614158 0 0.009850334754487251 -0.032177477531656472 0 0.021817212433368909 -0.026826339691437259 0 0.02379157485757161 -0.040850704057474707 0 0.015379084804312611 -0.038203862857614158 0 0.015379084804312611 -0.038203862857614158 0 0.009850334754487251 -0.032177477531656472 0 0.0080896124782925526 -0.042587576047027807 0 0.009850334754487251 -0.032177477531656472 0 0.00026944013316385822 -0.035283918163044208 0 0.0080896124782925526 -0.042587576047027807 0 -0.00089835853485555409 -0.044715385004938837 0 0.00026944013316385822 -0.035283918163044208 0 0.0080896124782925526 -0.042587576047027807 0 -0.00089835853485555409 -0.044715385004938837 0 0.0080896124782925526 -0.042587576047027807 0 0.0074184355433383701 -0.05274226678376738 0 0.015379084804312611 -0.038203862857614158 0 0.0080896124782925526 -0.042587576047027807 0 0.01574156347782189 -0.046975593310203193 0 0.0080896124782925526 -0.042587576047027807 0 0.0074184355433383701 -0.05274226678376738 0 0.01574156347782189 -0.046975593310203193 0 0.0074184355433383701 -0.05274226678376738 0 0.016663983053009999 -0.057941373095140768 0 0.01574156347782189 -0.046975593310203193 0 -0.00089835853485555409 -0.044715385004938837 0 -0.0021208385016765201 -0.054023033810274658 0 0.0074184355433383701 -0.05274226678376738 0 -0.0021208385016765201 -0.054023033810274658 0 0.0036254775754798541 -0.064395336985159243 0 0.0074184355433383701 -0.05274226678376738 0 0.0036254775754798541 -0.064395336985159243 0 0.0074184355433383701 -0.05274226678376738 0 0.016663983053009999 -0.057941373095140768 0 0.02423959759845962 -0.064187955456294077 0 0.016663983053009999 -0.057941373095140768 0 0.0277888400096441 -0.056305033726636103 0 0.016663983053009999 -0.057941373095140768 0 0.0231046144986061 -0.049973643310759493 0 0.0277888400096441 -0.056305033726636103 0 0.016663983053009999 -0.057941373095140768 0 0.01574156347782189 -0.046975593310203193 0 0.0231046144986061 -0.049973643310759493 0 0.0231046144986061 -0.049973643310759493 0 0.0277888400096441 -0.056305033726636103 0 0.031537111094982931 -0.047795512364342672 0 0.02423959759845962 -0.064187955456294077 0 0.033133623760558013 -0.063097156729930978 0 0.0277888400096441 -0.056305033726636103 0 0.033133623760558013 -0.063097156729930978 0 0.041065186070428403 -0.063602818443928705 0 0.036854597430458269 -0.056081239519049503 0 0.033133623760558013 -0.063097156729930978 0 0.0277888400096441 -0.056305033726636103 0 0.036854597430458269 -0.056081239519049503 0 0.036854597430458269 -0.056081239519049503 0 0.031537111094982931 -0.047795512364342672 0 0.041213060573563449 -0.048183579503298837 0 0.0277888400096441 -0.056305033726636103 0 0.036854597430458269 -0.056081239519049503 0 0.031537111094982931 -0.047795512364342672 0 0.041213060573563449 -0.048183579503298837 0 0.049581897492068303 -0.051441026344531578 0 0.047141321760246338 -0.042027511724600737 0 0.036854597430458269 -0.056081239519049503 0 0.041213060573563449 -0.048183579503298837 0 0.045585768665470407 -0.056798474647904107 0 0.041213060573563449 -0.048183579503298837 0 0.045585768665470407 -0.056798474647904107 0 0.049581897492068303 -0.051441026344531578 0 0.041065186070428403 -0.063602818443928705 0 0.036854597430458269 -0.056081239519049503 0 0.045585768665470407 -0.056798474647904107 0 0.041065186070428403 -0.063602818443928705 0 0.045585768665470407 -0.056798474647904107 0 0.047552686955732011 -0.062423421899839862 0 0.045585768665470407 -0.056798474647904107 0 0.047552686955732011 -0.062423421899839862 0 0.05373385076633333 -0.05880892852443001 0 0.06251609697116603 -0.071833865877731523 0 0.060235485694727989 -0.05138663732242419 0 0.064420031066086347 -0.04575703454865291 0 0.045585768665470407 -0.056798474647904107 0 0.05373385076633333 -0.05880892852443001 0 0.049581897492068303 -0.051441026344531578 0 0.06251609697116603 -0.071833865877731523 0 0.05373385076633333 -0.05880892852443001 0 0.060235485694727989 -0.05138663732242419 0 0.05373385076633333 -0.05880892852443001 0 0.060235485694727989 -0.05138663732242419 0 0.049581897492068303 -0.051441026344531578 0 0.060235485694727989 -0.05138663732242419 0 0.049581897492068303 -0.051441026344531578 0 0.047141321760246338 -0.042027511724600737 0 0.060235485694727989 -0.05138663732242419 0 0.046476265041571853 -0.02580479249880225 0 0.060235485694727989 -0.05138663732242419 0 0.046476265041571853 -0.02580479249880225 0 0.064420031066086347 -0.04575703454865291 0 0.060235485694727989 -0.05138663732242419 0 0.047141321760246338 -0.042027511724600737 0 0.046476265041571853 -0.02580479249880225 0 0.046476265041571853 -0.02580479249880225 0 0.058241665016994688 -0.025483374905415811 0 0.064420031066086347 -0.04575703454865291 0 0.047141321760246338 -0.042027511724600737 0 0.035378139579201939 -0.036554528672117358 0 0.046476265041571853 -0.02580479249880225 0 0.041213060573563449 -0.048183579503298837 0 0.047141321760246338 -0.042027511724600737 0 0.035378139579201939 -0.036554528672117358 0 0.031537111094982931 -0.047795512364342672 0 0.041213060573563449 -0.048183579503298837 0 0.035378139579201939 -0.036554528672117358 0 0.035378139579201939 -0.036554528672117358 0 0.031929274908111697 -0.020182732918346581 0 0.046476265041571853 -0.02580479249880225 0 0.046476265041571853 -0.02580479249880225 0 0.053119615960555977 -0.016645480887284372 0 0.046785098072576803 -0.0084810115611453647 0 0.058241665016994688 -0.025483374905415811 0 0.053119615960555977 -0.016645480887284372 0 0.063543147694140073 -0.017063478311206859 0 0.046476265041571853 -0.02580479249880225 0 0.058241665016994688 -0.025483374905415811 0 0.053119615960555977 -0.016645480887284372 0 0.053119615960555977 -0.016645480887284372 0 0.054587243132687133 -0.005030141054661607 0 0.046785098072576803 -0.0084810115611453647 0 0.053119615960555977 -0.016645480887284372 0 0.059715107624980737 -0.010199898887032099 0 0.063543147694140073 -0.017063478311206859 0 0.053119615960555977 -0.016645480887284372 0 0.059715107624980737 -0.010199898887032099 0 0.054587243132687133 -0.005030141054661607 0 0.058975878380341823 0.001701104691348615 0 0.054587243132687133 -0.005030141054661607 0 0.067610423712539836 -0.0020604952949755742 0 0.059715107624980737 -0.010199898887032099 0 0.054587243132687133 -0.005030141054661607 0 0.067610423712539836 -0.0020604952949755742 0 0.047025321839654959 0.0052983043102026676 0 0.054587243132687133 -0.005030141054661607 0 0.046785098072576803 -0.0084810115611453647 0 0.046476265041571853 -0.02580479249880225 0 0.046785098072576803 -0.0084810115611453647 0 0.032717044388414128 -0.00022294767518126881 0 0.047025321839654959 0.0052983043102026676 0 0.046785098072576803 -0.0084810115611453647 0 0.032717044388414128 -0.00022294767518126881 0 0.031929274908111697 -0.020182732918346581 0 0.046476265041571853 -0.02580479249880225 0 0.032717044388414128 -0.00022294767518126881 0 0.046476265041571853 -0.02580479249880225 0 0.032717044388414128 -0.00022294767518126881 0 0.091567309821212278 -0.00098424470217601612 0 0.090187895611911317 -0.0089075023451387243 0 0.082087524036717277 -0.0047761931783755667 0 0.091567309821212278 -0.00098424470217601612 0 0.090187895611911317 -0.0089075023451387243 0 0.09426652283997719 -0.0054855866211358656 0 0.090187895611911317 -0.0089075023451387243 0 0.086100810963052082 -0.016794659866634171 0 0.094784056893833055 -0.016956172173252401 0 0.090187895611911317 -0.0089075023451387243 0 0.082087524036717277 -0.0047761931783755667 0 0.086100810963052082 -0.016794659866634171 0 0.082087524036717277 -0.0047761931783755667 0 0.075999230663272008 -0.014783584742966101 0 0.086100810963052082 -0.016794659866634171 0 0.082087524036717277 -0.0047761931783755667 0 0.067610423712539836 -0.0020604952949755742 0 0.075999230663272008 -0.014783584742966101 0 0.077845831092297979 0.0053110267895053499 0 0.082087524036717277 -0.0047761931783755667 0 0.067610423712539836 -0.0020604952949755742 0 0.067610423712539836 -0.0020604952949755742 0 0.066323965161006498 -0.0196802032195743 0 0.063543147694140073 -0.017063478311206859 0 0.067610423712539836 -0.0020604952949755742 0 0.066323965161006498 -0.0196802032195743 0 0.067610423712539836 -0.0020604952949755742 0 0.075999230663272008 -0.014783584742966101 0 0.066323965161006498 -0.0196802032195743 0 0.059715107624980737 -0.010199898887032099 0 0.067610423712539836 -0.0020604952949755742 0 0.063543147694140073 -0.017063478311206859 0 0.058241665016994688 -0.025483374905415811 0 0.066323965161006498 -0.0196802032195743 0 0.064420031066086347 -0.04575703454865291 0 0.075999230663272008 -0.014783584742966101 0 0.066323965161006498 -0.0196802032195743 0 0.080802678671223788 -0.033304545965809007 0 0.058241665016994688 -0.025483374905415811 0 0.066323965161006498 -0.0196802032195743 0 0.063543147694140073 -0.017063478311206859 0 0.066323965161006498 -0.0196802032195743 0 0.063543147694140073 -0.017063478311206859 0 0.066323965161006498 -0.0196802032195743 0 0.080802678671223788 -0.033304545965809007 0 0.086100810963052082 -0.016794659866634171 0 0.093414515066320425 -0.028121519986110999 0 0.080802678671223788 -0.033304545965809007 0 0.075999230663272008 -0.014783584742966101 0 0.086100810963052082 -0.016794659866634171 0 0.080802678671223788 -0.033304545965809007 0 0.086100810963052082 -0.016794659866634171 0 0.093414515066320425 -0.028121519986110999 0 0.094784056893833055 -0.016956172173252401 0 0.093414515066320425 -0.028121519986110999 0 0.080802678671223788 -0.033304545965809007 0 0.095281392181443603 -0.046928888712040977 0 0.080802678671223788 -0.033304545965809007 0 0.077090064748152054 -0.05395164358281767 0 0.095281392181443603 -0.046928888712040977 0 0.080802678671223788 -0.033304545965809007 0 0.095281392181443603 -0.046928888712040977 0 0.066323965161006498 -0.0196802032195743 0 0.080802678671223788 -0.033304545965809007 0 0.064420031066086347 -0.04575703454865291 0 0.080802678671223788 -0.033304545965809007 0 0.064420031066086347 -0.04575703454865291 0 0.077090064748152054 -0.05395164358281767 0 0.066323965161006498 -0.0196802032195743 0 0.064420031066086347 -0.04575703454865291 0 0.06251609697116603 -0.071833865877731523 0 0.064420031066086347 -0.04575703454865291 0 0.077090064748152054 -0.05395164358281767 0 0.06251609697116603 -0.071833865877731523 0 0.064420031066086347 -0.04575703454865291 0 0.077090064748152054 -0.05395164358281767 0 0.095281392181443603 -0.046928888712040977 0 0.077506178740453194 -0.071419800062757985 0 0.095281392181443603 -0.046928888712040977 0 0.1020009571097126 -0.053251940523500671 0 0.077506178740453194 -0.071419800062757985 0 0.095281392181443603 -0.046928888712040977 0 0.077506178740453194 -0.071419800062757985 0 0.1020009571097126 -0.053251940523500671 0 0.1003782834275971 -0.070788011870200646 0 0.095281392181443603 -0.046928888712040977 0 0.1020009571097126 -0.053251940523500671 0 0.1177081146228183 -0.050164952916099501 0 0.1200589766458697 -0.070244378926624093 0 0.1272162213160721 -0.059219359834759039 0 0.1020009571097126 -0.053251940523500671 0 0.1200589766458697 -0.070244378926624093 0 0.1020009571097126 -0.053251940523500671 0 0.1177081146228183 -0.050164952916099501 0 0.1200589766458697 -0.070244378926624093 0 0.1177081146228183 -0.050164952916099501 0 0.1284821000579246 -0.047798265165130749 0 0.1272162213160721 -0.059219359834759039 0 0.1177081146228183 -0.050164952916099501 0 0.1248369981728381 -0.035081988839732597 0 0.10365343443449269 -0.035393784206851228 0 0.1177081146228183 -0.050164952916099501 0 0.1248369981728381 -0.035081988839732597 0 0.1284821000579246 -0.047798265165130749 0 0.1020009571097126 -0.053251940523500671 0 0.1177081146228183 -0.050164952916099501 0 0.10365343443449269 -0.035393784206851228 0 0.095281392181443603 -0.046928888712040977 0 0.1020009571097126 -0.053251940523500671 0 0.10365343443449269 -0.035393784206851228 0 0.093414515066320425 -0.028121519986110999 0 0.095281392181443603 -0.046928888712040977 0 0.10365343443449269 -0.035393784206851228 0 0.1020009571097126 -0.053251940523500671 0 0.10365343443449269 -0.035393784206851228 0 0.095281392181443603 -0.046928888712040977 0 0.10365343443449269 -0.035393784206851228 0 0.10365343443449269 -0.035393784206851228 0 0.1033876500926683 -0.01814066792612366 0 0.1053836954224675 -0.016695027662019871 0 0.10365343443449269 -0.035393784206851228 0 0.098438606449605309 -0.02224970348542394 0 0.1033876500926683 -0.01814066792612366 0 0.10365343443449269 -0.035393784206851228 0 0.1053836954224675 -0.016695027662019871 0 0.1092768655393111 -0.018545671374139011 0 0.10365343443449269 -0.035393784206851228 0 0.1053836954224675 -0.016695027662019871 0 0.093414515066320425 -0.028121519986110999 0 0.10365343443449269 -0.035393784206851228 0 0.098438606449605309 -0.02224970348542394 0 0.093414515066320425 -0.028121519986110999 0 0.094784056893833055 -0.016956172173252401 0 0.098438606449605309 -0.02224970348542394 0 0.094784056893833055 -0.016956172173252401 0 0.099213642067155966 -0.018293566119774649 0 0.098438606449605309 -0.02224970348542394 0 0.099213642067155966 -0.018293566119774649 0 0.1002442548325173 -0.015827720894298611 0 0.1033876500926683 -0.01814066792612366 0 0.094784056893833055 -0.016956172173252401 0 0.099213642067155966 -0.018293566119774649 0 0.1002442548325173 -0.015827720894298611 0 0.099213642067155966 -0.018293566119774649 0 0.098438606449605309 -0.02224970348542394 0 0.1033876500926683 -0.01814066792612366 0 0.1002442548325173 -0.015827720894298611 0 0.1033876500926683 -0.01814066792612366 0 0.1053836954224675 -0.016695027662019871 0 0.1033876500926683 -0.01814066792612366 0 0.1053836954224675 -0.016695027662019871 0 0.10365343443449269 -0.035393784206851228 0 0.11594398246420359 -0.018459713443277969 0 0.1248369981728381 -0.035081988839732597 0 0.10365343443449269 -0.035393784206851228 0 0.11594398246420359 -0.018459713443277969 0 0.10365343443449269 -0.035393784206851228 0 0.1092768655393111 -0.018545671374139011 0 0.11594398246420359 -0.018459713443277969 0 0.1092768655393111 -0.018545671374139011 0 0.11594398246420359 -0.018459713443277969 0 0.1053836954224675 -0.016695027662019871 0 0.1092768655393111 -0.018545671374139011 0 0.117865161737724 -0.0076552979569657533 0 0.1053836954224675 -0.016695027662019871 0 0.117865161737724 -0.0076552979569657533 0 0.1133883428256052 -0.0027087516383113128 0 0.1092768655393111 -0.018545671374139011 0 0.11594398246420359 -0.018459713443277969 0 0.117865161737724 -0.0076552979569657533 0 0.109817181641197 0.0076652885519670694 0 0.1053836954224675 -0.016695027662019871 0 0.1133883428256052 -0.0027087516383113128 0 0.1053836954224675 -0.016695027662019871 0 0.117865161737724 -0.0076552979569657533 0 0.13034662805298211 0.001384431748086113 0 0.11594398246420359 -0.018459713443277969 0 0.117865161737724 -0.0076552979569657533 0 0.13034662805298211 0.001384431748086113 0 0.11594398246420359 -0.018459713443277969 0 0.1204873325010313 0.0058500305137734162 0 0.13034662805298211 0.001384431748086113 0 0.117865161737724 -0.0076552979569657533 0 0.1204873325010313 0.0058500305137734162 0 0.117865161737724 -0.0076552979569657533 0 0.1133883428256052 -0.0027087516383113128 0 0.13034662805298211 0.001384431748086113 0 0.117865161737724 -0.0076552979569657533 0 0.1053836954224675 -0.016695027662019871 0 0.098299788400157725 -0.0090148575405829788 0 0.10157561452540199 -0.00040726733682942259 0 0.10812138201279491 0.01289087608560582 0 0.1053836954224675 -0.016695027662019871 0 0.10157561452540199 -0.00040726733682942259 0 0.10812138201279491 0.01289087608560582 0 0.1053836954224675 -0.016695027662019871 0 0.094784056893833055 -0.016956172173252401 0 0.1002442548325173 -0.015827720894298611 0 0.098299788400157725 -0.0090148575405829788 0 0.090187895611911317 -0.0089075023451387243 0 0.098299788400157725 -0.0090148575405829788 0 0.09426652283997719 -0.0054855866211358656 0 0.090187895611911317 -0.0089075023451387243 0 0.094784056893833055 -0.016956172173252401 0 0.098299788400157725 -0.0090148575405829788 0 0.1002442548325173 -0.015827720894298611 0 0.1053836954224675 -0.016695027662019871 0 0.098299788400157725 -0.0090148575405829788 0 0.098299788400157725 -0.0090148575405829788 0 0.09426652283997719 -0.0054855866211358656 0 0.096846041952465156 -0.0024841775821734659 0 0.098299788400157725 -0.0090148575405829788 0 0.096846041952465156 -0.0024841775821734659 0 0.10157561452540199 -0.00040726733682942259 0 0.096890073032441237 0.0023318467723570822 0 0.091567309821212278 -0.00098424470217601612 0 0.096846041952465156 -0.0024841775821734659 0 0.091567309821212278 -0.00098424470217601612 0 0.09426652283997719 -0.0054855866211358656 0 0.096846041952465156 -0.0024841775821734659 0 0.096890073032441237 0.0023318467723570822 0 0.096846041952465156 -0.0024841775821734659 0 0.10157561452540199 -0.00040726733682942259 0 0.080772711985716283 -0.096351267676873339 0 0.080345010836471775 -0.1143318990481081 0 0.097122575387544596 -0.1059721213455999 0 0.080772711985716283 -0.096351267676873339 0 0.098750429407571005 -0.088380066607900293 0 0.097122575387544596 -0.1059721213455999 0 0.079262881563485155 -0.13020642029344029 0 0.080345010836471775 -0.1143318990481081 0 0.093050612780599368 -0.122731887022332 0 0.080345010836471775 -0.1143318990481081 0 0.093050612780599368 -0.122731887022332 0 0.097122575387544596 -0.1059721213455999 0 0.079262881563485155 -0.13020642029344029 0 0.06446619459724931 -0.1253099609031437 0 0.080345010836471775 -0.1143318990481081 0 0.06446619459724931 -0.1253099609031437 0 0.080345010836471775 -0.1143318990481081 0 0.06711923445118069 -0.1055865644253966 0 0.060970444829032959 -0.093003564089118557 0 0.080772711985716283 -0.096351267676873339 0 0.06711923445118069 -0.1055865644253966 0 0.080772711985716283 -0.096351267676873339 0 0.080345010836471775 -0.1143318990481081 0 0.06711923445118069 -0.1055865644253966 0 0.06251609697116603 -0.071833865877731523 0 0.060970444829032959 -0.093003564089118557 0 0.07294490709261725 -0.077704377175965442 0 0.060970444829032959 -0.093003564089118557 0 0.080772711985716283 -0.096351267676873339 0 0.077213899256823162 -0.086463736973477062 0 0.060970444829032959 -0.093003564089118557 0 0.077213899256823162 -0.086463736973477062 0 0.07294490709261725 -0.077704377175965442 0 0.06251609697116603 -0.071833865877731523 0 0.077090064748152054 -0.05395164358281767 0 0.077506178740453194 -0.071419800062757985 0 0.06251609697116603 -0.071833865877731523 0 0.077506178740453194 -0.071419800062757985 0 0.06251609697116603 -0.071833865877731523 0 0.07294490709261725 -0.077704377175965442 0 0.077506178740453194 -0.071419800062757985 0 0.07294490709261725 -0.077704377175965442 0 0.077506178740453194 -0.071419800062757985 0 0.1020009571097126 -0.053251940523500671 0 0.077506178740453194 -0.071419800062757985 0 0.1003782834275971 -0.070788011870200646 0 0.077506178740453194 -0.071419800062757985 0 0.1003782834275971 -0.070788011870200646 0 0.077506178740453194 -0.071419800062757985 0 0.085022539887948806 -0.082022143518405893 0 0.1003782834275971 -0.070788011870200646 0 0.07294490709261725 -0.077704377175965442 0 0.077506178740453194 -0.071419800062757985 0 0.085022539887948806 -0.082022143518405893 0 0.080772711985716283 -0.096351267676873339 0 0.085022539887948806 -0.082022143518405893 0 0.098750429407571005 -0.088380066607900293 0 0.080772711985716283 -0.096351267676873339 0 0.077213899256823162 -0.086463736973477062 0 0.085022539887948806 -0.082022143518405893 0 0.077213899256823162 -0.086463736973477062 0 0.07294490709261725 -0.077704377175965442 0 0.085022539887948806 -0.082022143518405893 0 0.098750429407571005 -0.088380066607900293 0 0.1003782834275971 -0.070788011870200646 0 0.098750429407571005 -0.088380066607900293 0 0.1003782834275971 -0.070788011870200646 0 0.11415778296492959 -0.084196290613444094 0 0.085022539887948806 -0.082022143518405893 0 0.098750429407571005 -0.088380066607900293 0 0.1003782834275971 -0.070788011870200646 0 0.098750429407571005 -0.088380066607900293 0 0.11415778296492959 -0.084196290613444094 0 0.1097792736188721 -0.099016963299914815 0 0.1020009571097126 -0.053251940523500671 0 0.1003782834275971 -0.070788011870200646 0 0.1200589766458697 -0.070244378926624093 0 0.1003782834275971 -0.070788011870200646 0 0.1200589766458697 -0.070244378926624093 0 0.11415778296492959 -0.084196290613444094 0 0.1003782834275971 -0.070788011870200646 0 0.1200589766458697 -0.070244378926624093 0 0.1200589766458697 -0.070244378926624093 0 0.11415778296492959 -0.084196290613444094 0 0.1287248386027865 -0.07839887921487404 0 0.1200589766458697 -0.070244378926624093 0 0.1287248386027865 -0.07839887921487404 0 0.11415778296492959 -0.084196290613444094 0 0.12673999532844599 -0.094192934646620485 0 0.1287248386027865 -0.07839887921487404 0 0.11415778296492959 -0.084196290613444094 0 0.1097792736188721 -0.099016963299914815 0 0.12673999532844599 -0.094192934646620485 0 0.11915123655462639 -0.1079644802590855 0 0.1097792736188721 -0.099016963299914815 0 0.1046999578946016 -0.1154668112555878 0 0.11915123655462639 -0.1079644802590855 0 0.1097792736188721 -0.099016963299914815 0 0.12673999532844599 -0.094192934646620485 0 0.098750429407571005 -0.088380066607900293 0 0.097122575387544596 -0.1059721213455999 0 0.098750429407571005 -0.088380066607900293 0 0.1097792736188721 -0.099016963299914815 0 0.097122575387544596 -0.1059721213455999 0 0.1097792736188721 -0.099016963299914815 0 0.097122575387544596 -0.1059721213455999 0 0.1046999578946016 -0.1154668112555878 0 0.093050612780599368 -0.122731887022332 0 0.097122575387544596 -0.1059721213455999 0 0.1046999578946016 -0.1154668112555878 0 0.099790326417464506 -0.12875288665758061 0 0.093050612780599368 -0.122731887022332 0 0.1046999578946016 -0.1154668112555878 0 0.099790326417464506 -0.12875288665758061 0 0.1099290904545028 -0.1262797901245703 0 0.1046999578946016 -0.1154668112555878 0 0.1211019425767117 -0.12600779024960501 0 0.11915123655462639 -0.1079644802590855 0 0.13321984361715189 -0.1217957038919307 0 0.1099290904545028 -0.1262797901245703 0 0.1211019425767117 -0.12600779024960501 0 0.11915123655462639 -0.1079644802590855 0 0.1099290904545028 -0.1262797901245703 0 0.11915123655462639 -0.1079644802590855 0 0.1046999578946016 -0.1154668112555878 0 0.1099290904545028 -0.1262797901245703 0 0.11915123655462639 -0.1079644802590855 0 0.11915123655462639 -0.1079644802590855 0 0.13321984361715189 -0.1217957038919307 0 0.1415085957521392 -0.10390882509421059 0 0.1415085957521392 -0.10390882509421059 0 0.1666121760167362 -0.098312934844112007 0 0.15605765930186399 -0.12649374125212159 0 0.13321984361715189 -0.1217957038919307 0 0.1415085957521392 -0.10390882509421059 0 0.15605765930186399 -0.12649374125212159 0 0.1415085957521392 -0.10390882509421059 0 0.14970815495822459 -0.087266803899356662 0 0.1666121760167362 -0.098312934844112007 0 0.1415085957521392 -0.10390882509421059 0 0.12673999532844599 -0.094192934646620485 0 0.1374744315731421 -0.088589910750457801 0 0.11915123655462639 -0.1079644802590855 0 0.1415085957521392 -0.10390882509421059 0 0.12673999532844599 -0.094192934646620485 0 0.12673999532844599 -0.094192934646620485 0 0.1287248386027865 -0.07839887921487404 0 0.1374744315731421 -0.088589910750457801 0 0.1287248386027865 -0.07839887921487404 0 0.1374744315731421 -0.088589910750457801 0 0.14069057322411399 -0.079182110897227181 0 0.1200589766458697 -0.070244378926624093 0 0.13464249109747409 -0.069841543579262685 0 0.1200589766458697 -0.070244378926624093 0 0.13464249109747409 -0.069841543579262685 0 0.1272162213160721 -0.059219359834759039 0 0.1200589766458697 -0.070244378926624093 0 0.1287248386027865 -0.07839887921487404 0 0.13464249109747409 -0.069841543579262685 0 0.1287248386027865 -0.07839887921487404 0 0.13464249109747409 -0.069841543579262685 0 0.14069057322411399 -0.079182110897227181 0 0.13464249109747409 -0.069841543579262685 0 0.15185819809677911 -0.069142911538431134 0 0.13988244896142801 -0.056798649230211121 0 0.13464249109747409 -0.069841543579262685 0 0.15185819809677911 -0.069142911538431134 0 0.14069057322411399 -0.079182110897227181 0 0.15185819809677911 -0.069142911538431134 0 0.14069057322411399 -0.079182110897227181 0 0.14970815495822459 -0.087266803899356662 0 0.1415085957521392 -0.10390882509421059 0 0.1374744315731421 -0.088589910750457801 0 0.14970815495822459 -0.087266803899356662 0 0.15185819809677911 -0.069142911538431134 0 0.14970815495822459 -0.087266803899356662 0 0.159758937549182 -0.081583921535531428 0 0.1374744315731421 -0.088589910750457801 0 0.14069057322411399 -0.079182110897227181 0 0.14970815495822459 -0.087266803899356662 0 0.14970815495822459 -0.087266803899356662 0 0.159758937549182 -0.081583921535531428 0 0.1666121760167362 -0.098312934844112007 0 0.17085722112498791 -0.071613035860225882 0 0.1666121760167362 -0.098312934844112007 0 0.159758937549182 -0.081583921535531428 0 0.17085722112498791 -0.071613035860225882 0 0.1666121760167362 -0.098312934844112007 0 0.15185819809677911 -0.069142911538431134 0 0.17085722112498791 -0.071613035860225882 0 0.16325763230781909 -0.05888192041124897 0 0.15185819809677911 -0.069142911538431134 0 0.159758937549182 -0.081583921535531428 0 0.17085722112498791 -0.071613035860225882 0 0.17085722112498791 -0.071613035860225882 0 0.18735351426668609 -0.078465610825437127 0 0.18498799268038579 -0.060293682125138998 0 0.18735351426668609 -0.078465610825437127 0 0.1666121760167362 -0.098312934844112007 0 0.1959548088785408 -0.097417707256057709 0 0.17085722112498791 -0.071613035860225882 0 0.18735351426668609 -0.078465610825437127 0 0.1666121760167362 -0.098312934844112007 0 0.1666121760167362 -0.098312934844112007 0 0.18877606200831551 -0.1208913288245537 0 0.1959548088785408 -0.097417707256057709 0 0.1666121760167362 -0.098312934844112007 0 0.18877606200831551 -0.1208913288245537 0 0.15605765930186399 -0.12649374125212159 0 0.13034662805298211 0.001384431748086113 0 0.1444196249989011 -0.01809258214201314 0 0.1564263838336292 -0.0027420855689384242 0 0.13034662805298211 0.001384431748086113 0 0.11594398246420359 -0.018459713443277969 0 0.1444196249989011 -0.01809258214201314 0 0.11594398246420359 -0.018459713443277969 0 0.1444196249989011 -0.01809258214201314 0 0.1248369981728381 -0.035081988839732597 0 0.11594398246420359 -0.018459713443277969 0 0.1444196249989011 -0.01809258214201314 0 0.1248369981728381 -0.035081988839732597 0 0.1444196249989011 -0.01809258214201314 0 0.14121631612830249 -0.037988446687700891 0 0.1444196249989011 -0.01809258214201314 0 0.14121631612830249 -0.037988446687700891 0 0.15875822583127491 -0.03273202824559799 0 0.14121631612830249 -0.037988446687700891 0 0.15521284377626979 -0.049858597369999119 0 0.15875822583127491 -0.03273202824559799 0 0.1248369981728381 -0.035081988839732597 0 0.14121631612830249 -0.037988446687700891 0 0.1284821000579246 -0.047798265165130749 0 0.14121631612830249 -0.037988446687700891 0 0.1284821000579246 -0.047798265165130749 0 0.13988244896142801 -0.056798649230211121 0 0.1284821000579246 -0.047798265165130749 0 0.1272162213160721 -0.059219359834759039 0 0.13988244896142801 -0.056798649230211121 0 0.13464249109747409 -0.069841543579262685 0 0.1272162213160721 -0.059219359834759039 0 0.13988244896142801 -0.056798649230211121 0 0.15185819809677911 -0.069142911538431134 0 0.13988244896142801 -0.056798649230211121 0 0.15521284377626979 -0.049858597369999119 0 0.14121631612830249 -0.037988446687700891 0 0.13988244896142801 -0.056798649230211121 0 0.15521284377626979 -0.049858597369999119 0 0.15185819809677911 -0.069142911538431134 0 0.15521284377626979 -0.049858597369999119 0 0.16325763230781909 -0.05888192041124897 0 0.15521284377626979 -0.049858597369999119 0 0.16325763230781909 -0.05888192041124897 0 0.1751022662332396 -0.04491313687633975 0 0.17085722112498791 -0.071613035860225882 0 0.16325763230781909 -0.05888192041124897 0 0.1751022662332396 -0.04491313687633975 0 0.17085722112498791 -0.071613035860225882 0 0.1751022662332396 -0.04491313687633975 0 0.18498799268038579 -0.060293682125138998 0 0.1751022662332396 -0.04491313687633975 0 0.1923923637495584 -0.037910681245801527 0 0.17085722112498791 -0.071613035860225882 0 0.18498799268038579 -0.060293682125138998 0 0.1751022662332396 -0.04491313687633975 0 0.1751022662332396 -0.04491313687633975 0 0.17933995112528781 -0.017642360702561768 0 0.1923923637495584 -0.037910681245801527 0 0.1751022662332396 -0.04491313687633975 0 0.17933995112528781 -0.017642360702561768 0 0.15521284377626979 -0.049858597369999119 0 0.1751022662332396 -0.04491313687633975 0 0.15875822583127491 -0.03273202824559799 0 0.1751022662332396 -0.04491313687633975 0 0.15875822583127491 -0.03273202824559799 0 0.17289526753359871 -0.017725450840751129 0 0.1444196249989011 -0.01809258214201314 0 0.17289526753359871 -0.017725450840751129 0 0.1444196249989011 -0.01809258214201314 0 0.15875822583127491 -0.03273202824559799 0 0.17289526753359871 -0.017725450840751129 0 0.1751022662332396 -0.04491313687633975 0 0.17933995112528781 -0.017642360702561768 0 0.17289526753359871 -0.017725450840751129 0 0.17933995112528781 -0.017642360702561768 0 0.17289526753359871 -0.017725450840751129 0 0.17338990426021511 0.0089353632906695613 0 0.17289526753359871 -0.017725450840751129 0 0.19158345893234341 -0.00083487295755481524 0 0.17933995112528781 -0.017642360702561768 0 0.17289526753359871 -0.017725450840751129 0 0.19158345893234341 -0.00083487295755481524 0 0.17338990426021511 0.0089353632906695613 0 0.17289526753359871 -0.017725450840751129 0 0.1564263838336292 -0.0027420855689384242 0 0.1444196249989011 -0.01809258214201314 0 0.17289526753359871 -0.017725450840751129 0 0.1564263838336292 -0.0027420855689384242 0 0.21729458140653729 0.00043280060133069059 0 0.19158345893234341 -0.00083487295755481524 0 0.20137091006829611 -0.01735831953948911 0 0.21729458140653729 0.00043280060133069059 0 0.20137091006829611 -0.01735831953948911 0 0.22984655260299339 -0.016991188238224739 0 0.17933995112528781 -0.017642360702561768 0 0.19158345893234341 -0.00083487295755481524 0 0.20137091006829611 -0.01735831953948911 0 0.20137091006829611 -0.01735831953948911 0 0.21568220649089029 -0.037482662433961679 0 0.1923923637495584 -0.037910681245801527 0 0.17933995112528781 -0.017642360702561768 0 0.20137091006829611 -0.01735831953948911 0 0.17933995112528781 -0.017642360702561768 0 0.20137091006829611 -0.01735831953948911 0 0.1923923637495584 -0.037910681245801527 0 0.20137091006829611 -0.01735831953948911 0 0.21568220649089029 -0.037482662433961679 0 0.22984655260299339 -0.016991188238224739 0 0.20137091006829611 -0.01735831953948911 0 0.22984655260299339 -0.016991188238224739 0 0.21568220649089029 -0.037482662433961679 0 0.1923923637495584 -0.037910681245801527 0 0.20151786037878819 -0.057974136629699413 0 0.18498799268038579 -0.060293682125138998 0 0.1923923637495584 -0.037910681245801527 0 0.20151786037878819 -0.057974136629699413 0 0.21568220649089029 -0.037482662433961679 0 0.20151786037878819 -0.057974136629699413 0 0.22325770377238049 -0.056097645790071239 0 0.21568220649089029 -0.037482662433961679 0 0.20151786037878819 -0.057974136629699413 0 0.22325770377238049 -0.056097645790071239 0 0.2448580173371929 -0.055519512242431797 0 0.23401030084019339 -0.035010456904664533 0 0.22325770377238049 -0.056097645790071239 0 0.2448580173371929 -0.055519512242431797 0 0.2329502774450562 -0.072529031330456281 0 0.25778468750960382 -0.033926540212818643 0 0.2448580173371929 -0.055519512242431797 0 0.23401030084019339 -0.035010456904664533 0 0.21568220649089029 -0.037482662433961679 0 0.22325770377238049 -0.056097645790071239 0 0.23401030084019339 -0.035010456904664533 0 0.23401030084019339 -0.035010456904664533 0 0.22984655260299339 -0.016991188238224739 0 0.23770810395877259 -0.01688983068059904 0 0.21568220649089029 -0.037482662433961679 0 0.23401030084019339 -0.035010456904664533 0 0.22984655260299339 -0.016991188238224739 0 0.21568220649089029 -0.037482662433961679 0 0.22984655260299339 -0.016991188238224739 0 0.22984655260299339 -0.016991188238224739 0 0.23770810395877259 -0.01688983068059904 0 0.25778468750960382 -0.033926540212818643 0 0.25103947100691021 -0.016717951780026191 0 0.23770810395877259 -0.01688983068059904 0 0.25778468750960382 -0.033926540212818643 0 0.23770810395877259 -0.01688983068059904 0 0.25778468750960382 -0.033926540212818643 0 0.23401030084019339 -0.035010456904664533 0 0.23770810395877259 -0.01688983068059904 0 0.25103947100691021 -0.016717951780026191 0 0.23770810395877259 -0.01688983068059904 0 0.25103947100691021 -0.016717951780026191 0 0.23770810395877259 -0.01688983068059904 0 0.2484089677875449 -0.01463295254214088 0 0.23770810395877259 -0.01688983068059904 0 0.23279719935982229 -0.012722505349526649 0 0.24488347523265111 0.00476263714914716 0 0.23279719935982229 -0.012722505349526649 0 0.24488347523265111 0.00476263714914716 0 0.23230624884787579 0.00086340406273482527 0 0.23279719935982229 -0.012722505349526649 0 0.23770810395877259 -0.01688983068059904 0 0.2428440064781324 -0.0088463564238328001 0 0.23279719935982229 -0.012722505349526649 0 0.24488347523265111 0.00476263714914716 0 0.2428440064781324 -0.0088463564238328001 0 0.23279719935982229 -0.012722505349526649 0 0.23770810395877259 -0.01688983068059904 0 0.2428440064781324 -0.0088463564238328001 0 0.2484089677875449 -0.01463295254214088 0 0.25042228605187061 -0.0047491306960444736 0 0.2428440064781324 -0.0088463564238328001 0 0.2484089677875449 -0.01463295254214088 0 0.24488347523265111 0.00476263714914716 0 0.25042228605187061 -0.0047491306960444736 0 0.2428440064781324 -0.0088463564238328001 0 0.23230624884787579 0.00086340406273482527 0 0.21729458140653729 0.00043280060133069059 0 0.23279719935982229 -0.012722505349526649 0 0.21729458140653729 0.00043280060133069059 0 0.22984655260299339 -0.016991188238224739 0 0.23279719935982229 -0.012722505349526649 0 0.22984655260299339 -0.016991188238224739 0 0.23770810395877259 -0.01688983068059904 0 0.23279719935982229 -0.012722505349526649 0 0.22984655260299339 -0.016991188238224739 0 0.23279719935982229 -0.012722505349526649 0 0.21729458140653729 0.00043280060133069059 0 0.23279719935982229 -0.012722505349526649 0 0.21290251098885579 -0.095188760083259397 0 0.2095570298484894 -0.1135775337597703 0 0.1959548088785408 -0.097417707256057709 0 0.2095570298484894 -0.1135775337597703 0 0.18877606200831551 -0.1208913288245537 0 0.2182967846203806 -0.13009891166579521 0 0.2095570298484894 -0.1135775337597703 0 0.18877606200831551 -0.1208913288245537 0 0.1959548088785408 -0.097417707256057709 0 0.18735351426668609 -0.078465610825437127 0 0.1959548088785408 -0.097417707256057709 0 0.21052756014216201 -0.078070075199213759 0 0.18735351426668609 -0.078465610825437127 0 0.18498799268038579 -0.060293682125138998 0 0.20151786037878819 -0.057974136629699413 0 0.18735351426668609 -0.078465610825437127 0 0.20151786037878819 -0.057974136629699413 0 0.21052756014216201 -0.078070075199213759 0 0.18735351426668609 -0.078465610825437127 0 0.20151786037878819 -0.057974136629699413 0 0.20151786037878819 -0.057974136629699413 0 0.22325770377238049 -0.056097645790071239 0 0.21052756014216201 -0.078070075199213759 0 0.21290251098885579 -0.095188760083259397 0 0.1959548088785408 -0.097417707256057709 0 0.21052756014216201 -0.078070075199213759 0 0.21290251098885579 -0.095188760083259397 0 0.21052756014216201 -0.078070075199213759 0 0.23295385143415029 -0.091468306696135093 0 0.21052756014216201 -0.078070075199213759 0 0.23295385143415029 -0.091468306696135093 0 0.2329502774450562 -0.072529031330456281 0 0.22325770377238049 -0.056097645790071239 0 0.21052756014216201 -0.078070075199213759 0 0.2329502774450562 -0.072529031330456281 0 0.25282332103220789 -0.077768968400902472 0 0.2448580173371929 -0.055519512242431797 0 0.2329502774450562 -0.072529031330456281 0 0.25823079780134123 -0.099452363456823706 0 0.25282332103220789 -0.077768968400902472 0 0.23295385143415029 -0.091468306696135093 0 0.25282332103220789 -0.077768968400902472 0 0.23295385143415029 -0.091468306696135093 0 0.2329502774450562 -0.072529031330456281 0 0.25823079780134123 -0.099452363456823706 0 0.23295385143415029 -0.091468306696135093 0 0.2390550231981283 -0.11095140769565939 0 0.21290251098885579 -0.095188760083259397 0 0.23295385143415029 -0.091468306696135093 0 0.2390550231981283 -0.11095140769565939 0 0.21290251098885579 -0.095188760083259397 0 0.2095570298484894 -0.1135775337597703 0 0.2390550231981283 -0.11095140769565939 0 0.2390550231981283 -0.11095140769565939 0 0.2182967846203806 -0.13009891166579521 0 0.2095570298484894 -0.1135775337597703 0 0.2390550231981283 -0.11095140769565939 0 0.2182967846203806 -0.13009891166579521 0 0.26265347992112259 -0.12251615335900159 0 0.2390550231981283 -0.11095140769565939 0 0.24588425228157709 -0.1352284829746653 0 0.2390550231981283 -0.11095140769565939 0 0.24588425228157709 -0.1352284829746653 0 0.2182967846203806 -0.13009891166579521 0 0.25259957891731538 -0.1635399997034708 0 0.25327638948015557 -0.14878864317275439 0 0.23543805993190939 -0.1523696451017347 0 0.25327638948015557 -0.14878864317275439 0 0.24588425228157709 -0.1352284829746653 0 0.23543805993190939 -0.1523696451017347 0 0.23543805993190939 -0.1523696451017347 0 0.2182967846203806 -0.13009891166579521 0 0.21648299656815601 -0.1519926121290005 0 0.24588425228157709 -0.1352284829746653 0 0.23543805993190939 -0.1523696451017347 0 0.2182967846203806 -0.13009891166579521 0 0.2182967846203806 -0.13009891166579521 0 0.19753854604263299 -0.14924641563593111 0 0.2182967846203806 -0.13009891166579521 0 0.21648299656815601 -0.1519926121290005 0 0.19753854604263299 -0.14924641563593111 0 0.18877606200831551 -0.1208913288245537 0 0.2182967846203806 -0.13009891166579521 0 0.19753854604263299 -0.14924641563593111 0 0.21648299656815601 -0.1519926121290005 0 0.19753854604263299 -0.14924641563593111 0 0.19526045494111069 -0.17571423013362381 0 0.19753854604263299 -0.14924641563593111 0 0.19526045494111069 -0.17571423013362381 0 0.17678030746488529 -0.16839391960606701 0 0.21648299656815601 -0.1519926121290005 0 0.19526045494111069 -0.17571423013362381 0 0.22393001692921299 -0.16962711491854729 0 0.19526045494111069 -0.17571423013362381 0 0.22393001692921299 -0.16962711491854729 0 0.21236394282391469 -0.19075940472452729 0 0.19526045494111069 -0.17571423013362381 0 0.22393001692921299 -0.16962711491854729 0 0.22393001692921299 -0.16962711491854729 0 0.23874702685181459 -0.17800668437057801 0 0.21236394282391469 -0.19075940472452729 0 0.23874702685181459 -0.17800668437057801 0 0.21236394282391469 -0.19075940472452729 0 0.23543805993190939 -0.1523696451017347 0 0.21648299656815601 -0.1519926121290005 0 0.22393001692921299 -0.16962711491854729 0 0.25259957891731538 -0.1635399997034708 0 0.22393001692921299 -0.16962711491854729 0 0.23874702685181459 -0.17800668437057801 0 0.25259957891731538 -0.1635399997034708 0 0.23543805993190939 -0.1523696451017347 0 0.22393001692921299 -0.16962711491854729 0 0.25259957891731538 -0.1635399997034708 0 0.22393001692921299 -0.16962711491854729 0 0.25595476691424252 -0.1854888113912414 0 0.23874702685181459 -0.17800668437057801 0 0.24617234226859469 -0.19037293896087859 0 0.25333909334810889 -0.20072535138459779 0 0.24617234226859469 -0.19037293896087859 0 0.2366484819602129 -0.1972709086970971 0 0.23874702685181459 -0.17800668437057801 0 0.24617234226859469 -0.19037293896087859 0 0.2366484819602129 -0.1972709086970971 0 0.25333909334810889 -0.20072535138459779 0 0.2366484819602129 -0.1972709086970971 0 0.24732968082171039 -0.21963088721378529 0 0.2366484819602129 -0.1972709086970971 0 0.22733082426832829 -0.21338517875603111 0 0.24732968082171039 -0.21963088721378529 0 0.23874702685181459 -0.17800668437057801 0 0.2366484819602129 -0.1972709086970971 0 0.21236394282391469 -0.19075940472452729 0 0.2366484819602129 -0.1972709086970971 0 0.22733082426832829 -0.21338517875603111 0 0.21236394282391469 -0.19075940472452729 0 0.24822639080064951 -0.25902667576912952 0 0.23736409612136511 -0.23433725151581519 0 0.22416385264063279 -0.24714339016050391 0 0.26253277242697598 -0.23652457324002391 0 0.24822639080064951 -0.25902667576912952 0 0.23736409612136511 -0.23433725151581519 0 0.22733082426832829 -0.21338517875603111 0 0.24732968082171039 -0.21963088721378529 0 0.23736409612136511 -0.23433725151581519 0 0.26253277242697598 -0.23652457324002391 0 0.24732968082171039 -0.21963088721378529 0 0.23736409612136511 -0.23433725151581519 0 0.22733082426832829 -0.21338517875603111 0 0.23736409612136511 -0.23433725151581519 0 0.21527928727902951 -0.22988856151556919 0 0.23736409612136511 -0.23433725151581519 0 0.22416385264063279 -0.24714339016050391 0 0.21527928727902951 -0.22988856151556919 0 0.20415350105738531 -0.24765143162995981 0 0.21527928727902951 -0.22988856151556919 0 0.1914744066198415 -0.22838958922767399 0 0.22416385264063279 -0.24714339016050391 0 0.20415350105738531 -0.24765143162995981 0 0.21527928727902951 -0.22988856151556919 0 0.21527928727902951 -0.22988856151556919 0 0.1914744066198415 -0.22838958922767399 0 0.2068491759198407 -0.21277305917486969 0 0.20415350105738531 -0.24765143162995981 0 0.1914744066198415 -0.22838958922767399 0 0.1844852906525315 -0.24906604282928491 0 0.22733082426832829 -0.21338517875603111 0 0.21527928727902951 -0.22988856151556919 0 0.2068491759198407 -0.21277305917486969 0 0.22733082426832829 -0.21338517875603111 0 0.21236394282391469 -0.19075940472452729 0 0.2068491759198407 -0.21277305917486969 0 0.1914744066198415 -0.22838958922767399 0 0.2068491759198407 -0.21277305917486969 0 0.18779741860808929 -0.201442561650547 0 0.19526045494111069 -0.17571423013362381 0 0.21236394282391469 -0.19075940472452729 0 0.18779741860808929 -0.201442561650547 0 0.21236394282391469 -0.19075940472452729 0 0.2068491759198407 -0.21277305917486969 0 0.18779741860808929 -0.201442561650547 0 0.19526045494111069 -0.17571423013362381 0 0.18779741860808929 -0.201442561650547 0 0.17400061824703261 -0.1860781812310284 0 0.18779741860808929 -0.201442561650547 0 0.16898968788620461 -0.20358706428711179 0 0.17400061824703261 -0.1860781812310284 0 0.18779741860808929 -0.201442561650547 0 0.16898968788620461 -0.20358706428711179 0 0.1701038461351331 -0.22155677172941771 0 0.1914744066198415 -0.22838958922767399 0 0.18779741860808929 -0.201442561650547 0 0.1701038461351331 -0.22155677172941771 0 0.16898968788620461 -0.20358706428711179 0 0.1701038461351331 -0.22155677172941771 0 0.15115380081450269 -0.21414552930041569 0 0.16898968788620461 -0.20358706428711179 0 0.15806480236796661 -0.1930441893433166 0 0.15115380081450269 -0.21414552930041569 0 0.16898968788620461 -0.20358706428711179 0 0.15806480236796661 -0.1930441893433166 0 0.17400061824703261 -0.1860781812310284 0 0.1914744066198415 -0.22838958922767399 0 0.17269797370768439 -0.23723387719684111 0 0.1844852906525315 -0.24906604282928491 0 0.17269797370768439 -0.23723387719684111 0 0.1844852906525315 -0.24906604282928491 0 0.16005888902464069 -0.2483339599913372 0 0.1914744066198415 -0.22838958922767399 0 0.17269797370768439 -0.23723387719684111 0 0.1701038461351331 -0.22155677172941771 0 0.1701038461351331 -0.22155677172941771 0 0.15876229530358879 -0.23126597759589251 0 0.15115380081450269 -0.21414552930041569 0 0.17269797370768439 -0.23723387719684111 0 0.1701038461351331 -0.22155677172941771 0 0.15876229530358879 -0.23126597759589251 0 0.17269797370768439 -0.23723387719684111 0 0.15876229530358879 -0.23126597759589251 0 0.16005888902464069 -0.2483339599913372 0 0.16005888902464069 -0.2483339599913372 0 0.1386845243971537 -0.2497673514512139 0 0.13989514104750581 -0.23452786317568239 0 0.15876229530358879 -0.23126597759589251 0 0.16005888902464069 -0.2483339599913372 0 0.13989514104750581 -0.23452786317568239 0 0.15876229530358879 -0.23126597759589251 0 0.13989514104750581 -0.23452786317568239 0 0.15115380081450269 -0.21414552930041569 0 0.1219956350411413 -0.2398427023391346 0 0.13989514104750581 -0.23452786317568239 0 0.13016652006677931 -0.21805271629486039 0 0.13989514104750581 -0.23452786317568239 0 0.15115380081450269 -0.21414552930041569 0 0.13016652006677931 -0.21805271629486039 0 0.1265600254658609 -0.25575995917907818 0 0.1219956350411413 -0.2398427023391346 0 0.1386845243971537 -0.2497673514512139 0 0.1219956350411413 -0.2398427023391346 0 0.1386845243971537 -0.2497673514512139 0 0.13989514104750581 -0.23452786317568239 0 0.15806480236796661 -0.1930441893433166 0 0.15115380081450269 -0.21414552930041569 0 0.1391059926745051 -0.19699702535938349 0 0.15806480236796661 -0.1930441893433166 0 0.1391059926745051 -0.19699702535938349 0 0.1551970615847901 -0.17345307827508749 0 0.12015715315581491 -0.2009973826506419 0 0.13016652006677931 -0.21805271629486039 0 0.1391059926745051 -0.19699702535938349 0 0.15115380081450269 -0.21414552930041569 0 0.13016652006677931 -0.21805271629486039 0 0.1391059926745051 -0.19699702535938349 0 0.12015715315581491 -0.2009973826506419 0 0.13212398853783131 -0.17616283551780179 0 0.12015715315581491 -0.2009973826506419 0 0.1391059926745051 -0.19699702535938349 0 0.13212398853783131 -0.17616283551780179 0 0.1391059926745051 -0.19699702535938349 0 0.13212398853783131 -0.17616283551780179 0 0.1551970615847901 -0.17345307827508749 0 0.1551970615847901 -0.17345307827508749 0 0.14409082391984759 -0.15132828838496171 0 0.16238097617644581 -0.15928473725749021 0 0.13212398853783131 -0.17616283551780179 0 0.1551970615847901 -0.17345307827508749 0 0.14409082391984759 -0.15132828838496171 0 0.1227035271998753 -0.15842384503772541 0 0.13212398853783131 -0.17616283551780179 0 0.14409082391984759 -0.15132828838496171 0 0.13212398853783131 -0.17616283551780179 0 0.14409082391984759 -0.15132828838496171 0 0.1227035271998753 -0.15842384503772541 0 0.12885034326079009 -0.1383964124851868 0 0.14409082391984759 -0.15132828838496171 0 0.1211019425767117 -0.12600779024960501 0 0.13321984361715189 -0.1217957038919307 0 0.12885034326079009 -0.1383964124851868 0 0.13321984361715189 -0.1217957038919307 0 0.12885034326079009 -0.1383964124851868 0 0.15605765930186399 -0.12649374125212159 0 0.15605765930186399 -0.12649374125212159 0 0.14409082391984759 -0.15132828838496171 0 0.12885034326079009 -0.1383964124851868 0 0.15605765930186399 -0.12649374125212159 0 0.14409082391984759 -0.15132828838496171 0 0.18877606200831551 -0.1208913288245537 0 0.15605765930186399 -0.12649374125212159 0 0.17345571173626001 -0.14396366276384451 0 0.14409082391984759 -0.15132828838496171 0 0.17345571173626001 -0.14396366276384451 0 0.16238097617644581 -0.15928473725749021 0 0.15605765930186399 -0.12649374125212159 0 0.14409082391984759 -0.15132828838496171 0 0.17345571173626001 -0.14396366276384451 0 0.18877606200831551 -0.1208913288245537 0 0.19753854604263299 -0.14924641563593111 0 0.17345571173626001 -0.14396366276384451 0 0.19753854604263299 -0.14924641563593111 0 0.17345571173626001 -0.14396366276384451 0 0.17678030746488529 -0.16839391960606701 0 0.19753854604263299 -0.14924641563593111 0 0.17678030746488529 -0.16839391960606701 0 0.19526045494111069 -0.17571423013362381 0 0.17678030746488529 -0.16839391960606701 0 0.17400061824703261 -0.1860781812310284 0 0.15806480236796661 -0.1930441893433166 0 0.1551970615847901 -0.17345307827508749 0 0.17400061824703261 -0.1860781812310284 0 0.1551970615847901 -0.17345307827508749 0 0.17678030746488529 -0.16839391960606701 0 0.17400061824703261 -0.1860781812310284 0 0.1551970615847901 -0.17345307827508749 0 0.17678030746488529 -0.16839391960606701 0 0.16238097617644581 -0.15928473725749021 0 0.17345571173626001 -0.14396366276384451 0 0.17678030746488529 -0.16839391960606701 0 0.16238097617644581 -0.15928473725749021 0 
</DataArray>
</Points>
<Cells>
<DataArray type="UInt32" Name="connectivity" format="ascii">
0 1 2 3 4 5 6 7 8 9 10 11 12 13 14 15 16 17 18 19 20 21 22 23 24 25 26 27 28 29 30 31 32 33 34 35 36 37 38 39 40 41 42 43 44 45 46 47 48 49 50 51 52 53 54 55 56 57 58 59 60 61 62 63 64 65 66 67 68 69 70 71 72 73 74 75 76 77 78 79 80 81 82 83 84 85 86 87 88 89 90 91 92 93 94 95 96 97 98 99 100 101 102 103 104 105 106 107 108 109 110 111 112 113 114 115 116 117 118 119 120 121 122 123 124 125 126 127 128 129 130 131 132 133 134 135 136 137 138 139 140 141 142 143 144 145 146 147 148 149 150 151 152 153 154 155 156 157 158 159 160 161 162 163 164 165 166 167 168 169 170 171 172 173 174 175 176 177 178 179 180 181 182 183 184 185 186 187 188 189 190 191 192 193 194 195 196 197 198 199 200 201 202 203 204 205 206 207 208 209 210 211 212 213 214 215 216 217 218 219 220 221 222 223 224 225 226 227 228 229 230 231 232 233 234 235 236 237 238 239 240 241 242 243 244 245 246 247 248 249 250 251 252 253 254 255 256 257 258 259 260 261 262 263 264 265 266 267 268 269 270 271 272 273 274 275 276 277 278 279 280 281 282 283 284 285 286 287 288 289 290 291 292 293 294 295 296 297 298 299 300 301 302 303 304 305 306 307 308 309 310 311 312 313 314 315 316 317 318 319 320 321 322 323 324 325 326 327 328 329 330 331 332 333 334 335 336 337 338 339 340 341 342 343 344 345 346 347 348 349 350 351 352 353 354 355 356 357 358 359 360 361 362 363 364 365 366 367 368 369 370 371 372 373 374 375 376 377 378 379 380 381 382 383 384 385 386 387 388 389 390 391 392 393 394 395 396 397 398 399 400 401 402 403 404 405 406 407 408 409 410 411 412 413 414 415 416 417 418 419 420 421 422 423 424 425 426 427 428 429 430 431 432 433 434 435 436 437 438 439 440 441 442 443 444 445 446 447 448 449 450 451 452 453 454 455 456 457 458 459 460 461 462 463 464 465 466 467 468 469 470 471 472 473 474 475 476 477 478 479 480 481 482 483 484 485 486 487 488 489 490 491 492 493 494 495 496 497 498 499 500 501 502 503 504 505 506 507 508 509 510 511 512 513 514 515 516 517 518 519 520 521 522 523 524 525 526 527 528 529 530 531 532 533 534 535 536 537 538 539 540 541 542 543 544 545 546 547 548 549 550 551 552 553 554 555 556 557 558 559 560 561 562 563 564 565 566 567 568 569 570 571 572 573 574 575 576 577 578 579 580 581 582 583 584 585 586 587 588 589 590 591 592 593 594 595 596 597 598 599 600 601 602 603 604 605 606 607 608 609 610 611 612 613 614 615 616 617 618 619 620 621 622 623 624 625 626 627 628 629 630 631 632 633 634 635 636 637 638 639 640 641 642 643 644 645 646 647 648 649 650 651 652 653 654 655 656 657 658 659 660 661 662 663 664 665 666 667 668 669 670 671 672 673 674 675 676 677 678 679 680 681 682 683 684 685 686 687 688 689 690 691 692 693 694 695 696 697 698 699 700 701 702 703 704 705 706 707 708 709 710 711 712 713 714 715 716 717 718 719 720 721 722 723 724 725 726 727 728 729 730 731 732 733 734 735 736 737 738 739 740 741 742 743 744 745 746 747 748 749 750 751 752 753 754 755 756 757 758 759 760 761 762 763 764 765 766 767 768 769 770 771 772 773 774 775 776 777 778 779 780 781 782 783 784 785 786 787 788 789 790 791 792 793 794 795 796 797 798 799 800 801 802 803 804 805 806 807 808 809 810 811 812 813 814 815 816 817 818 819 820 821 822 823 824 825 826 827 828 829 830 831 832 833 834 835 836 837 838 839 840 841 842 843 844 845 846 847 848 849 850 851 852 853 854 855 856 857 858 859 860 861 862 863 864 865 866 867 868 869 870 871 872 873 874 875 876 877 878 879 880 881 882 883 884 885 886 887 888 889 890 891 892 893 894 895 896 897 898 899 900 901 902 903 904 905 906 907 908 909 910 911 912 913 914 915 916 917 918 919 920 921 922 923 924 925 926 927 928 929 930 931 932 933 934 935 936 937 938 939 940 941 942 943 944 945 946 947 948 949 950 951 952 953 954 955 956 957 958 959 960 961 962 963 964 965 966 967 968 969 970 971 972 973 974 975 976 977 978 979 980 981 982 983 984 985 986 987 988 989 990 991 992 993 994 995 996 997 998 999 1000 1001 1002 1003 1004 1005 1006 1007 1008 1009 1010 1011 1012 1013 1014 1015 1016 1017 1018 1019 1020 1021 1022 1023 1024 1025 1026 1027 1028 1029 1030 1031 1032 1033 1034 1035 1036 1037 1038 1039 1040 1041 1042 1043 1044 1045 1046 1047 1048 1049 1050 1051 1052 1053 1054 1055 1056 1057 1058 1059 1060 1061 1062 1063 1064 1065 1066 1067 1068 1069 1070 1071 1072 1073 1074 1075 1076 1077 1078 1079 1080 1081 1082 1083 1084 1085 1086 1087 1088 1089 1090 1091 1092 1093 1094 1095 1096 1097 1098 1099 1100 1101 1102 1103 1104 1105 1106 1107 1108 1109 1110 1111 1112 1113 1114 1115 1116 1117 1118 1119 1120 1121 1122 1123 1124 1125 1126 1127 1128 1129 1130 1131 1132 1133 1134 1135 1136 1137 1138 1139 1140 1141 1142 1143 1144 1145 1146 1147 1148 1149 1150 1151 1152 1153 1154 1155 1156 1157 1158 1159 1160 1161 1162 1163 1164 1165 1166 1167 1168 1169 1170 1171 1172 1173 1174 1175 1176 1177 1178 1179 1180 1181 1182 1183 1184 1185 1186 1187 1188 1189 1190 1191 1192 1193 1194 1195 1196 1197 1198 1199 1200 1201 1202 1203 1204 1205 1206 1207 1208 1209 1210 1211 1212 1213 1214 1215 1216 1217 1218 1219 1220 1221 1222 1223 1224 1225 1226 1227 1228 1229 1230 1231 1232 1233 1234 1235 1236 1237 1238 1239 1240 1241 1242 1243 1244 1245 1246 1247 1248 1249 1250 1251 1252 1253 1254 1255 1256 1257 1258 1259 1260 1261 1262 1263 1264 1265 1266 1267 1268 1269 1270 1271 1272 1273 1274 1275 1276 1277 1278 1279 1280 1281 1282 1283 1284 1285 1286 1287 1288 1289 1290 1291 1292 1293 1294 1295 1296 1297 1298 1299 1300 1301 1302 1303 1304 1305 1306 1307 1308 1309 1310 1311 1312 1313 1314 1315 1316 1317 1318 1319 1320 1321 1322 1323 1324 1325 1326 1327 1328 1329 1330 1331 1332 1333 1334 1335 1336 1337 1338 1339 1340 1341 1342 1343 1344 1345 1346 1347 1348 1349 1350 1351 1352 1353 1354 1355 1356 1357 1358 1359 1360 1361 1362 1363 1364 1365 1366 1367 1368 1369 1370 1371 1372 1373 1374 1375 1376 1377 1378 1379 1380 1381 1382 1383 1384 1385 1386 1387 1388 1389 1390 1391 1392 1393 1394 1395 1396 1397 1398 1399 1400 1401 1402 1403 1404 1405 1406 1407 1408 1409 1410 1411 1412 1413 1414 1415 1416 1417 1418 1419 1420 1421 1422 1423 1424 1425 1426 1427 1428 1429 1430 1431 1432 1433 1434 1435 1436 1437 1438 1439 1440 1441 1442 1443 1444 1445 1446 1447 1448 1449 1450 1451 1452 1453 1454 1455 1456 1457 1458 1459 1460 1461 1462 1463 1464 1465 1466 1467 1468 1469 1470 1471 1472 1473 1474 1475 1476 1477 1478 1479 1480 1481 1482 1483 1484 1485 1486 1487 1488 1489 1490 1491 1492 1493 1494 1495 1496 1497 1498 1499 1500 1501 1502 1503 1504 1505 1506 1507 1508 1509 1510 1511 1512 1513 1514 1515 1516 1517 1518 1519 1520 1521 1522 1523 1524 1525 1526 1527 1528 1529 1530 1531 1532 1533 1534 1535 1536 1537 1538 1539 1540 1541 1542 1543 1544 1545 1546 1547 1548 1549 1550 1551 1552 1553 1554 1555 1556 1557 1558 1559 1560 1561 1562 1563 1564 1565 1566 1567 1568 1569 1570 1571 1572 1573 1574 1575 1576 1577 1578 1579 1580 1581 1582 1583 1584 1585 1586 1587 1588 1589 1590 1591 1592 1593 1594 1595 1596 1597 1598 1599 1600 1601 1602 1603 1604 1605 1606 1607 1608 1609 1610 1611 1612 1613 1614 1615 1616 1617 1618 1619 1620 1621 1622 1623 1624 1625 1626 1627 1628 1629 1630 1631 1632 1633 1634 1635 1636 1637 1638 1639 1640 1641 1642 1643 1644 1645 1646 1647 1648 1649 1650 1651 1652 1653 1654 1655 1656 1657 1658 1659 1660 1661 1662 1663 1664 1665 1666 1667 1668 1669 1670 1671 1672 1673 1674 1675 1676 1677 1678 1679 1680 1681 1682 1683 1684 1685 1686 1687 1688 1689 1690 1691 1692 1693 1694 1695 1696 1697 1698 1699 1700 1701 1702 1703 1704 1705 1706 1707 1708 1709 1710 1711 1712 1713 1714 1715 1716 1717 1718 1719 1720 1721 1722 1723 1724 1725 1726 1727 1728 1729 1730 1731 1732 1733 1734 1735 1736 1737 1738 1739 1740 1741 1742 1743 1744 1745 1746 1747 1748 1749 1750 1751 1752 1753 1754 1755 1756 1757 1758 1759 1760 1761 1762 1763 1764 1765 1766 1767 1768 1769 1770 1771 1772 1773 1774 1775 1776 1777 1778 1779 1780 1781 1782 1783 1784 1785 1786 1787 1788 1789 1790 1791 1792 1793 1794 1795 1796 1797 1798 1799 1800 1801 1802 1803 1804 1805 1806 1807 1808 1809 1810 1811 1812 1813 1814 1815 1816 1817 1818 1819 1820 1821 1822 1823 1824 1825 1826 1827 1828 1829 1830 1831 1832 1833 1834 1835 1836 1837 1838 1839 1840 1841 1842 1843 1844 1845 1846 1847 1848 1849 1850 1851 1852 1853 1854 1855 1856 1857 1858 1859 1860 1861 1862 1863 1864 1865 1866 1867 1868 1869 1870 1871 1872 1873 1874 1875 1876 1877 1878 1879 1880 1881 1882 1883 1884 1885 1886 1887 1888 1889 1890 1891 1892 1893 1894 1895 1896 1897 1898 1899 1900 1901 1902 1903 1904 1905 1906 1907 1908 1909 1910 1911 1912 1913 1914 1915 1916 1917 1918 1919 1920 1921 1922 1923 1924 1925 1926 1927 1928 1929 1930 1931 1932 1933 1934 1935 1936 1937 1938 1939 1940 1941 1942 1943 1944 1945 1946 1947 1948 1949 1950 1951 1952 1953 1954 1955 1956 1957 1958 1959 1960 1961 1962 1963 1964 1965 1966 1967 1968 1969 1970 1971 1972 1973 1974 1975 1976 1977 1978 1979 1980 1981 1982 1983 1984 1985 1986 1987 1988 1989 1990 1991 1992 1993 1994 1995 1996 1997 1998 1999 2000 2001 2002 2003 2004 2005 2006 2007 2008 2009 2010 2011 2012 2013 2014 2015 2016 2017 2018 2019 2020 2021 2022 2023 2024 2025 2026 2027 2028 2029 2030 2031 2032 2033 2034 2035 2036 2037 2038 2039 2040 2041 2042 2043 2044 2045 2046 2047 2048 2049 2050 2051 2052 2053 2054 2055 2056 2057 2058 2059 2060 2061 2062 2063 2064 2065 2066 2067 2068 2069 2070 2071 2072 2073 2074 2075 2076 2077 2078 2079 2080 2081 2082 2083 2084 2085 2086 2087 2088 2089 2090 2091 2092 2093 2094 2095 2096 2097 2098 2099 2100 2101 2102 2103 2104 2105 2106 2107 2108 2109 2110 2111 2112 2113 2114 2115 2116 2117 2118 2119 2120 2121 2122 2123 2124 2125 2126 2127 2128 2129 2130 2131 2132 2133 2134 2135 2136 2137 2138 2139 2140 2141 2142 2143 2144 2145 2146 2147 2148 2149 2150 2151 2152 2153 2154 2155 2156 2157 2158 2159 2160 2161 2162 2163 2164 2165 2166 2167 2168 2169 2170 2171 2172 2173 2174 2175 2176 2177 2178 2179 2180 2181 2182 2183 2184 2185 2186 2187 2188 2189 2190 2191 2192 2193 2194 2195 2196 2197 2198 2199 2200 2201 2202 2203 2204 2205 2206 2207 2208 2209 2210 2211 2212 2213 2214 2215 2216 2217 2218 2219 2220 2221 2222 2223 2224 2225 2226 2227 2228 2229 2230 2231 2232 2233 2234 2235 2236 2237 2238 2239 2240 2241 2242 2243 2244 2245 2246 2247 2248 2249 2250 2251 2252 2253 2254 2255 2256 2257 2258 2259 2260 2261 2262 2263 2264 2265 2266 2267 2268 2269 2270 2271 2272 2273 2274 2275 2276 2277 2278 2279 2280 2281 2282 2283 2284 2285 2286 2287 2288 2289 2290 2291 2292 2293 2294 2295 2296 2297 2298 2299 2300 2301 2302 2303 2304 2305 2306 2307 2308 2309 2310 2311 2312 2313 2314 2315 2316 2317 2318 2319 2320 2321 2322 2323 2324 2325 2326 2327 2328 2329 2330 2331 2332 2333 2334 2335 2336 2337 2338 2339 2340 2341 2342 2343 2344 2345 2346 2347 2348 2349 2350 2351 2352 2353 2354 2355 2356 2357 2358 2359 2360 2361 2362 2363 2364 2365 2366 2367 2368 2369 2370 2371 2372 2373 2374 2375 2376 2377 2378 2379 2380 2381 2382 2383 2384 2385 2386 2387 2388 2389 2390 2391 2392 2393 2394 2395 2396 2397 2398 2399 2400 2401 2402 2403 2404 2405 2406 2407 2408 2409 2410 2411 2412 2413 2414 2415 2416 2417 2418 2419 2420 2421 2422 2423 2424 2425 2426 2427 2428 2429 2430 2431 2432 2433 2434 2435 2436 2437 2438 2439 2440 2441 2442 2443 2444 2445 2446 2447 2448 2449 2450 2451 2452 2453 2454 2455 2456 2457 2458 2459 2460 2461 2462 2463 2464 2465 2466 2467 2468 2469 2470 2471 2472 2473 2474 2475 2476 2477 2478 2479 2480 2481 2482 2483 2484 2485 2486 2487 2488 2489 2490 2491 2492 2493 2494 2495 2496 2497 2498 2499 2500 2501 2502 2503 2504 2505 2506 2507 2508 2509 2510 2511 2512 2513 2514 2515 2516 2517 2518 2519 2520 2521 2522 2523 2524 2525 2526 2527 2528 2529 2530 2531 2532 2533 2534 2535 2536 2537 2538 2539 2540 2541 2542 2543 2544 2545 2546 2547 2548 2549 2550 2551 2552 2553 2554 2555 2556 2557 2558 2559 2560 2561 2562 2563 2564 2565 2566 2567 2568 2569 2570 2571 2572 2573 2574 2575 2576 2577 2578 2579 2580 2581 2582 2583 2584 2585 2586 2587 2588 2589 2590 2591 2592 2593 2594 2595 2596 2597 2598 2599 2600 2601 2602 2603 2604 2605 2606 2607 2608 2609 2610 2611 2612 2613 2614 2615 2616 2617 2618 2619 2620 2621 2622 2623 2624 2625 2626 2627 2628 2629 2630 2631 2632 2633 2634 2635 2636 2637 2638 2639 2640 2641 2642 2643 2644 2645 2646 2647 2648 2649 2650 2651 2652 2653 2654 2655 2656 2657 2658 2659 2660 2661 2662 2663 2664 2665 2666 2667 2668 2669 2670 2671 2672 2673 2674 2675 2676 2677 2678 2679 2680 2681 2682 2683 2684 2685 2686 2687 2688 2689 2690 2691 2692 2693 2694 2695 2696 2697 2698 2699 2700 2701 2702 2703 2704 2705 2706 2707 2708 2709 2710 2711 2712 2713 2714 2715 2716 2717 2718 2719 2720 2721 2722 2723 2724 2725 2726 2727 2728 2729 2730 2731 2732 2733 2734 2735 2736 2737 2738 2739 2740 2741 2742 2743 2744 2745 2746 2747 2748 2749 2750 2751 2752 2753 2754 2755 2756 2757 2758 2759 2760 2761 2762 2763 2764 2765 2766 2767 2768 2769 2770 2771 2772 2773 2774 2775 2776 2777 2778 2779 2780 2781 2782 2783 2784 2785 2786 2787 2788 2789 2790 2791 2792 2793 2794 2795 2796 2797 2798 2799 2800 2801 2802 2803 2804 2805 2806 2807 2808 2809 2810 2811 2812 2813 2814 2815 2816 2817 2818 2819 2820 2821 2822 2823 2824 2825 2826 2827 2828 2829 2830 2831 2832 2833 2834 2835 2836 2837 2838 2839 2840 2841 2842 2843 2844 2845 2846 2847 2848 2849 2850 2851 2852 2853 2854 2855 2856 2857 2858 2859 2860 2861 2862 2863 2864 2865 2866 2867 2868 2869 2870 2871 2872 2873 2874 2875 2876 2877 2878 2879 2880 2881 2882 2883 2884 2885 2886 2887 2888 2889 2890 2891 2892 2893 2894 2895 2896 2897 2898 2899 2900 2901 2902 2903 2904 2905 2906 2907 2908 2909 2910 2911 2912 2913 2914 2915 2916 2917 2918 2919 2920 2921 2922 2923 2924 2925 2926 2927 2928 2929 2930 2931 2932 2933 2934 2935 2936 2937 2938 2939 2940 2941 2942 2943 2944 2945 2946 2947 2948 2949 2950 2951 2952 2953 2954 2955 2956 2957 2958 2959 2960 2961 2962 2963 2964 2965 2966 2967 2968 2969 2970 2971 2972 2973 2974 2975 2976 2977 2978 2979 2980 2981 2982 2983 2984 2985 2986 2987 2988 2989 2990 2991 2992 2993 2994 2995 2996 2997 2998 2999 3000 3001 3002 3003 3004 3005 3006 3007 3008 3009 3010 3011 3012 3013 3014 3015 3016 3017 3018 3019 3020 3021 3022 3023 3024 3025 3026 3027 3028 3029 3030 3031 3032 3033 3034 3035 3036 3037 3038 3039 3040 3041 3042 3043 3044 3045 3046 3047 3048 3049 3050 3051 3052 3053 3054 3055 3056 3057 3058 3059 3060 3061 3062 3063 3064 3065 3066 3067 3068 3069 3070 3071 3072 3073 3074 3075 3076 3077 3078 3079 3080 3081 3082 3083 3084 3085 3086 3087 3088 3089 3090 3091 3092 3093 3094 3095 3096 3097 3098 3099 3100 3101 3102 3103 3104 3105 3106 3107 3108 3109 3110 3111 3112 3113 3114 3115 3116 3117 3118 3119 3120 3121 3122 3123 3124 3125 3126 3127 3128 3129 3130 3131 3132 3133 3134 3135 3136 3137 3138 3139 3140 3141 3142 3143 3144 3145 3146 3147 3148 3149 3150 3151 3152 3153 3154 3155 3156 3157 3158 3159 3160 3161 3162 3163 3164 3165 3166 3167 3168 3169 3170 3171 3172 3173 3174 3175 3176 3177 3178 3179 3180 3181 3182 3183 3184 3185 3186 3187 3188 3189 3190 3191 3192 3193 3194 3195 3196 3197 3198 3199 3200 3201 3202 3203 3204 3205 3206 3207 3208 3209 3210 3211 3212 3213 3214 3215 3216 3217 3218 3219 3220 3221 3222 3223 3224 3225 3226 3227 3228 3229 3230 3231 3232 3233 3234 3235 3236 3237 3238 3239 3240 3241 3242 3243 3244 3245 3246 3247 3248 3249 3250 3251 3252 3253 3254 3255 3256 3257 3258 3259 3260 3261 3262 3263 3264 3265 3266 3267 3268 3269 3270 3271 3272 3273 3274 3275 3276 3277 3278 3279 3280 3281 3282 3283 3284 3285 3286 3287 3288 3289 3290 3291 3292 3293 3294 3295 3296 3297 3298 3299 3300 3301 3302 3303 3304 3305 3306 3307 3308 3309 3310 3311 3312 3313 3314 3315 3316 3317 3318 3319 3320 3321 3322 3323 3324 3325 3326 3327 3328 3329 3330 3331 3332 3333 3334 3335 3336 3337 3338 3339 3340 3341 3342 3343 3344 3345 3346 3347 3348 3349 3350 3351 3352 3353 3354 3355 3356 3357 3358 3359 3360 3361 3362 3363 3364 3365 3366 3367 3368 3369 3370 3371 3372 3373 3374 3375 3376 3377 3378 3379 3380 3381 3382 3383 3384 3385 3386 3387 3388 3389 3390 3391 3392 3393 3394 3395 3396 3397 3398 3399 3400 3401 3402 3403 3404 3405 3406 3407 3408 3409 3410 3411 3412 3413 3414 3415 3416 3417 3418 3419 3420 3421 3422 3423 3424 3425 3426 3427 3428 3429 3430 3431 3432 3433 3434 3435 3436 3437 3438 3439 3440 3441 3442 3443 3444 3445 3446 3447 3448 3449 3450 3451 3452 3453 3454 3455 3456 3457 3458 3459 3460 3461 3462 3463 3464 3465 3466 3467 3468 3469 3470 3471 3472 3473 3474 3475 3476 3477 3478 3479 3480 3481 3482 3483 3484 3485 3486 3487 3488 3489 3490 3491 3492 3493 3494 3495 3496 3497 3498 3499 3500 3501 3502 3503 3504 3505 3506 3507 3508 3509 3510 3511 3512 3513 3514 3515 3516 3517 3518 3519 3520 3521 3522 3523 3524 3525 3526 3527 3528 3529 3530 3531 3532 3533 3534 3535 3536 3537 3538 3539 3540 3541 3542 3543 3544 3545 3546 3547 3548 3549 3550 3551 3552 3553 3554 3555 3556 3557 3558 3559 3560 3561 3562 3563 3564 3565 3566 3567 3568 3569 3570 3571 3572 3573 3574 3575 3576 3577 3578 3579 3580 3581 3582 3583 3584 3585 3586 3587 3588 3589 3590 3591 3592 3593 3594 3595 3596 3597 3598 3599 3600 3601 3602 3603 3604 3605 3606 3607 3608 3609 3610 3611 3612 3613 3614 3615 3616 3617 3618 3619 3620 3621 3622 3623 3624 3625 3626 3627 3628 3629 3630 3631 3632 3633 3634 3635 3636 3637 3638 3639 3640 3641 3642 3643 3644 3645 3646 3647 3648 3649 3650 3651 3652 3653 3654 3655 3656 3657 3658 3659 3660 3661 3662 3663 3664 3665 3666 3667 3668 3669 3670 3671 3672 3673 3674 3675 3676 3677 3678 3679 3680 3681 3682 3683 3684 3685 3686 3687 3688 3689 3690 3691 3692 3693 3694 3695 3696 3697 3698 3699 3700 3701 3702 3703 3704 3705 3706 3707 3708 3709 3710 3711 3712 3713 3714 3715 3716 3717 3718 3719 3720 3721 3722 3723 3724 3725 3726 3727 3728 3729 3730 3731 3732 3733 3734 3735 3736 3737 3738 3739 3740 3741 3742 3743 3744 3745 3746 3747 3748 3749 3750 3751 3752 3753 3754 3755 3756 3757 3758 3759 3760 3761 3762 3763 3764 3765 3766 3767 3768 3769 3770 3771 3772 3773 3774 3775 3776 3777 3778 3779 3780 3781 3782 3783 3784 3785 3786 3787 3788 3789 3790 3791 3792 3793 3794 3795 3796 3797 3798 3799 3800 3801 3802 3803 3804 3805 3806 3807 3808 3809 3810 3811 3812 3813 3814 3815 3816 3817 3818 3819 3820 3821 3822 3823 3824 3825 3826 3827 3828 3829 3830 3831 3832 3833 3834 3835 3836 3837 3838 3839 3840 3841 3842 3843 3844 3845 3846 3847 3848 3849 3850 3851 3852 3853 3854 3855 3856 3857 3858 3859 3860 3861 3862 3863 3864 3865 3866 3867 3868 3869 3870 3871 3872 3873 3874 3875 3876 3877 3878 3879 3880 3881 3882 3883 3884 3885 3886 3887 3888 3889 3890 3891 3892 3893 3894 3895 3896 3897 3898 3899 3900 3901 3902 3903 3904 3905 3906 3907 3908 3909 3910 3911 3912 3913 3914 3915 3916 3917 3918 3919 3920 3921 3922 3923 3924 3925 3926 3927 3928 3929 3930 3931 3932 3933 3934 3935 3936 3937 3938 3939 3940 3941 3942 3943 3944 3945 3946 3947 3948 3949 3950 3951 3952 3953 3954 3955 3956 3957 3958 3959 3960 3961 3962 3963 3964 3965 3966 3967 3968 3969 3970 3971 3972 3973 3974 3975 3976 3977 3978 3979 3980 3981 3982 3983 3984 3985 3986 3987 3988 3989 3990 3991 3992 3993 3994 3995 3996 3997 3998 3999 4000 4001 4002 4003 4004 4005 4006 4007 4008 4009 4010 4011 4012 4013 4014 4015 4016 4017 4018 4019 4020 4021 4022 4023 4024 4025 4026 4027 4028 4029 4030 4031 4032 4033 4034 4035 4036 4037 4038 4039 4040 4041 4042 4043 4044 4045 4046 4047 4048 4049 4050 4051 4052 4053 4054 4055 4056 4057 4058 4059 4060 4061 4062 4063 4064 4065 4066 4067 4068 4069 4070 4071 4072 4073 4074 4075 4076 4077 4078 4079 4080 4081 4082 4083 4084 4085 4086 4087 4088 4089 4090 4091 4092 4093 4094 4095 4096 4097 4098 4099 4100 4101 4102 4103 4104 4105 4106 4107 4108 4109 4110 4111 4112 4113 4114 4115 4116 4117 4118 4119 4120 4121 4122 4123 4124 4125 4126 4127 4128 4129 4130 4131 4132 4133 4134 4135 4136 4137 4138 4139 4140 4141 4142 4143 4144 4145 4146 4147 4148 4149 4150 4151 4152 4153 4154 4155 4156 4157 4158 4159 4160 4161 4162 4163 4164 4165 4166 4167 4168 4169 4170 4171 4172 4173 4174 4175 4176 4177 4178 4179 4180 4181 4182 4183 4184 4185 4186 4187 4188 4189 4190 4191 4192 4193 4194 4195 4196 4197 4198 4199 4200 4201 4202 4203 4204 4205 4206 4207 4208 4209 4210 4211 4212 4213 4214 4215 4216 4217 4218 4219 4220 4221 4222 4223 4224 4225 4226 4227 4228 4229 4230 4231 4232 4233 4234 4235 4236 4237 4238 4239 4240 4241 4242 4243 4244 4245 4246 4247 4248 4249 4250 4251 4252 4253 4254 4255 4256 4257 4258 4259 4260 4261 4262 4263 4264 4265 4266 4267 4268 4269 4270 4271 4272 4273 4274 4275 4276 4277 4278 4279 4280 4281 4282 4283 4284 4285 4286 4287 4288 4289 4290 4291 4292 4293 4294 4295 4296 4297 4298 4299 4300 4301 4302 4303 4304 4305 4306 4307 4308 4309 4310 4311 4312 4313 4314 4315 4316 4317 4318 4319 4320 4321 4322 4323 4324 4325 4326 4327 4328 4329 4330 4331 4332 4333 4334 4335 4336 4337 4338 4339 4340 4341 4342 4343 4344 4345 4346 4347 4348 4349 4350 4351 4352 4353 4354 4355 4356 4357 4358 4359 4360 4361 4362 4363 4364 4365 4366 4367 4368 4369 4370 4371 4372 4373 4374 4375 4376 4377 4378 4379 4380 4381 4382 4383 4384 4385 4386 4387 4388 4389 4390 4391 4392 4393 4394 4395 4396 4397 4398 4399 4400 4401 4402 4403 4404 4405 4406 4407 4408 4409 4410 4411 4412 4413 4414 4415 4416 4417 4418 4419 4420 4421 4422 4423 4424 4425 4426 4427 4428 4429 4430 4431 4432 4433 4434 4435 4436 4437 4438 4439 4440 4441 4442 4443 4444 4445 4446 4447 4448 4449 4450 4451 4452 4453 4454 4455 4456 4457 4458 4459 4460 4461 4462 4463 4464 4465 4466 4467 4468 4469 4470 4471 4472 4473 4474 4475 4476 4477 4478 4479 4480 4481 4482 4483 4484 4485 4486 4487 4488 4489 4490 4491 4492 4493 4494 4495 4496 4497 4498 4499 4500 4501 4502 4503 4504 4505 4506 4507 4508 4509 4510 4511 4512 4513 4514 4515 4516 4517 4518 4519 4520 4521 4522 4523 4524 4525 4526 4527 4528 4529 4530 4531 4532 4533 4534 4535 4536 4537 4538 4539 4540 4541 4542 4543 4544 4545 4546 4547 4548 4549 4550 4551 4552 4553 4554 4555 4556 4557 4558 4559 4560 4561 4562 4563 4564 4565 4566 4567 4568 4569 4570 4571 4572 4573 4574 4575 4576 4577 4578 4579 4580 4581 4582 4583 4584 4585 4586 4587 4588 4589 4590 4591 4592 4593 4594 4595 4596 4597 4598 4599 4600 4601 4602 4603 4604 4605 4606 4607 4608 4609 4610 4611 4612 4613 4614 4615 4616 4617 4618 4619 4620 4621 4622 4623 4624 4625 4626 4627 4628 4629 4630 4631 4632 4633 4634 4635 4636 4637 4638 4639 4640 4641 4642 4643 4644 4645 4646 4647 4648 4649 4650 4651 4652 4653 4654 4655 4656 4657 4658 4659 4660 4661 4662 4663 4664 4665 4666 4667 4668 4669 4670 4671 4672 4673 4674 4675 4676 4677 4678 4679 4680 4681 4682 4683 4684 4685 4686 4687 4688 4689 4690 4691 4692 4693 4694 4695 4696 4697 4698 4699 4700 4701 4702 4703 4704 4705 4706 4707 4708 4709 4710 4711 4712 4713 4714 4715 4716 4717 4718 4719 4720 4721 4722 4723 4724 4725 4726 4727 4728 4729 4730 4731 4732 4733 4734 4735 4736 4737 4738 4739 4740 4741 4742 4743 4744 4745 4746 4747 4748 4749 4750 4751 4752 4753 4754 4755 4756 4757 4758 4759 4760 4761 4762 4763 4764 4765 4766 4767 4768 4769 4770 4771 4772 4773 4774 4775 4776 4777 4778 4779 4780 4781 4782 4783 4784 4785 4786 4787 4788 4789 4790 4791 4792 4793 4794 4795 4796 4797 4798 4799 4800 4801 4802 4803 4804 4805 4806 4807 4808 4809 4810 4811 4812 4813 4814 4815 4816 4817 4818 4819 4820 4821 4822 4823 4824 4825 4826 4827 4828 4829 4830 4831 4832 4833 4834 4835 4836 4837 4838 4839 4840 4841 4842 4843 4844 4845 4846 4847 4848 4849 4850 4851 4852 4853 4854 4855 4856 4857 4858 4859 4860 4861 4862 4863 4864 4865 4866 4867 4868 4869 4870 4871 4872 4873 4874 4875 4876 4877 4878 4879 4880 4881 4882 4883 4884 4885 4886 4887 4888 4889 4890 4891 4892 4893 4894 4895 4896 4897 4898 4899 4900 4901 4902 4903 4904 4905 4906 4907 4908 4909 4910 4911 4912 4913 4914 4915 4916 4917 4918 4919 4920 4921 4922 4923 4924 4925 4926 4927 4928 4929 4930 4931 4932 4933 4934 4935 4936 4937 4938 4939 4940 4941 4942 4943 4944 4945 4946 4947 4948 4949 4950 4951 4952 4953 4954 4955 4956 4957 4958 4959 4960 4961 4962 4963 4964 4965 4966 4967 4968 4969 4970 4971 4972 4973 4974 4975 4976 4977 4978 4979 4980 4981 4982 4983 4984 4985 4986 4987 4988 4989 4990 4991 4992 4993 4994 4995 4996 4997 4998 4999 5000 5001 5002 5003 5004 5005 5006 5007 5008 5009 5010 5011 5012 5013 5014 5015 5016 5017 5018 5019 5020 5021 5022 5023 5024 5025 5026 5027 5028 5029 5030 5031 5032 5033 5034 5035 5036 5037 5038 5039 5040 5041 5042 5043 5044 5045 5046 5047 5048 5049 5050 5051 5052 5053 5054 5055 5056 5057 5058 5059 5060 5061 5062 5063 5064 5065 5066 5067 5068 5069 5070 5071 5072 5073 5074 5075 5076 5077 5078 5079 5080 5081 5082 5083 5084 5085 5086 5087 5088 5089 5090 5091 5092 5093 5094 5095 5096 5097 5098 5099 5100 5101 5102 5103 5104 5105 5106 5107 5108 5109 5110 5111 5112 5113 5114 5115 5116 5117 5118 5119 5120 5121 5122 5123 5124 5125 5126 5127 5128 5129 5130 5131 5132 5133 5134 5135 5136 5137 5138 5139 5140 5141 5142 5143 5144 5145 5146 5147 5148 5149 5150 5151 5152 5153 5154 5155 5156 5157 5158 5159 5160 5161 5162 5163 5164 5165 5166 5167 5168 5169 5170 5171 5172 5173 5174 5175 5176 5177 5178 5179 5180 5181 5182 5183 5184 5185 5186 5187 5188 5189 5190 5191 5192 5193 5194 5195 5196 5197 5198 5199 5200 5201 5202 5203 5204 5205 5206 5207 5208 5209 5210 5211 5212 5213 5214 5215 5216 5217 5218 5219 5220 5221 5222 5223 5224 5225 5226 5227 5228 5229 5230 5231 5232 5233 5234 5235 5236 5237 5238 5239 5240 5241 5242 5243 5244 5245 5246 5247 5248 5249 5250 5251 5252 5253 5254 5255 5256 5257 5258 5259 5260 5261 5262 5263 5264 5265 5266 5267 5268 5269 5270 5271 5272 5273 5274 5275 5276 5277 5278 5279 5280 5281 5282 5283 5284 5285 5286 5287 5288 5289 5290 5291 5292 5293 5294 5295 5296 5297 5298 5299 5300 5301 5302 5303 5304 5305 5306 5307 5308 5309 5310 5311 5312 5313 5314 5315 5316 5317 5318 5319 5320 5321 5322 5323 5324 5325 5326 5327 5328 5329 5330 5331 5332 5333 5334 5335 5336 5337 5338 5339 5340 5341 5342 5343 5344 5345 5346 5347 5348 5349 5350 5351 5352 5353 5354 5355 5356 5357 5358 5359 5360 5361 5362 5363 5364 5365 5366 5367 5368 5369 5370 5371 5372 5373 5374 5375 5376 5377 5378 5379 5380 5381 5382 5383 5384 5385 5386 5387 5388 5389 5390 5391 5392 5393 5394 5395 5396 5397 5398 5399 5400 5401 5402 5403 5404 5405 5406 5407 5408 5409 5410 5411 5412 5413 5414 5415 5416 5417 5418 5419 5420 5421 5422 5423 5424 5425 5426 5427 5428 5429 5430 5431 5432 5433 5434 5435 5436 5437 5438 5439 5440 5441 5442 5443 5444 5445 5446 5447 5448 5449 5450 5451 5452 5453 5454 5455 5456 5457 5458 5459 5460 5461 5462 5463 5464 5465 5466 5467 5468 5469 5470 5471 5472 5473 5474 5475 5476 5477 5478 5479 5480 5481 5482 5483 5484 5485 5486 5487 5488 5489 5490 5491 5492 5493 5494 5495 5496 5497 5498 5499 5500 5501 5502 5503 5504 5505 5506 5507 5508 5509 5510 5511 5512 5513 5514 5515 5516 5517 5518 5519 5520 5521 5522 5523 5524 5525 5526 5527 5528 5529 5530 5531 5532 5533 5534 5535 5536 5537 5538 5539 5540 5541 5542 5543 5544 5545 5546 5547 5548 5549 5550 5551 5552 5553 5554 5555 5556 5557 5558 5559 5560 5561 5562 5563 5564 5565 5566 5567 5568 5569 5570 5571 5572 5573 5574 5575 5576 5577 5578 5579 5580 5581 5582 5583 5584 5585 5586 5587 5588 5589 5590 5591 5592 5593 5594 5595 5596 5597 5598 5599 5600 5601 5602 5603 5604 5605 5606 5607 5608 5609 5610 5611 5612 5613 5614 5615 5616 5617 5618 5619 5620 5621 5622 5623 5624 5625 5626 5627 5628 5629 5630 5631 5632 5633 5634 5635 5636 5637 5638 5639 5640 5641 5642 5643 5644 5645 5646 5647 5648 5649 5650 5651 5652 5653 5654 5655 5656 5657 5658 5659 5660 5661 5662 5663 5664 5665 5666 5667 5668 5669 5670 5671 5672 5673 5674 5675 5676 5677 5678 5679 5680 5681 5682 5683 5684 5685 5686 5687 5688 5689 5690 5691 5692 5693 5694 5695 5696 5697 5698 5699 5700 5701 5702 5703 5704 5705 5706 5707 5708 5709 5710 5711 5712 5713 5714 5715 5716 5717 5718 5719 5720 5721 5722 5723 5724 5725 5726 5727 5728 5729 5730 5731 5732 5733 5734 5735 5736 5737 5738 5739 5740 5741 5742 5743 5744 5745 5746 5747 5748 5749 5750 5751 5752 5753 5754 5755 5756 5757 5758 5759 5760 5761 5762 5763 5764 5765 5766 5767 5768 5769 5770 5771 5772 5773 5774 5775 5776 5777 5778 5779 5780 5781 5782 5783 5784 5785 5786 5787 5788 5789 5790 5791 5792 5793 5794 5795 5796 5797 5798 5799 5800 5801 5802 5803 5804 5805 5806 5807 5808 5809 5810 5811 5812 5813 5814 5815 5816 5817 5818 5819 5820 5821 5822 5823 5824 5825 5826 5827 5828 5829 5830 5831 5832 5833 5834 5835 5836 5837 5838 5839 5840 5841 5842 5843 5844 5845 5846 5847 5848 5849 5850 5851 5852 5853 5854 5855 5856 5857 5858 5859 5860 5861 5862 5863 5864 5865 5866 5867 5868 5869 5870 5871 5872 5873 5874 5875 5876 5877 5878 5879 5880 5881 5882 5883 5884 5885 5886 5887 5888 5889 5890 5891 5892 5893 5894 5895 5896 5897 5898 5899 5900 5901 5902 5903 5904 5905 5906 5907 5908 5909 5910 5911 5912 5913 5914 5915 5916 5917 5918 5919 5920 5921 5922 5923 5924 5925 5926 5927 5928 5929 5930 5931 5932 5933 5934 5935 5936 5937 5938 5939 5940 5941 5942 5943 5944 5945 5946 5947 5948 5949 5950 5951 5952 5953 5954 5955 5956 5957 5958 5959 5960 5961 5962 5963 5964 5965 5966 5967 5968 5969 5970 5971 5972 5973 5974 5975 5976 5977 5978 5979 5980 5981 5982 5983 5984 5985 5986 5987 5988 5989 5990 5991 5992 5993 5994 5995 5996 5997 5998 5999 6000 6001 6002 6003 6004 6005 6006 6007 6008 6009 6010 6011 6012 6013 6014 6015 6016 6017 6018 6019 6020 6021 6022 6023 6024 6025 6026 6027 6028 6029 6030 6031 6032 6033 6034 6035 6036 6037 6038 6039 6040 6041 6042 6043 6044 6045 6046 6047 6048 6049 6050 6051 6052 6053 6054 6055 6056 6057 6058 6059 6060 6061 6062 6063 6064 6065 6066 6067 6068 6069 6070 6071 6072 6073 6074 6075 6076 6077 6078 6079 6080 6081 6082 6083 6084 6085 6086 6087 6088 6089 6090 6091 6092 6093 6094 6095 6096 6097 6098 6099 6100 6101 6102 6103 6104 6105 6106 6107 6108 6109 6110 6111 6112 6113 6114 6115 6116 6117 6118 6119 6120 6121 6122 6123 6124 6125 6126 6127 6128 6129 6130 6131 6132 6133 6134 6135 6136 6137 6138 6139 6140 6141 6142 6143 6144 6145 6146 6147 6148 6149 6150 6151 6152 6153 6154 6155 6156 6157 6158 6159 6160 6161 6162 6163 6164 6165 6166 6167 6168 6169 6170 6171 6172 6173 6174 6175 6176 6177 6178 6179 6180 6181 6182 6183 6184 6185 6186 6187 6188 6189 6190 6191 6192 6193 6194 6195 6196 6197 6198 6199 6200 6201 6202 6203 6204 6205 6206 6207 6208 6209 6210 6211 6212 6213 6214 6215 6216 6217 6218 6219 6220 6221 6222 6223 6224 6225 6226 6227 6228 6229 6230 6231 6232 6233 6234 6235 6236 6237 6238 6239 6240 6241 6242 6243 6244 6245 6246 6247 6248 6249 6250 6251 6252 6253 6254 6255 6256 6257 6258 6259 6260 6261 6262 6263 6264 6265 6266 6267 6268 6269 6270 6271 6272 6273 6274 6275 6276 6277 6278 6279 6280 6281 6282 6283 6284 6285 6286 6287 6288 6289 6290 6291 6292 6293 6294 6295 6296 6297 6298 6299 6300 6301 6302 6303 6304 6305 6306 6307 6308 6309 6310 6311 6312 6313 6314 6315 6316 6317 6318 6319 6320 6321 6322 6323 6324 6325 6326 6327 6328 6329 6330 6331 6332 6333 6334 6335 6336 6337 6338 6339 6340 6341 6342 6343 6344 6345 6346 6347 6348 6349 6350 6351 6352 6353 6354 6355 6356 6357 6358 6359 6360 6361 6362 6363 6364 6365 6366 6367 6368 6369 6370 6371 6372 6373 6374 6375 6376 6377 6378 6379 6380 6381 6382 6383 6384 6385 6386 6387 6388 6389 6390 6391 6392 6393 6394 6395 6396 6397 6398 6399 6400 6401 6402 6403 6404 6405 6406 6407 6408 6409 6410 6411 6412 6413 6414 6415 6416 6417 6418 6419 6420 6421 6422 6423 6424 6425 6426 6427 6428 6429 6430 6431 6432 6433 6434 6435 6436 6437 6438 6439 6440 6441 6442 6443 6444 6445 6446 6447 6448 6449 6450 6451 6452 6453 6454 6455 6456 6457 6458 6459 6460 6461 6462 6463 6464 6465 6466 6467 6468 6469 6470 6471 6472 6473 6474 6475 6476 6477 6478 6479 6480 6481 6482 6483 6484 6485 6486 6487 6488 6489 6490 6491 6492 6493 6494 6495 6496 6497 6498 6499 6500 6501 6502 6503 6504 6505 6506 6507 6508 6509 6510 6511 6512 6513 6514 6515 6516 6517 6518 6519 6520 6521 6522 6523 6524 6525 6526 6527 6528 6529 6530 6531 6532 6533 6534 6535 6536 6537 6538 6539 6540 6541 6542 6543 6544 6545 6546 6547 6548 6549 6550 6551 6552 6553 6554 6555 6556 6557 6558 6559 6560 6561 6562 6563 6564 6565 6566 6567 6568 6569 6570 6571 6572 6573 6574 6575 6576 6577 6578 6579 6580 6581 6582 6583 6584 6585 6586 6587 6588 6589 6590 6591 6592 6593 6594 6595 6596 6597 6598 6599 6600 6601 6602 6603 6604 6605 6606 6607 6608 6609 6610 6611 6612 6613 6614 6615 6616 6617 6618 6619 6620 6621 6622 6623 6624 6625 6626 6627 6628 6629 6630 6631 6632 6633 6634 6635 6636 6637 6638 6639 6640 6641 6642 6643 6644 6645 6646 6647 6648 6649 6650 6651 6652 6653 6654 6655 6656 6657 6658 6659 6660 6661 6662 6663 6664 6665 6666 6667 6668 6669 6670 6671 6672 6673 6674 6675 6676 6677 6678 6679 6680 6681 6682 6683 6684 6685 6686 6687 6688 6689 6690 6691 6692 6693 6694 6695 6696 6697 6698 6699 6700 6701 6702 6703 6704 6705 6706 6707 6708 6709 6710 6711 6712 6713 6714 6715 6716 6717 6718 6719 6720 6721 6722 6723 6724 6725 6726 6727 6728 6729 6730 6731 6732 6733 6734 6735 6736 6737 6738 6739 6740 6741 6742 6743 6744 6745 6746 6747 6748 6749 6750 6751 6752 6753 6754 6755 6756 6757 6758 6759 6760 6761 6762 6763 6764 6765 6766 6767 6768 6769 6770 6771 6772 6773 6774 6775 6776 6777 6778 6779 6780 6781 6782 6783 6784 6785 6786 6787 6788 6789 6790 6791 6792 6793 6794 6795 6796 6797 6798 6799 6800 6801 6802 6803 6804 6805 6806 6807 6808 6809 6810 6811 6812 6813 6814 6815 6816 6817 6818 6819 6820 6821 6822 6823 6824 6825 6826 6827 6828 6829 6830 6831 6832 6833 6834 6835 6836 6837 6838 6839 6840 6841 6842 6843 6844 6845 6846 6847 6848 6849 6850 6851 6852 6853 6854 6855 6856 6857 6858 6859 6860 6861 6862 6863 6864 6865 6866 6867 6868 6869 6870 6871 6872 6873 6874 6875 6876 6877 6878 6879 6880 6881 6882 6883 6884 6885 6886 6887 6888 6889 6890 6891 6892 6893 6894 6895 6896 6897 6898 6899 6900 6901 6902 6903 6904 6905 6906 6907 6908 6909 6910 6911 6912 6913 6914 6915 6916 6917 6918 6919 6920 6921 6922 6923 6924 6925 6926 6927 6928 6929 6930 6931 6932 6933 6934 6935 6936 6937 6938 6939 6940 6941 6942 6943 6944 6945 6946 6947 6948 6949 6950 6951 6952 6953 6954 6955 6956 6957 6958 6959 6960 6961 6962 6963 6964 6965 6966 6967 6968 6969 6970 6971 6972 6973 6974 6975 6976 6977 6978 6979 6980 6981 6982 6983 6984 6985 6986 6987 6988 6989 6990 6991 6992 6993 6994 6995 6996 6997 6998 6999 7000 7001 7002 7003 7004 7005 7006 7007 7008 7009 7010 7011 7012 7013 7014 7015 7016 7017 7018 7019 7020 7021 7022 7023 7024 7025 7026 7027 7028 7029 7030 7031 7032 7033 7034 7035 7036 7037 7038 7039 7040 7041 7042 7043 7044 7045 7046 7047 7048 7049 7050 7051 7052 7053 7054 7055 7056 7057 7058 7059 7060 7061 7062 7063 7064 7065 7066 7067 7068 7069 7070 7071 7072 7073 7074 7075 7076 7077 7078 7079 7080 7081 7082 7083 7084 7085 7086 7087 7088 7089 7090 7091 7092 7093 7094 7095 7096 7097 7098 7099 7100 7101 7102 7103 7104 7105 7106 7107 7108 7109 7110 7111 7112 7113 7114 7115 7116 7117 7118 7119 7120 7121 7122 7123 7124 7125 7126 7127 7128 7129 7130 7131 7132 7133 7134 7135 7136 7137 7138 7139 7140 7141 7142 7143 7144 7145 7146 7147 7148 7149 7150 7151 7152 7153 7154 7155 7156 7157 7158 7159 7160 7161 7162 7163 7164 7165 7166 7167 7168 7169 7170 7171 7172 7173 7174 7175 7176 7177 7178 7179 7180 7181 7182 7183 7184 7185 7186 7187 7188 7189 7190 7191 7192 7193 7194 7195 7196 7197 7198 7199 7200 7201 7202 7203 7204 7205 7206 7207 7208 7209 7210 7211 7212 7213 7214 7215 7216 7217 7218 7219 7220 7221 7222 7223 7224 7225 7226 7227 7228 7229 7230 7231 7232 7233 7234 7235 7236 7237 7238 7239 7240 7241 7242 7243 7244 7245 7246 7247 7248 7249 7250 7251 7252 7253 7254 7255 7256 7257 7258 7259 7260 7261 7262 7263 7264 7265 7266 7267 7268 7269 7270 7271 7272 7273 7274 7275 7276 7277 7278 7279 7280 7281 7282 7283 7284 7285 7286 7287 7288 7289 7290 7291 7292 7293 7294 7295 7296 7297 7298 7299 7300 7301 7302 7303 7304 7305 7306 7307 7308 7309 7310 7311 7312 7313 7314 7315 7316 7317 7318 7319 7320 7321 7322 7323 7324 7325 7326 7327 7328 7329 7330 7331 7332 7333 7334 7335 7336 7337 7338 7339 7340 7341 7342 7343 7344 7345 7346 7347 7348 7349 7350 7351 7352 7353 7354 7355 7356 7357 7358 7359 7360 7361 7362 7363 7364 7365 7366 7367 7368 7369 7370 7371 7372 7373 7374 7375 7376 7377 7378 7379 7380 7381 7382 7383 7384 7385 7386 7387 7388 7389 7390 7391 7392 7393 7394 7395 7396 7397 7398 7399 7400 7401 7402 7403 7404 7405 7406 7407 7408 7409 7410 7411 7412 7413 7414 7415 7416 7417 7418 7419 7420 7421 7422 7423 7424 7425 7426 7427 7428 7429 7430 7431 7432 7433 7434 7435 7436 7437 7438 7439 7440 7441 7442 7443 7444 7445 7446 7447 7448 7449 7450 7451 7452 7453 7454 7455 7456 7457 7458 7459 7460 7461 7462 7463 7464 7465 7466 7467 7468 7469 7470 7471 7472 7473 7474 7475 7476 7477 7478 7479 7480 7481 7482 7483 7484 7485 7486 7487 7488 7489 7490 7491 7492 7493 7494 7495 7496 7497 7498 7499 7500 7501 7502 7503 7504 7505 7506 7507 7508 7509 7510 7511 7512 7513 7514 7515 7516 7517 7518 7519 7520 7521 7522 7523 7524 7525 7526 7527 7528 7529 7530 7531 7532 7533 7534 7535 7536 7537 7538 7539 7540 7541 7542 7543 7544 7545 7546 7547 7548 7549 7550 7551 7552 7553 7554 7555 7556 7557 7558 7559 7560 7561 7562 7563 7564 7565 7566 7567 7568 7569 7570 7571 7572 7573 7574 7575 7576 7577 7578 7579 7580 7581 7582 7583 7584 7585 7586 7587 7588 7589 7590 7591 7592 7593 7594 7595 7596 7597 7598 7599 7600 7601 7602 7603 7604 7605 7606 7607 7608 7609 7610 7611 7612 7613 7614 7615 7616 7617 7618 7619 7620 7621 7622 7623 7624 7625 7626 7627 7628 7629 7630 7631 7632 7633 7634 7635 7636 7637 7638 7639 7640 7641 7642 7643 7644 7645 7646 7647 7648 7649 7650 7651 7652 7653 7654 7655 7656 7657 7658 7659 7660 7661 7662 7663 7664 7665 7666 7667 7668 7669 7670 7671 7672 7673 7674 7675 7676 7677 7678 7679 7680 7681 7682 7683 7684 7685 7686 7687 7688 7689 7690 7691 7692 7693 7694 7695 7696 7697 7698 7699 7700 7701 7702 7703 7704 7705 7706 7707 7708 7709 7710 7711 7712 7713 7714 7715 7716 7717 7718 7719 7720 7721 7722 7723 7724 7725 7726 7727 7728 7729 7730 7731 7732 7733 7734 7735 7736 7737 7738 7739 7740 7741 7742 7743 7744 7745 7746 7747 7748 7749 7750 7751 7752 7753 7754 7755 7756 7757 7758 7759 7760 7761 7762 7763 7764 7765 7766 7767 7768 7769 7770 7771 7772 7773 7774 7775 7776 7777 7778 7779 7780 7781 7782 7783 7784 7785 7786 7787 7788 7789 7790 7791 7792 7793 7794 7795 7796 7797 7798 7799 7800 7801 7802 7803 7804 7805 7806 7807 7808 7809 7810 7811 7812 7813 7814 7815 7816 7817 7818 7819 7820 7821 7822 7823 7824 7825 7826 7827 7828 7829 7830 7831 7832 7833 7834 7835 7836 7837 7838 7839 7840 7841 7842 7843 7844 7845 7846 7847 7848 7849 7850 7851 7852 7853 7854 7855 7856 7857 7858 7859 7860 7861 7862 7863 7864 7865 7866 7867 7868 7869 7870 7871 7872 7873 7874 7875 7876 7877 7878 7879 7880 7881 7882 7883 7884 7885 7886 7887 7888 7889 7890 7891 7892 7893 7894 7895 7896 7897 7898 7899 7900 7901 7902 7903 7904 7905 7906 7907 7908 7909 7910 7911 7912 7913 7914 7915 7916 7917 7918 7919 7920 7921 7922 7923 7924 7925 7926 7927 7928 7929 7930 7931 7932 7933 7934 7935 7936 7937 7938 7939 7940 7941 7942 7943 7944 7945 7946 7947 7948 7949 7950 7951 7952 7953 7954 7955 7956 7957 7958 7959 7960 7961 7962 7963 7964 7965 7966 7967 7968 7969 7970 7971 7972 7973 7974 7975 7976 7977 7978 7979 7980 7981 7982 7983 7984 7985 7986 7987 7988 7989 7990 7991 7992 7993 7994 7995 7996 7997 7998 7999 8000 8001 8002 8003 8004 8005 8006 8007 8008 8009 8010 8011 8012 8013 8014 8015 8016 8017 8018 8019 8020 8021 8022 8023 8024 8025 8026 8027 8028 8029 8030 8031 8032 8033 8034 8035 8036 8037 8038 8039 8040 8041 8042 8043 8044 8045 8046 8047 8048 8049 8050 8051 8052 8053 8054 8055 8056 8057 8058 8059 8060 8061 8062 8063 8064 8065 8066 8067 8068 8069 8070 8071 8072 8073 8074 8075 8076 8077 8078 8079 8080 8081 8082 8083 8084 8085 8086 8087 8088 8089 8090 8091 8092 8093 8094 8095 8096 8097 8098 8099 8100 8101 8102 8103 8104 8105 8106 8107 8108 8109 8110 8111 8112 8113 8114 8115 8116 8117 8118 8119 8120 8121 8122 8123 8124 8125 8126 8127 8128 8129 8130 8131 8132 8133 8134 8135 8136 8137 8138 8139 8140 8141 8142 8143 8144 8145 8146 8147 8148 8149 8150 8151 8152 8153 8154 8155 8156 8157 8158 8159 8160 8161 8162 8163 8164 8165 8166 8167 8168 8169 8170 8171 8172 8173 8174 8175 8176 8177 8178 8179 8180 8181 8182 8183 8184 8185 8186 8187 8188 8189 8190 8191 8192 8193 8194 8195 8196 8197 8198 8199 8200 8201 8202 8203 8204 8205 8206 8207 8208 8209 8210 8211 8212 8213 8214 8215 8216 8217 8218 8219 8220 8221 8222 8223 8224 8225 8226 8227 8228 8229 8230 8231 8232 8233 8234 8235 8236 8237 8238 8239 8240 8241 8242 8243 8244 8245 8246 8247 8248 8249 8250 8251 8252 8253 8254 8255 8256 8257 8258 8259 8260 8261 8262 8263 8264 8265 8266 8267 8268 8269 8270 8271 8272 8273 8274 8275 8276 8277 8278 8279 8280 8281 8282 8283 8284 8285 8286 8287 8288 8289 8290 8291 8292 8293 8294 8295 8296 8297 8298 8299 8300 8301 8302 8303 8304 8305 8306 8307 8308 8309 8310 8311 8312 8313 8314 8315 8316 8317 8318 8319 8320 8321 8322 8323 8324 8325 8326 8327 8328 8329 8330 8331 8332 8333 8334 8335 8336 8337 8338 8339 8340 8341 8342 8343 8344 8345 8346 8347 8348 8349 8350 8351 8352 8353 8354 8355 8356 8357 8358 8359 8360 8361 8362 8363 8364 8365 8366 8367 8368 8369 8370 8371 8372 8373 8374 8375 8376 8377 8378 8379 8380 8381 8382 8383 8384 8385 8386 8387 8388 8389 8390 8391 8392 8393 8394 8395 8396 8397 8398 8399 8400 8401 8402 8403 8404 8405 8406 8407 8408 8409 8410 8411 8412 8413 8414 8415 8416 8417 8418 8419 8420 8421 8422 8423 8424 8425 8426 8427 8428 8429 8430 8431 8432 8433 8434 8435 8436 8437 8438 8439 8440 8441 8442 8443 8444 8445 8446 8447 8448 8449 8450 8451 8452 8453 8454 8455 8456 8457 8458 8459 8460 8461 8462 8463 8464 8465 8466 8467 8468 8469 8470 8471 8472 8473 8474 8475 8476 8477 8478 8479 8480 8481 8482 8483 8484 8485 8486 8487 8488 8489 8490 8491 8492 8493 8494 8495 8496 8497 8498 8499 8500 8501 8502 8503 8504 8505 8506 8507 8508 8509 8510 8511 8512 8513 8514 8515 8516 8517 8518 8519 8520 8521 8522 8523 8524 8525 8526 8527 8528 8529 8530 8531 8532 8533 8534 8535 8536 8537 8538 8539 8540 8541 8542 8543 8544 8545 8546 8547 8548 8549 8550 8551 8552 8553 8554 8555 8556 8557 8558 8559 8560 8561 8562 8563 8564 8565 8566 8567 8568 8569 8570 8571 8572 8573 8574 8575 8576 8577 8578 8579 8580 8581 8582 8583 8584 8585 8586 8587 8588 8589 8590 8591 8592 8593 8594 8595 8596 8597 8598 8599 8600 8601 8602 8603 8604 8605 8606 8607 8608 8609 8610 8611 8612 8613 8614 8615 8616 8617 8618 8619 8620 8621 8622 8623 8624 8625 8626 8627 8628 8629 8630 8631 8632 8633 8634 8635 8636 8637 8638 8639 8640 8641 8642 8643 8644 8645 8646 8647 8648 8649 8650 8651 8652 8653 8654 8655 8656 8657 8658 8659 8660 8661 8662 8663 8664 8665 8666 8667 8668 8669 8670 8671 8672 8673 8674 8675 8676 8677 8678 8679 8680 8681 8682 8683 8684 8685 8686 8687 8688 8689 8690 8691 8692 8693 8694 8695 8696 8697 8698 8699 8700 8701 8702 8703 8704 8705 8706 8707 8708 8709 8710 8711 8712 8713 8714 8715 8716 8717 8718 8719 8720 8721 8722 8723 8724 8725 8726 8727 8728 8729 8730 8731 8732 8733 8734 8735 8736 8737 8738 8739 8740 8741 8742 8743 8744 8745 8746 8747 8748 8749 8750 8751 8752 8753 8754 8755 8756 8757 8758 8759 8760 8761 8762 8763 8764 8765 8766 8767 8768 8769 8770 8771 8772 8773 8774 8775 8776 8777 8778 8779 8780 8781 8782 8783 8784 8785 8786 8787 8788 8789 8790 8791 8792 8793 8794 8795 8796 8797 8798 8799 8800 8801 8802 8803 8804 8805 8806 8807 8808 8809 8810 8811 8812 8813 8814 8815 8816 8817 8818 8819 8820 8821 8822 8823 8824 8825 8826 8827 8828 8829 8830 8831 8832 8833 8834 8835 8836 8837 8838 8839 8840 8841 8842 8843 8844 8845 8846 8847 8848 8849 8850 8851 8852 8853 8854 8855 8856 8857 8858 8859 8860 8861 8862 8863 8864 8865 8866 8867 8868 8869 8870 8871 8872 8873 8874 8875 8876 8877 8878 8879 8880 8881 8882 8883 8884 8885 8886 8887 8888 8889 8890 8891 8892 8893 8894 8895 8896 8897 8898 8899 8900 8901 8902 8903 8904 8905 8906 8907 8908 8909 8910 8911 8912 8913 8914 8915 8916 8917 8918 8919 8920 8921 8922 8923 8924 8925 8926 8927 8928 8929 8930 8931 8932 8933 8934 8935 8936 8937 8938 8939 8940 8941 8942 8943 8944 8945 8946 8947 8948 8949 8950 8951 8952 8953 8954 8955 8956 8957 8958 8959 8960 8961 8962 8963 8964 8965 8966 8967 8968 8969 8970 8971 8972 8973 8974 8975 8976 8977 8978 8979 8980 8981 8982 8983 8984 8985 8986 8987 8988 8989 8990 8991 8992 8993 8994 8995 8996 8997 8998 8999 9000 9001 9002 9003 9004 9005 9006 9007 9008 9009 9010 9011 9012 9013 9014 9015 9016 9017 9018 9019 9020 9021 9022 9023 9024 9025 9026 9027 9028 9029 9030 9031 9032 9033 9034 9035 9036 9037 9038 9039 9040 9041 9042 9043 9044 9045 9046 9047 9048 9049 9050 9051 9052 9053 9054 9055 9056 9057 9058 9059 9060 9061 9062 9063 9064 9065 9066 9067 9068 9069 9070 9071 9072 9073 9074 9075 9076 9077 9078 9079 9080 9081 9082 9083 9084 9085 9086 9087 9088 9089 9090 9091 9092 9093 9094 9095 9096 9097 9098 9099 9100 9101 9102 9103 9104 9105 9106 9107 9108 9109 9110 9111 9112 9113 9114 9115 9116 9117 9118 9119 9120 9121 9122 9123 9124 9125 9126 9127 9128 9129 9130 9131 9132 9133 9134 9135 9136 9137 9138 9139 9140 9141 9142 9143 9144 9145 9146 9147 9148 9149 9150 9151 9152 9153 9154 9155 9156 9157 9158 9159 9160 9161 9162 9163 9164 9165 9166 9167 9168 9169 9170 9171 9172 9173 9174 9175 9176 9177 9178 9179 9180 9181 9182 9183 9184 9185 9186 9187 9188 9189 9190 9191 9192 9193 9194 9195 9196 9197 9198 9199 9200 9201 9202 9203 9204 9205 9206 9207 9208 9209 9210 9211 9212 9213 9214 9215 9216 9217 9218 9219 9220 9221 9222 9223 9224 9225 9226 9227 9228 9229 9230 9231 9232 9233 9234 9235 9236 9237 9238 9239 9240 9241 9242 9243 9244 9245 9246 9247 9248 9249 9250 9251 9252 9253 9254 9255 9256 9257 9258 9259 9260 9261 9262 9263 9264 9265 9266 9267 9268 9269 9270 9271 9272 9273 9274 9275 9276 9277 9278 9279 9280 9281 9282 9283 9284 9285 9286 9287 9288 9289 9290 9291 9292 9293 9294 9295 9296 9297 9298 9299 9300 9301 9302 9303 9304 9305 9306 9307 9308 9309 9310 9311 9312 9313 9314 9315 9316 9317 9318 9319 9320 9321 9322 9323 9324 9325 9326 9327 9328 9329 9330 9331 9332 9333 9334 9335 9336 9337 9338 9339 9340 9341 9342 9343 9344 9345 9346 9347 9348 9349 9350 9351 9352 9353 9354 9355 9356 9357 9358 9359 9360 9361 9362 9363 9364 9365 9366 9367 9368 9369 9370 9371 9372 9373 9374 9375 9376 9377 9378 9379 9380 9381 9382 9383 9384 9385 9386 9387 9388 9389 9390 9391 9392 9393 9394 9395 9396 9397 9398 9399 9400 9401 9402 9403 9404 9405 9406 9407 9408 9409 9410 9411 9412 9413 9414 9415 9416 9417 9418 9419 9420 9421 9422 9423 9424 9425 9426 9427 9428 9429 9430 9431 9432 9433 9434 9435 9436 9437 9438 9439 9440 9441 9442 9443 9444 9445 9446 9447 9448 9449 9450 9451 9452 9453 9454 9455 9456 9457 9458 9459 9460 9461 9462 9463 9464 9465 9466 9467 9468 9469 9470 9471 9472 9473 9474 9475 9476 9477 9478 9479 9480 9481 9482 9483 9484 9485 9486 9487 9488 9489 9490 9491 9492 9493 9494 9495 9496 9497 9498 9499 9500 9501 9502 9503 9504 9505 9506 9507 9508 9509 9510 9511 9512 9513 9514 9515 9516 9517 9518 9519 9520 9521 9522 9523 9524 9525 9526 9527 9528 9529 9530 9531 9532 9533 9534 9535 9536 9537 9538 9539 9540 9541 9542 9543 9544 9545 9546 9547 9548 9549 9550 9551 9552 9553 9554 9555 9556 9557 9558 9559 9560 9561 9562 9563 9564 9565 9566 9567 9568 9569 9570 9571 9572 9573 9574 9575 9576 9577 9578 9579 9580 9581 9582 9583 9584 9585 9586 9587 9588 9589 9590 9591 9592 9593 9594 9595 9596 9597 9598 9599 9600 9601 9602 9603 9604 9605 9606 9607 9608 9609 9610 9611 9612 9613 9614 9615 9616 9617 9618 9619 9620 9621 9622 9623 9624 9625 9626 9627 9628 9629 9630 9631 9632 9633 9634 9635 9636 9637 9638 9639 9640 9641 9642 9643 9644 9645 9646 9647 9648 9649 9650 9651 9652 9653 9654 9655 9656 9657 9658 9659 9660 9661 9662 9663 9664 9665 9666 9667 9668 9669 9670 9671 9672 9673 9674 9675 9676 9677 9678 9679 9680 9681 9682 9683 9684 9685 9686 9687 9688 9689 9690 9691 9692 9693 9694 9695 9696 9697 9698 9699 9700 9701 9702 9703 9704 9705 9706 9707 9708 9709 9710 9711 9712 9713 9714 9715 9716 9717 9718 9719 9720 9721 9722 9723 9724 9725 9726 9727 9728 9729 9730 9731 9732 9733 9734 9735 9736 9737 9738 9739 9740 9741 9742 9743 9744 9745 9746 9747 9748 9749 9750 9751 9752 9753 9754 9755 9756 9757 9758 9759 9760 9761 9762 9763 9764 9765 9766 9767 9768 9769 9770 9771 9772 9773 9774 9775 9776 9777 9778 9779 9780 9781 9782 9783 9784 9785 9786 9787 9788 9789 9790 9791 9792 9793 9794 9795 9796 9797 9798 9799 9800 9801 9802 9803 9804 9805 9806 9807 9808 9809 9810 9811 9812 9813 9814 9815 9816 9817 9818 9819 9820 9821 9822 9823 9824 9825 9826 9827 9828 9829 9830 9831 9832 9833 9834 9835 9836 9837 9838 9839 9840 9841 9842 9843 9844 9845 9846 9847 9848 9849 9850 9851 9852 9853 9854 9855 9856 9857 9858 9859 9860 9861 9862 9863 9864 9865 9866 9867 9868 9869 9870 9871 9872 9873 9874 9875 9876 9877 9878 9879 9880 9881 9882 9883 9884 9885 9886 9887 9888 9889 9890 9891 9892 9893 9894 9895 9896 9897 9898 9899 9900 9901 9902 9903 9904 9905 9906 9907 9908 9909 9910 9911 9912 9913 9914 9915 9916 9917 9918 9919 9920 9921 9922 9923 9924 9925 9926 9927 9928 9929 9930 9931 9932 9933 9934 9935 9936 9937 9938 9939 9940 9941 9942 9943 9944 9945 9946 9947 9948 9949 9950 9951 9952 9953 9954 9955 9956 9957 9958 9959 9960 9961 9962 9963 9964 9965 9966 9967 9968 9969 9970 9971 9972 9973 9974 9975 9976 9977 9978 9979 9980 9981 9982 9983 9984 9985 9986 9987 9988 9989 9990 9991 9992 9993 9994 9995 9996 9997 9998 9999 10000 10001 10002 10003 10004 10005 10006 10007 10008 10009 10010 10011 10012 10013 10014 10015 10016 10017 10018 10019 10020 10021 10022 10023 10024 10025 10026 10027 10028 10029 10030 10031 10032 10033 10034 10035 10036 10037 10038 10039 10040 10041 10042 10043 10044 10045 10046 10047 10048 10049 10050 10051 10052 10053 10054 10055 10056 10057 10058 10059 10060 10061 10062 10063 10064 10065 10066 10067 10068 10069 10070 10071 10072 10073 10074 10075 10076 10077 10078 10079 10080 10081 10082 10083 10084 10085 10086 10087 10088 10089 10090 10091 10092 10093 10094 10095 10096 10097 10098 10099 10100 10101 10102 10103 10104 10105 10106 10107 10108 10109 10110 10111 10112 10113 10114 10115 10116 10117 10118 10119 10120 10121 10122 10123 10124 10125 10126 10127 10128 10129 10130 10131 10132 10133 10134 10135 10136 10137 10138 10139 10140 10141 10142 10143 10144 10145 10146 10147 10148 10149 10150 10151 10152 10153 10154 10155 10156 10157 10158 10159 10160 10161 10162 10163 10164 10165 10166 10167 10168 10169 10170 10171 10172 10173 10174 10175 10176 10177 10178 10179 10180 10181 10182 10183 10184 10185 10186 10187 10188 10189 10190 10191 10192 10193 10194 10195 10196 10197 10198 10199 10200 10201 10202 10203 10204 10205 10206 10207 10208 10209 10210 10211 10212 10213 10214 10215 10216 10217 10218 10219 10220 10221 10222 10223 10224 10225 10226 10227 10228 10229 10230 10231 10232 10233 10234 10235 10236 10237 10238 10239 10240 10241 10242 10243 10244 10245 10246 10247 10248 10249 10250 10251 10252 10253 10254 10255 10256 10257 10258 10259 10260 10261 10262 10263 10264 10265 10266 10267 10268 10269 10270 10271 10272 10273 10274 10275 10276 10277 10278 10279 10280 10281 10282 10283 10284 10285 10286 10287 10288 10289 10290 10291 10292 10293 10294 10295 10296 10297 10298 10299 10300 10301 10302 10303 10304 10305 10306 10307 10308 10309 10310 10311 10312 10313 10314 10315 10316 10317 10318 10319 10320 10321 10322 10323 10324 10325 10326 10327 10328 10329 10330 10331 10332 10333 10334 10335 10336 10337 10338 10339 10340 10341 10342 10343 10344 10345 10346 10347 10348 10349 10350 10351 10352 10353 10354 10355 10356 10357 10358 10359 10360 10361 10362 10363 10364 10365 10366 10367 10368 10369 10370 10371 10372 10373 10374 10375 10376 10377 10378 10379 10380 10381 10382 10383 10384 10385 10386 10387 10388 10389 10390 10391 10392 10393 10394 10395 10396 10397 10398 10399 10400 10401 10402 10403 10404 10405 10406 10407 10408 10409 10410 10411 10412 10413 10414 10415 10416 10417 10418 10419 10420 10421 10422 10423 10424 10425 10426 10427 10428 10429 10430 10431 10432 10433 10434 10435 10436 10437 10438 10439 10440 10441 10442 10443 10444 10445 10446 10447 10448 10449 10450 10451 10452 10453 10454 10455 10456 10457 10458 10459 10460 10461 10462 10463 10464 10465 10466 10467 10468 10469 10470 10471 10472 10473 10474 10475 10476 10477 10478 10479 10480 10481 10482 10483 10484 10485 10486 10487 10488 10489 10490 10491 10492 10493 10494 10495 10496 10497 10498 10499 10500 10501 10502 10503 10504 10505 10506 10507 10508 10509 10510 10511 10512 10513 10514 10515 10516 10517 10518 10519 10520 10521 10522 10523 10524 10525 10526 10527 10528 10529 10530 10531 10532 10533 10534 10535 10536 10537 10538 10539 10540 10541 10542 10543 10544 10545 10546 10547 10548 10549 10550 10551 10552 10553 10554 10555 10556 10557 10558 10559 10560 10561 10562 10563 10564 10565 10566 10567 10568 10569 10570 10571 10572 10573 10574 10575 10576 10577 10578 10579 10580 10581 10582 10583 10584 10585 10586 10587 10588 10589 10590 10591 10592 10593 10594 10595 10596 10597 10598 10599 10600 10601 10602 10603 10604 10605 10606 10607 10608 10609 10610 10611 10612 10613 10614 10615 10616 10617 10618 10619 10620 10621 10622 10623 10624 10625 10626 10627 10628 10629 10630 10631 10632 10633 10634 10635 10636 10637 10638 10639 10640 10641 10642 10643 10644 10645 10646 10647 10648 10649 10650 10651 10652 10653 10654 10655 10656 10657 10658 10659 10660 10661 10662 10663 10664 10665 10666 10667 10668 10669 10670 10671 10672 10673 10674 10675 10676 10677 10678 10679 10680 10681 10682 10683 10684 10685 10686 10687 10688 10689 10690 10691 10692 10693 10694 10695 10696 10697 10698 10699 10700 10701 10702 10703 10704 10705 10706 10707 10708 10709 10710 10711 10712 10713 10714 10715 10716 10717 10718 10719 10720 10721 10722 10723 10724 10725 10726 10727 10728 10729 10730 10731 10732 10733 10734 10735 10736 10737 10738 10739 10740 10741 10742 10743 10744 10745 10746 10747 10748 10749 10750 10751 10752 10753 10754 10755 10756 10757 10758 10759 10760 10761 10762 10763 10764 10765 10766 10767 10768 10769 10770 10771 10772 10773 10774 10775 10776 10777 10778 10779 10780 10781 10782 10783 10784 10785 10786 10787 10788 10789 10790 10791 10792 10793 10794 10795 10796 10797 10798 10799 10800 10801 10802 10803 10804 10805 10806 10807 10808 10809 10810 10811 10812 10813 10814 10815 10816 10817 10818 10819 10820 10821 10822 10823 10824 10825 10826 10827 10828 10829 10830 10831 10832 10833 10834 10835 10836 10837 10838 10839 10840 10841 10842 10843 10844 10845 10846 10847 10848 10849 10850 10851 10852 10853 10854 10855 10856 10857 10858 10859 10860 10861 10862 10863 10864 10865 10866 10867 10868 10869 10870 10871 10872 10873 10874 10875 10876 10877 10878 10879 10880 10881 10882 10883 10884 10885 10886 10887 10888 10889 10890 10891 10892 10893 10894 10895 10896 10897 10898 10899 10900 10901 10902 10903 10904 10905 10906 10907 10908 10909 10910 10911 10912 10913 10914 10915 10916 10917 10918 10919 10920 10921 10922 10923 10924 10925 10926 10927 10928 10929 10930 10931 10932 10933 10934 10935 10936 10937 10938 10939 10940 10941 10942 10943 10944 10945 10946 10947 10948 10949 10950 10951 10952 10953 10954 10955 10956 10957 10958 10959 10960 10961 10962 10963 10964 10965 10966 10967 10968 10969 10970 10971 10972 10973 10974 10975 10976 10977 10978 10979 10980 10981 10982 10983 10984 10985 10986 10987 10988 10989 10990 10991 10992 10993 10994 10995 10996 10997 10998 10999 11000 11001 11002 11003 11004 11005 11006 11007 11008 11009 11010 11011 11012 11013 11014 11015 11016 11017 11018 11019 11020 11021 11022 11023 11024 11025 11026 11027 11028 11029 11030 11031 11032 11033 11034 11035 11036 11037 11038 11039 11040 11041 11042 11043 11044 11045 11046 11047 11048 11049 11050 11051 11052 11053 11054 11055 11056 11057 11058 11059 11060 11061 11062 11063 11064 11065 11066 11067 11068 11069 11070 11071 11072 11073 11074 11075 11076 11077 11078 11079 11080 11081 11082 11083 11084 11085 11086 11087 11088 11089 11090 11091 11092 11093 11094 11095 11096 11097 11098 11099 11100 11101 11102 11103 11104 11105 11106 11107 11108 11109 11110 11111 11112 11113 11114 11115 11116 11117 11118 11119 11120 11121 11122 11123 11124 11125 11126 11127 11128 11129 11130 11131 11132 11133 11134 11135 11136 11137 11138 11139 11140 11141 11142 11143 11144 11145 11146 11147 11148 11149 11150 11151 11152 11153 11154 11155 11156 11157 11158 11159 11160 11161 11162 11163 11164 11165 11166 11167 11168 11169 11170 11171 11172 11173 11174 11175 11176 11177 11178 11179 11180 11181 11182 11183 11184 11185 11186 11187 11188 11189 11190 11191 11192 11193 11194 11195 11196 11197 11198 11199 11200 11201 11202 11203 11204 11205 11206 11207 11208 11209 11210 11211 11212 11213 11214 11215 11216 11217 11218 11219 11220 11221 11222 11223 11224 11225 11226 11227 11228 11229 11230 11231 11232 11233 11234 11235 11236 11237 11238 11239 11240 11241 11242 11243 11244 11245 11246 11247 11248 11249 11250 11251 11252 11253 11254 11255 11256 11257 11258 11259 11260 11261 11262 11263 11264 11265 11266 11267 11268 11269 11270 11271 11272 11273 11274 11275 11276 11277 11278 11279 11280 11281 11282 11283 11284 11285 11286 11287 11288 11289 11290 11291 11292 11293 11294 11295 11296 11297 11298 11299 11300 11301 11302 11303 11304 11305 11306 11307 11308 11309 11310 11311 11312 11313 11314 11315 11316 11317 11318 11319 11320 11321 11322 11323 11324 11325 11326 11327 11328 11329 11330 11331 11332 11333 11334 11335 11336 11337 11338 11339 11340 11341 11342 11343 11344 11345 11346 11347 11348 11349 11350 11351 11352 11353 11354 11355 11356 11357 11358 11359 11360 11361 11362 11363 11364 11365 11366 11367 11368 11369 11370 11371 11372 11373 11374 11375 11376 11377 11378 11379 11380 11381 11382 11383 11384 11385 11386 11387 11388 11389 11390 11391 11392 11393 11394 11395 11396 11397 11398 11399 11400 11401 11402 11403 11404 11405 11406 11407 11408 11409 11410 11411 11412 11413 11414 11415 11416 11417 11418 11419 11420 11421 11422 11423 11424 11425 11426 11427 11428 11429 11430 11431 11432 11433 11434 11435 11436 11437 11438 11439 11440 11441 11442 11443 11444 11445 11446 11447 11448 11449 11450 11451 11452 11453 11454 11455 11456 11457 11458 11459 11460 11461 11462 11463 11464 11465 11466 11467 11468 11469 11470 11471 11472 11473 11474 11475 11476 11477 11478 11479 11480 11481 11482 11483 11484 11485 11486 11487 11488 11489 11490 11491 11492 11493 11494 11495 11496 11497 11498 11499 11500 11501 11502 11503 11504 11505 11506 11507 11508 11509 11510 11511 11512 11513 11514 11515 11516 11517 11518 11519 11520 11521 11522 11523 11524 11525 11526 11527 11528 11529 11530 11531 11532 11533 11534 11535 11536 11537 11538 11539 11540 11541 11542 11543 11544 11545 11546 11547 11548 11549 11550 11551 11552 11553 11554 11555 11556 11557 11558 11559 11560 11561 11562 11563 11564 11565 11566 11567 11568 11569 11570 11571 11572 11573 11574 11575 11576 11577 11578 11579 11580 11581 11582 11583 11584 11585 11586 11587 11588 11589 11590 11591 11592 11593 11594 11595 11596 11597 11598 11599 11600 11601 11602 11603 11604 11605 11606 11607 11608 11609 11610 11611 11612 11613 11614 11615 11616 11617 11618 11619 11620 11621 11622 11623 11624 11625 11626 11627 11628 11629 11630 11631 11632 11633 11634 11635 11636 11637 11638 11639 11640 11641 11642 11643 11644 11645 11646 11647 11648 11649 11650 11651 11652 11653 11654 11655 11656 11657 11658 11659 11660 11661 11662 11663 11664 11665 11666 11667 11668 11669 11670 11671 11672 11673 11674 11675 11676 11677 11678 11679 11680 11681 11682 11683 11684 11685 11686 11687 11688 11689 11690 11691 11692 11693 11694 11695 11696 11697 11698 11699 11700 11701 11702 11703 11704 11705 11706 11707 11708 11709 11710 11711 11712 11713 11714 11715 11716 11717 11718 11719 11720 11721 11722 11723 11724 11725 11726 11727 11728 11729 11730 11731 11732 11733 11734 11735 11736 11737 11738 11739 11740 11741 11742 11743 11744 11745 11746 11747 11748 11749 11750 11751 11752 11753 11754 11755 11756 11757 11758 11759 11760 11761 11762 11763 11764 11765 11766 11767 11768 11769 11770 11771 11772 11773 11774 11775 11776 11777 11778 11779 11780 11781 11782 11783 11784 11785 11786 11787 11788 11789 11790 11791 11792 11793 11794 11795 11796 11797 11798 11799 11800 11801 11802 11803 11804 11805 11806 11807 11808 11809 11810 11811 11812 11813 11814 11815 11816 11817 11818 11819 11820 11821 11822 11823 11824 11825 11826 11827 11828 11829 11830 11831 11832 11833 11834 11835 11836 11837 11838 11839 11840 11841 11842 11843 11844 11845 11846 11847 11848 11849 11850 11851 11852 11853 11854 11855 11856 11857 11858 11859 11860 11861 11862 11863 11864 11865 11866 11867 11868 11869 11870 11871 11872 11873 11874 11875 11876 11877 11878 11879 11880 11881 11882 11883 11884 11885 11886 11887 11888 11889 11890 11891 11892 11893 11894 11895 11896 11897 11898 11899 11900 11901 11902 11903 11904 11905 11906 11907 11908 11909 11910 11911 11912 11913 11914 11915 11916 11917 11918 11919 11920 11921 11922 11923 11924 11925 11926 11927 11928 11929 11930 11931 11932 11933 11934 11935 11936 11937 11938 11939 11940 11941 11942 11943 11944 11945 11946 11947 11948 11949 11950 11951 11952 11953 11954 11955 11956 11957 11958 11959 11960 11961 11962 11963 11964 11965 11966 11967 11968 11969 11970 11971 11972 11973 11974 11975 11976 11977 11978 11979 11980 11981 11982 11983 11984 11985 11986 11987 11988 11989 11990 11991 11992 11993 11994 11995 11996 11997 11998 11999 12000 12001 12002 12003 12004 12005 12006 12007 12008 12009 12010 12011 12012 12013 12014 12015 12016 12017 12018 12019 12020 12021 12022 12023 12024 12025 12026 12027 12028 12029 12030 12031 12032 12033 12034 12035 12036 12037 12038 12039 12040 12041 12042 12043 12044 12045 12046 12047 12048 12049 12050 12051 12052 12053 12054 12055 12056 12057 12058 12059 12060 12061 12062 12063 12064 12065 12066 12067 12068 12069 12070 12071 12072 12073 12074 12075 12076 12077 12078 12079 12080 12081 12082 12083 12084 12085 12086 12087 12088 12089 12090 12091 12092 12093 12094 12095 12096 12097 12098 12099 12100 12101 12102 12103 12104 12105 12106 12107 12108 12109 12110 12111 12112 12113 12114 12115 12116 12117 12118 12119 12120 12121 12122 12123 12124 12125 12126 12127 12128 12129 12130 12131 12132 12133 12134 12135 12136 12137 12138 12139 12140 12141 12142 12143 12144 12145 12146 12147 12148 12149 12150 12151 12152 12153 12154 12155 12156 12157 12158 12159 12160 12161 12162 12163 12164 12165 12166 12167 12168 12169 12170 12171 12172 12173 12174 12175 12176 12177 12178 12179 12180 12181 12182 12183 12184 12185 12186 12187 12188 12189 12190 12191 12192 12193 12194 12195 12196 12197 12198 12199 12200 12201 12202 12203 12204 12205 12206 12207 12208 12209 12210 12211 12212 12213 12214 12215 12216 12217 12218 12219 12220 12221 12222 12223 12224 12225 12226 12227 12228 12229 12230 12231 12232 12233 12234 12235 12236 12237 12238 12239 12240 12241 12242 12243 12244 12245 12246 12247 12248 12249 12250 12251 12252 12253 12254 12255 12256 12257 12258 12259 12260 12261 12262 12263 12264 12265 12266 12267 12268 12269 12270 12271 12272 12273 12274 12275 12276 12277 12278 12279 12280 12281 12282 12283 12284 12285 12286 12287 12288 12289 12290 12291 12292 12293 12294 12295 12296 12297 12298 12299 12300 12301 12302 12303 12304 12305 12306 12307 12308 12309 12310 12311 12312 12313 12314 12315 12316 12317 12318 12319 12320 12321 12322 12323 12324 12325 12326 12327 12328 12329 12330 12331 12332 12333 12334 12335 12336 12337 12338 12339 12340 12341 12342 12343 12344 12345 12346 12347 12348 12349 12350 12351 12352 12353 12354 12355 12356 12357 12358 12359 12360 12361 12362 12363 12364 12365 12366 12367 12368 12369 12370 12371 12372 12373 12374 12375 12376 12377 12378 12379 12380 12381 12382 12383 12384 12385 12386 12387 12388 12389 12390 12391 12392 12393 12394 12395 12396 12397 12398 12399 12400 12401 12402 12403 12404 12405 12406 12407 12408 12409 12410 12411 12412 12413 12414 12415 12416 12417 12418 12419 12420 12421 12422 12423 12424 12425 12426 12427 12428 12429 12430 12431 12432 12433 12434 12435 12436 12437 12438 12439 12440 12441 12442 12443 12444 12445 12446 12447 12448 12449 12450 12451 12452 12453 12454 12455 12456 12457 12458 12459 12460 12461 12462 12463 12464 12465 12466 12467 12468 12469 12470 12471 12472 12473 12474 12475 12476 12477 12478 12479 12480 12481 12482 12483 12484 12485 12486 12487 12488 12489 12490 12491 12492 12493 12494 12495 12496 12497 12498 12499 12500 12501 12502 12503 12504 12505 12506 12507 12508 12509 12510 12511 12512 12513 12514 12515 12516 12517 12518 12519 12520 12521 12522 12523 12524 12525 12526 12527 12528 12529 12530 12531 12532 12533 12534 12535 12536 12537 12538 12539 12540 12541 12542 12543 12544 12545 12546 12547 12548 12549 12550 12551 12552 12553 12554 12555 12556 12557 12558 12559 12560 12561 12562 12563 12564 12565 12566 12567 12568 12569 12570 12571 12572 12573 12574 12575 12576 12577 12578 12579 12580 12581 12582 12583 12584 12585 12586 12587 12588 12589 12590 12591 12592 12593 12594 12595 12596 12597 12598 12599 12600 12601 12602 12603 12604 12605 12606 12607 12608 12609 12610 12611 12612 12613 12614 12615 12616 12617 12618 12619 12620 12621 12622 12623 12624 12625 12626 12627 12628 12629 12630 12631 12632 12633 12634 12635 12636 12637 12638 12639 12640 12641 12642 12643 12644 12645 12646 12647 12648 12649 12650 12651 12652 12653 12654 12655 12656 12657 12658 12659 12660 12661 12662 12663 12664 12665 12666 12667 12668 12669 12670 12671 12672 12673 12674 12675 12676 12677 12678 12679 12680 12681 12682 12683 12684 12685 12686 12687 12688 12689 12690 12691 12692 12693 12694 12695 12696 12697 12698 12699 12700 12701 12702 12703 12704 12705 12706 12707 12708 12709 12710 12711 12712 12713 12714 12715 12716 12717 12718 12719 12720 12721 12722 12723 12724 12725 12726 12727 12728 12729 12730 12731 12732 12733 12734 12735 12736 12737 12738 12739 12740 12741 12742 12743 12744 12745 12746 12747 12748 12749 12750 12751 12752 12753 12754 12755 12756 12757 12758 12759 12760 12761 12762 12763 12764 12765 12766 12767 12768 12769 12770 12771 12772 12773 12774 12775 12776 12777 12778 12779 12780 12781 12782 12783 12784 12785 12786 12787 12788 12789 12790 12791 12792 12793 12794 12795 12796 12797 12798 12799 12800 12801 12802 12803 12804 12805 12806 12807 12808 12809 12810 12811 12812 12813 12814 12815 12816 12817 12818 12819 12820 12821 12822 12823 12824 12825 12826 12827 12828 12829 12830 12831 12832 12833 12834 12835 12836 12837 12838 12839 12840 12841 12842 12843 12844 12845 12846 12847 12848 12849 12850 12851 12852 12853 12854 12855 12856 12857 12858 12859 12860 12861 12862 12863 12864 12865 12866 12867 12868 12869 12870 12871 12872 12873 12874 12875 12876 12877 12878 12879 12880 12881 12882 12883 12884 12885 12886 12887 12888 12889 12890 12891 12892 12893 12894 12895 12896 12897 12898 12899 12900 12901 12902 12903 12904 12905 12906 12907 12908 12909 12910 12911 12912 12913 12914 12915 12916 12917 12918 12919 12920 12921 12922 12923 12924 12925 12926 12927 12928 12929 12930 12931 12932 12933 12934 12935 12936 12937 12938 12939 12940 12941 12942 12943 12944 12945 12946 12947 12948 12949 12950 12951 12952 12953 12954 12955 12956 12957 12958 12959 12960 12961 12962 12963 12964 12965 12966 12967 12968 12969 12970 12971 12972 12973 12974 12975 12976 12977 12978 12979 12980 12981 12982 12983 12984 12985 12986 12987 12988 12989 12990 12991 12992 12993 12994 12995 12996 12997 12998 12999 13000 13001 13002 13003 13004 13005 13006 13007 13008 13009 13010 13011 13012 13013 13014 13015 13016 13017 13018 13019 13020 13021 13022 13023 13024 13025 13026 13027 13028 13029 13030 13031 13032 13033 13034 13035 13036 13037 13038 13039 13040 13041 13042 13043 13044 13045 13046 13047 13048 13049 13050 13051 13052 13053 13054 13055 13056 13057 13058 13059 13060 13061 13062 13063 13064 13065 13066 13067 13068 13069 13070 13071 13072 13073 13074 13075 13076 13077 13078 13079 13080 13081 13082 13083 13084 13085 13086 13087 13088 13089 13090 13091 13092 13093 13094 13095 13096 13097 13098 13099 13100 13101 13102 13103 13104 13105 13106 13107 13108 13109 13110 13111 13112 13113 13114 13115 13116 13117 13118 13119 13120 13121 13122 13123 13124 13125 13126 13127 13128 13129 13130 13131 13132 13133 13134 13135 13136 13137 13138 13139 13140 13141 13142 13143 13144 13145 13146 13147 13148 13149 13150 13151 13152 13153 13154 13155 13156 13157 13158 13159 13160 13161 13162 13163 13164 13165 13166 13167 13168 13169 13170 13171 13172 13173 13174 13175 13176 13177 13178 13179 13180 13181 13182 13183 13184 13185 13186 13187 13188 13189 13190 13191 13192 13193 13194 13195 13196 13197 13198 13199 13200 13201 13202 13203 13204 13205 13206 13207 13208 13209 13210 13211 13212 13213 13214 13215 13216 13217 13218 13219 13220 13221 13222 13223 13224 13225 13226 13227 13228 13229 13230 13231 13232 13233 13234 13235 13236 13237 13238 13239 13240 13241 13242 13243 13244 13245 13246 13247 13248 13249 13250 13251 13252 13253 13254 13255 13256 13257 13258 13259 13260 13261 13262 13263 13264 13265 13266 13267 13268 13269 13270 13271 13272 13273 13274 13275 13276 13277 13278 13279 13280 13281 13282 13283 13284 13285 13286 13287 13288 13289 13290 13291 13292 13293 13294 13295 13296 13297 13298 13299 13300 13301 13302 13303 13304 13305 13306 13307 13308 13309 13310 13311 13312 13313 13314 13315 13316 13317 13318 13319 13320 13321 13322 13323 13324 13325 13326 13327 13328 13329 13330 13331 13332 13333 13334 13335 13336 13337 13338 13339 13340 13341 13342 13343 13344 13345 13346 13347 13348 13349 13350 13351 13352 13353 13354 13355 13356 13357 13358 13359 13360 13361 13362 13363 13364 13365 13366 13367 13368 13369 13370 13371 13372 13373 13374 13375 13376 13377 13378 13379 13380 13381 13382 13383 13384 13385 13386 13387 13388 13389 13390 13391 13392 13393 13394 13395 13396 13397 13398 13399 13400 13401 13402 13403 13404 13405 13406 13407 13408 13409 13410 13411 13412 13413 13414 13415 13416 13417 13418 13419 13420 13421 13422 13423 13424 13425 13426 13427 13428 13429 13430 13431 13432 13433 13434 13435 13436 13437 13438 13439 13440 13441 13442 13443 13444 13445 13446 13447 13448 13449 13450 13451 13452 13453 13454 13455 13456 13457 13458 13459 13460 13461 13462 13463 13464 13465 13466 13467 13468 13469 13470 13471 13472 13473 13474 13475 13476 13477 13478 13479 13480 13481 13482 13483 13484 13485 13486 13487 13488 13489 13490 13491 13492 13493 13494 13495 13496 13497 13498 13499 13500 13501 13502 13503 13504 13505 13506 13507 13508 13509 13510 13511 13512 13513 13514 13515 13516 13517 13518 13519 13520 13521 13522 13523 13524 13525 13526 13527 13528 13529 13530 13531 13532 13533 13534 13535 13536 13537 13538 13539 13540 13541 13542 13543 13544 13545 13546 13547 13548 13549 13550 13551 13552 13553 13554 13555 13556 13557 13558 13559 13560 13561 13562 13563 13564 13565 13566 13567 13568 13569 13570 13571 13572 13573 13574 13575 13576 13577 13578 13579 13580 13581 13582 13583 13584 13585 13586 13587 13588 13589 13590 13591 13592 13593 13594 13595 13596 13597 13598 13599 13600 13601 13602 13603 13604 13605 13606 13607 13608 13609 13610 13611 13612 13613 13614 13615 13616 13617 13618 13619 13620 13621 13622 13623 13624 13625 13626 13627 13628 13629 13630 13631 13632 13633 13634 13635 13636 13637 13638 13639 13640 13641 13642 13643 13644 13645 13646 13647 13648 13649 13650 13651 13652 13653 13654 13655 13656 13657 13658 13659 13660 13661 13662 13663 13664 13665 13666 13667 13668 13669 13670 13671 13672 13673 13674 13675 13676 13677 13678 13679 13680 13681 13682 13683 13684 13685 13686 13687 13688 13689 13690 13691 13692 13693 13694 13695 13696 13697 13698 13699 13700 13701 13702 13703 13704 13705 13706 13707 13708 13709 13710 13711 13712 13713 13714 13715 13716 13717 13718 13719 13720 13721 13722 13723 13724 13725 13726 13727 13728 13729 13730 13731 13732 13733 13734 13735 13736 13737 13738 13739 13740 13741 13742 13743 13744 13745 13746 13747 13748 13749 13750 13751 13752 13753 13754 13755 13756 13757 13758 13759 13760 13761 13762 13763 13764 13765 13766 13767 13768 13769 13770 13771 13772 13773 13774 13775 13776 13777 13778 13779 13780 13781 13782 13783 13784 13785 13786 13787 13788 13789 13790 13791 13792 13793 13794 13795 13796 13797 13798 13799 13800 13801 13802 13803 13804 13805 13806 13807 13808 13809 13810 13811 13812 13813 13814 13815 13816 13817 13818 13819 13820 13821 13822 13823 13824 13825 13826 13827 13828 13829 13830 13831 13832 13833 13834 13835 13836 13837 13838 13839 13840 13841 13842 13843 13844 13845 13846 13847 13848 13849 13850 13851 13852 13853 13854 13855 13856 13857 13858 13859 13860 13861 13862 13863 13864 13865 13866 13867 13868 13869 13870 13871 13872 13873 13874 13875 13876 13877 13878 13879 13880 13881 13882 13883 13884 13885 13886 13887 13888 13889 13890 13891 13892 13893 13894 13895 13896 13897 13898 13899 13900 13901 13902 13903 13904 13905 13906 13907 13908 13909 13910 13911 13912 13913 13914 13915 13916 13917 13918 13919 13920 13921 13922 13923 13924 13925 13926 13927 13928 13929 13930 13931 13932 13933 13934 13935 13936 13937 13938 13939 13940 13941 13942 13943 13944 13945 13946 13947 13948 13949 13950 13951 13952 13953 13954 13955 13956 13957 13958 13959 13960 13961 13962 13963 13964 13965 13966 13967 13968 13969 13970 13971 13972 13973 13974 13975 13976 13977 13978 13979 13980 13981 13982 13983 13984 13985 13986 13987 13988 13989 13990 13991 13992 13993 13994 13995 13996 13997 13998 13999 14000 14001 14002 14003 14004 14005 14006 14007 14008 14009 14010 14011 14012 14013 14014 14015 14016 14017 14018 14019 14020 14021 14022 14023 14024 14025 14026 14027 14028 14029 14030 14031 14032 14033 14034 14035 14036 14037 14038 14039 14040 14041 14042 14043 14044 14045 14046 14047 14048 14049 14050 14051 14052 14053 14054 14055 14056 14057 14058 14059 14060 14061 14062 14063 14064 14065 14066 14067 14068 14069 14070 14071 14072 14073 14074 14075 14076 14077 14078 14079 14080 14081 14082 14083 14084 14085 14086 14087 14088 14089 14090 14091 14092 14093 14094 14095 14096 14097 14098 14099 14100 14101 14102 14103 14104 14105 14106 14107 14108 14109 14110 14111 14112 14113 14114 14115 14116 14117 14118 14119 14120 14121 14122 14123 14124 14125 14126 14127 14128 14129 14130 14131 14132 14133 14134 14135 14136 14137 14138 14139 14140 14141 14142 14143 14144 14145 14146 14147 14148 14149 14150 14151 14152 14153 14154 14155 14156 14157 14158 14159 14160 14161 14162 14163 14164 14165 14166 14167 14168 14169 14170 14171 14172 14173 14174 14175 14176 14177 14178 14179 14180 14181 14182 14183 14184 14185 14186 14187 14188 14189 14190 14191 14192 14193 14194 14195 14196 14197 14198 14199 14200 14201 14202 14203 14204 14205 14206 14207 14208 14209 14210 14211 14212 14213 14214 14215 14216 14217 14218 14219 14220 14221 14222 14223 14224 14225 14226 14227 14228 14229 14230 14231 14232 14233 14234 14235 14236 14237 14238 14239 14240 14241 14242 14243 14244 14245 14246 14247 14248 14249 14250 14251 14252 14253 14254 14255 14256 14257 14258 14259 14260 14261 14262 14263 14264 14265 14266 14267 14268 14269 14270 14271 14272 14273 14274 14275 14276 14277 14278 14279 14280 14281 14282 14283 14284 14285 14286 14287 14288 14289 14290 14291 14292 14293 14294 14295 14296 14297 14298 14299 14300 14301 14302 14303 14304 14305 14306 14307 14308 14309 14310 14311 14312 14313 14314 14315 14316 14317 14318 14319 14320 14321 14322 14323 14324 14325 14326 14327 14328 14329 14330 14331 14332 14333 14334 14335 14336 14337 14338 14339 14340 14341 14342 14343 14344 14345 14346 14347 14348 14349 14350 14351 14352 14353 14354 14355 14356 14357 14358 14359 14360 14361 14362 14363 14364 14365 14366 14367 14368 14369 14370 14371 14372 14373 14374 14375 14376 14377 14378 14379 14380 14381 14382 14383 14384 14385 14386 14387 14388 14389 14390 14391 14392 14393 14394 14395 14396 14397 14398 14399 14400 14401 14402 14403 14404 14405 14406 14407 14408 14409 14410 14411 14412 14413 14414 14415 14416 14417 14418 14419 14420 14421 14422 14423 14424 14425 14426 14427 14428 14429 14430 14431 14432 14433 14434 14435 14436 14437 14438 14439 14440 14441 14442 14443 14444 14445 14446 14447 14448 14449 14450 14451 14452 14453 14454 14455 14456 14457 14458 14459 14460 14461 14462 14463 14464 14465 14466 14467 14468 14469 14470 14471 14472 14473 14474 14475 14476 14477 14478 14479 14480 14481 14482 14483 14484 14485 14486 14487 14488 14489 14490 14491 14492 14493 14494 14495 14496 14497 14498 14499 14500 14501 14502 14503 14504 14505 14506 14507 14508 14509 14510 14511 14512 14513 14514 14515 14516 14517 14518 14519 14520 14521 14522 14523 14524 14525 14526 14527 14528 14529 14530 14531 14532 14533 14534 14535 14536 14537 14538 14539 14540 14541 14542 14543 14544 14545 14546 14547 14548 14549 14550 14551 14552 14553 14554 14555 14556 14557 14558 14559 14560 14561 14562 14563 14564 14565 14566 14567 14568 14569 14570 14571 14572 14573 14574 14575 14576 14577 14578 14579 14580 14581 14582 14583 14584 14585 14586 14587 14588 14589 14590 14591 14592 14593 14594 14595 14596 14597 14598 14599 14600 14601 14602 14603 14604 14605 14606 14607 14608 14609 14610 14611 14612 14613 14614 14615 14616 14617 14618 14619 14620 14621 14622 14623 14624 14625 14626 14627 14628 14629 14630 14631 14632 14633 14634 14635 14636 14637 14638 14639 14640 14641 14642 14643 14644 14645 14646 14647 14648 14649 14650 14651 14652 14653 14654 14655 14656 14657 14658 14659 14660 14661 14662 14663 14664 14665 14666 14667 14668 14669 14670 14671 14672 14673 14674 14675 14676 14677 14678 14679 14680 14681 14682 14683 14684 14685 14686 14687 14688 14689 14690 14691 14692 14693 14694 14695 14696 14697 14698 14699 14700 14701 14702 14703 14704 14705 14706 14707 14708 14709 14710 14711 14712 14713 14714 14715 14716 14717 14718 14719 14720 14721 14722 14723 14724 14725 14726 14727 14728 14729 14730 14731 14732 14733 14734 14735 14736 14737 14738 14739 14740 14741 14742 14743 14744 14745 14746 14747 14748 14749 14750 14751 14752 14753 14754 14755 14756 14757 14758 14759 14760 14761 14762 14763 14764 14765 14766 14767 14768 14769 14770 14771 14772 14773 14774 14775 14776 14777 14778 14779 14780 14781 14782 14783 14784 14785 14786 14787 14788 14789 14790 14791 14792 14793 14794 14795 14796 14797 14798 14799 14800 14801 14802 14803 14804 14805 14806 14807 14808 14809 14810 14811 14812 14813 14814 14815 14816 14817 14818 14819 14820 14821 14822 14823 14824 14825 14826 14827 14828 14829 14830 14831 14832 14833 14834 14835 14836 14837 14838 14839 14840 14841 14842 14843 14844 14845 14846 14847 14848 14849 14850 14851 14852 14853 14854 14855 14856 14857 14858 14859 14860 14861 14862 14863 14864 14865 14866 14867 14868 14869 14870 14871 14872 14873 14874 14875 14876 14877 14878 14879 14880 14881 14882 14883 14884 14885 14886 14887 14888 14889 14890 14891 14892 14893 14894 14895 14896 14897 14898 14899 14900 14901 14902 14903 14904 14905 14906 14907 14908 14909 14910 14911 14912 14913 14914 14915 14916 14917 14918 14919 14920 14921 14922 14923 14924 14925 14926 14927 14928 14929 14930 14931 14932 14933 14934 14935 14936 14937 14938 14939 14940 14941 14942 14943 14944 14945 14946 14947 14948 14949 14950 14951 14952 14953 14954 14955 14956 14957 14958 14959 14960 14961 14962 14963 14964 14965 14966 14967 14968 14969 14970 14971 14972 14973 14974 14975 14976 14977 14978 14979 14980 14981 14982 14983 14984 14985 14986 14987 14988 14989 14990 14991 14992 14993 14994 14995 14996 14997 14998 14999 15000 15001 15002 15003 15004 15005 15006 15007 15008 15009 15010 15011 15012 15013 15014 15015 15016 15017 15018 15019 15020 15021 15022 15023 15024 15025 15026 15027 15028 15029 15030 15031 15032 15033 15034 15035 15036 15037 15038 15039 15040 15041 15042 15043 15044 15045 15046 15047 15048 15049 15050 15051 15052 15053 15054 15055 15056 15057 15058 15059 15060 15061 15062 15063 15064 15065 15066 15067 15068 15069 15070 15071 15072 15073 15074 15075 15076 15077 15078 15079 15080 15081 15082 15083 15084 15085 15086 15087 15088 15089 15090 15091 15092 15093 15094 15095 15096 15097 15098 15099 15100 15101 15102 15103 15104 15105 15106 15107 15108 15109 15110 15111 15112 15113 15114 15115 15116 15117 15118 15119 15120 15121 15122 15123 15124 15125 15126 15127 15128 15129 15130 15131 15132 15133 15134 15135 15136 15137 15138 15139 15140 15141 15142 15143 15144 15145 15146 15147 15148 15149 15150 15151 15152 15153 15154 15155 15156 15157 15158 15159 15160 15161 15162 15163 15164 15165 15166 15167 15168 15169 15170 15171 15172 15173 15174 15175 15176 15177 15178 15179 15180 15181 15182 15183 15184 15185 15186 15187 15188 15189 15190 15191 15192 15193 15194 15195 15196 15197 15198 15199 15200 15201 15202 15203 15204 15205 15206 15207 15208 15209 15210 15211 15212 15213 15214 15215 15216 15217 15218 15219 15220 15221 15222 15223 15224 15225 15226 15227 15228 15229 15230 15231 15232 15233 15234 15235 15236 15237 15238 15239 15240 15241 15242 15243 15244 15245 15246 15247 15248 15249 15250 15251 15252 15253 15254 15255 15256 15257 15258 15259 15260 15261 15262 15263 15264 15265 15266 15267 15268 15269 15270 15271 15272 15273 15274 15275 15276 15277 15278 15279 15280 15281 15282 15283 15284 15285 15286 15287 15288 15289 15290 15291 15292 15293 15294 15295 15296 15297 15298 15299 15300 15301 15302 15303 15304 15305 15306 15307 15308 15309 15310 15311 15312 15313 15314 15315 15316 15317 15318 15319 15320 15321 15322 15323 15324 15325 15326 15327 15328 15329 15330 15331 15332 15333 15334 15335 15336 15337 15338 15339 15340 15341 15342 15343 15344 15345 15346 15347 15348 15349 15350 15351 15352 15353 15354 15355 15356 15357 15358 15359 15360 15361 15362 15363 15364 15365 15366 15367 15368 15369 15370 15371 15372 15373 15374 15375 15376 15377 15378 15379 15380 15381 15382 15383 15384 15385 15386 15387 15388 15389 15390 15391 15392 15393 15394 15395 15396 15397 15398 15399 15400 15401 15402 15403 15404 15405 15406 15407 15408 15409 15410 15411 15412 15413 15414 15415 15416 15417 15418 15419 15420 15421 15422 15423 15424 15425 15426 15427 15428 15429 15430 15431 15432 15433 15434 15435 15436 15437 15438 15439 15440 15441 15442 15443 15444 15445 15446 15447 15448 15449 15450 15451 15452 15453 15454 15455 15456 15457 15458 15459 15460 15461 15462 15463 15464 15465 15466 15467 15468 15469 15470 15471 15472 15473 15474 15475 15476 15477 15478 15479 15480 15481 15482 15483 15484 15485 15486 15487 15488 15489 15490 15491 15492 15493 15494 15495 15496 15497 15498 15499 15500 15501 15502 15503 15504 15505 15506 15507 15508 15509 15510 15511 15512 15513 15514 15515 15516 15517 15518 15519 15520 15521 15522 15523 15524 15525 15526 15527 15528 15529 15530 15531 15532 15533 15534 15535 15536 15537 15538 15539 15540 15541 15542 15543 15544 15545 15546 15547 15548 15549 15550 15551 15552 15553 15554 15555 15556 15557 15558 15559 15560 15561 15562 15563 15564 15565 15566 15567 15568 15569 15570 15571 15572 15573 15574 15575 15576 15577 15578 15579 15580 15581 15582 15583 15584 15585 15586 15587 15588 15589 15590 15591 15592 15593 15594 15595 15596 15597 15598 15599 15600 15601 15602 15603 15604 15605 15606 15607 15608 15609 15610 15611 15612 15613 15614 15615 15616 15617 15618 15619 15620 15621 15622 15623 15624 15625 15626 15627 15628 15629 15630 15631 15632 15633 15634 15635 15636 15637 15638 15639 15640 15641 15642 15643 15644 15645 15646 15647 15648 15649 15650 15651 15652 15653 15654 15655 15656 15657 15658 15659 15660 15661 15662 15663 15664 15665 15666 15667 15668 15669 15670 15671 15672 15673 15674 15675 15676 15677 15678 15679 15680 15681 15682 15683 15684 15685 15686 15687 15688 15689 15690 15691 15692 15693 15694 15695 15696 15697 15698 15699 15700 15701 15702 15703 15704 15705 15706 15707 15708 15709 15710 15711 15712 15713 15714 15715 15716 15717 15718 15719 15720 15721 15722 15723 15724 15725 15726 15727 15728 15729 15730 15731 15732 15733 15734 15735 15736 15737 15738 15739 15740 15741 15742 15743 15744 15745 15746 15747 15748 15749 15750 15751 15752 15753 15754 15755 15756 15757 15758 15759 15760 15761 15762 15763 15764 15765 15766 15767 15768 15769 15770 15771 15772 15773 15774 15775 15776 15777 15778 15779 15780 15781 15782 15783 15784 15785 15786 15787 15788 15789 15790 15791 15792 15793 15794 15795 15796 15797 15798 15799 15800 15801 15802 15803 15804 15805 15806 15807 15808 15809 15810 15811 15812 15813 15814 15815 15816 15817 15818 15819 15820 15821 15822 15823 15824 15825 15826 15827 15828 15829 15830 15831 15832 15833 15834 15835 15836 15837 15838 15839 15840 15841 15842 15843 15844 15845 15846 15847 15848 15849 15850 15851 15852 15853 15854 15855 15856 15857 15858 15859 15860 15861 15862 15863 15864 15865 15866 15867 15868 15869 15870 15871 15872 15873 15874 15875 15876 15877 15878 15879 15880 15881 15882 15883 15884 15885 15886 15887 15888 15889 15890 15891 15892 15893 15894 15895 15896 15897 15898 15899 15900 15901 15902 15903 15904 15905 15906 15907 15908 15909 15910 15911 15912 15913 15914 15915 15916 15917 15918 15919 15920 15921 15922 15923 15924 15925 15926 15927 15928 15929 15930 15931 15932 15933 15934 15935 15936 15937 15938 15939 15940 15941 15942 15943 15944 15945 15946 15947 15948 15949 15950 15951 15952 15953 15954 15955 15956 15957 15958 15959 15960 15961 15962 15963 15964 15965 15966 15967 15968 15969 15970 15971 15972 15973 15974 15975 15976 15977 15978 15979 15980 15981 15982 15983 15984 15985 15986 15987 15988 15989 15990 15991 15992 15993 15994 15995 15996 15997 15998 15999 16000 16001 16002 16003 16004 16005 16006 16007 16008 16009 16010 16011 16012 16013 16014 16015 16016 16017 16018 16019 16020 16021 16022 16023 16024 16025 16026 16027 16028 16029 16030 16031 16032 16033 16034 16035 16036 16037 16038 16039 16040 16041 16042 16043 16044 16045 16046 16047 16048 16049 16050 16051 16052 16053 16054 16055 16056 16057 16058 16059 16060 16061 16062 16063 16064 16065 16066 16067 16068 16069 16070 16071 16072 16073 16074 16075 16076 16077 16078 16079 16080 16081 16082 16083 16084 16085 16086 16087 16088 16089 16090 16091 16092 16093 16094 16095 16096 16097 16098 16099 16100 16101 16102 16103 16104 16105 16106 16107 16108 16109 16110 16111 16112 16113 16114 16115 16116 16117 16118 16119 16120 16121 16122 16123 16124 16125 16126 16127 16128 16129 16130 16131 16132 16133 16134 16135 16136 16137 16138 16139 16140 16141 16142 16143 16144 16145 16146 16147 16148 16149 16150 16151 16152 16153 16154 16155 16156 16157 16158 16159 16160 16161 16162 16163 16164 16165 16166 16167 16168 16169 16170 16171 16172 16173 16174 16175 16176 16177 16178 16179 16180 16181 16182 16183 16184 16185 16186 16187 16188 16189 16190 16191 16192 16193 16194 16195 16196 16197 16198 16199 16200 16201 16202 16203 16204 16205 16206 16207 16208 16209 16210 16211 16212 16213 16214 16215 16216 16217 16218 16219 16220 16221 16222 16223 16224 16225 16226 16227 16228 16229 16230 16231 16232 16233 16234 16235 16236 16237 16238 16239 16240 16241 16242 16243 16244 16245 16246 16247 16248 16249 16250 16251 16252 16253 16254 16255 16256 16257 16258 16259 16260 16261 16262 16263 16264 16265 16266 16267 16268 16269 16270 16271 16272 16273 16274 16275 16276 16277 16278 16279 16280 16281 16282 16283 16284 16285 16286 16287 16288 16289 16290 16291 16292 16293 16294 16295 16296 16297 16298 16299 16300 16301 16302 16303 16304 16305 16306 16307 16308 16309 16310 16311 16312 16313 16314 16315 16316 16317 16318 16319 16320 16321 16322 16323 16324 16325 16326 16327 16328 16329 16330 16331 16332 16333 16334 16335 16336 16337 16338 16339 16340 16341 16342 16343 16344 16345 16346 16347 16348 16349 16350 16351 16352 16353 16354 16355 16356 16357 16358 16359 16360 16361 16362 16363 16364 16365 16366 16367 16368 16369 16370 16371 16372 16373 16374 16375 16376 16377 16378 16379 16380 16381 16382 16383 16384 16385 16386 16387 16388 16389 16390 16391 16392 16393 16394 16395 16396 16397 16398 16399 16400 16401 16402 16403 16404 16405 16406 16407 16408 16409 16410 16411 16412 16413 16414 16415 16416 16417 16418 16419 16420 16421 16422 16423 16424 16425 16426 16427 16428 16429 16430 16431 16432 16433 16434 16435 16436 16437 16438 16439 16440 16441 16442 16443 16444 16445 16446 16447 16448 16449 16450 16451 16452 16453 16454 16455 16456 16457 16458 16459 16460 16461 16462 16463 16464 16465 16466 16467 16468 16469 16470 16471 16472 16473 16474 16475 16476 16477 16478 16479 16480 16481 16482 16483 16484 16485 16486 16487 16488 16489 16490 16491 16492 16493 16494 16495 16496 16497 16498 16499 16500 16501 16502 16503 16504 16505 16506 16507 16508 16509 16510 16511 16512 16513 16514 16515 16516 16517 16518 16519 16520 16521 16522 16523 16524 16525 16526 16527 16528 16529 16530 16531 16532 16533 16534 16535 16536 16537 16538 16539 16540 16541 16542 16543 16544 16545 16546 16547 16548 16549 16550 16551 16552 16553 16554 16555 16556 16557 16558 16559 16560 16561 16562 16563 16564 16565 16566 16567 16568 16569 16570 16571 16572 16573 16574 16575 16576 16577 16578 16579 16580 16581 16582 16583 16584 16585 16586 16587 16588 16589 16590 16591 16592 16593 16594 16595 16596 16597 16598 16599 16600 16601 16602 16603 16604 16605 16606 16607 16608 16609 16610 16611 16612 16613 16614 16615 16616 16617 16618 16619 16620 16621 16622 16623 16624 16625 16626 16627 16628 16629 16630 16631 16632 16633 16634 16635 16636 16637 16638 16639 16640 16641 16642 16643 16644 16645 16646 16647 16648 16649 16650 16651 16652 16653 16654 16655 16656 16657 16658 16659 16660 16661 16662 16663 16664 16665 16666 16667 16668 16669 16670 16671 16672 16673 16674 16675 16676 16677 16678 16679 16680 16681 16682 16683 16684 16685 16686 16687 16688 16689 16690 16691 16692 16693 16694 16695 16696 16697 16698 16699 16700 16701 16702 16703 16704 16705 16706 16707 16708 16709 16710 16711 16712 16713 16714 16715 16716 16717 16718 16719 16720 16721 16722 16723 16724 16725 16726 16727 16728 16729 16730 16731 16732 16733 16734 16735 16736 16737 16738 16739 16740 16741 16742 16743 16744 16745 16746 16747 16748 16749 16750 16751 16752 16753 16754 16755 16756 16757 16758 16759 16760 16761 16762 16763 16764 16765 16766 16767 16768 16769 16770 16771 16772 16773 16774 16775 16776 16777 16778 16779 16780 16781 16782 16783 16784 16785 16786 16787 16788 16789 16790 16791 16792 16793 16794 16795 16796 16797 16798 16799 16800 16801 16802 16803 16804 16805 16806 16807 16808 16809 16810 16811 16812 16813 16814 16815 16816 16817 16818 16819 16820 16821 16822 16823 16824 16825 16826 16827 16828 16829 16830 16831 16832 16833 16834 16835 16836 16837 16838 16839 16840 16841 16842 16843 16844 16845 16846 16847 16848 16849 16850 16851 16852 16853 16854 16855 16856 16857 16858 16859 16860 16861 16862 16863 16864 16865 16866 16867 16868 16869 16870 16871 16872 16873 16874 16875 16876 16877 16878 16879 16880 16881 16882 16883 16884 16885 16886 16887 16888 16889 16890 16891 16892 16893 16894 16895 16896 16897 16898 16899 16900 16901 16902 16903 16904 16905 16906 16907 16908 16909 16910 16911 16912 16913 16914 16915 16916 16917 16918 16919 16920 16921 16922 16923 16924 16925 16926 16927 16928 16929 16930 16931 16932 16933 16934 16935 16936 16937 16938 16939 16940 16941 16942 16943 16944 16945 16946 16947 16948 16949 16950 16951 16952 16953 16954 16955 16956 16957 16958 16959 16960 16961 16962 16963 16964 16965 16966 16967 16968 16969 16970 16971 16972 16973 16974 16975 16976 16977 16978 16979 16980 16981 16982 16983 16984 16985 16986 16987 16988 16989 16990 16991 16992 16993 16994 16995 16996 16997 16998 16999 17000 17001 17002 17003 17004 17005 17006 17007 17008 17009 17010 17011 17012 17013 17014 17015 17016 17017 17018 17019 17020 17021 17022 17023 17024 17025 17026 17027 17028 17029 17030 17031 17032 17033 17034 17035 17036 17037 17038 17039 17040 17041 17042 17043 17044 17045 17046 17047 17048 17049 17050 17051 17052 17053 17054 17055 17056 17057 17058 17059 17060 17061 17062 17063 17064 17065 17066 17067 17068 17069 17070 17071 17072 17073 17074 17075 17076 17077 17078 17079 17080 17081 17082 17083 17084 17085 17086 17087 17088 17089 17090 17091 17092 17093 17094 17095 17096 17097 17098 17099 17100 17101 17102 17103 17104 17105 17106 17107 17108 17109 17110 17111 17112 17113 17114 17115 17116 17117 17118 17119 17120 17121 17122 17123 17124 17125 17126 17127 17128 17129 17130 17131 17132 17133 17134 17135 17136 17137 17138 17139 17140 17141 17142 17143 17144 17145 17146 17147 17148 17149 17150 17151 17152 17153 17154 17155 17156 17157 17158 17159 17160 17161 17162 17163 17164 17165 17166 17167 17168 17169 17170 17171 17172 17173 17174 17175 17176 17177 17178 17179 17180 17181 17182 17183 17184 17185 17186 17187 17188 17189 17190 17191 17192 17193 17194 17195 17196 17197 17198 17199 17200 17201 17202 17203 17204 17205 17206 17207 17208 17209 17210 17211 17212 17213 17214 17215 17216 17217 17218 17219 17220 17221 17222 17223 17224 17225 17226 17227 17228 17229 17230 17231 17232 17233 17234 17235 17236 17237 17238 17239 17240 17241 17242 17243 17244 17245 17246 17247 17248 17249 17250 17251 17252 17253 17254 17255 17256 17257 17258 17259 17260 17261 17262 17263 17264 17265 17266 17267 17268 17269 17270 17271 17272 17273 17274 17275 17276 17277 17278 17279 17280 17281 17282 17283 17284 17285 17286 17287 17288 17289 17290 17291 17292 17293 17294 17295 17296 17297 17298 17299 17300 17301 17302 17303 17304 17305 17306 17307 17308 17309 17310 17311 17312 17313 17314 17315 17316 17317 17318 17319 17320 17321 17322 17323 17324 17325 17326 17327 17328 17329 17330 17331 17332 17333 17334 17335 17336 17337 17338 17339 17340 17341 17342 17343 17344 17345 17346 17347 17348 17349 17350 17351 17352 17353 17354 17355 17356 17357 17358 17359 17360 17361 17362 17363 17364 17365 17366 17367 17368 17369 17370 17371 17372 17373 17374 17375 17376 17377 17378 17379 17380 17381 17382 17383 17384 17385 17386 17387 17388 17389 17390 17391 17392 17393 17394 17395 17396 17397 17398 17399 17400 17401 17402 17403 17404 17405 17406 17407 17408 17409 17410 17411 17412 17413 17414 17415 17416 17417 17418 17419 17420 17421 17422 17423 17424 17425 17426 17427 17428 17429 17430 17431 17432 17433 17434 17435 17436 17437 17438 17439 17440 17441 17442 17443 17444 17445 17446 17447 17448 17449 17450 17451 17452 17453 17454 17455 17456 17457 17458 17459 17460 17461 17462 17463 17464 17465 17466 17467 17468 17469 17470 17471 17472 17473 17474 17475 17476 17477 17478 17479 17480 17481 17482 17483 17484 17485 17486 17487 17488 17489 17490 17491 17492 17493 17494 17495 17496 17497 17498 17499 17500 17501 17502 17503 17504 17505 17506 17507 17508 17509 17510 17511 17512 17513 17514 17515 17516 17517 17518 17519 17520 17521 17522 17523 17524 17525 17526 17527 17528 17529 17530 17531 17532 17533 17534 17535 17536 17537 17538 17539 17540 17541 17542 17543 17544 17545 17546 17547 17548 17549 17550 17551 17552 17553 17554 17555 17556 17557 17558 17559 17560 17561 17562 17563 17564 17565 17566 17567 17568 17569 17570 17571 17572 17573 17574 17575 17576 17577 17578 17579 17580 17581 17582 17583 17584 17585 17586 17587 17588 17589 17590 17591 17592 17593 17594 17595 17596 17597 17598 17599 17600 17601 17602 17603 17604 17605 17606 17607 17608 17609 17610 17611 17612 17613 17614 17615 17616 17617 17618 17619 17620 17621 17622 17623 17624 17625 17626 17627 17628 17629 17630 17631 17632 17633 17634 17635 17636 17637 17638 17639 17640 17641 17642 17643 17644 17645 17646 17647 17648 17649 17650 17651 17652 17653 17654 17655 17656 17657 17658 17659 17660 17661 17662 17663 17664 17665 17666 17667 17668 17669 17670 17671 17672 17673 17674 17675 17676 17677 17678 17679 17680 17681 17682 17683 17684 17685 17686 17687 17688 17689 17690 17691 17692 17693 17694 17695 17696 17697 17698 17699 17700 17701 17702 17703 17704 17705 17706 17707 17708 17709 17710 17711 17712 17713 17714 17715 17716 17717 17718 17719 17720 17721 17722 17723 17724 17725 17726 17727 17728 17729 17730 17731 17732 17733 17734 17735 17736 17737 17738 17739 17740 17741 17742 17743 17744 17745 17746 17747 17748 17749 17750 17751 17752 17753 17754 17755 17756 17757 17758 17759 17760 17761 17762 17763 17764 17765 17766 17767 17768 17769 17770 17771 17772 17773 17774 17775 17776 17777 17778 17779 17780 17781 17782 17783 17784 17785 17786 17787 17788 17789 17790 17791 17792 17793 17794 17795 17796 17797 17798 17799 17800 17801 17802 17803 17804 17805 17806 17807 17808 17809 17810 17811 17812 17813 17814 17815 17816 17817 17818 17819 17820 17821 17822 17823 17824 17825 17826 17827 17828 17829 17830 17831 17832 17833 17834 17835 17836 17837 17838 17839 17840 17841 17842 17843 17844 17845 17846 17847 17848 17849 17850 17851 17852 17853 17854 17855 17856 17857 17858 17859 17860 17861 17862 17863 17864 17865 17866 17867 17868 17869 17870 17871 17872 17873 17874 17875 17876 17877 17878 17879 17880 17881 17882 17883 17884 17885 17886 17887 17888 17889 17890 17891 17892 17893 17894 17895 17896 17897 17898 17899 17900 17901 17902 17903 17904 17905 17906 17907 17908 17909 17910 17911 17912 17913 17914 17915 17916 17917 17918 17919 17920 17921 17922 17923 17924 17925 17926 17927 17928 17929 17930 17931 17932 17933 17934 17935 17936 17937 17938 17939 17940 17941 17942 17943 17944 17945 17946 17947 17948 17949 17950 17951 17952 17953 17954 17955 17956 17957 17958 17959 17960 17961 17962 17963 17964 17965 17966 17967 17968 17969 17970 17971 17972 17973 17974 17975 17976 17977 17978 17979 17980 17981 17982 17983 17984 17985 17986 17987 17988 17989 17990 17991 17992 17993 17994 17995 17996 17997 17998 17999 18000 18001 18002 18003 18004 18005 18006 18007 18008 18009 18010 18011 18012 18013 18014 18015 18016 18017 18018 18019 18020 18021 18022 18023 18024 18025 18026 18027 18028 18029 18030 18031 18032 18033 18034 18035 18036 18037 18038 18039 18040 18041 18042 18043 18044 18045 18046 18047 18048 18049 18050 18051 18052 18053 18054 18055 18056 18057 18058 18059 18060 18061 18062 18063 18064 18065 18066 18067 18068 18069 18070 18071 18072 18073 18074 18075 18076 18077 18078 18079 18080 18081 18082 18083 18084 18085 18086 18087 18088 18089 18090 18091 18092 18093 18094 18095 18096 18097 18098 18099 18100 18101 18102 18103 18104 18105 18106 18107 18108 18109 18110 18111 18112 18113 18114 18115 18116 18117 18118 18119 18120 18121 18122 18123 18124 18125 18126 18127 18128 18129 18130 18131 18132 18133 18134 18135 18136 18137 18138 18139 18140 18141 18142 18143 18144 18145 18146 18147 18148 18149 18150 18151 18152 18153 18154 18155 18156 18157 18158 18159 18160 18161 18162 18163 18164 18165 18166 18167 18168 18169 18170 18171 18172 18173 18174 18175 18176 18177 18178 18179 18180 18181 18182 18183 18184 18185 18186 18187 18188 18189 18190 18191 18192 18193 18194 18195 18196 18197 18198 18199 18200 18201 18202 18203 18204 18205 18206 18207 18208 18209 18210 18211 18212 18213 18214 18215 18216 18217 18218 18219 18220 18221 18222 18223 18224 18225 18226 18227 18228 18229 18230 18231 18232 18233 18234 18235 18236 18237 18238 18239 18240 18241 18242 18243 18244 18245 18246 18247 18248 18249 18250 18251 18252 18253 18254 18255 18256 18257 18258 18259 18260 18261 18262 18263 18264 18265 18266 18267 18268 18269 18270 18271 18272 18273 18274 18275 18276 18277 18278 18279 18280 18281 18282 18283 18284 18285 18286 18287 18288 18289 18290 18291 18292 18293 18294 18295 18296 18297 18298 18299 18300 18301 18302 18303 18304 18305 18306 18307 18308 18309 18310 18311 18312 18313 18314 18315 18316 18317 18318 18319 18320 18321 18322 18323 18324 18325 18326 18327 18328 18329 18330 18331 18332 18333 18334 18335 18336 18337 18338 18339 18340 18341 18342 18343 18344 18345 18346 18347 18348 18349 18350 18351 18352 18353 18354 18355 18356 18357 18358 18359 18360 18361 18362 18363 18364 18365 18366 18367 18368 18369 18370 18371 18372 18373 18374 18375 18376 18377 18378 18379 18380 18381 18382 18383 18384 18385 18386 18387 18388 18389 18390 18391 18392 18393 18394 18395 18396 18397 18398 18399 18400 18401 18402 18403 18404 18405 18406 18407 18408 18409 18410 18411 18412 18413 18414 18415 18416 18417 18418 18419 18420 18421 18422 18423 18424 18425 18426 18427 18428 18429 18430 18431 18432 18433 18434 18435 18436 18437 18438 18439 18440 18441 18442 18443 18444 18445 18446 18447 18448 18449 18450 18451 18452 18453 18454 18455 18456 18457 18458 18459 18460 18461 18462 18463 18464 18465 18466 18467 18468 18469 18470 18471 18472 18473 18474 18475 18476 18477 18478 18479 18480 18481 18482 18483 18484 18485 18486 18487 18488 18489 18490 18491 18492 18493 18494 18495 18496 18497 18498 18499 18500 18501 18502 18503 18504 18505 18506 18507 18508 18509 18510 18511 18512 18513 18514 18515 18516 18517 18518 18519 18520 18521 18522 18523 18524 18525 18526 18527 18528 18529 18530 18531 18532 18533 18534 18535 18536 18537 18538 18539 18540 18541 18542 18543 18544 18545 18546 18547 18548 18549 18550 18551 18552 18553 18554 18555 18556 18557 18558 18559 18560 18561 18562 18563 18564 18565 18566 18567 18568 18569 18570 18571 18572 18573 18574 18575 18576 18577 18578 18579 18580 18581 18582 18583 18584 18585 18586 18587 18588 18589 18590 18591 18592 18593 18594 18595 18596 18597 18598 18599 18600 18601 18602 18603 18604 18605 18606 18607 18608 18609 18610 18611 18612 18613 18614 18615 18616 18617 18618 18619 18620 18621 18622 18623 18624 18625 18626 18627 18628 18629 18630 18631 18632 18633 18634 18635 18636 18637 18638 18639 18640 18641 18642 18643 18644 18645 18646 18647 18648 18649 18650 18651 18652 18653 18654 18655 18656 18657 18658 18659 18660 18661 18662 18663 18664 18665 18666 18667 18668 18669 18670 18671 18672 18673 18674 18675 18676 18677 18678 18679 18680 18681 18682 18683 18684 18685 18686 18687 18688 18689 18690 18691 18692 18693 18694 18695 18696 18697 18698 18699 18700 18701 18702 18703 18704 18705 18706 18707 18708 18709 18710 18711 18712 18713 18714 18715 18716 18717 18718 18719 18720 18721 18722 18723 18724 18725 18726 18727 18728 18729 18730 18731 18732 18733 18734 18735 18736 18737 18738 18739 18740 18741 18742 18743 18744 18745 18746 18747 18748 18749 18750 18751 18752 18753 18754 18755 18756 18757 18758 18759 18760 18761 18762 18763 18764 18765 18766 18767 18768 18769 18770 18771 18772 18773 18774 18775 18776 18777 18778 18779 18780 18781 18782 18783 18784 18785 18786 18787 18788 18789 18790 18791 18792 18793 18794 18795 18796 18797 18798 18799 18800 18801 18802 18803 18804 18805 18806 18807 18808 18809 18810 18811 18812 18813 18814 18815 18816 18817 18818 18819 18820 18821 18822 18823 18824 18825 18826 18827 18828 18829 18830 18831 18832 18833 18834 18835 18836 18837 18838 18839 18840 18841 18842 18843 18844 18845 18846 18847 18848 18849 18850 18851 18852 18853 18854 18855 18856 18857 18858 18859 18860 18861 18862 18863 18864 18865 18866 18867 18868 18869 18870 18871 18872 18873 18874 18875 18876 18877 18878 18879 18880 18881 18882 18883 18884 18885 18886 18887 18888 18889 18890 18891 18892 18893 18894 18895 18896 18897 18898 18899 18900 18901 18902 18903 18904 18905 18906 18907 18908 18909 18910 18911 18912 18913 18914 18915 18916 18917 18918 18919 18920 18921 18922 18923 18924 18925 18926 18927 18928 18929 18930 18931 18932 18933 18934 18935 18936 18937 18938 18939 18940 18941 18942 18943 18944 18945 18946 18947 18948 18949 18950 18951 18952 18953 18954 18955 18956 18957 18958 18959 18960 18961 18962 18963 18964 18965 18966 18967 18968 18969 18970 18971 18972 18973 18974 18975 18976 18977 18978 18979 18980 18981 18982 18983 18984 18985 18986 18987 18988 18989 18990 18991 18992 18993 18994 18995 18996 18997 18998 18999 19000 19001 19002 19003 19004 19005 19006 19007 19008 19009 19010 19011 19012 19013 19014 19015 19016 19017 19018 19019 19020 19021 19022 19023 19024 19025 19026 19027 19028 19029 19030 19031 19032 19033 19034 19035 19036 19037 19038 19039 19040 19041 19042 19043 19044 19045 19046 19047 19048 19049 19050 19051 19052 19053 19054 19055 19056 19057 19058 19059 19060 19061 19062 19063 19064 19065 19066 19067 19068 19069 19070 19071 19072 19073 19074 19075 19076 19077 19078 19079 19080 19081 19082 19083 19084 19085 19086 19087 19088 19089 19090 19091 19092 19093 19094 19095 19096 19097 19098 19099 19100 19101 19102 19103 19104 19105 19106 19107 19108 19109 19110 19111 19112 19113 19114 19115 19116 19117 19118 19119 19120 19121 19122 19123 19124 19125 19126 19127 19128 19129 19130 19131 19132 19133 19134 19135 19136 19137 19138 19139 19140 19141 19142 19143 19144 19145 19146 19147 19148 19149 19150 19151 19152 19153 19154 19155 19156 19157 19158 19159 19160 19161 19162 19163 19164 19165 19166 19167 19168 19169 19170 19171 19172 19173 19174 19175 19176 19177 19178 19179 19180 19181 19182 19183 19184 19185 19186 19187 19188 19189 19190 19191 19192 19193 19194 19195 19196 19197 19198 19199 19200 19201 19202 19203 19204 19205 19206 19207 19208 19209 19210 19211 19212 19213 19214 19215 19216 19217 19218 19219 19220 19221 19222 19223 19224 19225 19226 19227 19228 19229 19230 19231 19232 19233 19234 19235 19236 19237 19238 19239 19240 19241 19242 19243 19244 19245 19246 19247 19248 19249 19250 19251 19252 19253 19254 19255 19256 19257 19258 19259 19260 19261 19262 19263 19264 19265 19266 19267 19268 19269 19270 19271 19272 19273 19274 19275 19276 19277 19278 19279 19280 19281 19282 19283 19284 19285 19286 19287 19288 19289 19290 19291 19292 19293 19294 19295 19296 19297 19298 19299 19300 19301 19302 19303 19304 19305 19306 19307 19308 19309 19310 19311 19312 19313 19314 19315 19316 19317 19318 19319 19320 19321 19322 19323 19324 19325 19326 19327 19328 19329 19330 19331 19332 19333 19334 19335 19336 19337 19338 19339 19340 19341 19342 19343 19344 19345 19346 19347 19348 19349 19350 19351 19352 19353 19354 19355 19356 19357 19358 19359 19360 19361 19362 19363 19364 19365 19366 19367 19368 19369 19370 19371 19372 19373 19374 19375 19376 19377 19378 19379 19380 19381 19382 19383 19384 19385 19386 19387 19388 19389 19390 19391 19392 19393 19394 19395 19396 19397 19398 19399 19400 19401 19402 19403 19404 19405 19406 19407 19408 19409 19410 19411 19412 19413 19414 19415 19416 19417 19418 19419 19420 19421 19422 19423 19424 19425 19426 19427 19428 19429 19430 19431 19432 19433 19434 19435 19436 19437 19438 19439 19440 19441 19442 19443 19444 19445 19446 19447 19448 19449 19450 19451 19452 19453 19454 19455 19456 19457 19458 19459 19460 19461 19462 19463 19464 19465 19466 19467 19468 19469 19470 19471 19472 19473 19474 19475 19476 19477 19478 19479 19480 19481 19482 19483 19484 19485 19486 19487 19488 19489 19490 19491 19492 19493 19494 19495 19496 19497 19498 19499 19500 19501 19502 19503 19504 19505 19506 19507 19508 19509 19510 19511 19512 19513 19514 19515 19516 19517 19518 19519 19520 19521 19522 19523 19524 19525 19526 19527 19528 19529 19530 19531 19532 19533 19534 19535 19536 19537 19538 19539 19540 19541 19542 19543 19544 19545 19546 19547 19548 19549 19550 19551 19552 19553 19554 19555 19556 19557 19558 19559 19560 19561 19562 19563 19564 19565 19566 19567 19568 19569 19570 19571 19572 19573 19574 19575 19576 19577 19578 19579 19580 19581 19582 19583 19584 19585 19586 19587 19588 19589 19590 19591 19592 19593 19594 19595 19596 19597 19598 19599 19600 19601 19602 19603 19604 19605 19606 19607 19608 19609 19610 19611 19612 19613 19614 19615 19616 19617 19618 19619 19620 19621 19622 19623 19624 19625 19626 19627 19628 19629 19630 19631 19632 19633 19634 19635 19636 19637 19638 19639 19640 19641 19642 19643 19644 19645 19646 19647 19648 19649 19650 19651 19652 19653 19654 19655 19656 19657 19658 19659 19660 19661 19662 19663 19664 19665 19666 19667 19668 19669 19670 19671 19672 19673 19674 19675 19676 19677 19678 19679 19680 19681 19682 19683 19684 19685 19686 19687 19688 19689 19690 19691 19692 19693 19694 19695 19696 19697 19698 19699 19700 19701 19702 19703 19704 19705 19706 19707 19708 19709 19710 19711 19712 19713 19714 19715 19716 19717 19718 19719 19720 19721 19722 19723 19724 19725 19726 19727 19728 19729 19730 19731 19732 19733 19734 19735 19736 19737 19738 19739 19740 19741 19742 19743 19744 19745 19746 19747 19748 19749 19750 19751 19752 19753 19754 19755 19756 19757 19758 19759 19760 19761 19762 19763 19764 19765 19766 19767 19768 19769 19770 19771 19772 19773 19774 19775 19776 19777 19778 19779 19780 19781 19782 19783 19784 19785 19786 19787 19788 19789 19790 19791 19792 19793 19794 19795 19796 19797 19798 19799 19800 19801 19802 19803 19804 19805 19806 19807 19808 19809 19810 19811 19812 19813 19814 19815 19816 19817 19818 19819 19820 19821 19822 19823 19824 19825 19826 19827 19828 19829 19830 19831 19832 19833 19834 19835 19836 19837 19838 19839 19840 19841 19842 19843 19844 19845 19846 19847 19848 19849 19850 19851 19852 19853 19854 19855 19856 19857 19858 19859 19860 19861 19862 19863 19864 19865 19866 19867 19868 19869 19870 19871 19872 19873 19874 19875 19876 19877 19878 19879 19880 19881 19882 19883 19884 19885 19886 19887 19888 19889 19890 19891 19892 19893 19894 19895 19896 19897 19898 19899 19900 19901 19902 19903 19904 19905 19906 19907 19908 19909 19910 19911 19912 19913 19914 19915 19916 19917 19918 19919 19920 19921 19922 19923 19924 19925 19926 19927 19928 19929 19930 19931 19932 19933 19934 19935 19936 19937 19938 19939 19940 19941 19942 19943 19944 19945 19946 19947 19948 19949 19950 19951 19952 19953 19954 19955 19956 19957 19958 19959 19960 19961 19962 19963 19964 19965 19966 19967 19968 19969 19970 19971 19972 19973 19974 19975 19976 19977 19978 19979 19980 19981 19982 19983 19984 19985 19986 19987 19988 19989 19990 19991 19992 19993 19994 19995 19996 19997 19998 19999 20000 20001 20002 20003 20004 20005 20006 20007 20008 20009 20010 20011 20012 20013 20014 20015 20016 20017 20018 20019 20020 20021 20022 20023 20024 20025 20026 20027 20028 20029 20030 20031 20032 20033 20034 20035 20036 20037 20038 20039 20040 20041 20042 20043 20044 20045 20046 20047 20048 20049 20050 20051 20052 20053 20054 20055 20056 20057 20058 20059 20060 20061 20062 20063 20064 20065 20066 20067 20068 20069 20070 20071 20072 20073 20074 20075 20076 20077 20078 20079 20080 20081 20082 20083 20084 20085 20086 20087 20088 20089 20090 20091 20092 20093 20094 20095 20096 20097 20098 20099 20100 20101 20102 20103 20104 20105 20106 20107 20108 20109 20110 20111 20112 20113 20114 20115 20116 20117 20118 20119 20120 20121 20122 20123 20124 20125 20126 20127 20128 20129 20130 20131 20132 20133 20134 20135 20136 20137 20138 20139 20140 20141 20142 20143 20144 20145 20146 20147 20148 20149 20150 20151 20152 20153 20154 20155 20156 20157 20158 20159 20160 20161 20162 20163 20164 20165 20166 20167 20168 20169 20170 20171 20172 20173 20174 20175 20176 20177 20178 20179 20180 20181 20182 20183 20184 20185 20186 20187 20188 20189 20190 20191 20192 20193 20194 20195 20196 20197 20198 20199 20200 20201 20202 20203 20204 20205 20206 20207 20208 20209 20210 20211 20212 20213 20214 20215 20216 20217 20218 20219 20220 20221 20222 20223 20224 20225 20226 20227 20228 20229 20230 20231 20232 20233 20234 20235 20236 20237 20238 20239 20240 20241 20242 20243 20244 20245 20246 20247 20248 20249 20250 20251 20252 20253 20254 20255 20256 20257 20258 20259 20260 20261 20262 20263 20264 20265 20266 20267 20268 20269 20270 20271 20272 20273 20274 20275 20276 20277 20278 20279 20280 20281 20282 20283 20284 20285 20286 20287 20288 20289 20290 20291 20292 20293 20294 20295 20296 20297 20298 20299 20300 20301 20302 20303 20304 20305 20306 20307 20308 20309 20310 20311 20312 20313 20314 20315 20316 20317 20318 20319 20320 20321 20322 20323 20324 20325 20326 20327 20328 20329 20330 20331 20332 20333 20334 20335 20336 20337 20338 20339 20340 20341 20342 20343 20344 20345 20346 20347 20348 20349 20350 20351 20352 20353 20354 20355 20356 20357 20358 20359 20360 20361 20362 20363 20364 20365 20366 20367 20368 20369 20370 20371 20372 20373 20374 20375 20376 20377 20378 20379 20380 20381 20382 20383 20384 20385 20386 20387 20388 20389 20390 20391 20392 20393 20394 20395 20396 20397 20398 20399 20400 20401 20402 20403 20404 20405 20406 20407 20408 20409 20410 20411 20412 20413 20414 20415 20416 20417 20418 20419 20420 20421 20422 20423 20424 20425 20426 20427 20428 20429 20430 20431 20432 20433 20434 20435 20436 20437 20438 20439 20440 20441 20442 20443 20444 20445 20446 20447 20448 20449 20450 20451 20452 20453 20454 20455 20456 20457 20458 20459 20460 20461 20462 20463 20464 20465 20466 20467 20468 20469 20470 20471 20472 20473 20474 20475 20476 20477 20478 20479 20480 20481 20482 20483 20484 20485 20486 20487 20488 20489 20490 20491 20492 20493 20494 20495 20496 20497 20498 20499 20500 20501 20502 20503 20504 20505 20506 20507 20508 20509 20510 20511 20512 20513 20514 20515 20516 20517 20518 20519 20520 20521 20522 20523 20524 20525 20526 20527 20528 20529 20530 20531 20532 20533 20534 20535 20536 20537 20538 20539 20540 20541 20542 20543 20544 20545 20546 20547 20548 20549 20550 20551 20552 20553 20554 20555 20556 20557 20558 20559 20560 20561 20562 20563 20564 20565 20566 20567 20568 20569 20570 20571 20572 20573 20574 20575 20576 20577 20578 20579 20580 20581 20582 20583 20584 20585 20586 20587 20588 20589 20590 20591 20592 20593 20594 20595 20596 20597 20598 20599 20600 20601 20602 20603 20604 20605 20606 20607 20608 20609 20610 20611 20612 20613 20614 20615 20616 20617 20618 20619 20620 20621 20622 20623 20624 20625 20626 20627 20628 20629 20630 20631 20632 20633 20634 20635 20636 20637 20638 20639 20640 20641 20642 20643 20644 20645 20646 20647 20648 20649 20650 20651 20652 20653 20654 20655 20656 20657 20658 20659 20660 20661 20662 20663 20664 20665 20666 20667 20668 20669 20670 20671 20672 20673 20674 20675 20676 20677 20678 20679 20680 20681 20682 20683 20684 20685 20686 20687 20688 20689 20690 20691 20692 20693 20694 20695 20696 20697 20698 20699 20700 20701 20702 20703 20704 20705 20706 20707 20708 20709 20710 20711 20712 20713 20714 20715 20716 20717 20718 20719 20720 20721 20722 20723 20724 20725 20726 20727 20728 20729 20730 20731 20732 20733 20734 20735 20736 20737 20738 20739 20740 20741 20742 20743 20744 20745 20746 20747 20748 20749 20750 20751 20752 20753 20754 20755 20756 20757 20758 20759 20760 20761 20762 20763 20764 20765 20766 20767 20768 20769 20770 20771 20772 20773 20774 20775 20776 20777 20778 20779 20780 20781 20782 20783 20784 20785 20786 20787 20788 20789 20790 20791 20792 20793 20794 20795 20796 20797 20798 20799 20800 20801 20802 20803 20804 20805 20806 20807 20808 20809 20810 20811 20812 20813 20814 20815 20816 20817 20818 20819 20820 20821 20822 20823 20824 20825 20826 20827 20828 20829 20830 20831 20832 20833 20834 20835 20836 20837 20838 20839 20840 20841 20842 20843 20844 20845 20846 20847 20848 20849 20850 20851 20852 20853 20854 20855 20856 20857 20858 20859 20860 20861 20862 20863 20864 20865 20866 20867 20868 20869 20870 20871 20872 20873 20874 20875 20876 20877 20878 20879 20880 20881 20882 20883 20884 20885 20886 20887 20888 20889 20890 20891 20892 20893 20894 20895 20896 20897 20898 20899 20900 20901 20902 20903 20904 20905 20906 20907 20908 20909 20910 20911 20912 20913 20914 20915 20916 20917 20918 20919 20920 20921 20922 20923 20924 20925 20926 20927 20928 20929 20930 20931 20932 20933 20934 20935 20936 20937 20938 20939 20940 20941 20942 20943 20944 20945 20946 20947 20948 20949 20950 20951 20952 20953 20954 20955 20956 20957 20958 20959 20960 20961 20962 20963 20964 20965 20966 20967 20968 20969 20970 20971 20972 20973 20974 20975 20976 20977 20978 20979 20980 20981 20982 20983 20984 20985 20986 20987 20988 20989 20990 20991 20992 20993 20994 20995 20996 20997 20998 20999 21000 21001 21002 21003 21004 21005 21006 21007 21008 21009 21010 21011 21012 21013 21014 21015 21016 21017 21018 21019 21020 21021 21022 21023 21024 21025 21026 21027 21028 21029 21030 21031 21032 21033 21034 21035 21036 21037 21038 21039 21040 21041 21042 21043 21044 21045 21046 21047 21048 21049 21050 21051 21052 21053 21054 21055 21056 21057 21058 21059 21060 21061 21062 21063 21064 21065 21066 21067 21068 21069 21070 21071 21072 21073 21074 21075 21076 21077 21078 21079 21080 21081 21082 21083 21084 21085 21086 21087 21088 21089 21090 21091 21092 21093 21094 21095 21096 21097 21098 21099 21100 21101 21102 21103 21104 21105 21106 21107 21108 21109 21110 21111 21112 21113 21114 21115 21116 21117 21118 21119 21120 21121 21122 21123 21124 21125 21126 21127 21128 21129 21130 21131 21132 21133 21134 21135 21136 21137 21138 21139 21140 21141 21142 21143 21144 21145 21146 21147 21148 21149 21150 21151 21152 21153 21154 21155 21156 21157 21158 21159 21160 21161 21162 21163 21164 21165 21166 21167 21168 21169 21170 21171 21172 21173 21174 21175 21176 21177 21178 21179 21180 21181 21182 21183 21184 21185 21186 21187 21188 21189 21190 21191 21192 21193 21194 21195 21196 21197 21198 21199 21200 21201 21202 21203 21204 21205 21206 21207 21208 21209 21210 21211 21212 21213 21214 21215 21216 21217 21218 21219 21220 21221 21222 21223 21224 21225 21226 21227 21228 21229 21230 21231 21232 21233 21234 21235 21236 21237 21238 21239 21240 21241 21242 21243 21244 21245 21246 21247 21248 21249 21250 21251 21252 21253 21254 21255 21256 21257 21258 21259 21260 21261 21262 21263 21264 21265 21266 21267 21268 21269 21270 21271 21272 21273 21274 21275 21276 21277 21278 21279 21280 21281 21282 21283 21284 21285 21286 21287 21288 21289 21290 21291 21292 21293 21294 21295 21296 21297 21298 21299 21300 21301 21302 21303 21304 21305 21306 21307 21308 21309 21310 21311 21312 21313 21314 21315 21316 21317 21318 21319 21320 21321 21322 21323 21324 21325 21326 21327 21328 21329 21330 21331 21332 21333 21334 21335 21336 21337 21338 21339 21340 21341 21342 21343 21344 21345 21346 21347 21348 21349 21350 21351 21352 21353 21354 21355 21356 21357 21358 21359 21360 21361 21362 21363 21364 21365 21366 21367 21368 21369 21370 21371 21372 21373 21374 21375 21376 21377 21378 21379 21380 21381 21382 21383 21384 21385 21386 21387 21388 21389 21390 21391 21392 21393 21394 21395 21396 21397 21398 21399 21400 21401 21402 21403 21404 21405 21406 21407 21408 21409 21410 21411 21412 21413 21414 21415 21416 21417 21418 21419 21420 21421 21422 21423 21424 21425 21426 21427 21428 21429 21430 21431 21432 21433 21434 21435 21436 21437 21438 21439 21440 21441 21442 21443 21444 21445 21446 21447 21448 21449 21450 21451 21452 21453 21454 21455 21456 21457 21458 21459 21460 21461 21462 21463 21464 21465 21466 21467 21468 21469 21470 21471 21472 21473 21474 21475 21476 21477 21478 21479 21480 21481 21482 21483 21484 21485 21486 21487 21488 21489 21490 21491 21492 21493 21494 21495 21496 21497 21498 21499 21500 21501 21502 21503 21504 21505 21506 21507 21508 21509 21510 21511 21512 21513 21514 21515 21516 21517 21518 21519 21520 21521 21522 21523 21524 21525 21526 21527 21528 21529 21530 21531 21532 21533 21534 21535 21536 21537 21538 21539 21540 21541 21542 21543 21544 21545 21546 21547 21548 21549 21550 21551 21552 21553 21554 21555 21556 21557 21558 21559 21560 21561 21562 21563 21564 21565 21566 21567 21568 21569 21570 21571 21572 21573 21574 21575 21576 21577 21578 21579 21580 21581 21582 21583 21584 21585 21586 21587 21588 21589 21590 21591 21592 21593 21594 21595 21596 21597 21598 21599 21600 21601 21602 21603 21604 21605 21606 21607 21608 21609 21610 21611 21612 21613 21614 21615 21616 21617 21618 21619 21620 21621 21622 21623 21624 21625 21626 21627 21628 21629 21630 21631 21632 21633 21634 21635 21636 21637 21638 21639 21640 21641 21642 21643 21644 21645 21646 21647 21648 21649 21650 21651 21652 21653 21654 21655 21656 21657 21658 21659 21660 21661 21662 21663 21664 21665 21666 21667 21668 21669 21670 21671 21672 21673 21674 21675 21676 21677 21678 21679 21680 21681 21682 21683 21684 21685 21686 21687 21688 21689 21690 21691 21692 21693 21694 21695 21696 21697 21698 21699 21700 21701 21702 21703 21704 21705 21706 21707 21708 21709 21710 21711 21712 21713 21714 21715 21716 21717 21718 21719 21720 21721 21722 21723 21724 21725 21726 21727 21728 21729 21730 21731 21732 21733 21734 21735 21736 21737 21738 21739 21740 21741 21742 21743 21744 21745 21746 21747 21748 21749 21750 21751 21752 21753 21754 21755 21756 21757 21758 21759 21760 21761 21762 21763 21764 21765 21766 21767 21768 21769 21770 21771 21772 21773 21774 21775 21776 21777 21778 21779 21780 21781 21782 21783 21784 21785 21786 21787 21788 21789 21790 21791 21792 21793 21794 21795 21796 21797 21798 21799 21800 21801 21802 21803 21804 21805 21806 21807 21808 21809 21810 21811 21812 21813 21814 21815 21816 21817 21818 21819 21820 21821 21822 21823 21824 21825 21826 21827 21828 21829 21830 21831 21832 21833 21834 21835 21836 21837 21838 21839 21840 21841 21842 21843 21844 21845 21846 21847 21848 21849 21850 21851 21852 21853 21854 21855 21856 21857 21858 21859 21860 21861 21862 21863 21864 21865 21866 21867 21868 21869 21870 21871 21872 21873 21874 21875 21876 21877 21878 21879 21880 21881 21882 21883 21884 21885 21886 21887 21888 21889 21890 21891 21892 21893 21894 21895 21896 21897 21898 21899 21900 21901 21902 21903 21904 21905 21906 21907 21908 21909 21910 21911 21912 21913 21914 21915 21916 21917 21918 21919 21920 21921 21922 21923 21924 21925 21926 21927 21928 21929 21930 21931 21932 21933 21934 21935 21936 21937 21938 21939 21940 21941 21942 21943 21944 21945 21946 21947 21948 21949 21950 21951 21952 21953 21954 21955 21956 21957 21958 21959 21960 21961 21962 21963 21964 21965 21966 21967 21968 21969 21970 21971 21972 21973 21974 21975 21976 21977 21978 21979 21980 21981 21982 21983 21984 21985 21986 21987 21988 21989 21990 21991 21992 21993 21994 21995 21996 21997 21998 21999 22000 22001 22002 22003 22004 22005 22006 22007 22008 22009 22010 22011 22012 22013 22014 22015 22016 22017 22018 22019 22020 22021 22022 22023 22024 22025 22026 22027 22028 22029 22030 22031 22032 22033 22034 22035 22036 22037 22038 22039 22040 22041 22042 22043 22044 22045 22046 22047 22048 22049 22050 22051 22052 22053 22054 22055 22056 22057 22058 22059 22060 22061 22062 22063 22064 22065 22066 22067 22068 22069 22070 22071 22072 22073 22074 22075 22076 22077 22078 22079 22080 22081 22082 22083 22084 22085 22086 22087 22088 22089 22090 22091 22092 22093 22094 22095 22096 22097 22098 22099 22100 22101 22102 22103 22104 22105 22106 22107 22108 22109 22110 22111 22112 22113 22114 22115 22116 22117 22118 22119 22120 22121 22122 22123 22124 22125 22126 22127 22128 22129 22130 22131 22132 22133 22134 22135 22136 22137 22138 22139 22140 22141 22142 22143 22144 22145 22146 22147 22148 22149 22150 22151 22152 22153 22154 22155 22156 22157 22158 22159 22160 22161 22162 22163 22164 22165 22166 22167 22168 22169 22170 22171 22172 22173 22174 22175 22176 22177 22178 22179 22180 22181 22182 22183 22184 22185 22186 22187 22188 22189 22190 22191 22192 22193 22194 22195 22196 22197 22198 22199 22200 22201 22202 22203 22204 22205 22206 22207 22208 22209 22210 22211 22212 22213 22214 22215 22216 22217 22218 22219 22220 22221 22222 22223 22224 22225 22226 22227 22228 22229 22230 22231 22232 22233 22234 22235 22236 22237 22238 22239 22240 22241 22242 22243 22244 22245 22246 22247 22248 22249 22250 22251 22252 22253 22254 22255 22256 22257 22258 22259 22260 22261 22262 22263 22264 22265 22266 22267 22268 22269 22270 22271 22272 22273 22274 22275 22276 22277 22278 22279 22280 22281 22282 22283 22284 22285 22286 22287 22288 22289 22290 22291 22292 22293 22294 22295 22296 22297 22298 22299 22300 22301 22302 22303 22304 22305 22306 22307 22308 22309 22310 22311 22312 22313 22314 22315 22316 22317 22318 22319 22320 22321 22322 22323 22324 22325 22326 22327 22328 22329 22330 22331 22332 22333 22334 22335 22336 22337 22338 22339 22340 22341 22342 22343 22344 22345 22346 22347 22348 22349 22350 22351 22352 22353 22354 22355 22356 22357 22358 22359 22360 22361 22362 22363 22364 22365 22366 22367 22368 22369 22370 22371 22372 22373 22374 22375 22376 22377 22378 22379 22380 22381 22382 22383 22384 22385 22386 22387 22388 22389 22390 22391 22392 22393 22394 22395 22396 22397 22398 22399 22400 22401 22402 22403 22404 22405 22406 22407 22408 22409 22410 22411 22412 22413 22414 22415 22416 22417 22418 22419 22420 22421 22422 22423 22424 22425 22426 22427 22428 22429 22430 22431 22432 22433 22434 22435 22436 22437 22438 22439 22440 22441 22442 22443 22444 22445 22446 22447 22448 22449 22450 22451 22452 22453 22454 22455 22456 22457 22458 22459 22460 22461 22462 22463 22464 22465 22466 22467 22468 22469 22470 22471 22472 22473 22474 22475 22476 22477 22478 22479 22480 22481 22482 22483 22484 22485 22486 22487 22488 22489 22490 22491 22492 22493 22494 22495 22496 22497 22498 22499 22500 22501 22502 22503 22504 22505 22506 22507 22508 22509 22510 22511 22512 22513 22514 22515 22516 22517 22518 22519 22520 22521 22522 22523 22524 22525 22526 22527 22528 22529 22530 22531 22532 22533 22534 22535 22536 22537 22538 22539 22540 22541 22542 22543 22544 22545 22546 22547 22548 22549 22550 22551 22552 22553 22554 22555 22556 22557 22558 22559 22560 22561 22562 22563 22564 22565 22566 22567 22568 22569 22570 22571 22572 22573 22574 22575 22576 22577 22578 22579 22580 22581 22582 22583 22584 22585 22586 22587 22588 22589 22590 22591 22592 22593 22594 22595 22596 22597 22598 22599 22600 22601 22602 22603 22604 22605 22606 22607 22608 22609 22610 22611 22612 22613 22614 22615 22616 22617 22618 22619 22620 22621 22622 22623 22624 22625 22626 22627 22628 22629 22630 22631 22632 22633 22634 22635 22636 22637 22638 22639 22640 22641 22642 22643 22644 22645 22646 22647 22648 22649 22650 22651 22652 22653 22654 22655 22656 22657 22658 22659 22660 22661 22662 22663 22664 22665 22666 22667 22668 22669 22670 22671 22672 22673 22674 22675 22676 22677 22678 22679 22680 22681 22682 22683 22684 22685 22686 22687 22688 22689 22690 22691 22692 22693 22694 22695 22696 22697 22698 22699 22700 22701 22702 22703 22704 22705 22706 22707 22708 22709 22710 22711 22712 22713 22714 22715 22716 22717 22718 22719 22720 22721 22722 22723 22724 22725 22726 22727 22728 22729 22730 22731 22732 22733 22734 22735 22736 22737 22738 22739 22740 22741 22742 22743 22744 22745 22746 22747 22748 22749 22750 22751 22752 22753 22754 22755 22756 22757 22758 22759 22760 22761 22762 22763 22764 22765 22766 22767 22768 22769 22770 22771 22772 22773 22774 22775 22776 22777 22778 22779 22780 22781 22782 22783 22784 22785 22786 22787 22788 22789 22790 22791 22792 22793 22794 22795 22796 22797 22798 22799 22800 22801 22802 22803 22804 22805 22806 22807 22808 22809 22810 22811 22812 22813 22814 22815 22816 22817 22818 22819 22820 22821 22822 22823 22824 22825 22826 22827 22828 22829 22830 22831 22832 22833 22834 22835 22836 22837 22838 22839 22840 22841 22842 22843 22844 22845 22846 22847 22848 22849 22850 22851 22852 22853 22854 22855 22856 22857 22858 22859 22860 22861 22862 22863 22864 22865 22866 22867 22868 22869 22870 22871 22872 22873 22874 22875 22876 22877 22878 22879 22880 22881 22882 22883 22884 22885 22886 22887 22888 22889 22890 22891 22892 22893 22894 22895 22896 22897 22898 22899 22900 22901 22902 22903 22904 22905 22906 22907 22908 22909 22910 22911 22912 22913 22914 22915 22916 22917 22918 22919 22920 22921 22922 22923 22924 22925 22926 22927 22928 22929 22930 22931 22932 22933 22934 22935 22936 22937 22938 22939 22940 22941 22942 22943 22944 22945 22946 22947 22948 22949 22950 22951 22952 22953 22954 22955 22956 22957 22958 22959 22960 22961 22962 22963 22964 22965 22966 22967 22968 22969 22970 22971 22972 22973 22974 22975 22976 22977 22978 22979 22980 22981 22982 22983 22984 22985 22986 22987 22988 22989 22990 22991 22992 22993 22994 22995 22996 22997 22998 22999 23000 23001 23002 23003 23004 23005 23006 23007 23008 23009 23010 23011 23012 23013 23014 23015 23016 23017 23018 23019 23020 23021 23022 23023 23024 23025 23026 23027 23028 23029 23030 23031 23032 23033 23034 23035 23036 23037 23038 23039 23040 23041 23042 23043 23044 23045 23046 23047 23048 23049 23050 23051 23052 23053 23054 23055 23056 23057 23058 23059 23060 23061 23062 23063 23064 23065 23066 23067 23068 23069 23070 23071 23072 23073 23074 23075 23076 23077 23078 23079 23080 23081 23082 23083 23084 23085 23086 23087 23088 23089 23090 23091 23092 23093 23094 23095 23096 23097 23098 23099 23100 23101 23102 23103 23104 23105 23106 23107 23108 23109 23110 23111 23112 23113 23114 23115 23116 23117 23118 23119 23120 23121 23122 23123 23124 23125 23126 23127 23128 23129 23130 23131 23132 23133 23134 23135 23136 23137 23138 23139 23140 23141 23142 23143 23144 23145 23146 23147 23148 23149 23150 23151 23152 23153 23154 23155 23156 23157 23158 23159 23160 23161 23162 23163 23164 23165 23166 23167 23168 23169 23170 23171 23172 23173 23174 23175 23176 23177 23178 23179 23180 23181 23182 23183 23184 23185 23186 23187 23188 23189 23190 23191 23192 23193 23194 23195 23196 23197 23198 23199 23200 23201 23202 23203 23204 23205 23206 23207 23208 23209 23210 23211 23212 23213 23214 23215 23216 23217 23218 23219 23220 23221 23222 23223 23224 23225 23226 23227 23228 23229 23230 23231 23232 23233 23234 23235 23236 23237 23238 23239 23240 23241 23242 23243 23244 23245 23246 23247 23248 23249 23250 23251 23252 23253 23254 23255 23256 23257 23258 23259 23260 23261 23262 23263 23264 23265 23266 23267 23268 23269 23270 23271 23272 23273 23274 23275 23276 23277 23278 23279 23280 23281 23282 23283 23284 23285 23286 23287 23288 23289 23290 23291 23292 23293 23294 23295 23296 23297 23298 23299 23300 23301 23302 23303 23304 23305 23306 23307 23308 23309 23310 23311 23312 23313 23314 23315 23316 23317 23318 23319 23320 23321 23322 23323 23324 23325 23326 23327 23328 23329 23330 23331 23332 23333 23334 23335 23336 23337 23338 23339 23340 23341 23342 23343 23344 23345 23346 23347 23348 23349 23350 23351 23352 23353 23354 23355 23356 23357 23358 23359 23360 23361 23362 23363 23364 23365 23366 23367 23368 23369 23370 23371 23372 23373 23374 23375 23376 23377 23378 23379 23380 23381 23382 23383 23384 23385 23386 23387 23388 23389 23390 23391 23392 23393 23394 23395 23396 23397 23398 23399 23400 23401 23402 23403 23404 23405 23406 23407 23408 23409 23410 23411 23412 23413 23414 23415 23416 23417 23418 23419 23420 23421 23422 23423 23424 23425 23426 23427 23428 23429 23430 23431 23432 23433 23434 23435 23436 23437 23438 23439 23440 23441 23442 23443 23444 23445 23446 23447 23448 23449 23450 23451 23452 23453 23454 23455 23456 23457 23458 23459 23460 23461 23462 23463 23464 23465 23466 23467 23468 23469 23470 23471 23472 23473 23474 23475 23476 23477 23478 23479 23480 23481 23482 23483 23484 23485 23486 23487 23488 23489 23490 23491 23492 23493 23494 23495 23496 23497 23498 23499 23500 23501 23502 23503 23504 23505 23506 23507 23508 23509 23510 23511 23512 23513 23514 23515 23516 23517 23518 23519 23520 23521 23522 23523 23524 23525 23526 23527 23528 23529 23530 23531 23532 23533 23534 23535 23536 23537 23538 23539 23540 23541 23542 23543 23544 23545 23546 23547 23548 23549 23550 23551 23552 23553 23554 23555 23556 23557 23558 23559 23560 23561 23562 23563 23564 23565 23566 23567 23568 23569 23570 23571 23572 23573 23574 23575 23576 23577 23578 23579 23580 23581 23582 23583 23584 23585 23586 23587 23588 23589 23590 23591 23592 23593 23594 23595 23596 23597 23598 23599 23600 23601 23602 23603 23604 23605 23606 23607 23608 23609 23610 23611 23612 23613 23614 23615 23616 23617 23618 23619 23620 23621 23622 23623 23624 23625 23626 23627 23628 23629 23630 23631 23632 23633 23634 23635 23636 23637 23638 23639 23640 23641 23642 23643 23644 23645 23646 23647 23648 23649 23650 23651 23652 23653 23654 23655 23656 23657 23658 23659 23660 23661 23662 23663 23664 23665 23666 23667 23668 23669 23670 23671 23672 23673 23674 23675 23676 23677 23678 23679 23680 23681 23682 23683 23684 23685 23686 23687 23688 23689 23690 23691 23692 23693 23694 23695 23696 23697 23698 23699 23700 23701 23702 23703 23704 23705 23706 23707 23708 23709 23710 23711 23712 23713 23714 23715 23716 23717 23718 23719 23720 23721 23722 23723 23724 23725 23726 23727 23728 23729 23730 23731 23732 23733 23734 23735 23736 23737 23738 23739 23740 23741 23742 23743 23744 23745 23746 23747 23748 23749 23750 23751 23752 23753 23754 23755 23756 23757 23758 23759 23760 23761 23762 23763 23764 23765 23766 23767 23768 23769 23770 23771 23772 23773 23774 23775 23776 23777 23778 23779 23780 23781 23782 23783 23784 23785 23786 23787 23788 23789 23790 23791 23792 23793 23794 23795 23796 23797 23798 23799 23800 23801 23802 23803 23804 23805 23806 23807 23808 23809 23810 23811 23812 23813 23814 23815 23816 23817 23818 23819 23820 23821 23822 23823 23824 23825 23826 23827 23828 23829 23830 23831 23832 23833 23834 23835 23836 23837 23838 23839 23840 23841 23842 23843 23844 23845 23846 23847 23848 23849 23850 23851 23852 23853 23854 23855 23856 23857 23858 23859 23860 23861 23862 23863 23864 23865 23866 23867 23868 23869 23870 23871 23872 23873 23874 23875 23876 23877 23878 23879 23880 23881 23882 23883 23884 23885 23886 23887 23888 23889 23890 23891 23892 23893 23894 23895 23896 23897 23898 23899 23900 23901 23902 23903 23904 23905 23906 23907 23908 23909 23910 23911 23912 23913 23914 23915 23916 23917 23918 23919 23920 23921 23922 23923 23924 23925 23926 23927 23928 23929 23930 23931 23932 23933 23934 23935 23936 23937 23938 23939 23940 23941 23942 23943 23944 23945 23946 23947 23948 23949 23950 23951 23952 23953 23954 23955 23956 23957 23958 23959 23960 23961 23962 23963 23964 23965 23966 23967 23968 23969 23970 23971 23972 23973 23974 23975 23976 23977 23978 23979 23980 23981 23982 23983 23984 23985 23986 23987 23988 23989 23990 23991 23992 23993 23994 23995 23996 23997 23998 23999 24000 24001 24002 24003 24004 24005 24006 24007 24008 24009 24010 24011 24012 24013 24014 24015 24016 24017 24018 24019 24020 24021 24022 24023 24024 24025 24026 24027 24028 24029 24030 24031 24032 24033 24034 24035 24036 24037 24038 24039 24040 24041 24042 24043 24044 24045 24046 24047 24048 24049 24050 24051 24052 24053 24054 24055 24056 24057 24058 24059 24060 24061 24062 24063 24064 24065 24066 24067 24068 24069 24070 24071 24072 24073 24074 24075 24076 24077 24078 24079 24080 24081 24082 24083 24084 24085 24086 24087 24088 24089 24090 24091 24092 24093 24094 24095 24096 24097 24098 24099 24100 24101 24102 24103 24104 24105 24106 24107 24108 24109 24110 24111 24112 24113 24114 24115 24116 24117 24118 24119 24120 24121 24122 24123 24124 24125 24126 24127 24128 24129 24130 24131 24132 24133 24134 24135 24136 24137 24138 24139 24140 24141 24142 24143 24144 24145 24146 24147 24148 24149 24150 24151 24152 24153 24154 24155 24156 24157 24158 24159 24160 24161 24162 24163 24164 24165 24166 24167 24168 24169 24170 24171 24172 24173 24174 24175 24176 24177 24178 24179 24180 24181 24182 24183 24184 24185 24186 24187 24188 24189 24190 24191 24192 24193 24194 24195 24196 24197 24198 24199 24200 24201 24202 24203 24204 24205 24206 24207 24208 24209 24210 24211 24212 24213 24214 24215 24216 24217 24218 24219 24220 24221 24222 24223 24224 24225 24226 24227 24228 24229 24230 24231 24232 24233 24234 24235 24236 24237 24238 24239 24240 24241 24242 24243 24244 24245 24246 24247 24248 24249 24250 24251 24252 24253 24254 24255 24256 24257 24258 24259 24260 24261 24262 24263 24264 24265 24266 24267 24268 24269 24270 24271 24272 24273 24274 24275 24276 24277 24278 24279 24280 24281 24282 24283 24284 24285 24286 24287 24288 24289 24290 24291 24292 24293 24294 24295 24296 24297 24298 24299 24300 24301 24302 24303 24304 24305 24306 24307 24308 24309 24310 24311 24312 24313 24314 24315 24316 24317 24318 24319 24320 24321 24322 24323 24324 24325 24326 24327 24328 24329 24330 24331 24332 24333 24334 24335 24336 24337 24338 24339 24340 24341 24342 24343 24344 24345 24346 24347 24348 24349 24350 24351 24352 24353 24354 24355 24356 24357 24358 24359 24360 24361 24362 24363 24364 24365 24366 24367 24368 24369 24370 24371 24372 24373 24374 24375 24376 24377 24378 24379 24380 24381 24382 24383 24384 24385 24386 24387 24388 24389 24390 24391 24392 24393 24394 24395 24396 24397 24398 24399 24400 24401 24402 24403 24404 24405 24406 24407 24408 24409 24410 24411 24412 24413 24414 24415 24416 24417 24418 24419 24420 24421 24422 24423 24424 24425 24426 24427 24428 24429 24430 24431 24432 24433 24434 24435 24436 24437 24438 24439 24440 24441 24442 24443 24444 24445 24446 24447 24448 24449 24450 24451 24452 24453 24454 24455 24456 24457 24458 24459 24460 24461 24462 24463 24464 24465 24466 24467 24468 24469 24470 24471 24472 24473 24474 24475 24476 24477 24478 24479 24480 24481 24482 24483 24484 24485 24486 24487 24488 24489 24490 24491 24492 24493 24494 24495 24496 24497 24498 24499 24500 24501 24502 24503 24504 24505 24506 24507 24508 24509 24510 24511 24512 24513 24514 24515 24516 24517 24518 24519 24520 24521 24522 24523 24524 24525 24526 24527 24528 24529 24530 24531 24532 24533 24534 24535 24536 24537 24538 24539 24540 24541 24542 24543 24544 24545 24546 24547 24548 24549 24550 24551 24552 24553 24554 24555 24556 24557 24558 24559 24560 24561 24562 24563 24564 24565 24566 24567 24568 24569 24570 24571 24572 24573 24574 24575 24576 24577 24578 24579 24580 24581 24582 24583 24584 24585 24586 24587 24588 24589 24590 24591 24592 24593 24594 24595 24596 24597 24598 24599 24600 24601 24602 24603 24604 24605 24606 24607 24608 24609 24610 24611 24612 24613 24614 24615 24616 24617 24618 24619 24620 24621 24622 24623 24624 24625 24626 24627 24628 24629 24630 24631 24632 24633 24634 24635 24636 24637 24638 24639 24640 24641 24642 24643 24644 24645 24646 24647 24648 24649 24650 24651 24652 24653 24654 24655 24656 24657 24658 24659 24660 24661 24662 24663 24664 24665 24666 24667 24668 24669 24670 24671 24672 24673 24674 24675 24676 24677 24678 24679 24680 24681 24682 24683 24684 24685 24686 24687 24688 24689 24690 24691 24692 24693 24694 24695 24696 24697 24698 24699 24700 24701 24702 24703 24704 24705 24706 24707 24708 24709 24710 24711 24712 24713 24714 24715 24716 24717 24718 24719 24720 24721 24722 24723 24724 24725 24726 24727 24728 24729 24730 24731 24732 24733 24734 24735 24736 24737 24738 24739 24740 24741 24742 24743 24744 24745 24746 24747 24748 24749 24750 24751 24752 24753 24754 24755 24756 24757 24758 24759 24760 24761 24762 24763 24764 24765 24766 24767 24768 24769 24770 24771 24772 24773 24774 24775 24776 24777 24778 24779 24780 24781 24782 24783 24784 24785 24786 24787 24788 24789 24790 24791 24792 24793 24794 24795 24796 24797 24798 24799 24800 24801 24802 24803 24804 24805 24806 24807 24808 24809 24810 24811 24812 24813 24814 24815 24816 24817 24818 24819 24820 24821 24822 24823 24824 24825 24826 24827 24828 24829 24830 24831 24832 24833 24834 24835 24836 24837 24838 24839 24840 24841 24842 24843 24844 24845 24846 24847 24848 24849 24850 24851 24852 24853 24854 24855 24856 24857 24858 24859 24860 24861 24862 24863 24864 24865 24866 24867 24868 24869 24870 24871 24872 24873 24874 24875 24876 24877 24878 24879 24880 24881 24882 24883 24884 24885 24886 24887 24888 24889 24890 24891 24892 24893 24894 24895 24896 24897 24898 24899 24900 24901 24902 24903 24904 24905 24906 24907 24908 24909 24910 24911 24912 24913 24914 24915 24916 24917 24918 24919 24920 24921 24922 24923 24924 24925 24926 24927 24928 24929 24930 24931 24932 24933 24934 24935 24936 24937 24938 24939 24940 24941 24942 24943 24944 24945 24946 24947 24948 24949 24950 24951 24952 24953 24954 24955 24956 24957 24958 24959 24960 24961 24962 24963 24964 24965 24966 24967 24968 24969 24970 24971 24972 24973 24974 24975 24976 24977 24978 24979 24980 24981 24982 24983 24984 24985 24986 24987 24988 24989 24990 24991 24992 24993 24994 24995 24996 24997 24998 24999 25000 25001 25002 25003 25004 25005 25006 25007 25008 25009 25010 25011 25012 25013 25014 25015 25016 25017 25018 25019 25020 25021 25022 25023 25024 25025 25026 25027 25028 25029 25030 25031 25032 25033 25034 25035 25036 25037 25038 25039 25040 25041 25042 25043 25044 25045 25046 25047 25048 25049 25050 25051 25052 25053 25054 25055 25056 25057 25058 25059 25060 25061 25062 25063 25064 25065 25066 25067 25068 25069 25070 25071 25072 25073 25074 25075 25076 25077 25078 25079 25080 25081 25082 25083 25084 25085 25086 25087 25088 25089 25090 25091 25092 25093 25094 25095 25096 25097 25098 25099 25100 25101 25102 25103 25104 25105 25106 25107 25108 25109 25110 25111 25112 25113 25114 25115 25116 25117 25118 25119 25120 25121 25122 25123 25124 25125 25126 25127 25128 25129 25130 25131 25132 25133 25134 25135 25136 25137 25138 25139 25140 25141 25142 25143 25144 25145 25146 25147 25148 25149 25150 25151 25152 25153 25154 25155 25156 25157 25158 25159 25160 25161 25162 25163 25164 25165 25166 25167 25168 25169 25170 25171 25172 25173 25174 25175 25176 25177 25178 25179 25180 25181 25182 25183 25184 25185 25186 25187 25188 25189 25190 25191 25192 25193 25194 25195 25196 25197 25198 25199 25200 25201 25202 25203 25204 25205 25206 25207 25208 25209 25210 25211 25212 25213 25214 25215 25216 25217 25218 25219 25220 25221 25222 25223 25224 25225 25226 25227 25228 25229 25230 25231 25232 25233 25234 25235 25236 25237 25238 25239 25240 25241 25242 25243 25244 25245 25246 25247 25248 25249 25250 25251 25252 25253 25254 25255 25256 25257 25258 25259 25260 25261 25262 25263 25264 25265 25266 25267 25268 25269 25270 25271 25272 25273 25274 25275 25276 25277 25278 25279 25280 25281 25282 25283 25284 25285 25286 25287 25288 25289 25290 25291 25292 25293 25294 25295 25296 25297 25298 25299 25300 25301 25302 25303 25304 25305 25306 25307 25308 25309 25310 25311 25312 25313 25314 25315 25316 25317 25318 25319 25320 25321 25322 25323 25324 25325 25326 25327 25328 25329 25330 25331 25332 25333 25334 25335 25336 25337 25338 25339 25340 25341 25342 25343 25344 25345 25346 25347 25348 25349 25350 25351 25352 25353 25354 25355 25356 25357 25358 25359 25360 25361 25362 25363 25364 25365 25366 25367 25368 25369 25370 25371 25372 25373 25374 25375 25376 25377 25378 25379 25380 25381 25382 25383 25384 25385 25386 25387 25388 25389 25390 25391 25392 25393 25394 25395 25396 25397 25398 25399 25400 25401 25402 25403 25404 25405 25406 25407 25408 25409 25410 25411 25412 25413 25414 25415 25416 25417 25418 25419 25420 25421 25422 25423 25424 25425 25426 25427 25428 25429 25430 25431 25432 25433 25434 25435 25436 25437 25438 25439 25440 25441 25442 25443 25444 25445 25446 25447 25448 25449 25450 25451 25452 25453 25454 25455 25456 25457 25458 25459 25460 25461 25462 25463 25464 25465 25466 25467 25468 25469 25470 25471 25472 25473 25474 25475 25476 25477 25478 25479 25480 25481 25482 25483 25484 25485 25486 25487 25488 25489 25490 25491 25492 25493 25494 25495 25496 25497 25498 25499 25500 25501 25502 25503 25504 25505 25506 25507 25508 25509 25510 25511 25512 25513 25514 25515 25516 25517 25518 25519 25520 25521 25522 25523 25524 25525 25526 25527 25528 25529 25530 25531 25532 25533 25534 25535 25536 25537 25538 25539 25540 25541 25542 25543 25544 25545 25546 25547 25548 25549 25550 25551 25552 25553 25554 25555 25556 25557 25558 25559 25560 25561 25562 25563 25564 25565 25566 25567 25568 25569 25570 25571 25572 25573 25574 25575 25576 25577 25578 25579 25580 25581 25582 25583 25584 25585 25586 25587 25588 25589 25590 25591 25592 25593 25594 25595 25596 25597 25598 25599 25600 25601 25602 25603 25604 25605 25606 25607 25608 25609 25610 25611 25612 25613 25614 25615 25616 25617 25618 25619 25620 25621 25622 25623 25624 25625 25626 25627 25628 25629 25630 25631 25632 25633 25634 25635 25636 25637 25638 25639 25640 25641 25642 25643 25644 25645 25646 25647 25648 25649 25650 25651 25652 25653 25654 25655 25656 25657 25658 25659 25660 25661 25662 25663 25664 25665 25666 25667 25668 25669 25670 25671 25672 25673 25674 25675 25676 25677 25678 25679 25680 25681 25682 25683 25684 25685 25686 25687 25688 25689 25690 25691 25692 25693 25694 25695 25696 25697 25698 25699 25700 25701 25702 25703 25704 25705 25706 25707 25708 25709 25710 25711 25712 25713 25714 25715 25716 25717 25718 25719 25720 25721 25722 25723 25724 25725 25726 25727 25728 25729 25730 25731 25732 25733 25734 25735 25736 25737 25738 25739 25740 25741 25742 25743 25744 25745 25746 25747 25748 25749 25750 25751 25752 25753 25754 25755 25756 25757 25758 25759 25760 25761 25762 25763 25764 25765 25766 25767 25768 25769 25770 25771 25772 25773 25774 25775 25776 25777 25778 25779 25780 25781 25782 25783 25784 25785 25786 25787 25788 25789 25790 25791 25792 25793 25794 25795 25796 25797 25798 25799 25800 25801 25802 25803 25804 25805 25806 25807 25808 25809 25810 25811 25812 25813 25814 25815 25816 25817 25818 25819 25820 25821 25822 25823 25824 25825 25826 25827 25828 25829 25830 25831 25832 25833 25834 25835 25836 25837 25838 25839 25840 25841 25842 25843 25844 25845 25846 25847 25848 25849 25850 25851 25852 25853 25854 25855 25856 25857 25858 25859 25860 25861 25862 25863 25864 25865 25866 25867 25868 25869 25870 25871 25872 25873 25874 25875 25876 25877 25878 25879 25880 25881 25882 25883 25884 25885 25886 25887 25888 25889 25890 25891 25892 25893 25894 25895 25896 25897 25898 25899 25900 25901 25902 25903 25904 25905 25906 25907 25908 25909 25910 25911 25912 25913 25914 25915 25916 25917 25918 25919 25920 25921 25922 25923 25924 25925 25926 25927 25928 25929 25930 25931 25932 25933 25934 25935 25936 25937 25938 25939 25940 25941 25942 25943 25944 25945 25946 25947 25948 25949 25950 25951 25952 25953 25954 25955 25956 25957 25958 25959 25960 25961 25962 25963 25964 25965 25966 25967 25968 25969 25970 25971 25972 25973 25974 25975 25976 25977 25978 25979 25980 25981 25982 25983 25984 25985 25986 25987 25988 25989 25990 25991 25992 25993 25994 25995 25996 25997 25998 25999 26000 26001 26002 26003 26004 26005 26006 26007 26008 26009 26010 26011 26012 26013 26014 26015 26016 26017 26018 26019 26020 26021 26022 26023 26024 26025 26026 26027 26028 26029 26030 26031 26032 26033 26034 26035 26036 26037 26038 26039 26040 26041 26042 26043 26044 26045 26046 26047 26048 26049 26050 26051 26052 26053 26054 26055 26056 26057 26058 26059 26060 26061 26062 26063 26064 26065 26066 26067 26068 26069 26070 26071 26072 26073 26074 26075 26076 26077 26078 26079 26080 26081 26082 26083 26084 26085 26086 26087 26088 26089 26090 26091 26092 26093 26094 26095 26096 26097 26098 26099 26100 26101 26102 26103 26104 26105 26106 26107 26108 26109 26110 26111 26112 26113 26114 26115 26116 26117 26118 26119 26120 26121 26122 26123 26124 26125 26126 26127 26128 26129 26130 26131 26132 26133 26134 26135 26136 26137 26138 26139 26140 26141 26142 26143 26144 26145 26146 26147 26148 26149 26150 26151 26152 26153 26154 26155 26156 26157 26158 26159 26160 26161 26162 26163 26164 26165 26166 26167 26168 26169 26170 26171 26172 26173 26174 26175 26176 26177 26178 26179 26180 26181 26182 26183 26184 26185 26186 26187 26188 26189 26190 26191 26192 26193 26194 26195 26196 26197 26198 26199 26200 26201 26202 26203 26204 26205 26206 26207 26208 26209 26210 26211 26212 26213 26214 26215 26216 26217 26218 26219 26220 26221 26222 26223 26224 26225 26226 26227 26228 26229 26230 26231 26232 26233 26234 26235 26236 26237 26238 26239 26240 26241 26242 26243 26244 26245 26246 26247 26248 26249 26250 26251 26252 26253 26254 26255 26256 26257 26258 26259 26260 26261 26262 26263 26264 26265 26266 26267 26268 26269 26270 26271 26272 26273 26274 26275 26276 26277 26278 26279 26280 26281 26282 26283 26284 26285 26286 26287 26288 26289 26290 26291 26292 26293 26294 26295 26296 26297 26298 26299 26300 26301 26302 26303 26304 26305 26306 26307 26308 26309 26310 26311 26312 26313 26314 26315 26316 26317 26318 26319 26320 26321 26322 26323 26324 26325 26326 26327 26328 26329 26330 26331 26332 26333 26334 26335 26336 26337 26338 26339 26340 26341 26342 26343 26344 26345 26346 26347 26348 26349 26350 26351 26352 26353 26354 26355 26356 26357 26358 26359 26360 26361 26362 26363 26364 26365 26366 26367 26368 26369 26370 26371 26372 26373 26374 26375 26376 26377 26378 26379 26380 26381 26382 26383 26384 26385 26386 26387 26388 26389 26390 26391 26392 26393 26394 26395 26396 26397 26398 26399 26400 26401 26402 26403 26404 26405 26406 26407 26408 26409 26410 26411 26412 26413 26414 26415 26416 26417 26418 26419 26420 26421 26422 26423 26424 26425 26426 26427 26428 26429 26430 26431 26432 26433 26434 26435 26436 26437 26438 26439 26440 26441 26442 26443 26444 26445 26446 26447 26448 26449 26450 26451 26452 26453 26454 26455 26456 26457 26458 26459 26460 26461 26462 26463 26464 26465 26466 26467 26468 26469 26470 26471 26472 26473 26474 26475 26476 26477 26478 26479 26480 26481 26482 26483 26484 26485 26486 26487 26488 26489 26490 26491 26492 26493 26494 26495 26496 26497 26498 26499 26500 26501 26502 26503 26504 26505 26506 26507 26508 26509 26510 26511 26512 26513 26514 26515 26516 26517 26518 26519 26520 26521 26522 26523 26524 26525 26526 26527 26528 26529 26530 26531 26532 26533 26534 26535 26536 26537 26538 26539 26540 26541 26542 26543 26544 26545 26546 26547 26548 26549 26550 26551 26552 26553 26554 26555 26556 26557 26558 26559 26560 26561 26562 26563 26564 26565 26566 26567 26568 26569 26570 26571 26572 26573 26574 26575 26576 26577 26578 26579 26580 26581 26582 26583 26584 26585 26586 26587 26588 26589 26590 26591 26592 26593 26594 26595 26596 26597 26598 26599 26600 26601 26602 26603 26604 26605 26606 26607 26608 26609 26610 26611 26612 26613 26614 26615 26616 26617 26618 26619 26620 26621 26622 26623 26624 26625 26626 26627 26628 26629 26630 26631 26632 26633 26634 26635 26636 26637 26638 26639 26640 26641 26642 26643 26644 26645 26646 26647 26648 26649 26650 26651 26652 26653 26654 26655 26656 26657 26658 26659 26660 26661 26662 26663 26664 26665 26666 26667 26668 26669 26670 26671 26672 26673 26674 26675 26676 26677 26678 26679 26680 26681 26682 26683 26684 26685 26686 26687 26688 26689 26690 26691 26692 26693 26694 26695 26696 26697 26698 26699 26700 26701 26702 26703 26704 26705 26706 26707 26708 26709 26710 26711 26712 26713 26714 26715 26716 26717 26718 26719 26720 26721 26722 26723 26724 26725 26726 26727 26728 26729 26730 26731 26732 26733 26734 26735 26736 26737 26738 26739 26740 26741 26742 26743 26744 26745 26746 26747 26748 26749 26750 26751 26752 26753 26754 26755 26756 26757 26758 26759 26760 26761 26762 26763 26764 26765 26766 26767 26768 26769 26770 26771 26772 26773 26774 26775 26776 26777 26778 26779 26780 26781 26782 26783 26784 26785 26786 26787 26788 26789 26790 26791 26792 26793 26794 26795 26796 26797 26798 26799 26800 26801 26802 26803 26804 26805 26806 26807 26808 26809 26810 26811 26812 26813 26814 26815 26816 26817 26818 26819 26820 26821 26822 26823 26824 26825 26826 26827 26828 26829 26830 26831 26832 26833 26834 26835 26836 26837 26838 26839 26840 26841 26842 26843 26844 26845 26846 26847 26848 26849 26850 26851 26852 26853 26854 26855 26856 26857 26858 26859 26860 26861 26862 26863 26864 26865 26866 26867 26868 26869 26870 26871 26872 26873 26874 26875 26876 26877 26878 26879 26880 26881 26882 26883 26884 26885 26886 26887 26888 26889 26890 26891 26892 26893 26894 26895 26896 26897 26898 26899 26900 26901 26902 26903 26904 26905 26906 26907 26908 26909 26910 26911 26912 26913 26914 26915 26916 26917 26918 26919 26920 26921 26922 26923 26924 26925 26926 26927 26928 26929 26930 26931 26932 26933 26934 26935 26936 26937 26938 26939 26940 26941 26942 26943 26944 26945 26946 26947 26948 26949 26950 26951 26952 26953 26954 26955 26956 26957 26958 26959 26960 26961 26962 26963 26964 26965 26966 26967 26968 26969 26970 26971 26972 26973 26974 26975 26976 26977 26978 26979 26980 26981 26982 26983 26984 26985 26986 26987 26988 26989 26990 26991 26992 26993 26994 26995 26996 26997 26998 26999 27000 27001 27002 27003 27004 27005 27006 27007 27008 27009 27010 27011 27012 27013 27014 27015 27016 27017 27018 27019 27020 27021 27022 27023 27024 27025 27026 27027 27028 27029 27030 27031 27032 27033 27034 27035 27036 27037 27038 27039 27040 27041 27042 27043 27044 27045 27046 27047 27048 27049 27050 27051 27052 27053 27054 27055 27056 27057 27058 27059 27060 27061 27062 27063 27064 27065 27066 27067 27068 27069 27070 27071 27072 27073 27074 27075 27076 27077 27078 27079 27080 27081 27082 27083 27084 27085 27086 27087 27088 27089 27090 27091 27092 27093 27094 27095 27096 27097 27098 27099 27100 27101 27102 27103 27104 27105 27106 27107 27108 27109 27110 27111 27112 27113 27114 27115 27116 27117 27118 27119 27120 27121 27122 27123 27124 27125 27126 27127 27128 27129 27130 27131 27132 27133 27134 27135 27136 27137 27138 27139 27140 27141 27142 27143 27144 27145 27146 27147 27148 27149 27150 27151 27152 27153 27154 27155 27156 27157 27158 27159 27160 27161 27162 27163 27164 27165 27166 27167 27168 27169 27170 27171 27172 27173 27174 27175 27176 27177 27178 27179 27180 27181 27182 27183 27184 27185 27186 27187 27188 27189 27190 27191 27192 27193 27194 27195 27196 27197 27198 27199 27200 27201 27202 27203 27204 27205 27206 27207 27208 27209 27210 27211 27212 27213 27214 27215 27216 27217 27218 27219 27220 27221 27222 27223 27224 27225 27226 27227 27228 27229 27230 27231 27232 27233 27234 27235 27236 27237 27238 27239 27240 27241 27242 27243 27244 27245 27246 27247 27248 27249 27250 27251 27252 27253 27254 27255 27256 27257 27258 27259 27260 27261 27262 27263 27264 27265 27266 27267 27268 27269 27270 27271 27272 27273 27274 27275 27276 27277 27278 27279 27280 27281 27282 27283 27284 27285 27286 27287 27288 27289 27290 27291 27292 27293 27294 27295 27296 27297 27298 27299 27300 27301 27302 27303 27304 27305 27306 27307 27308 27309 27310 27311 27312 27313 27314 27315 27316 27317 27318 27319 27320 27321 27322 27323 27324 27325 27326 27327 27328 27329 27330 27331 27332 27333 27334 27335 27336 27337 27338 27339 27340 27341 27342 27343 27344 27345 27346 27347 27348 27349 27350 27351 27352 27353 27354 27355 27356 27357 27358 27359 27360 27361 27362 27363 27364 27365 27366 27367 27368 27369 27370 27371 27372 27373 27374 27375 27376 27377 27378 27379 27380 27381 27382 27383 27384 27385 27386 27387 27388 27389 27390 27391 27392 27393 27394 27395 27396 27397 27398 27399 27400 27401 27402 27403 27404 27405 27406 27407 27408 27409 27410 27411 27412 27413 27414 27415 27416 27417 27418 27419 27420 27421 27422 27423 27424 27425 27426 27427 27428 27429 27430 27431 27432 27433 27434 27435 27436 27437 27438 27439 27440 27441 27442 27443 27444 27445 27446 27447 27448 27449 27450 27451 27452 27453 27454 27455 27456 27457 27458 27459 27460 27461 27462 27463 27464 27465 27466 27467 27468 27469 27470 27471 27472 27473 27474 27475 27476 27477 27478 27479 27480 27481 27482 27483 27484 27485 27486 27487 27488 27489 27490 27491 27492 27493 27494 27495 27496 27497 27498 27499 27500 27501 27502 27503 27504 27505 27506 27507 27508 27509 27510 27511 27512 27513 27514 27515 27516 27517 27518 27519 27520 27521 27522 27523 27524 27525 27526 27527 27528 27529 27530 27531 27532 27533 27534 27535 27536 27537 27538 27539 27540 27541 27542 27543 27544 27545 27546 27547 27548 27549 27550 27551 27552 27553 27554 27555 27556 27557 27558 27559 27560 27561 27562 27563 27564 27565 27566 27567 27568 27569 27570 27571 27572 27573 27574 27575 27576 27577 27578 27579 27580 27581 27582 27583 27584 27585 27586 27587 27588 27589 27590 27591 27592 27593 27594 27595 27596 27597 27598 27599 27600 27601 27602 27603 27604 27605 27606 27607 27608 27609 27610 27611 27612 27613 27614 27615 27616 27617 27618 27619 27620 27621 27622 27623 27624 27625 27626 27627 27628 27629 27630 27631 27632 27633 27634 27635 27636 27637 27638 27639 27640 27641 27642 27643 27644 27645 27646 27647 27648 27649 27650 27651 27652 27653 27654 27655 27656 27657 27658 27659 27660 27661 27662 27663 27664 27665 27666 27667 27668 27669 27670 27671 27672 27673 27674 27675 27676 27677 27678 27679 27680 27681 27682 27683 27684 27685 27686 27687 27688 27689 27690 27691 27692 27693 27694 27695 27696 27697 27698 27699 27700 27701 27702 27703 27704 27705 27706 27707 27708 27709 27710 27711 27712 27713 27714 27715 27716 27717 27718 27719 27720 27721 27722 27723 27724 27725 27726 27727 27728 27729 27730 27731 27732 27733 27734 27735 27736 27737 27738 27739 27740 27741 27742 27743 27744 27745 27746 27747 27748 27749 27750 27751 27752 27753 27754 27755 27756 27757 27758 27759 27760 27761 27762 27763 27764 27765 27766 27767 27768 27769 27770 27771 27772 27773 27774 27775 27776 27777 27778 27779 27780 27781 27782 27783 27784 27785 27786 27787 27788 27789 27790 27791 27792 27793 27794 27795 27796 27797 27798 27799 27800 27801 27802 27803 27804 27805 27806 27807 27808 27809 27810 27811 27812 27813 27814 27815 27816 27817 27818 27819 27820 27821 27822 27823 27824 27825 27826 27827 27828 27829 27830 27831 27832 27833 27834 27835 27836 27837 27838 27839 27840 27841 27842 27843 27844 27845 27846 27847 27848 27849 27850 27851 27852 27853 27854 27855 27856 27857 27858 27859 27860 27861 27862 27863 27864 27865 27866 27867 27868 27869 27870 27871 27872 27873 27874 27875 27876 27877 27878 27879 27880 27881 27882 27883 27884 27885 27886 27887 27888 27889 27890 27891 27892 27893 27894 27895 27896 27897 27898 27899 27900 27901 27902 27903 27904 27905 27906 27907 27908 27909 27910 27911 27912 27913 27914 27915 27916 27917 27918 27919 27920 27921 27922 27923 27924 27925 27926 27927 27928 27929 27930 27931 27932 27933 27934 27935 27936 27937 27938 27939 27940 27941 27942 27943 27944 27945 27946 27947 27948 27949 27950 27951 27952 27953 27954 27955 27956 27957 27958 27959 27960 27961 27962 27963 27964 27965 27966 27967 27968 27969 27970 27971 27972 27973 27974 27975 27976 27977 27978 27979 27980 27981 27982 27983 27984 27985 27986 27987 27988 27989 27990 27991 27992 27993 27994 27995 27996 27997 27998 27999 28000 28001 28002 28003 28004 28005 28006 28007 28008 28009 28010 28011 28012 28013 28014 28015 28016 28017 28018 28019 28020 28021 28022 28023 28024 28025 28026 28027 28028 28029 28030 28031 28032 28033 28034 28035 28036 28037 28038 28039 28040 28041 28042 28043 28044 28045 28046 28047 28048 28049 28050 28051 28052 28053 28054 28055 28056 28057 28058 28059 28060 28061 28062 28063 28064 28065 28066 28067 28068 28069 28070 28071 28072 28073 28074 28075 28076 28077 28078 28079 28080 28081 28082 28083 28084 28085 28086 28087 28088 28089 28090 28091 28092 28093 28094 28095 28096 28097 28098 28099 28100 28101 28102 28103 28104 28105 28106 28107 28108 28109 28110 28111 28112 28113 28114 28115 28116 28117 28118 28119 28120 28121 28122 28123 28124 28125 28126 28127 28128 28129 28130 28131 28132 28133 28134 28135 28136 28137 28138 28139 28140 28141 28142 28143 28144 28145 28146 28147 28148 28149 28150 28151 28152 28153 28154 28155 28156 28157 28158 28159 28160 28161 28162 28163 28164 28165 28166 28167 28168 28169 28170 28171 28172 28173 28174 28175 28176 28177 28178 28179 28180 28181 28182 28183 28184 28185 28186 28187 28188 28189 28190 28191 28192 28193 28194 28195 28196 28197 28198 28199 28200 28201 28202 28203 28204 28205 28206 28207 28208 28209 28210 28211 28212 28213 28214 28215 28216 28217 28218 28219 28220 28221 28222 28223 28224 28225 28226 28227 28228 28229 28230 28231 28232 28233 28234 28235 28236 28237 28238 28239 28240 28241 28242 28243 28244 28245 28246 28247 28248 28249 28250 28251 28252 28253 28254 28255 28256 28257 28258 28259 28260 28261 28262 28263 28264 28265 28266 28267 28268 28269 28270 28271 28272 28273 28274 28275 28276 28277 28278 28279 28280 28281 28282 28283 28284 28285 28286 28287 28288 28289 28290 28291 28292 28293 28294 28295 28296 28297 28298 28299 28300 28301 28302 28303 28304 28305 28306 28307 28308 28309 28310 28311 28312 28313 28314 28315 28316 28317 28318 28319 28320 28321 28322 28323 28324 28325 28326 28327 28328 28329 28330 28331 28332 28333 28334 28335 28336 28337 28338 28339 28340 28341 28342 28343 28344 28345 28346 28347 28348 28349 28350 28351 28352 28353 28354 28355 28356 28357 28358 28359 28360 28361 28362 28363 28364 28365 28366 28367 28368 28369 28370 28371 28372 28373 28374 28375 28376 28377 28378 28379 28380 28381 28382 28383 28384 28385 28386 28387 28388 28389 28390 28391 28392 28393 28394 28395 28396 28397 28398 28399 28400 28401 28402 28403 28404 28405 28406 28407 28408 28409 28410 28411 28412 28413 28414 28415 28416 28417 28418 28419 28420 28421 28422 28423 28424 28425 28426 28427 28428 28429 28430 28431 28432 28433 28434 28435 28436 28437 28438 28439 28440 28441 28442 28443 28444 28445 28446 28447 28448 28449 28450 28451 28452 28453 28454 28455 28456 28457 28458 28459 28460 28461 28462 28463 28464 28465 28466 28467 28468 28469 28470 28471 28472 28473 28474 28475 28476 28477 28478 28479 28480 28481 28482 28483 28484 28485 28486 28487 28488 28489 28490 28491 28492 28493 28494 28495 28496 28497 28498 28499 28500 28501 28502 28503 28504 28505 28506 28507 28508 28509 28510 28511 28512 28513 28514 28515 28516 28517 28518 28519 28520 28521 28522 28523 28524 28525 28526 28527 28528 28529 28530 28531 28532 28533 28534 28535 28536 28537 28538 28539 28540 28541 28542 28543 28544 28545 28546 28547 28548 28549 28550 28551 28552 28553 28554 28555 28556 28557 28558 28559 28560 28561 28562 28563 28564 28565 28566 28567 28568 28569 28570 28571 28572 28573 28574 28575 28576 28577 28578 28579 28580 28581 28582 28583 28584 28585 28586 28587 28588 28589 28590 28591 28592 28593 28594 28595 28596 28597 28598 28599 28600 28601 28602 28603 28604 28605 28606 28607 28608 28609 28610 28611 28612 28613 28614 28615 28616 28617 28618 28619 28620 28621 28622 28623 28624 28625 28626 28627 28628 28629 28630 28631 28632 28633 28634 28635 28636 28637 28638 28639 28640 28641 28642 28643 28644 28645 28646 28647 28648 28649 28650 28651 28652 28653 28654 28655 28656 28657 28658 28659 28660 28661 28662 28663 28664 28665 28666 28667 28668 28669 28670 28671 28672 28673 28674 28675 28676 28677 28678 28679 28680 28681 28682 28683 28684 28685 28686 28687 28688 28689 28690 28691 28692 28693 28694 28695 28696 28697 28698 28699 28700 28701 28702 28703 28704 28705 28706 28707 28708 28709 28710 28711 28712 28713 28714 28715 28716 28717 28718 28719 28720 28721 28722 28723 28724 28725 28726 28727 28728 28729 28730 28731 28732 28733 28734 28735 28736 28737 28738 28739 28740 28741 28742 28743 28744 28745 28746 28747 28748 28749 28750 28751 28752 28753 28754 28755 28756 28757 28758 28759 28760 28761 28762 28763 28764 28765 28766 28767 28768 28769 28770 28771 28772 28773 28774 28775 28776 28777 28778 28779 28780 28781 28782 28783 28784 28785 28786 28787 28788 28789 28790 28791 28792 28793 28794 28795 28796 28797 28798 28799 28800 28801 28802 28803 28804 28805 28806 28807 28808 28809 28810 28811 28812 28813 28814 28815 28816 28817 28818 28819 28820 28821 28822 28823 28824 28825 28826 28827 28828 28829 28830 28831 28832 28833 28834 28835 28836 28837 28838 28839 28840 28841 28842 28843 28844 28845 28846 28847 28848 28849 28850 28851 28852 28853 28854 28855 28856 28857 28858 28859 28860 28861 28862 28863 28864 28865 28866 28867 28868 28869 28870 28871 28872 28873 28874 28875 28876 28877 28878 28879 28880 28881 28882 28883 28884 28885 28886 28887 28888 28889 28890 28891 28892 28893 28894 28895 28896 28897 28898 28899 28900 28901 28902 28903 28904 28905 28906 28907 28908 28909 28910 28911 28912 28913 28914 28915 28916 28917 28918 28919 28920 28921 28922 28923 28924 28925 28926 28927 28928 28929 28930 28931 28932 28933 28934 28935 28936 28937 28938 28939 28940 28941 28942 28943 28944 28945 28946 28947 28948 28949 28950 28951 28952 28953 28954 28955 28956 28957 28958 28959 28960 28961 28962 28963 28964 28965 28966 28967 28968 28969 28970 28971 28972 28973 28974 28975 28976 28977 28978 28979 28980 28981 28982 28983 28984 28985 28986 28987 28988 28989 28990 28991 28992 28993 28994 28995 28996 28997 28998 28999 29000 29001 29002 29003 29004 29005 29006 29007 29008 29009 29010 29011 29012 29013 29014 29015 29016 29017 29018 29019 29020 29021 29022 29023 29024 29025 29026 29027 29028 29029 29030 29031 29032 29033 29034 29035 29036 29037 29038 29039 29040 29041 29042 29043 29044 29045 29046 29047 29048 29049 29050 29051 29052 29053 29054 29055 29056 29057 29058 29059 29060 29061 29062 29063 29064 29065 29066 29067 29068 29069 29070 29071 29072 29073 29074 29075 29076 29077 29078 29079 29080 29081 29082 29083 29084 29085 29086 29087 29088 29089 29090 29091 29092 29093 29094 29095 29096 29097 29098 29099 29100 29101 29102 29103 29104 29105 29106 29107 29108 29109 29110 29111 29112 29113 29114 29115 29116 29117 29118 29119 29120 29121 29122 29123 29124 29125 29126 29127 29128 29129 29130 29131 29132 29133 29134 29135 29136 29137 29138 29139 29140 29141 29142 29143 29144 29145 29146 29147 29148 29149 29150 29151 29152 29153 29154 29155 29156 29157 29158 29159 29160 29161 29162 29163 29164 29165 29166 29167 29168 29169 29170 29171 29172 29173 29174 29175 29176 29177 29178 29179 29180 29181 29182 29183 29184 29185 29186 29187 29188 29189 29190 29191 29192 29193 29194 29195 29196 29197 29198 29199 29200 29201 29202 29203 29204 29205 29206 29207 29208 29209 29210 29211 29212 29213 29214 29215 29216 29217 29218 29219 29220 29221 29222 29223 29224 29225 29226 29227 29228 29229 29230 29231 29232 29233 29234 29235 29236 29237 29238 29239 29240 29241 29242 29243 29244 29245 29246 29247 29248 29249 29250 29251 29252 29253 29254 29255 29256 29257 29258 29259 29260 29261 29262 29263 29264 29265 29266 29267 29268 29269 29270 29271 29272 29273 29274 29275 29276 29277 29278 29279 29280 29281 29282 29283 29284 29285 29286 29287 29288 29289 29290 29291 29292 29293 29294 29295 29296 29297 29298 29299 29300 29301 29302 29303 29304 29305 29306 29307 29308 29309 29310 29311 29312 29313 29314 29315 29316 29317 29318 29319 29320 29321 29322 29323 29324 29325 29326 29327 29328 29329 29330 29331 29332 29333 29334 29335 29336 29337 29338 29339 29340 29341 29342 29343 29344 29345 29346 29347 29348 29349 29350 29351 29352 29353 29354 29355 29356 29357 29358 29359 29360 29361 29362 29363 29364 29365 29366 29367 29368 29369 29370 29371 29372 29373 29374 29375 29376 29377 29378 29379 29380 29381 29382 29383 29384 29385 29386 29387 29388 29389 29390 29391 29392 29393 29394 29395 29396 29397 29398 29399 29400 29401 29402 29403 29404 29405 29406 29407 29408 29409 29410 29411 29412 29413 29414 29415 29416 29417 29418 29419 29420 29421 29422 29423 29424 29425 29426 29427 29428 29429 29430 29431 29432 29433 29434 29435 29436 29437 29438 29439 29440 29441 29442 29443 29444 29445 29446 29447 29448 29449 29450 29451 29452 29453 29454 29455 29456 29457 29458 29459 29460 29461 29462 29463 29464 29465 29466 29467 29468 29469 29470 29471 29472 29473 29474 29475 29476 29477 29478 29479 29480 29481 29482 29483 29484 29485 29486 29487 29488 29489 29490 29491 29492 29493 29494 29495 29496 29497 29498 29499 29500 29501 29502 29503 29504 29505 29506 29507 29508 29509 29510 29511 29512 29513 29514 29515 29516 29517 29518 29519 29520 29521 29522 29523 29524 29525 29526 29527 29528 29529 29530 29531 29532 29533 29534 29535 29536 29537 29538 29539 29540 29541 29542 29543 29544 29545 29546 29547 29548 29549 29550 29551 29552 29553 29554 29555 29556 29557 29558 29559 29560 29561 29562 29563 29564 29565 29566 29567 29568 29569 29570 29571 29572 29573 29574 29575 29576 29577 29578 29579 29580 29581 29582 29583 29584 29585 29586 29587 29588 29589 29590 29591 29592 29593 29594 29595 29596 29597 29598 29599 29600 29601 29602 29603 29604 29605 29606 29607 29608 29609 29610 29611 29612 29613 29614 29615 29616 29617 29618 29619 29620 29621 29622 29623 29624 29625 29626 29627 29628 29629 29630 29631 29632 29633 29634 29635 29636 29637 29638 29639 29640 29641 29642 29643 29644 29645 29646 29647 29648 29649 29650 29651 29652 29653 29654 29655 29656 29657 29658 29659 29660 29661 29662 29663 29664 29665 29666 29667 29668 29669 29670 29671 29672 29673 29674 29675 29676 29677 29678 29679 29680 29681 29682 29683 29684 29685 29686 29687 29688 29689 29690 29691 29692 29693 29694 29695 29696 29697 29698 29699 29700 29701 29702 29703 29704 29705 29706 29707 29708 29709 29710 29711 29712 29713 29714 29715 29716 29717 29718 29719 29720 29721 29722 29723 29724 29725 29726 29727 29728 29729 29730 29731 29732 29733 29734 29735 29736 29737 29738 29739 29740 29741 29742 29743 29744 29745 29746 29747 29748 29749 29750 29751 29752 29753 29754 29755 29756 29757 29758 29759 29760 29761 29762 29763 29764 29765 29766 29767 29768 29769 29770 29771 29772 29773 29774 29775 29776 29777 29778 29779 29780 29781 29782 29783 29784 29785 29786 29787 29788 29789 29790 29791 29792 29793 29794 29795 29796 29797 29798 29799 29800 29801 29802 29803 29804 29805 29806 29807 29808 29809 29810 29811 29812 29813 29814 29815 29816 29817 29818 29819 29820 29821 29822 29823 29824 29825 29826 29827 29828 29829 29830 29831 29832 29833 29834 29835 29836 29837 29838 29839 29840 29841 29842 29843 29844 29845 29846 29847 29848 29849 29850 29851 29852 29853 29854 29855 29856 29857 29858 29859 29860 29861 29862 29863 29864 29865 29866 29867 29868 29869 29870 29871 29872 29873 29874 29875 29876 29877 29878 29879 29880 29881 29882 29883 29884 29885 29886 29887 29888 29889 29890 29891 29892 29893 29894 29895 29896 29897 29898 29899 29900 29901 29902 29903 29904 29905 29906 29907 29908 29909 29910 29911 29912 29913 29914 29915 29916 29917 29918 29919 29920 29921 29922 29923 29924 29925 29926 29927 29928 29929 29930 29931 29932 29933 29934 29935 29936 29937 29938 29939 29940 29941 29942 29943 29944 29945 29946 29947 29948 29949 29950 29951 29952 29953 29954 29955 29956 29957 29958 29959 29960 29961 29962 29963 29964 29965 29966 29967 29968 29969 29970 29971 29972 29973 29974 29975 29976 29977 29978 29979 29980 29981 29982 29983 29984 29985 29986 29987 29988 29989 29990 29991 29992 29993 29994 29995 29996 29997 29998 29999 30000 30001 30002 30003 30004 30005 30006 30007 30008 30009 30010 30011 30012 30013 30014 30015 30016 30017 30018 30019 30020 30021 30022 30023 30024 30025 30026 30027 30028 30029 30030 30031 30032 30033 30034 30035 30036 30037 30038 30039 30040 30041 30042 30043 30044 30045 30046 30047 30048 30049 30050 30051 30052 30053 30054 30055 30056 30057 30058 30059 30060 30061 30062 30063 30064 30065 30066 30067 30068 30069 30070 30071 30072 30073 30074 30075 30076 30077 30078 30079 30080 30081 30082 30083 30084 30085 30086 30087 30088 30089 30090 30091 30092 30093 30094 30095 30096 30097 30098 30099 30100 30101 30102 30103 30104 30105 30106 30107 30108 30109 30110 30111 30112 30113 30114 30115 30116 30117 30118 30119 30120 30121 30122 30123 30124 30125 30126 30127 30128 30129 30130 30131 30132 30133 30134 30135 30136 30137 30138 30139 30140 30141 30142 30143 30144 30145 30146 30147 30148 30149 30150 30151 30152 30153 30154 30155 30156 30157 30158 30159 30160 30161 30162 30163 30164 30165 30166 30167 30168 30169 30170 30171 30172 30173 30174 30175 30176 30177 30178 30179 30180 30181 30182 30183 30184 30185 30186 30187 30188 30189 30190 30191 30192 30193 30194 30195 30196 30197 30198 30199 30200 30201 30202 30203 30204 30205 30206 30207 30208 30209 30210 30211 30212 30213 30214 30215 30216 30217 30218 30219 30220 30221 30222 30223 30224 30225 30226 30227 30228 30229 30230 30231 30232 30233 30234 30235 30236 30237 30238 30239 30240 30241 30242 30243 30244 30245 30246 30247 30248 30249 30250 30251 30252 30253 30254 30255 30256 30257 30258 30259 30260 30261 30262 30263 30264 30265 30266 30267 30268 30269 30270 30271 30272 30273 30274 30275 30276 30277 30278 30279 30280 30281 30282 30283 30284 30285 30286 30287 30288 30289 30290 30291 30292 30293 30294 30295 30296 30297 30298 30299 30300 30301 30302 30303 30304 30305 30306 30307 30308 30309 30310 30311 30312 30313 30314 30315 30316 30317 30318 30319 30320 30321 30322 30323 30324 30325 30326 30327 30328 30329 30330 30331 30332 30333 30334 30335 30336 30337 30338 30339 30340 30341 30342 30343 30344 30345 30346 30347 30348 30349 30350 30351 30352 30353 30354 30355 30356 30357 30358 30359 30360 30361 30362 30363 30364 30365 30366 30367 30368 30369 30370 30371 30372 30373 30374 30375 30376 30377 30378 30379 30380 30381 30382 30383 30384 30385 30386 30387 30388 30389 30390 30391 30392 30393 30394 30395 30396 30397 30398 30399 30400 30401 30402 30403 30404 30405 30406 30407 30408 30409 30410 30411 30412 30413 30414 30415 30416 30417 30418 30419 30420 30421 30422 30423 30424 30425 30426 30427 30428 30429 30430 30431 30432 30433 30434 30435 30436 30437 30438 30439 30440 30441 30442 30443 30444 30445 30446 30447 30448 30449 30450 30451 30452 30453 30454 30455 30456 30457 30458 30459 30460 30461 30462 30463 30464 30465 30466 30467 30468 30469 30470 30471 30472 30473 30474 30475 30476 30477 30478 30479 30480 30481 30482 30483 30484 30485 30486 30487 30488 30489 30490 30491 30492 30493 30494 30495 30496 30497 30498 30499 30500 30501 30502 30503 30504 30505 30506 30507 30508 30509 30510 30511 30512 30513 30514 30515 30516 30517 30518 30519 30520 30521 30522 30523 30524 30525 30526 30527 30528 30529 30530 30531 30532 30533 30534 30535 30536 30537 30538 30539 30540 30541 30542 30543 30544 30545 30546 30547 30548 30549 30550 30551 30552 30553 30554 30555 30556 30557 30558 30559 30560 30561 30562 30563 30564 30565 30566 30567 30568 30569 30570 30571 30572 30573 30574 30575 30576 30577 30578 30579 30580 30581 30582 30583 30584 30585 30586 30587 30588 30589 30590 30591 30592 30593 30594 30595 30596 30597 30598 30599 30600 30601 30602 30603 30604 30605 30606 30607 30608 30609 30610 30611 30612 30613 30614 30615 30616 30617 30618 30619 30620 30621 30622 30623 30624 30625 30626 30627 30628 30629 30630 30631 30632 30633 30634 30635 30636 30637 30638 30639 30640 30641 30642 30643 30644 30645 30646 30647 30648 30649 30650 30651 30652 30653 30654 30655 30656 30657 30658 30659 30660 30661 30662 30663 30664 30665 30666 30667 30668 30669 30670 30671 30672 30673 30674 30675 30676 30677 30678 30679 30680 30681 30682 30683 30684 30685 30686 30687 30688 30689 30690 30691 30692 30693 30694 30695 30696 30697 30698 30699 30700 30701 30702 30703 30704 30705 30706 30707 30708 30709 30710 30711 30712 30713 30714 30715 30716 30717 30718 30719 30720 30721 30722 30723 30724 30725 30726 30727 30728 30729 30730 30731 30732 30733 30734 30735 30736 30737 30738 30739 30740 30741 30742 30743 30744 30745 30746 30747 30748 30749 30750 30751 30752 30753 30754 30755 30756 30757 30758 30759 30760 30761 30762 30763 30764 30765 30766 30767 30768 30769 30770 30771 30772 30773 30774 30775 30776 30777 30778 30779 30780 30781 30782 30783 30784 30785 30786 30787 30788 30789 30790 30791 30792 30793 30794 30795 30796 30797 30798 30799 30800 30801 30802 30803 30804 30805 30806 30807 30808 30809 30810 30811 30812 30813 30814 30815 30816 30817 30818 30819 30820 30821 30822 30823 30824 30825 30826 30827 30828 30829 30830 30831 30832 30833 30834 30835 30836 30837 30838 30839 30840 30841 30842 30843 30844 30845 30846 30847 30848 30849 30850 30851 30852 30853 30854 30855 30856 30857 30858 30859 30860 30861 30862 30863 30864 30865 30866 30867 30868 30869 30870 30871 30872 30873 30874 30875 30876 30877 30878 30879 30880 30881 30882 30883 30884 30885 30886 30887 30888 30889 30890 30891 30892 30893 30894 30895 30896 30897 30898 30899 30900 30901 30902 30903 30904 30905 30906 30907 30908 30909 30910 30911 30912 30913 30914 30915 30916 30917 30918 30919 30920 30921 30922 30923 30924 30925 30926 30927 30928 30929 30930 30931 30932 30933 30934 30935 30936 30937 30938 30939 30940 30941 30942 30943 30944 30945 30946 30947 30948 30949 30950 30951 30952 30953 30954 30955 30956 
</DataArray>
<DataArray type="UInt32" Name="offsets" format="ascii">
3 6 9 12 15 18 21 24 27 30 33 36 39 42 44 47 50 53 56 59 62 64 67 69 72 75 78 81 84 87 90 93 96 99 102 105 108 111 114 117 120 123 126 129 132 135 137 140 143 146 149 152 155 157 160 162 165 168 171 174 177 180 183 186 189 192 195 198 201 204 206 209 212 215 218 221 224 227 230 233 236 239 241 244 246 249 252 255 257 260 263 266 269 272 274 276 279 282 285 288 291 294 297 300 303 306 308 311 314 317 319 322 325 328 331 334 337 340 343 346 349 351 354 356 359 362 364 367 370 373 376 379 382 385 387 390 393 396 399 402 405 408 411 413 416 419 421 424 427 429 432 435 437 440 443 446 449 452 455 458 461 464 467 470 473 476 478 481 484 486 489 491 493 496 499 502 505 508 511 514 517 520 522 525 528 531 534 537 540 543 546 549 552 555 558 561 564 567 570 573 576 579 582 585 588 591 594 597 600 603 606 609 612 615 617 619 622 625 627 629 632 635 637 640 642 645 648 650 653 655 658 661 664 667 670 673 676 679 681 684 687 690 692 695 698 700 703 705 708 711 713 715 718 721 724 726 729 732 734 736 739 742 745 748 750 752 754 757 760 763 765 768 771 773 776 779 782 785 788 791 794 796 799 802 804 807 810 813 816 818 821 824 827 830 833 836 839 842 844 847 850 852 855 857 860 863 866 868 871 874 877 880 883 886 889 892 895 898 901 904 906 909 912 915 918 920 923 925 927 930 933 936 939 942 945 948 951 954 957 959 961 964 967 970 973 976 979 982 985 988 991 994 997 1000 1003 1006 1009 1012 1015 1018 1021 1024 1027 1030 1033 1036 1039 1042 1045 1048 1051 1054 1057 1060 1063 1066 1069 1072 1075 1078 1081 1084 1087 1090 1093 1096 1099 1102 1105 1108 1111 1114 1117 1120 1123 1126 1129 1132 1135 1137 1140 1143 1145 1148 1151 1154 1157 1160 1163 1166 1169 1172 1175 1178 1181 1183 1186 1189 1192 1195 1198 1201 1203 1205 1208 1211 1214 1217 1220 1222 1224 1227 1230 1233 1236 1238 1241 1243 1246 1249 1252 1255 1258 1260 1263 1265 1268 1271 1273 1275 1277 1280 1283 1286 1288 1291 1294 1297 1299 1302 1305 1307 1310 1313 1316 1319 1322 1325 1328 1331 1334 1337 1340 1343 1346 1349 1352 1355 1358 1361 1364 1367 1370 1373 1376 1379 1382 1385 1387 1390 1393 1396 1399 1402 1405 1408 1411 1414 1417 1420 1423 1426 1429 1432 1435 1438 1441 1444 1447 1450 1453 1456 1459 1462 1465 1468 1471 1474 1477 1480 1483 1486 1489 1492 1495 1497 1500 1503 1506 1509 1512 1515 1518 1521 1524 1527 1530 1533 1536 1539 1542 1545 1548 1550 1553 1555 1558 1561 1564 1567 1569 1572 1575 1577 1580 1583 1586 1589 1592 1595 1597 1600 1603 1606 1609 1612 1615 1618 1621 1624 1627 1630 1632 1635 1638 1641 1644 1647 1650 1653 1656 1659 1662 1665 1668 1671 1674 1677 1680 1683 1686 1689 1692 1695 1698 1701 1704 1707 1710 1713 1716 1719 1722 1725 1728 1731 1734 1737 1740 1743 1746 1749 1752 1755 1758 1761 1763 1766 1769 1772 1775 1778 1781 1784 1787 1790 1793 1796 1799 1801 1804 1807 1810 1812 1815 1818 1821 1823 1825 1828 1831 1833 1836 1839 1842 1845 1848 1851 1854 1857 1860 1863 1866 1869 1872 1875 1878 1881 1884 1887 1890 1893 1896 1899 1902 1905 1908 1911 1914 1917 1920 1923 1926 1929 1932 1934 1937 1940 1943 1946 1949 1952 1955 1958 1961 1963 1966 1969 1971 1973 1976 1979 1982 1985 1988 1990 1993 1996 1998 2000 2003 2006 2008 2011 2013 2016 2019 2022 2025 2028 2030 2033 2036 2039 2041 2044 2047 2050 2053 2056 2059 2062 2065 2068 2071 2074 2077 2079 2081 2084 2087 2089 2092 2095 2098 2101 2104 2107 2110 2113 2116 2119 2122 2125 2128 2131 2134 2137 2140 2143 2146 2149 2152 2155 2157 2160 2163 2166 2169 2171 2174 2177 2180 2183 2186 2189 2192 2195 2197 2200 2202 2205 2208 2211 2214 2217 2220 2223 2226 2229 2232 2235 2237 2240 2243 2246 2249 2251 2254 2257 2260 2263 2266 2269 2271 2274 2277 2280 2283 2285 2287 2290 2292 2295 2298 2300 2303 2306 2309 2312 2315 2318 2321 2324 2327 2330 2333 2336 2339 2342 2345 2348 2351 2353 2356 2358 2361 2364 2367 2370 2373 2375 2378 2381 2384 2387 2390 2393 2396 2399 2402 2405 2408 2411 2414 2417 2420 2423 2426 2429 2432 2435 2438 2441 2444 2447 2450 2453 2456 2459 2462 2465 2468 2471 2474 2477 2480 2483 2486 2489 2492 2495 2498 2501 2504 2507 2510 2513 2516 2519 2522 2525 2528 2531 2534 2537 2540 2543 2546 2549 2552 2555 2558 2561 2564 2567 2570 2573 2576 2578 2581 2583 2586 2589 2592 2595 2598 2601 2604 2607 2610 2613 2616 2619 2622 2625 2628 2631 2634 2637 2640 2643 2646 2649 2652 2655 2658 2661 2664 2667 2670 2673 2676 2679 2682 2685 2688 2691 2694 2697 2700 2703 2706 2708 2711 2714 2717 2720 2723 2726 2729 2732 2735 2738 2741 2744 2747 2750 2753 2755 2758 2761 2764 2767 2770 2773 2775 2778 2781 2784 2787 2790 2793 2796 2799 2802 2805 2808 2811 2814 2817 2820 2823 2826 2829 2832 2834 2837 2840 2842 2845 2848 2850 2853 2856 2859 2862 2864 2867 2869 2872 2875 2878 2881 2884 2887 2890 2893 2896 2899 2902 2905 2908 2911 2914 2917 2920 2923 2926 2929 2932 2935 2938 2941 2944 2946 2949 2951 2954 2957 2960 2963 2966 2969 2972 2975 2978 2981 2984 2986 2989 2992 2995 2997 3000 3003 3005 3008 3010 3013 3016 3019 3022 3025 3028 3031 3034 3037 3040 3043 3046 3049 3052 3054 3057 3060 3063 3066 3069 3072 3074 3077 3080 3083 3086 3089 3092 3095 3098 3100 3103 3106 3109 3112 3115 3118 3121 3124 3127 3130 3133 3136 3139 3142 3145 3148 3151 3154 3157 3159 3162 3165 3168 3171 3174 3177 3180 3183 3186 3189 3192 3195 3198 3201 3204 3207 3210 3213 3216 3219 3222 3225 3228 3231 3234 3237 3239 3242 3245 3248 3251 3253 3256 3259 3262 3264 3267 3270 3273 3276 3279 3282 3285 3288 3291 3294 3297 3300 3303 3306 3308 3311 3314 3317 3319 3322 3325 3328 3331 3334 3336 3339 3342 3345 3348 3351 3354 3357 3360 3363 3366 3369 3372 3375 3378 3381 3384 3386 3389 3391 3394 3396 3399 3402 3405 3407 3410 3413 3416 3419 3422 3425 3428 3431 3434 3437 3440 3443 3446 3449 3451 3454 3457 3460 3463 3466 3469 3472 3475 3478 3481 3484 3487 3490 3493 3495 3497 3500 3503 3506 3509 3512 3515 3518 3521 3524 3527 3530 3533 3536 3539 3542 3545 3548 3551 3554 3557 3560 3563 3566 3569 3572 3575 3578 3581 3583 3586 3589 3592 3595 3597 3600 3603 3606 3608 3611 3614 3617 3620 3623 3626 3629 3632 3634 3637 3640 3643 3645 3648 3651 3653 3656 3659 3661 3663 3666 3669 3672 3675 3678 3681 3683 3686 3689 3692 3695 3698 3701 3704 3707 3710 3713 3716 3719 3722 3724 3727 3730 3733 3736 3738 3741 3744 3747 3750 3753 3756 3759 3762 3765 3768 3771 3774 3777 3780 3783 3786 3789 3792 3795 3798 3801 3804 3807 3810 3813 3816 3819 3822 3825 3828 3831 3834 3837 3840 3843 3846 3849 3852 3855 3858 3861 3864 3867 3870 3873 3876 3879 3882 3885 3888 3891 3894 3897 3900 3903 3906 3909 3912 3915 3918 3921 3924 3927 3930 3933 3936 3939 3942 3945 3948 3950 3953 3956 3959 3962 3965 3968 3971 3974 3977 3980 3983 3985 3988 3991 3994 3997 3999 4002 4005 4008 4011 4014 4016 4019 4022 4025 4027 4030 4033 4036 4038 4041 4044 4047 4050 4053 4056 4059 4062 4064 4067 4070 4073 4075 4078 4080 4083 4086 4088 4091 4094 4097 4100 4103 4105 4108 4111 4114 4117 4120 4123 4125 4128 4131 4134 4137 4140 4143 4146 4149 4152 4155 4158 4160 4162 4165 4168 4171 4174 4177 4180 4183 4186 4189 4192 4195 4198 4201 4204 4207 4210 4213 4216 4219 4222 4225 4228 4231 4234 4237 4240 4243 4246 4249 4251 4254 4257 4260 4263 4265 4268 4271 4274 4277 4280 4283 4286 4289 4291 4294 4297 4300 4303 4305 4307 4310 4313 4316 4319 4322 4325 4328 4331 4334 4337 4339 4342 4345 4348 4351 4354 4357 4360 4363 4366 4368 4371 4374 4377 4380 4383 4386 4389 4392 4395 4398 4401 4404 4407 4410 4413 4416 4419 4422 4425 4428 4431 4434 4437 4440 4443 4446 4449 4451 4454 4457 4460 4463 4466 4469 4472 4475 4478 4481 4484 4487 4490 4493 4496 4499 4502 4505 4508 4511 4514 4517 4520 4523 4526 4529 4532 4535 4538 4541 4544 4547 4550 4553 4556 4559 4562 4565 4568 4571 4574 4577 4580 4583 4586 4589 4592 4595 4598 4600 4603 4606 4609 4612 4614 4616 4619 4622 4625 4628 4631 4634 4637 4640 4643 4646 4649 4652 4655 4658 4661 4664 4667 4670 4672 4675 4678 4681 4684 4687 4690 4693 4696 4699 4702 4705 4708 4711 4714 4717 4719 4722 4725 4728 4731 4734 4737 4740 4743 4746 4749 4752 4755 4758 4761 4764 4767 4770 4773 4776 4779 4782 4785 4788 4791 4794 4797 4800 4803 4806 4809 4812 4814 4817 4820 4822 4825 4828 4830 4833 4836 4839 4842 4844 4846 4849 4852 4855 4858 4861 4864 4867 4869 4872 4875 4878 4881 4884 4887 4889 4892 4895 4898 4901 4904 4907 4910 4913 4916 4919 4922 4925 4928 4930 4933 4935 4938 4941 4944 4947 4950 4953 4955 4958 4961 4964 4967 4970 4973 4976 4979 4982 4985 4988 4991 4994 4997 5000 5003 5006 5009 5012 5015 5018 5021 5023 5025 5028 5030 5033 5036 5039 5042 5045 5047 5050 5052 5055 5058 5061 5063 5066 5068 5071 5074 5077 5080 5082 5085 5088 5090 5093 5096 5099 5101 5104 5107 5110 5112 5115 5118 5121 5123 5126 5129 5132 5135 5138 5141 5144 5147 5150 5152 5155 5158 5161 5164 5166 5169 5171 5174 5177 5179 5182 5185 5188 5190 5193 5195 5198 5201 5204 5207 5210 5213 5215 5218 5221 5223 5226 5228 5231 5234 5237 5240 5243 5246 5249 5252 5255 5258 5261 5264 5267 5270 5272 5275 5278 5281 5284 5287 5289 5291 5294 5297 5300 5302 5305 5308 5311 5314 5316 5319 5322 5324 5327 5330 5333 5336 5339 5342 5345 5347 5350 5353 5356 5359 5362 5365 5368 5371 5374 5377 5380 5383 5386 5389 5392 5394 5397 5400 5403 5406 5409 5412 5415 5418 5420 5423 5425 5428 5431 5434 5436 5439 5441 5444 5447 5450 5453 5456 5459 5462 5465 5468 5471 5474 5477 5480 5483 5486 5489 5492 5495 5498 5501 5504 5507 5510 5513 5516 5519 5522 5524 5527 5530 5533 5535 5538 5541 5544 5547 5550 5553 5555 5558 5561 5564 5566 5569 5571 5574 5577 5580 5583 5586 5589 5592 5595 5597 5599 5602 5605 5608 5611 5614 5617 5619 5622 5625 5628 5630 5633 5636 5639 5641 5644 5647 5650 5653 5656 5659 5662 5665 5668 5671 5674 5677 5679 5682 5684 5687 5690 5693 5696 5699 5702 5705 5708 5711 5714 5716 5719 5721 5723 5726 5729 5732 5735 5738 5741 5744 5747 5750 5753 5756 5759 5762 5764 5767 5770 5772 5775 5777 5780 5783 5786 5789 5792 5795 5797 5800 5803 5806 5808 5811 5813 5816 5819 5822 5824 5827 5830 5832 5834 5837 5839 5842 5845 5847 5850 5853 5856 5859 5862 5865 5868 5871 5874 5877 5880 5883 5886 5888 5890 5893 5896 5899 5902 5905 5908 5911 5914 5917 5920 5923 5926 5929 5932 5935 5938 5941 5944 5947 5950 5952 5955 5957 5959 5962 5965 5968 5970 5973 5975 5977 5980 5983 5986 5989 5991 5994 5997 6000 6003 6006 6009 6011 6014 6017 6020 6023 6026 6029 6032 6035 6038 6041 6044 6047 6049 6052 6055 6058 6061 6064 6067 6070 6073 6076 6079 6082 6085 6088 6090 6093 6095 6098 6101 6104 6107 6110 6113 6116 6119 6121 6124 6126 6129 6132 6135 6137 6140 6143 6146 6149 6152 6154 6157 6159 6161 6164 6167 6169 6172 6175 6178 6181 6183 6186 6188 6191 6194 6196 6199 6202 6204 6207 6210 6213 6216 6219 6222 6224 6226 6229 6232 6234 6237 6240 6242 6245 6248 6250 6252 6255 6258 6261 6263 6266 6269 6272 6274 6277 6279 6282 6284 6287 6290 6292 6295 6298 6300 6303 6306 6309 6311 6314 6317 6320 6322 6325 6328 6331 6333 6336 6338 6341 6344 6347 6349 6352 6355 6358 6361 6364 6367 6370 6373 6376 6379 6382 6385 6388 6391 6394 6397 6400 6403 6406 6409 6412 6415 6418 6421 6424 6427 6430 6433 6436 6439 6442 6445 6448 6451 6454 6457 6460 6463 6466 6469 6472 6475 6478 6480 6483 6486 6489 6492 6495 6498 6500 6502 6505 6508 6511 6514 6517 6520 6523 6526 6529 6532 6535 6538 6541 6544 6547 6550 6553 6556 6559 6562 6565 6568 6571 6574 6577 6580 6583 6586 6589 6592 6595 6598 6601 6604 6607 6610 6613 6616 6619 6622 6624 6627 6630 6633 6635 6638 6641 6643 6645 6648 6651 6653 6656 6658 6661 6663 6665 6668 6671 6674 6677 6680 6682 6685 6687 6690 6693 6695 6698 6701 6704 6707 6710 6712 6715 6718 6721 6724 6727 6730 6733 6736 6739 6742 6745 6748 6750 6753 6755 6758 6760 6763 6766 6769 6772 6775 6777 6779 6781 6784 6787 6789 6791 6794 6797 6800 6802 6805 6807 6810 6812 6814 6817 6819 6822 6825 6828 6830 6833 6836 6839 6842 6845 6848 6851 6853 6855 6858 6861 6863 6866 6869 6871 6874 6876 6879 6882 6884 6887 6890 6892 6895 6897 6900 6903 6906 6908 6911 6913 6916 6919 6921 6924 6926 6928 6931 6933 6935 6937 6940 6943 6946 6949 6951 6954 6957 6959 6962 6965 6968 6971 6973 6976 6979 6982 6985 6988 6991 6993 6996 6998 7001 7004 7007 7009 7011 7014 7017 7020 7023 7026 7029 7031 7034 7037 7039 7042 7044 7047 7050 7052 7055 7058 7060 7063 7066 7069 7072 7074 7076 7079 7082 7085 7088 7090 7093 7096 7099 7102 7105 7108 7111 7114 7117 7119 7122 7125 7128 7131 7134 7137 7140 7142 7145 7147 7150 7152 7155 7158 7160 7163 7166 7169 7172 7174 7176 7179 7182 7185 7187 7189 7191 7194 7197 7200 7203 7205 7207 7209 7211 7214 7217 7219 7222 7225 7227 7230 7233 7236 7238 7241 7244 7247 7249 7252 7254 7257 7260 7263 7266 7269 7272 7275 7277 7279 7282 7285 7287 7290 7293 7296 7299 7302 7305 7308 7310 7313 7316 7319 7322 7325 7328 7331 7333 7336 7339 7342 7345 7348 7351 7354 7357 7360 7363 7366 7369 7372 7375 7377 7380 7383 7386 7389 7392 7395 7398 7401 7404 7407 7409 7412 7415 7417 7420 7422 7425 7428 7431 7433 7436 7438 7441 7444 7447 7450 7453 7456 7459 7461 7464 7467 7470 7473 7476 7479 7482 7485 7488 7491 7494 7497 7500 7503 7506 7509 7511 7514 7517 7519 7522 7524 7527 7529 7532 7534 7537 7540 7543 7545 7547 7550 7553 7556 7559 7562 7565 7567 7570 7573 7576 7579 7582 7585 7588 7590 7593 7596 7598 7601 7604 7607 7610 7613 7616 7619 7622 7625 7628 7631 7634 7637 7640 7643 7646 7649 7651 7654 7657 7660 7662 7665 7668 7671 7674 7677 7680 7683 7686 7689 7692 7695 7698 7701 7704 7707 7710 7713 7716 7719 7722 7725 7728 7731 7734 7736 7739 7742 7745 7748 7751 7754 7757 7760 7763 7766 7769 7771 7774 7777 7780 7783 7786 7789 7791 7794 7797 7800 7803 7806 7809 7812 7815 7818 7821 7823 7826 7829 7831 7833 7836 7838 7841 7844 7847 7849 7852 7855 7858 7860 7863 7866 7869 7872 7875 7878 7881 7884 7887 7890 7892 7895 7898 7901 7904 7907 7910 7913 7916 7919 7922 7925 7928 7930 7933 7936 7938 7941 7944 7947 7950 7952 7955 7958 7960 7963 7966 7969 7971 7974 7977 7980 7982 7984 7987 7990 7993 7995 7998 8000 8003 8006 8009 8012 8015 8018 8021 8024 8027 8030 8033 8035 8038 8041 8043 8046 8049 8052 8055 8057 8060 8063 8065 8068 8071 8074 8077 8080 8082 8084 8087 8090 8093 8096 8098 8101 8104 8107 8110 8113 8116 8119 8121 8124 8127 8130 8133 8135 8138 8141 8144 8147 8150 8153 8155 8158 8161 8163 8166 8169 8171 8174 8177 8179 8181 8184 8186 8189 8192 8195 8197 8199 8202 8205 8207 8210 8213 8215 8218 8220 8223 8226 8229 8232 8235 8238 8241 8243 8246 8249 8252 8255 8257 8260 8263 8266 8269 8272 8275 8278 8281 8284 8287 8290 8293 8296 8299 8302 8305 8308 8310 8313 8316 8319 8322 8325 8328 8331 8334 8337 8340 8343 8346 8349 8352 8354 8357 8360 8363 8366 8369 8371 8374 8377 8379 8382 8385 8388 8391 8393 8396 8399 8402 8404 8407 8410 8413 8415 8418 8421 8424 8427 8430 8433 8436 8439 8442 8445 8448 8451 8454 8457 8460 8463 8466 8469 8472 8474 8477 8480 8483 8485 8488 8491 8493 8496 8499 8502 8505 8507 8510 8513 8516 8519 8522 8524 8527 8530 8533 8536 8539 8542 8545 8548 8551 8554 8557 8559 8562 8565 8568 8571 8574 8577 8580 8583 8586 8589 8592 8594 8597 8600 8603 8606 8608 8611 8613 8616 8619 8622 8625 8628 8631 8634 8637 8640 8643 8645 8648 8650 8652 8655 8657 8660 8663 8666 8669 8671 8673 8676 8679 8681 8684 8687 8689 8692 8695 8698 8700 8703 8706 8708 8711 8714 8717 8720 8722 8725 8728 8731 8734 8736 8738 8741 8744 8747 8750 8753 8756 8759 8761 8764 8767 8770 8773 8776 8779 8782 8785 8788 8791 8794 8797 8800 8803 8806 8809 8812 8815 8818 8820 8822 8825 8828 8831 8834 8836 8839 8842 8845 8847 8850 8853 8856 8859 8862 8865 8868 8871 8874 8877 8880 8882 8885 8888 8890 8893 8896 8899 8902 8905 8908 8910 8913 8915 8918 8921 8924 8927 8929 8932 8934 8937 8940 8942 8945 8948 8950 8953 8956 8959 8961 8964 8967 8970 8972 8975 8978 8980 8983 8986 8989 8992 8995 8998 9000 9003 9006 9008 9011 9014 9017 9020 9023 9025 9028 9030 9033 9036 9038 9041 9044 9046 9049 9051 9054 9057 9060 9063 9066 9068 9070 9073 9076 9079 9082 9085 9087 9090 9093 9096 9099 9102 9105 9108 9111 9114 9117 9120 9123 9126 9129 9132 9135 9138 9141 9144 9147 9149 9152 9155 9158 9161 9163 9166 9169 9172 9174 9176 9179 9182 9185 9188 9191 9193 9196 9199 9202 9205 9208 9211 9214 9216 9219 9222 9225 9228 9231 9234 9237 9240 9242 9245 9248 9250 9253 9256 9259 9262 9264 9267 9270 9273 9276 9278 9281 9283 9286 9289 9291 9294 9297 9300 9303 9306 9308 9311 9314 9317 9320 9322 9325 9328 9331 9334 9337 9339 9342 9345 9348 9351 9354 9357 9359 9362 9365 9367 9370 9373 9375 9378 9381 9384 9386 9389 9391 9394 9397 9399 9402 9405 9408 9411 9414 9417 9420 9422 9425 9428 9431 9434 9437 9439 9442 9445 9448 9450 9453 9456 9459 9462 9465 9468 9471 9474 9477 9480 9483 9486 9489 9492 9495 9498 9501 9503 9506 9509 9512 9515 9517 9520 9523 9526 9529 9532 9535 9538 9541 9544 9547 9550 9553 9556 9559 9562 9565 9568 9570 9573 9576 9579 9582 9585 9587 9589 9592 9595 9598 9600 9603 9606 9609 9612 9614 9617 9620 9623 9626 9629 9632 9634 9636 9639 9642 9645 9648 9651 9654 9656 9658 9661 9664 9667 9670 9672 9675 9678 9681 9684 9687 9690 9692 9695 9698 9701 9704 9707 9710 9713 9716 9719 9722 9724 9727 9730 9732 9735 9738 9741 9744 9747 9750 9753 9756 9759 9762 9765 9768 9771 9774 9777 9780 9783 9786 9789 9792 9795 9798 9801 9804 9807 9810 9813 9816 9819 9822 9825 9828 9831 9834 9837 9840 9843 9846 9849 9852 9855 9857 9860 9863 9866 9868 9871 9874 9877 9880 9883 9886 9888 9891 9894 9897 9900 9903 9906 9909 9912 9915 9917 9920 9923 9926 9929 9932 9935 9938 9941 9944 9947 9950 9953 9956 9959 9961 9964 9967 9969 9971 9974 9977 9980 9983 9986 9989 9992 9995 9998 10001 10004 10007 10010 10013 10016 10019 10022 10025 10028 10031 10034 10036 10039 10042 10045 10048 10050 10053 10056 10059 10062 10065 10068 10070 10073 10076 10078 10081 10084 10086 10089 10092 10095 10097 10100 10103 10106 10109 10112 10115 10118 10121 10123 10126 10129 10132 10135 10138 10141 10144 10147 10150 10153 10155 10158 10160 10163 10166 10169 10172 10174 10177 10180 10182 10185 10188 10191 10194 10197 10200 10203 10206 10209 10212 10214 10217 10220 10223 10226 10229 10232 10235 10238 10241 10244 10247 10249 10252 10254 10257 10260 10263 10266 10269 10272 10275 10278 10281 10284 10287 10290 10293 10296 10299 10302 10305 10308 10311 10314 10316 10319 10322 10325 10327 10330 10332 10335 10337 10340 10343 10345 10348 10350 10352 10355 10358 10361 10363 10365 10368 10371 10373 10376 10379 10382 10385 10388 10391 10394 10397 10400 10403 10406 10409 10412 10415 10417 10419 10422 10425 10427 10430 10432 10435 10438 10441 10444 10446 10449 10452 10455 10458 10461 10464 10467 10470 10472 10475 10478 10481 10484 10487 10490 10493 10496 10499 10502 10505 10508 10511 10514 10517 10520 10523 10526 10529 10532 10535 10537 10540 10542 10545 10548 10551 10554 10556 10558 10561 10563 10566 10569 10572 10575 10578 10580 10583 10586 10589 10591 10594 10596 10599 10601 10604 10607 10610 10613 10616 10619 10622 10625 10628 10631 10633 10636 10639 10641 10644 10647 10650 10652 10655 10658 10661 10664 10667 10670 10673 10676 10679 10682 10685 10688 10691 10694 10696 10698 10701 10704 10707 10710 10712 10715 10717 10720 10722 10725 10728 10731 10734 10737 10740 10742 10745 10747 10749 10752 10755 10758 10761 10763 10765 10768 10770 10773 10776 10779 10782 10785 10787 10790 10793 10796 10799 10802 10805 10808 10810 10813 10816 10819 10822 10825 10828 10830 10832 10835 10838 10841 10844 10847 10849 10852 10855 10858 10861 10864 10866 10868 10871 10874 10877 10879 10882 10885 10888 10890 10893 10896 10899 10902 10905 10908 10911 10914 10917 10920 10923 10926 10929 10932 10935 10938 10941 10944 10947 10950 10953 10956 10959 10962 10965 10968 10971 10974 10977 10979 10982 10985 10988 10991 10993 10995 10998 11001 11004 11007 11010 11013 11016 11019 11022 11025 11028 11031 11034 11037 11040 11043 11045 11048 11051 11054 11057 11060 11063 11066 11069 11072 11075 11078 11081 11084 11087 11090 11092 11095 11098 11101 11104 11107 11110 11113 11116 11119 11122 11124 11127 11130 11133 11136 11139 11142 11144 11147 11150 11153 11156 11159 11162 11165 11168 11171 11174 11177 11180 11183 11186 11189 11192 11195 11198 11201 11204 11207 11210 11213 11216 11219 11222 11225 11228 11231 11234 11237 11240 11243 11246 11249 11252 11255 11258 11261 11264 11267 11270 11273 11276 11279 11282 11285 11288 11291 11294 11297 11300 11302 11305 11308 11311 11314 11317 11320 11323 11326 11329 11332 11335 11338 11341 11344 11347 11350 11353 11356 11359 11362 11365 11368 11371 11374 11377 11380 11383 11386 11388 11391 11394 11397 11400 11403 11406 11409 11412 11415 11418 11421 11424 11427 11430 11433 11436 11439 11442 11445 11448 11451 11454 11457 11460 11463 11466 11469 11472 11475 11478 11481 11484 11487 11490 11493 11496 11499 11502 11505 11508 11511 11514 11517 11520 11523 11526 11529 11532 11535 11538 11541 11544 11547 11550 11553 11556 11559 11562 11565 11568 11571 11574 11577 11580 11583 11586 11589 11592 11594 11597 11600 11603 11606 11609 11612 11615 11618 11621 11624 11627 11630 11633 11636 11638 11641 11644 11646 11649 11652 11655 11658 11661 11664 11667 11670 11673 11676 11679 11682 11684 11686 11689 11692 11695 11698 11701 11704 11707 11710 11713 11716 11719 11722 11725 11727 11730 11732 11735 11738 11741 11744 11746 11749 11752 11755 11758 11761 11764 11767 11770 11773 11776 11779 11781 11784 11787 11790 11793 11796 11799 11802 11805 11808 11810 11813 11815 11818 11821 11823 11826 11829 11831 11833 11836 11839 11842 11844 11846 11849 11852 11855 11858 11861 11864 11867 11869 11872 11874 11876 11879 11882 11884 11887 11890 11893 11896 11899 11902 11905 11907 11910 11913 11915 11918 11921 11923 11926 11928 11931 11933 11936 11939 11942 11945 11948 11950 11952 11954 11957 11960 11963 11966 11969 11972 11975 11977 11980 11983 11986 11988 11990 11993 11996 11999 12002 12005 12007 12010 12013 12016 12019 12022 12025 12028 12031 12034 12037 12040 12043 12046 12049 12052 12055 12058 12061 12064 12067 12070 12073 12076 12079 12082 12085 12088 12091 12094 12097 12100 12103 12106 12109 12112 12115 12118 12121 12123 12126 12129 12132 12134 12137 12139 12142 12145 12148 12150 12153 12156 12158 12161 12163 12165 12167 12170 12173 12176 12179 12182 12185 12187 12190 12193 12196 12199 12202 12205 12207 12210 12213 12216 12219 12222 12225 12228 12231 12234 12237 12240 12243 12246 12249 12252 12255 12258 12261 12264 12267 12269 12272 12275 12278 12281 12284 12287 12289 12292 12295 12298 12301 12304 12307 12310 12312 12315 12317 12320 12323 12326 12329 12331 12334 12337 12340 12343 12346 12348 12350 12353 12356 12358 12361 12364 12367 12369 12372 12375 12378 12381 12384 12387 12390 12392 12395 12398 12401 12404 12407 12410 12413 12416 12419 12422 12425 12428 12431 12434 12437 12440 12443 12445 12447 12450 12453 12456 12459 12462 12465 12468 12471 12474 12477 12480 12483 12486 12489 12492 12495 12498 12501 12504 12507 12510 12513 12516 12519 12522 12525 12528 12531 12534 12537 12540 12543 12546 12549 12551 12553 12556 12559 12562 12565 12568 12570 12573 12576 12579 12582 12585 12588 12591 12594 12597 12600 12603 12606 12609 12612 12615 12618 12621 12624 12627 12630 12633 12636 12639 12642 12645 12648 12651 12654 12657 12660 12663 12666 12669 12671 12674 12677 12680 12683 12686 12688 12691 12694 12697 12700 12703 12706 12708 12711 12714 12717 12720 12723 12725 12728 12731 12734 12737 12740 12743 12745 12748 12751 12754 12757 12760 12763 12766 12769 12771 12774 12777 12779 12782 12785 12788 12790 12793 12796 12799 12802 12805 12807 12810 12813 12816 12819 12822 12825 12828 12831 12834 12837 12840 12843 12846 12849 12852 12855 12858 12860 12862 12865 12868 12871 12874 12877 12880 12883 12886 12889 12892 12895 12898 12901 12904 12907 12910 12912 12915 12918 12921 12924 12927 12930 12933 12936 12939 12942 12945 12948 12951 12954 12957 12960 12963 12966 12969 12972 12975 12978 12981 12984 12987 12990 12993 12996 12999 13002 13005 13008 13011 13014 13017 13020 13023 13026 13029 13032 13035 13037 13040 13043 13046 13049 13051 13054 13057 13060 13063 13066 13068 13071 13074 13077 13079 13082 13085 13087 13089 13091 13094 13097 13100 13103 13106 13109 13112 13115 13118 13121 13123 13126 13129 13132 13135 13138 13141 13144 13147 13150 13153 13156 13159 13162 13165 13168 13171 13174 13177 13180 13182 13185 13187 13190 13193 13196 13199 13202 13205 13207 13209 13212 13215 13218 13221 13224 13227 13230 13233 13236 13239 13242 13245 13248 13251 13254 13257 13259 13262 13265 13268 13271 13274 13277 13280 13283 13285 13288 13291 13294 13296 13299 13302 13305 13308 13311 13314 13317 13320 13323 13326 13329 13331 13334 13337 13340 13343 13346 13349 13352 13355 13358 13361 13364 13367 13370 13373 13376 13379 13382 13385 13388 13391 13393 13396 13399 13402 13405 13407 13410 13413 13415 13418 13421 13424 13427 13430 13433 13436 13438 13441 13444 13447 13450 13453 13456 13458 13460 13463 13466 13469 13472 13475 13478 13481 13484 13487 13490 13493 13496 13499 13502 13505 13508 13511 13513 13516 13518 13521 13524 13527 13530 13532 13535 13538 13541 13543 13546 13549 13552 13555 13558 13561 13564 13567 13570 13573 13576 13579 13582 13585 13587 13590 13593 13596 13599 13602 13604 13607 13610 13612 13615 13618 13621 13624 13626 13629 13632 13635 13637 13640 13642 13644 13647 13650 13653 13656 13658 13660 13663 13666 13669 13672 13675 13678 13681 13684 13687 13690 13693 13696 13699 13702 13704 13707 13709 13712 13715 13718 13720 13723 13726 13729 13732 13735 13738 13741 13744 13747 13750 13753 13756 13759 13762 13765 13768 13771 13774 13776 13779 13782 13784 13787 13790 13792 13794 13797 13799 13801 13804 13807 13810 13813 13815 13818 13820 13823 13826 13829 13832 13834 13837 13840 13843 13845 13848 13851 13854 13857 13860 13863 13866 13869 13871 13874 13877 13880 13883 13886 13888 13891 13894 13897 13900 13903 13905 13907 13910 13913 13916 13919 13921 13923 13926 13929 13931 13933 13935 13937 13940 13943 13946 13948 13951 13954 13957 13959 13962 13964 13967 13970 13973 13976 13979 13982 13985 13988 13991 13994 13997 14000 14003 14006 14009 14012 14014 14017 14020 14023 14026 14029 14032 14035 14037 14040 14043 14046 14049 14052 14055 14058 14061 14064 14067 14070 14073 14076 14079 14082 14085 14088 14091 14094 14097 14100 14103 14106 14109 14112 14114 14117 14119 14122 14125 14128 14130 14132 14135 14138 14141 14144 14147 14150 14153 14156 14159 14162 14165 14168 14171 14174 14177 14180 14183 14186 14189 14192 14195 14198 14201 14204 14207 14210 14213 14216 14218 14221 14224 14227 14230 14232 14235 14238 14240 14243 14246 14249 14252 14255 14258 14261 14264 14267 14269 14272 14275 14278 14281 14283 14286 14288 14291 14294 14297 14299 14302 14304 14307 14310 14313 14316 14319 14322 14325 14328 14331 14334 14337 14340 14342 14345 14347 14350 14352 14354 14357 14359 14361 14364 14366 14369 14372 14374 14377 14379 14382 14385 14387 14390 14393 14395 14397 14400 14403 14405 14408 14411 14413 14416 14418 14420 14423 14426 14429 14431 14433 14436 14439 14441 14444 14447 14449 14451 14454 14457 14460 14463 14465 14468 14471 14473 14476 14479 14482 14485 14488 14491 14494 14496 14499 14502 14505 14507 14510 14513 14516 14519 14521 14524 14527 14529 14532 14534 14536 14539 14541 14543 14546 14549 14552 14554 14556 14559 14562 14564 14567 14569 14572 14574 14577 14580 14582 14585 14588 14590 14592 14595 14597 14600 14602 14605 14608 14611 14614 14616 14619 14622 14625 14628 14631 14634 14637 14640 14643 14646 14648 14651 14654 14657 14659 14662 14664 14667 14670 14673 14675 14678 14681 14684 14687 14690 14692 14695 14698 14701 14704 14707 14710 14712 14715 14718 14721 14724 14727 14730 14733 14736 14739 14742 14745 14748 14751 14754 14757 14760 14763 14766 14769 14771 14774 14777 14780 14783 14786 14788 14791 14793 14796 14799 14802 14805 14808 14810 14813 14816 14819 14822 14825 14827 14830 14833 14836 14839 14842 14844 14846 14849 14852 14855 14858 14861 14864 14867 14870 14873 14876 14879 14882 14885 14888 14891 14894 14897 14900 14903 14906 14908 14911 14914 14917 14920 14923 14926 14928 14931 14934 14937 14940 14943 14946 14948 14950 14953 14956 14959 14962 14965 14967 14970 14973 14975 14977 14980 14982 14985 14987 14990 14993 14996 14998 15001 15004 15007 15010 15012 15015 15018 15021 15024 15027 15029 15032 15035 15038 15041 15044 15046 15048 15051 15053 15056 15059 15061 15063 15066 15068 15070 15073 15076 15078 15081 15084 15087 15090 15093 15096 15099 15102 15105 15108 15111 15114 15117 15119 15121 15124 15127 15130 15133 15136 15139 15141 15144 15147 15149 15152 15155 15158 15161 15164 15166 15168 15171 15174 15177 15179 15182 15185 15188 15191 15194 15197 15199 15202 15205 15208 15211 15214 15217 15220 15223 15226 15229 15232 15235 15237 15239 15242 15245 15248 15251 15254 15257 15260 15263 15266 15269 15272 15275 15278 15281 15284 15287 15290 15293 15295 15298 15301 15304 15307 15310 15313 15316 15319 15322 15325 15328 15331 15334 15337 15340 15343 15346 15349 15352 15355 15358 15361 15364 15367 15370 15373 15376 15379 15382 15385 15388 15391 15394 15397 15399 15402 15405 15408 15411 15414 15417 15420 15423 15425 15428 15431 15434 15436 15439 15442 15445 15448 15451 15453 15456 15459 15461 15464 15467 15470 15472 15475 15478 15481 15484 15487 15489 15492 15495 15498 15501 15504 15506 15509 15512 15515 15518 15520 15523 15526 15529 15532 15535 15538 15541 15544 15547 15550 15553 15556 15559 15562 15565 15568 15571 15574 15577 15579 15582 15585 15588 15591 15594 15597 15600 15603 15606 15608 15611 15614 15617 15620 15623 15626 15629 15632 15635 15638 15641 15644 15647 15650 15653 15656 15659 15662 15665 15668 15671 15674 15677 15680 15683 15686 15689 15692 15695 15698 15701 15704 15707 15710 15713 15716 15719 15722 15725 15728 15731 15734 15737 15740 15743 15746 15749 15752 15755 15758 15761 15764 15767 15770 15773 15776 15779 15782 15785 15788 15791 15794 15797 15800 15803 15805 15808 15811 15814 15816 15819 15822 15825 15828 15831 15834 15837 15840 15843 15846 15849 15852 15855 15858 15861 15864 15867 15870 15873 15876 15879 15882 15885 15888 15891 15894 15897 15899 15902 15905 15908 15911 15914 15917 15920 15923 15925 15928 15931 15934 15937 15940 15943 15946 15949 15952 15955 15958 15961 15964 15967 15970 15973 15976 15979 15982 15985 15988 15991 15994 15997 16000 16003 16006 16009 16012 16015 16018 16021 16024 16027 16030 16033 16036 16039 16042 16044 16047 16050 16053 16056 16059 16062 16065 16067 16070 16072 16075 16078 16081 16084 16087 16090 16093 16096 16099 16102 16105 16108 16111 16114 16117 16120 16123 16126 16129 16132 16135 16138 16141 16144 16147 16150 16153 16155 16158 16160 16163 16165 16167 16170 16173 16176 16178 16180 16183 16185 16188 16191 16194 16197 16199 16202 16205 16208 16211 16214 16217 16220 16223 16226 16229 16232 16235 16238 16241 16243 16246 16249 16251 16254 16256 16258 16261 16264 16267 16269 16272 16275 16278 16281 16284 16287 16290 16293 16296 16299 16302 16305 16308 16311 16314 16317 16320 16323 16326 16329 16332 16335 16338 16341 16344 16347 16350 16353 16356 16359 16362 16365 16368 16371 16374 16377 16380 16383 16386 16389 16392 16395 16398 16401 16404 16407 16410 16413 16416 16419 16422 16425 16428 16431 16434 16437 16440 16443 16446 16449 16452 16455 16458 16460 16463 16466 16469 16472 16475 16478 16481 16484 16487 16489 16492 16494 16497 16500 16502 16505 16508 16511 16514 16517 16520 16523 16526 16529 16531 16534 16537 16540 16542 16545 16548 16551 16554 16557 16560 16563 16566 16569 16571 16574 16577 16580 16583 16586 16589 16592 16595 16598 16601 16603 16606 16609 16612 16615 16618 16621 16624 16627 16630 16633 16636 16639 16642 16645 16648 16651 16654 16657 16660 16663 16666 16669 16672 16674 16677 16679 16682 16685 16688 16691 16694 16697 16700 16703 16706 16709 16711 16714 16717 16720 16723 16726 16729 16732 16735 16738 16741 16744 16747 16750 16753 16756 16759 16762 16765 16768 16771 16774 16777 16780 16783 16786 16789 16792 16795 16798 16801 16804 16807 16810 16813 16816 16818 16821 16824 16827 16830 16832 16835 16838 16841 16844 16847 16850 16853 16856 16859 16862 16865 16868 16870 16873 16876 16879 16882 16885 16888 16891 16894 16897 16899 16902 16905 16908 16911 16913 16916 16919 16922 16925 16928 16931 16934 16936 16939 16941 16944 16947 16950 16953 16956 16959 16961 16964 16966 16968 16971 16974 16977 16979 16982 16985 16987 16990 16993 16996 16999 17001 17004 17007 17010 17013 17016 17019 17022 17025 17028 17030 17033 17036 17039 17042 17044 17047 17050 17053 17056 17058 17061 17064 17066 17069 17072 17074 17077 17079 17082 17085 17088 17091 17094 17097 17100 17103 17105 17108 17111 17114 17117 17120 17123 17126 17129 17132 17135 17137 17140 17142 17145 17148 17151 17154 17157 17160 17163 17166 17169 17172 17175 17178 17181 17184 17187 17190 17193 17196 17199 17202 17205 17208 17211 17214 17217 17220 17223 17226 17229 17232 17235 17238 17241 17244 17247 17250 17253 17256 17259 17262 17265 17268 17271 17274 17277 17280 17283 17286 17289 17292 17295 17298 17301 17304 17307 17310 17313 17316 17319 17322 17325 17328 17331 17334 17336 17339 17342 17345 17348 17351 17354 17357 17360 17363 17365 17368 17371 17374 17377 17380 17383 17386 17389 17392 17395 17397 17400 17403 17406 17409 17412 17415 17418 17421 17424 17427 17430 17433 17436 17439 17442 17444 17447 17450 17453 17456 17458 17461 17464 17466 17469 17472 17475 17478 17481 17484 17486 17489 17491 17494 17497 17500 17502 17505 17507 17509 17512 17515 17518 17520 17523 17526 17529 17532 17535 17538 17541 17544 17547 17550 17552 17555 17558 17561 17563 17566 17569 17571 17574 17576 17578 17580 17583 17586 17588 17591 17593 17595 17598 17601 17604 17606 17609 17611 17614 17616 17619 17622 17624 17627 17630 17633 17635 17638 17640 17643 17645 17648 17651 17654 17657 17660 17662 17665 17668 17671 17674 17676 17679 17681 17684 17687 17689 17691 17694 17696 17699 17702 17705 17708 17711 17713 17716 17719 17722 17725 17728 17731 17733 17736 17739 17742 17745 17748 17751 17754 17757 17760 17763 17766 17769 17772 17775 17778 17781 17784 17787 17790 17793 17796 17799 17802 17805 17808 17811 17814 17817 17820 17823 17826 17829 17832 17835 17838 17841 17844 17847 17849 17852 17855 17858 17861 17864 17867 17870 17873 17876 17879 17882 17885 17888 17891 17894 17897 17900 17903 17906 17909 17912 17915 17918 17921 17924 17927 17930 17933 17936 17939 17942 17945 17948 17951 17954 17957 17960 17963 17966 17969 17972 17975 17978 17981 17983 17986 17989 17991 17994 17997 17999 18002 18005 18008 18011 18014 18017 18020 18023 18026 18029 18032 18035 18038 18041 18044 18047 18050 18053 18056 18058 18061 18064 18067 18070 18072 18075 18077 18080 18082 18085 18088 18091 18094 18096 18099 18102 18105 18108 18111 18114 18117 18120 18123 18125 18128 18131 18134 18137 18139 18142 18144 18147 18150 18153 18156 18159 18161 18164 18167 18170 18173 18176 18179 18182 18185 18188 18191 18193 18196 18199 18202 18205 18208 18211 18214 18217 18220 18223 18226 18228 18231 18234 18237 18239 18242 18245 18248 18251 18254 18257 18260 18263 18266 18269 18271 18274 18277 18280 18283 18286 18289 18292 18295 18298 18300 18303 18306 18309 18312 18315 18318 18320 18323 18326 18329 18332 18335 18337 18340 18343 18346 18349 18352 18355 18358 18361 18364 18367 18370 18373 18376 18379 18382 18385 18388 18390 18393 18396 18399 18402 18405 18407 18409 18411 18414 18416 18419 18422 18425 18428 18431 18434 18437 18440 18443 18446 18449 18452 18455 18458 18461 18464 18467 18470 18473 18476 18479 18482 18485 18488 18491 18494 18497 18500 18502 18505 18508 18511 18514 18517 18520 18523 18525 18528 18531 18534 18537 18540 18543 18546 18549 18552 18555 18558 18560 18563 18566 18569 18572 18575 18578 18581 18583 18586 18588 18591 18594 18597 18599 18602 18605 18607 18610 18613 18616 18619 18622 18625 18628 18631 18634 18637 18640 18643 18646 18649 18651 18653 18656 18659 18662 18665 18668 18670 18673 18676 18679 18682 18684 18687 18690 18692 18695 18698 18701 18703 18706 18709 18712 18715 18717 18720 18723 18726 18729 18732 18735 18738 18741 18744 18747 18750 18753 18756 18759 18762 18765 18767 18770 18773 18776 18779 18782 18785 18787 18790 18792 18795 18797 18800 18803 18806 18809 18812 18815 18817 18819 18822 18825 18828 18831 18834 18836 18839 18842 18845 18848 18851 18854 18857 18860 18863 18866 18869 18872 18875 18878 18881 18883 18886 18889 18892 18895 18897 18900 18903 18906 18909 18912 18915 18918 18921 18924 18927 18930 18932 18935 18938 18941 18944 18947 18950 18953 18956 18959 18962 18965 18968 18971 18974 18977 18980 18983 18986 18989 18992 18995 18998 19001 19004 19006 19009 19012 19015 19018 19021 19023 19025 19028 19031 19034 19037 19040 19042 19044 19047 19049 19052 19055 19058 19061 19064 19067 19070 19072 19074 19077 19079 19082 19084 19087 19090 19093 19096 19099 19102 19105 19108 19111 19114 19117 19119 19122 19125 19128 19131 19134 19137 19140 19143 19146 19149 19152 19155 19158 19161 19164 19167 19170 19173 19176 19179 19182 19185 19188 19191 19194 19197 19200 19203 19205 19208 19211 19213 19216 19219 19222 19224 19227 19230 19233 19235 19237 19240 19243 19246 19249 19252 19255 19258 19261 19263 19265 19268 19271 19274 19277 19280 19283 19286 19289 19291 19294 19297 19300 19303 19306 19309 19312 19315 19318 19321 19324 19327 19330 19333 19336 19339 19342 19345 19348 19351 19354 19357 19360 19363 19366 19369 19372 19375 19378 19381 19384 19387 19390 19393 19396 19399 19401 19404 19406 19409 19412 19415 19418 19421 19424 19427 19430 19433 19436 19438 19441 19444 19447 19450 19452 19455 19458 19461 19464 19466 19469 19472 19475 19478 19481 19484 19487 19489 19492 19494 19497 19499 19502 19505 19508 19511 19514 19516 19519 19522 19525 19528 19530 19533 19536 19539 19542 19545 19548 19551 19554 19557 19560 19563 19566 19569 19572 19575 19578 19581 19584 19587 19590 19593 19596 19599 19602 19605 19608 19611 19614 19617 19620 19623 19626 19629 19632 19635 19638 19641 19644 19647 19650 19653 19656 19659 19662 19665 19668 19671 19674 19677 19680 19683 19686 19689 19692 19695 19698 19701 19704 19707 19710 19713 19716 19719 19722 19724 19727 19730 19733 19736 19739 19742 19745 19748 19751 19754 19757 19760 19763 19766 19769 19772 19774 19777 19780 19782 19785 19788 19791 19794 19797 19800 19803 19806 19809 19812 19815 19818 19821 19824 19827 19830 19833 19836 19839 19842 19845 19848 19851 19854 19857 19859 19862 19865 19868 19870 19873 19876 19878 19881 19884 19887 19890 19893 19895 19898 19901 19904 19907 19910 19913 19916 19919 19922 19925 19928 19931 19934 19936 19939 19942 19945 19947 19950 19952 19955 19957 19960 19963 19966 19969 19972 19975 19978 19981 19984 19987 19990 19993 19996 19999 20001 20004 20007 20010 20012 20015 20017 20020 20023 20026 20028 20031 20034 20037 20040 20043 20046 20049 20052 20055 20058 20061 20064 20067 20070 20073 20076 20079 20082 20085 20088 20090 20093 20096 20099 20102 20105 20108 20111 20114 20117 20120 20123 20126 20129 20132 20135 20138 20141 20144 20147 20150 20153 20156 20159 20162 20165 20168 20171 20174 20177 20180 20183 20186 20189 20192 20195 20198 20201 20204 20207 20210 20212 20215 20218 20221 20224 20227 20230 20233 20236 20238 20241 20244 20247 20249 20252 20255 20258 20261 20264 20267 20270 20273 20276 20279 20282 20285 20288 20291 20294 20297 20299 20302 20305 20308 20311 20314 20317 20320 20323 20326 20329 20332 20335 20338 20341 20344 20347 20350 20353 20355 20358 20361 20364 20367 20370 20373 20376 20379 20382 20384 20387 20390 20393 20396 20399 20402 20405 20408 20411 20413 20416 20419 20422 20425 20428 20431 20434 20437 20440 20442 20445 20448 20451 20454 20457 20460 20462 20465 20468 20471 20474 20477 20480 20483 20486 20489 20491 20494 20496 20499 20502 20505 20508 20510 20512 20515 20518 20520 20523 20526 20529 20532 20535 20538 20541 20544 20547 20550 20553 20556 20559 20562 20565 20568 20571 20574 20577 20580 20583 20586 20589 20592 20595 20598 20601 20604 20607 20610 20612 20615 20618 20621 20624 20627 20630 20633 20636 20639 20642 20645 20647 20650 20653 20656 20659 20662 20665 20668 20671 20674 20676 20679 20682 20684 20687 20690 20693 20696 20699 20702 20705 20708 20711 20714 20717 20720 20723 20726 20729 20732 20735 20738 20741 20744 20747 20750 20753 20756 20759 20762 20765 20768 20771 20774 20777 20780 20783 20786 20789 20792 20795 20798 20801 20804 20807 20810 20813 20816 20819 20822 20825 20828 20831 20834 20837 20840 20843 20846 20849 20852 20855 20858 20861 20864 20867 20870 20873 20876 20879 20882 20885 20888 20891 20894 20897 20900 20903 20906 20909 20912 20915 20918 20921 20924 20927 20930 20933 20936 20939 20942 20945 20948 20951 20954 20957 20960 20963 20966 20969 20972 20975 20978 20981 20984 20987 20990 20993 20996 20999 21002 21005 21008 21011 21014 21017 21020 21023 21026 21029 21032 21035 21038 21041 21044 21047 21050 21053 21056 21059 21062 21065 21068 21071 21074 21077 21080 21083 21086 21089 21092 21095 21098 21101 21104 21107 21110 21113 21116 21118 21120 21122 21124 21127 21130 21133 21136 21139 21142 21145 21148 21151 21153 21156 21159 21161 21164 21167 21170 21173 21176 21179 21182 21185 21188 21191 21194 21197 21199 21202 21205 21208 21211 21213 21216 21219 21222 21225 21227 21230 21233 21236 21239 21242 21245 21247 21249 21252 21255 21258 21261 21264 21267 21270 21272 21275 21278 21281 21284 21287 21289 21292 21295 21298 21301 21304 21307 21310 21313 21316 21319 21321 21324 21327 21330 21333 21336 21339 21342 21344 21347 21350 21353 21356 21359 21361 21364 21367 21370 21373 21376 21379 21382 21385 21388 21391 21394 21397 21400 21403 21406 21409 21412 21415 21418 21421 21424 21427 21430 21433 21436 21439 21442 21445 21448 21451 21454 21457 21460 21463 21466 21468 21471 21474 21477 21480 21483 21486 21489 21492 21495 21498 21501 21503 21505 21508 21511 21514 21516 21519 21521 21524 21527 21530 21533 21535 21538 21541 21544 21547 21550 21553 21556 21559 21562 21565 21568 21571 21574 21577 21580 21583 21586 21589 21592 21595 21598 21601 21604 21607 21610 21613 21616 21619 21622 21625 21628 21630 21633 21636 21639 21642 21645 21648 21650 21653 21656 21659 21662 21665 21668 21671 21674 21677 21679 21682 21685 21688 21691 21694 21697 21699 21702 21705 21708 21711 21714 21717 21720 21722 21725 21728 21731 21734 21737 21740 21742 21745 21748 21750 21752 21754 21757 21760 21763 21765 21768 21771 21773 21775 21778 21781 21783 21786 21789 21792 21794 21797 21800 21803 21805 21808 21811 21814 21816 21819 21822 21825 21827 21830 21833 21836 21839 21842 21845 21847 21850 21853 21856 21859 21862 21865 21868 21871 21874 21877 21880 21883 21886 21889 21892 21895 21898 21900 21903 21906 21909 21911 21914 21917 21919 21922 21925 21928 21931 21934 21937 21940 21943 21946 21949 21952 21955 21957 21960 21963 21966 21969 21972 21975 21978 21981 21984 21987 21990 21993 21996 21998 22000 22003 22006 22009 22012 22015 22018 22020 22023 22026 22028 22031 22034 22037 22040 22043 22046 22049 22052 22055 22058 22061 22064 22066 22069 22072 22075 22078 22081 22084 22087 22090 22093 22096 22099 22102 22105 22108 22110 22113 22116 22119 22122 22125 22128 22131 22133 22135 22138 22141 22144 22147 22150 22153 22156 22159 22162 22165 22168 22171 22174 22177 22180 22183 22186 22189 22192 22195 22198 22201 22204 22207 22209 22212 22215 22218 22221 22224 22227 22229 22232 22235 22238 22240 22243 22246 22249 22251 22254 22257 22259 22262 22265 22268 22271 22274 22276 22279 22281 22284 22287 22290 22293 22295 22298 22301 22304 22307 22310 22312 22315 22318 22320 22322 22325 22328 22331 22334 22336 22339 22342 22345 22348 22351 22354 22357 22359 22362 22365 22368 22371 22374 22377 22380 22383 22386 22388 22391 22394 22397 22400 22403 22406 22408 22411 22414 22416 22419 22421 22424 22427 22430 22433 22435 22438 22441 22444 22447 22450 22453 22456 22459 22462 22464 22467 22470 22473 22476 22478 22480 22483 22486 22489 22492 22495 22498 22501 22504 22507 22510 22513 22516 22519 22522 22525 22528 22531 22534 22537 22540 22543 22546 22549 22551 22554 22557 22560 22562 22565 22568 22571 22574 22577 22580 22583 22586 22589 22592 22594 22596 22599 22601 22604 22607 22610 22612 22615 22618 22621 22624 22627 22630 22633 22636 22639 22642 22645 22648 22651 22654 22657 22660 22663 22666 22669 22672 22675 22677 22680 22683 22686 22689 22691 22694 22697 22700 22703 22705 22708 22711 22713 22716 22719 22722 22724 22727 22730 22733 22736 22739 22742 22745 22748 22751 22754 22757 22760 22763 22765 22768 22771 22774 22777 22779 22782 22785 22787 22790 22792 22795 22798 22801 22804 22807 22810 22813 22816 22819 22822 22825 22828 22831 22834 22837 22840 22843 22845 22848 22851 22854 22857 22860 22863 22865 22868 22871 22874 22877 22879 22882 22885 22887 22890 22893 22896 22899 22902 22905 22908 22911 22914 22916 22919 22921 22923 22926 22929 22932 22935 22938 22940 22943 22946 22949 22952 22955 22958 22961 22964 22967 22970 22973 22976 22978 22981 22984 22987 22990 22993 22996 22999 23002 23005 23008 23011 23014 23017 23020 23022 23025 23028 23031 23034 23037 23040 23043 23046 23049 23052 23055 23058 23061 23064 23067 23070 23072 23075 23078 23081 23084 23087 23090 23093 23095 23098 23101 23104 23107 23110 23113 23115 23118 23120 23123 23126 23129 23132 23135 23138 23141 23144 23147 23150 23153 23156 23159 23162 23165 23168 23171 23174 23177 23180 23183 23186 23189 23192 23195 23198 23201 23203 23206 23209 23212 23215 23218 23221 23223 23225 23228 23231 23234 23237 23240 23242 23245 23248 23251 23253 23256 23259 23261 23264 23267 23270 23273 23275 23278 23281 23284 23287 23290 23293 23296 23298 23301 23304 23306 23308 23311 23314 23317 23320 23323 23326 23329 23332 23335 23338 23341 23344 23347 23350 23353 23356 23358 23361 23364 23367 23369 23372 23375 23378 23381 23384 23387 23389 23392 23395 23397 23400 23403 23406 23409 23412 23415 23418 23421 23424 23426 23429 23432 23435 23438 23441 23444 23447 23450 23452 23455 23458 23461 23464 23466 23469 23472 23475 23478 23481 23484 23486 23489 23492 23495 23498 23501 23504 23507 23510 23512 23515 23518 23521 23524 23527 23530 23533 23536 23538 23540 23543 23546 23549 23552 23555 23558 23561 23564 23566 23569 23571 23574 23577 23580 23583 23585 23588 23590 23592 23595 23598 23601 23604 23607 23610 23613 23616 23619 23622 23625 23628 23630 23633 23635 23637 23640 23643 23646 23649 23651 23654 23657 23659 23662 23665 23667 23670 23672 23675 23678 23681 23684 23687 23690 23693 23696 23699 23702 23705 23708 23711 23714 23717 23720 23723 23726 23729 23732 23735 23738 23741 23744 23747 23749 23752 23755 23758 23761 23764 23767 23769 23771 23774 23777 23780 23783 23786 23789 23792 23795 23798 23801 23804 23807 23810 23813 23816 23819 23822 23825 23828 23831 23834 23836 23839 23841 23844 23847 23849 23852 23854 23857 23860 23863 23866 23869 23872 23875 23878 23881 23884 23887 23890 23893 23896 23899 23902 23905 23908 23911 23914 23917 23920 23923 23926 23929 23931 23934 23937 23940 23943 23946 23949 23952 23955 23958 23961 23964 23967 23970 23973 23976 23979 23982 23985 23988 23991 23994 23997 24000 24003 24006 24008 24011 24014 24017 24020 24023 24026 24029 24032 24035 24037 24040 24042 24045 24048 24051 24053 24056 24059 24062 24065 24068 24071 24074 24077 24080 24083 24086 24088 24091 24094 24097 24100 24103 24106 24109 24112 24115 24118 24121 24124 24127 24130 24133 24136 24139 24142 24145 24148 24151 24154 24157 24160 24163 24166 24169 24172 24174 24176 24179 24182 24184 24187 24190 24193 24196 24199 24201 24204 24207 24210 24213 24216 24218 24221 24224 24227 24230 24233 24236 24238 24241 24244 24247 24250 24252 24255 24257 24260 24263 24266 24269 24272 24275 24278 24281 24283 24286 24289 24292 24295 24298 24301 24304 24307 24310 24313 24316 24318 24321 24324 24327 24329 24331 24334 24337 24340 24343 24345 24348 24350 24353 24356 24359 24362 24365 24368 24371 24374 24377 24380 24383 24385 24388 24391 24394 24397 24400 24403 24405 24408 24410 24413 24415 24417 24419 24422 24425 24428 24431 24434 24436 24439 24442 24444 24447 24450 24453 24456 24459 24462 24465 24468 24471 24474 24477 24480 24483 24485 24487 24489 24492 24495 24498 24500 24503 24505 24507 24510 24513 24516 24519 24521 24524 24527 24530 24533 24536 24539 24542 24545 24548 24551 24553 24556 24558 24561 24564 24567 24570 24573 24576 24579 24582 24585 24587 24590 24592 24595 24598 24601 24603 24606 24608 24611 24613 24616 24619 24621 24623 24626 24629 24632 24635 24637 24640 24643 24645 24647 24649 24652 24655 24657 24660 24662 24665 24668 24671 24674 24676 24678 24680 24683 24686 24688 24691 24694 24696 24698 24701 24704 24707 24710 24712 24715 24717 24719 24722 24725 24728 24730 24732 24734 24737 24740 24743 24746 24749 24752 24754 24757 24760 24763 24765 24768 24770 24773 24776 24778 24781 24784 24787 24790 24793 24796 24798 24800 24803 24806 24809 24812 24815 24818 24821 24823 24826 24829 24832 24835 24838 24841 24844 24847 24850 24853 24856 24859 24862 24865 24867 24870 24873 24875 24878 24881 24884 24887 24890 24893 24896 24899 24902 24905 24908 24911 24914 24917 24920 24923 24926 24928 24931 24934 24936 24939 24942 24944 24946 24949 24952 24955 24957 24960 24963 24966 24969 24972 24975 24977 24980 24983 24986 24989 24992 24995 24998 25000 25003 25006 25009 25011 25014 25017 25020 25022 25025 25027 25030 25032 25035 25038 25040 25043 25046 25048 25051 25054 25057 25059 25062 25064 25067 25070 25072 25075 25077 25080 25082 25084 25087 25090 25093 25095 25098 25100 25102 25105 25108 25111 25113 25115 25117 25120 25123 25126 25129 25132 25135 25138 25141 25144 25147 25149 25152 25155 25158 25161 25164 25167 25170 25173 25175 25178 25181 25184 25187 25189 25192 25195 25198 25201 25204 25207 25210 25213 25216 25219 25221 25224 25226 25229 25232 25235 25238 25241 25244 25247 25250 25253 25256 25259 25262 25265 25268 25271 25274 25276 25279 25282 25285 25287 25289 25292 25295 25298 25300 25302 25305 25308 25311 25314 25316 25319 25322 25324 25327 25330 25333 25335 25338 25340 25342 25345 25347 25350 25353 25356 25359 25362 25365 25368 25371 25374 25377 25380 25382 25385 25388 25391 25393 25396 25399 25402 25405 25408 25411 25413 25416 25419 25421 25424 25427 25429 25432 25435 25438 25441 25444 25447 25450 25453 25456 25459 25462 25465 25468 25471 25474 25477 25480 25483 25486 25489 25492 25495 25498 25501 25504 25507 25510 25513 25516 25518 25521 25524 25527 25530 25533 25536 25539 25542 25545 25548 25551 25554 25557 25560 25563 25566 25569 25572 25575 25578 25581 25584 25587 25590 25593 25596 25599 25602 25605 25608 25610 25613 25616 25619 25621 25624 25627 25630 25633 25636 25639 25642 25645 25648 25651 25654 25657 25660 25663 25666 25669 25672 25675 25678 25680 25682 25684 25687 25690 25692 25694 25697 25700 25703 25706 25708 25710 25713 25716 25718 25721 25724 25727 25730 25732 25735 25738 25741 25744 25747 25750 25753 25756 25759 25762 25765 25768 25771 25774 25777 25780 25783 25786 25789 25792 25795 25798 25801 25804 25807 25810 25813 25816 25819 25822 25825 25828 25831 25834 25836 25838 25841 25844 25847 25849 25852 25855 25858 25861 25864 25867 25870 25873 25876 25879 25881 25884 25887 25890 25892 25895 25898 25901 25904 25907 25910 25913 25916 25919 25922 25925 25928 25931 25934 25937 25940 25943 25946 25949 25952 25955 25958 25961 25964 25967 25970 25973 25976 25979 25981 25984 25987 25990 25993 25996 25999 26001 26004 26007 26010 26013 26015 26018 26020 26023 26026 26028 26031 26034 26037 26040 26042 26045 26047 26050 26053 26056 26059 26062 26064 26067 26069 26072 26075 26078 26081 26084 26087 26090 26093 26095 26098 26101 26104 26107 26110 26112 26115 26118 26121 26124 26127 26129 26132 26135 26138 26141 26144 26146 26149 26151 26153 26156 26158 26161 26163 26165 26168 26170 26173 26175 26178 26181 26183 26186 26189 26192 26195 26198 26201 26204 26207 26210 26213 26216 26218 26221 26224 26227 26230 26233 26236 26238 26241 26244 26247 26250 26253 26256 26259 26262 26265 26268 26271 26274 26277 26280 26283 26286 26289 26292 26295 26298 26301 26304 26307 26310 26313 26316 26318 26321 26324 26326 26328 26331 26333 26336 26339 26342 26345 26348 26351 26354 26357 26360 26363 26366 26369 26372 26375 26378 26381 26383 26386 26388 26391 26394 26397 26400 26403 26406 26409 26412 26414 26417 26419 26422 26425 26427 26429 26432 26435 26437 26440 26443 26446 26449 26452 26455 26458 26460 26463 26466 26468 26471 26474 26477 26480 26483 26486 26489 26492 26495 26498 26501 26504 26507 26510 26513 26516 26519 26521 26524 26526 26529 26532 26535 26538 26541 26544 26547 26550 26553 26556 26559 26562 26565 26567 26569 26572 26575 26578 26581 26584 26587 26589 26592 26595 26597 26600 26603 26606 26609 26612 26615 26618 26621 26624 26627 26629 26632 26635 26637 26640 26643 26646 26648 26651 26653 26656 26658 26661 26663 26665 26668 26671 26674 26676 26679 26682 26685 26688 26691 26694 26697 26700 26703 26706 26709 26712 26715 26718 26721 26724 26727 26730 26733 26735 26738 26741 26744 26747 26750 26753 26756 26758 26761 26764 26767 26770 26772 26775 26778 26781 26784 26787 26790 26793 26796 26799 26802 26805 26808 26811 26814 26817 26820 26823 26826 26829 26832 26835 26838 26841 26844 26846 26849 26852 26855 26858 26861 26864 26866 26869 26872 26875 26878 26881 26884 26887 26890 26893 26896 26899 26902 26905 26908 26910 26913 26915 26918 26921 26924 26927 26929 26932 26935 26938 26941 26943 26946 26949 26951 26954 26956 26959 26962 26964 26967 26970 26973 26976 26978 26981 26984 26987 26990 26993 26995 26997 27000 27002 27005 27008 27011 27014 27017 27020 27023 27026 27029 27032 27035 27038 27040 27043 27046 27049 27051 27054 27056 27059 27062 27064 27067 27070 27073 27076 27079 27082 27085 27087 27090 27093 27096 27098 27101 27104 27106 27109 27112 27114 27117 27119 27121 27124 27127 27130 27132 27135 27138 27141 27144 27147 27150 27153 27156 27159 27162 27165 27167 27170 27173 27176 27179 27182 27185 27188 27191 27194 27197 27200 27203 27206 27209 27212 27215 27218 27221 27224 27227 27229 27232 27235 27238 27241 27243 27246 27249 27252 27255 27258 27261 27264 27267 27270 27273 27276 27278 27281 27284 27286 27289 27291 27294 27297 27300 27303 27306 27309 27312 27315 27318 27320 27323 27326 27329 27332 27335 27338 27341 27344 27347 27350 27352 27355 27358 27361 27364 27367 27370 27373 27375 27378 27381 27384 27386 27388 27391 27394 27397 27400 27403 27406 27409 27412 27414 27417 27420 27422 27425 27428 27431 27434 27437 27440 27443 27446 27449 27452 27455 27458 27461 27464 27466 27469 27472 27475 27478 27481 27484 27487 27490 27493 27496 27499 27502 27505 27508 27511 27514 27517 27520 27523 27526 27529 27531 27534 27537 27539 27542 27545 27548 27551 27554 27557 27560 27563 27566 27569 27572 27575 27578 27581 27584 27586 27589 27592 27595 27598 27601 27604 27607 27609 27612 27615 27617 27620 27623 27626 27629 27632 27635 27638 27641 27644 27647 27650 27652 27655 27658 27661 27663 27666 27669 27672 27675 27678 27681 27684 27687 27689 27692 27695 27698 27701 27704 27707 27709 27712 27715 27718 27721 27724 27727 27730 27733 27736 27739 27742 27745 27748 27751 27754 27757 27760 27763 27766 27769 27772 27774 27777 27780 27783 27786 27788 27791 27794 27797 27800 27803 27806 27809 27811 27814 27817 27820 27822 27825 27828 27831 27834 27837 27840 27843 27846 27848 27851 27853 27856 27859 27862 27865 27868 27871 27874 27876 27879 27882 27885 27888 27891 27894 27897 27899 27901 27904 27907 27910 27913 27915 27917 27920 27923 27926 27928 27931 27934 27937 27940 27943 27946 27949 27952 27954 27957 27960 27962 27965 27968 27971 27974 27976 27978 27981 27984 27987 27990 27993 27996 27999 28002 28005 28007 28010 28013 28015 28018 28021 28024 28027 28030 28033 28036 28039 28041 28044 28047 28050 28053 28056 28058 28061 28064 28067 28070 28073 28076 28079 28082 28085 28088 28090 28093 28096 28099 28102 28105 28108 28111 28114 28117 28120 28123 28126 28129 28132 28135 28138 28140 28143 28146 28149 28152 28155 28158 28160 28162 28165 28167 28170 28173 28176 28179 28182 28185 28188 28191 28194 28197 28200 28203 28206 28209 28212 28215 28218 28221 28224 28226 28229 28232 28234 28236 28239 28242 28245 28248 28251 28254 28257 28260 28263 28266 28269 28272 28274 28277 28280 28283 28286 28289 28292 28295 28298 28301 28304 28307 28310 28313 28316 28319 28322 28325 28328 28331 28334 28336 28339 28341 28344 28347 28350 28353 28356 28359 28362 28365 28368 28371 28374 28377 28380 28383 28386 28389 28392 28395 28398 28401 28404 28406 28409 28412 28415 28418 28420 28423 28426 28429 28432 28435 28438 28441 28444 28447 28449 28451 28454 28457 28460 28463 28465 28468 28471 28474 28477 28480 28483 28485 28488 28490 28493 28496 28499 28502 28505 28508 28511 28514 28517 28520 28523 28526 28529 28532 28535 28538 28541 28544 28547 28550 28553 28555 28558 28560 28563 28565 28568 28571 28573 28576 28578 28581 28584 28587 28590 28593 28595 28597 28600 28603 28606 28608 28611 28614 28616 28619 28622 28625 28628 28631 28634 28637 28639 28641 28644 28647 28650 28652 28655 28658 28661 28664 28667 28670 28673 28676 28678 28681 28684 28687 28690 28693 28696 28699 28701 28704 28707 28710 28713 28716 28719 28722 28725 28728 28731 28733 28736 28738 28741 28744 28747 28750 28753 28756 28758 28761 28764 28767 28770 28772 28775 28778 28781 28784 28786 28789 28792 28795 28798 28801 28803 28806 28809 28812 28815 28818 28821 28824 28827 28829 28832 28835 28838 28841 28844 28847 28850 28852 28855 28858 28861 28863 28866 28869 28872 28875 28878 28881 28884 28887 28890 28893 28896 28899 28902 28905 28908 28911 28914 28917 28920 28923 28926 28929 28932 28935 28938 28941 28944 28947 28950 28953 28956 28959 28962 28965 28968 28971 28974 28977 28980 28982 28985 28988 28991 28994 28997 29000 29003 29006 29008 29011 29013 29016 29019 29022 29025 29027 29030 29033 29036 29039 29042 29045 29048 29051 29054 29057 29060 29063 29066 29069 29072 29075 29078 29081 29084 29087 29089 29092 29095 29098 29101 29104 29107 29110 29112 29115 29118 29121 29124 29127 29130 29132 29135 29138 29140 29143 29145 29148 29151 29153 29156 29159 29162 29165 29168 29171 29174 29177 29179 29182 29185 29187 29190 29193 29196 29199 29202 29205 29208 29211 29214 29217 29220 29223 29226 29229 29231 29234 29237 29240 29243 29245 29248 29251 29253 29256 29258 29261 29264 29267 29270 29272 29275 29278 29281 29284 29287 29290 29293 29296 29299 29302 29305 29308 29310 29313 29316 29319 29322 29325 29328 29330 29333 29336 29339 29342 29345 29348 29351 29353 29356 29359 29362 29365 29368 29371 29374 29377 29380 29383 29386 29389 29392 29395 29398 29401 29404 29407 29410 29413 29416 29419 29422 29424 29427 29430 29433 29436 29438 29441 29444 29447 29450 29452 29455 29458 29461 29464 29467 29470 29473 29476 29479 29482 29485 29488 29491 29494 29497 29500 29503 29506 29509 29512 29515 29518 29521 29524 29527 29530 29533 29536 29539 29542 29545 29548 29551 29554 29557 29560 29563 29566 29569 29572 29575 29577 29580 29583 29586 29589 29592 29595 29598 29601 29604 29607 29610 29613 29615 29618 29621 29624 29627 29630 29633 29636 29639 29642 29645 29648 29651 29654 29656 29659 29662 29665 29668 29671 29674 29677 29680 29683 29686 29689 29692 29695 29698 29701 29703 29706 29709 29712 29715 29718 29720 29723 29726 29729 29732 29735 29738 29741 29744 29747 29750 29753 29756 29759 29762 29765 29768 29771 29774 29777 29780 29783 29786 29789 29792 29795 29797 29800 29803 29806 29809 29812 29815 29818 29821 29824 29827 29830 29833 29836 29839 29842 29845 29848 29851 29854 29857 29860 29863 29866 29869 29872 29875 29878 29881 29884 29887 29890 29893 29896 29899 29902 29905 29908 29911 29914 29917 29920 29923 29926 29929 29932 29935 29938 29941 29944 29947 29950 29953 29956 29958 29961 29964 29967 29970 29973 29976 29979 29982 29985 29988 29991 29994 29997 30000 30003 30006 30009 30012 30015 30017 30020 30023 30026 30029 30032 30035 30038 30041 30043 30046 30049 30052 30055 30058 30060 30062 30065 30068 30071 30074 30077 30079 30082 30085 30087 30090 30092 30095 30098 30100 30102 30104 30107 30109 30112 30115 30118 30121 30124 30127 30130 30132 30134 30137 30140 30143 30145 30148 30151 30154 30157 30160 30163 30166 30168 30170 30173 30176 30178 30181 30184 30187 30190 30192 30195 30197 30200 30203 30205 30208 30211 30213 30216 30219 30222 30225 30228 30231 30234 30237 30240 30243 30246 30249 30252 30255 30258 30261 30264 30267 30270 30273 30276 30278 30281 30283 30286 30288 30291 30294 30297 30300 30303 30305 30308 30311 30314 30317 30320 30322 30325 30327 30330 30333 30336 30339 30341 30344 30347 30350 30353 30356 30359 30362 30365 30367 30370 30373 30376 30379 30382 30385 30388 30391 30393 30396 30399 30402 30405 30408 30411 30414 30417 30420 30423 30425 30428 30431 30434 30437 30440 30443 30446 30449 30452 30455 30457 30460 30463 30466 30469 30472 30475 30478 30481 30484 30487 30490 30493 30496 30498 30501 30504 30507 30509 30512 30515 30517 30520 30523 30525 30528 30531 30534 30537 30540 30543 30546 30549 30551 30554 30557 30559 30562 30565 30568 30570 30573 30576 30579 30582 30585 30588 30590 30592 30595 30597 30600 30602 30605 30607 30609 30612 30615 30618 30621 30624 30627 30630 30633 30636 30638 30640 30643 30646 30649 30652 30655 30658 30660 30663 30666 30669 30672 30675 30678 30681 30684 30687 30690 30693 30695 30698 30701 30704 30707 30710 30713 30716 30718 30721 30724 30727 30730 30733 30736 30738 30741 30743 30746 30749 30752 30754 30757 30760 30763 30766 30769 30772 30775 30778 30781 30784 30787 30790 30793 30796 30799 30802 30805 30808 30811 30814 30817 30820 30823 30826 30829 30832 30835 30838 30841 30844 30847 30850 30853 30856 30859 30862 30865 30868 30871 30874 30877 30880 30883 30886 30889 30892 30894 30897 30900 30903 30906 30909 30911 30914 30917 30920 30922 30925 30928 30931 30934 30937 30940 30942 30945 30948 30951 30954 30957 
</DataArray>
<DataArray type="UInt32" Name="types" format="ascii">
5 5 5 5 5 5 5 5 5 5 5 5 5 5 3 5 5 5 5 5 5 3 5 3 5 5 5 5 5 5 5 5 5 5 5 5 5 5 5 5 5 5 5 5 5 5 3 5 5 5 5 5 5 3 5 3 5 5 5 5 5 5 5 5 5 5 5 5 5 5 3 5 5 5 5 5 5 5 5 5 5 5 3 5 3 5 5 5 3 5 5 5 5 5 3 3 5 5 5 5 5 5 5 5 5 5 3 5 5 5 3 5 5 5 5 5 5 5 5 5 5 3 5 3 5 5 3 5 5 5 5 5 5 5 3 5 5 5 5 5 5 5 5 3 5 5 3 5 5 3 5 5 3 5 5 5 5 5 5 5 5 5 5 5 5 5 3 5 5 3 5 3 3 5 5 5 5 5 5 5 5 5 3 5 5 5 5 5 5 5 5 5 5 5 5 5 5 5 5 5 5 5 5 5 5 5 5 5 5 5 5 5 5 5 3 3 5 5 3 3 5 5 3 5 3 5 5 3 5 3 5 5 5 5 5 5 5 5 3 5 5 5 3 5 5 3 5 3 5 5 3 3 5 5 5 3 5 5 3 3 5 5 5 5 3 3 3 5 5 5 3 5 5 3 5 5 5 5 5 5 5 3 5 5 3 5 5 5 5 3 5 5 5 5 5 5 5 5 3 5 5 3 5 3 5 5 5 3 5 5 5 5 5 5 5 5 5 5 5 5 3 5 5 5 5 3 5 3 3 5 5 5 5 5 5 5 5 5 5 3 3 5 5 5 5 5 5 5 5 5 5 5 5 5 5 5 5 5 5 5 5 5 5 5 5 5 5 5 5 5 5 5 5 5 5 5 5 5 5 5 5 5 5 5 5 5 5 5 5 5 5 5 5 5 5 5 5 5 5 3 5 5 3 5 5 5 5 5 5 5 5 5 5 5 5 3 5 5 5 5 5 5 3 3 5 5 5 5 5 3 3 5 5 5 5 3 5 3 5 5 5 5 5 3 5 3 5 5 3 3 3 5 5 5 3 5 5 5 3 5 5 3 5 5 5 5 5 5 5 5 5 5 5 5 5 5 5 5 5 5 5 5 5 5 5 5 5 5 3 5 5 5 5 5 5 5 5 5 5 5 5 5 5 5 5 5 5 5 5 5 5 5 5 5 5 5 5 5 5 5 5 5 5 5 5 3 5 5 5 5 5 5 5 5 5 5 5 5 5 5 5 5 5 3 5 3 5 5 5 5 3 5 5 3 5 5 5 5 5 5 3 5 5 5 5 5 5 5 5 5 5 5 3 5 5 5 5 5 5 5 5 5 5 5 5 5 5 5 5 5 5 5 5 5 5 5 5 5 5 5 5 5 5 5 5 5 5 5 5 5 5 5 5 5 5 5 3 5 5 5 5 5 5 5 5 5 5 5 5 3 5 5 5 3 5 5 5 3 3 5 5 3 5 5 5 5 5 5 5 5 5 5 5 5 5 5 5 5 5 5 5 5 5 5 5 5 5 5 5 5 5 5 5 5 5 3 5 5 5 5 5 5 5 5 5 3 5 5 3 3 5 5 5 5 5 3 5 5 3 3 5 5 3 5 3 5 5 5 5 5 3 5 5 5 3 5 5 5 5 5 5 5 5 5 5 5 5 3 3 5 5 3 5 5 5 5 5 5 5 5 5 5 5 5 5 5 5 5 5 5 5 5 5 5 3 5 5 5 5 3 5 5 5 5 5 5 5 5 3 5 3 5 5 5 5 5 5 5 5 5 5 5 3 5 5 5 5 3 5 5 5 5 5 5 3 5 5 5 5 3 3 5 3 5 5 3 5 5 5 5 5 5 5 5 5 5 5 5 5 5 5 5 5 3 5 3 5 5 5 5 5 3 5 5 5 5 5 5 5 5 5 5 5 5 5 5 5 5 5 5 5 5 5 5 5 5 5 5 5 5 5 5 5 5 5 5 5 5 5 5 5 5 5 5 5 5 5 5 5 5 5 5 5 5 5 5 5 5 5 5 5 5 5 5 5 5 5 5 5 3 5 3 5 5 5 5 5 5 5 5 5 5 5 5 5 5 5 5 5 5 5 5 5 5 5 5 5 5 5 5 5 5 5 5 5 5 5 5 5 5 5 5 5 3 5 5 5 5 5 5 5 5 5 5 5 5 5 5 5 3 5 5 5 5 5 5 3 5 5 5 5 5 5 5 5 5 5 5 5 5 5 5 5 5 5 5 3 5 5 3 5 5 3 5 5 5 5 3 5 3 5 5 5 5 5 5 5 5 5 5 5 5 5 5 5 5 5 5 5 5 5 5 5 5 5 3 5 3 5 5 5 5 5 5 5 5 5 5 5 3 5 5 5 3 5 5 3 5 3 5 5 5 5 5 5 5 5 5 5 5 5 5 5 3 5 5 5 5 5 5 3 5 5 5 5 5 5 5 5 3 5 5 5 5 5 5 5 5 5 5 5 5 5 5 5 5 5 5 5 3 5 5 5 5 5 5 5 5 5 5 5 5 5 5 5 5 5 5 5 5 5 5 5 5 5 5 3 5 5 5 5 3 5 5 5 3 5 5 5 5 5 5 5 5 5 5 5 5 5 5 3 5 5 5 3 5 5 5 5 5 3 5 5 5 5 5 5 5 5 5 5 5 5 5 5 5 5 3 5 3 5 3 5 5 5 3 5 5 5 5 5 5 5 5 5 5 5 5 5 5 3 5 5 5 5 5 5 5 5 5 5 5 5 5 5 3 3 5 5 5 5 5 5 5 5 5 5 5 5 5 5 5 5 5 5 5 5 5 5 5 5 5 5 5 5 3 5 5 5 5 3 5 5 5 3 5 5 5 5 5 5 5 5 3 5 5 5 3 5 5 3 5 5 3 3 5 5 5 5 5 5 3 5 5 5 5 5 5 5 5 5 5 5 5 5 3 5 5 5 5 3 5 5 5 5 5 5 5 5 5 5 5 5 5 5 5 5 5 5 5 5 5 5 5 5 5 5 5 5 5 5 5 5 5 5 5 5 5 5 5 5 5 5 5 5 5 5 5 5 5 5 5 5 5 5 5 5 5 5 5 5 5 5 5 5 5 5 5 5 5 5 3 5 5 5 5 5 5 5 5 5 5 5 3 5 5 5 5 3 5 5 5 5 5 3 5 5 5 3 5 5 5 3 5 5 5 5 5 5 5 5 3 5 5 5 3 5 3 5 5 3 5 5 5 5 5 3 5 5 5 5 5 5 3 5 5 5 5 5 5 5 5 5 5 5 3 3 5 5 5 5 5 5 5 5 5 5 5 5 5 5 5 5 5 5 5 5 5 5 5 5 5 5 5 5 5 3 5 5 5 5 3 5 5 5 5 5 5 5 5 3 5 5 5 5 3 3 5 5 5 5 5 5 5 5 5 5 3 5 5 5 5 5 5 5 5 5 3 5 5 5 5 5 5 5 5 5 5 5 5 5 5 5 5 5 5 5 5 5 5 5 5 5 5 5 3 5 5 5 5 5 5 5 5 5 5 5 5 5 5 5 5 5 5 5 5 5 5 5 5 5 5 5 5 5 5 5 5 5 5 5 5 5 5 5 5 5 5 5 5 5 5 5 5 5 3 5 5 5 5 3 3 5 5 5 5 5 5 5 5 5 5 5 5 5 5 5 5 5 5 3 5 5 5 5 5 5 5 5 5 5 5 5 5 5 5 3 5 5 5 5 5 5 5 5 5 5 5 5 5 5 5 5 5 5 5 5 5 5 5 5 5 5 5 5 5 5 5 3 5 5 3 5 5 3 5 5 5 5 3 3 5 5 5 5 5 5 5 3 5 5 5 5 5 5 3 5 5 5 5 5 5 5 5 5 5 5 5 5 3 5 3 5 5 5 5 5 5 3 5 5 5 5 5 5 5 5 5 5 5 5 5 5 5 5 5 5 5 5 5 5 3 3 5 3 5 5 5 5 5 3 5 3 5 5 5 3 5 3 5 5 5 5 3 5 5 3 5 5 5 3 5 5 5 3 5 5 5 3 5 5 5 5 5 5 5 5 5 3 5 5 5 5 3 5 3 5 5 3 5 5 5 3 5 3 5 5 5 5 5 5 3 5 5 3 5 3 5 5 5 5 5 5 5 5 5 5 5 5 5 5 3 5 5 5 5 5 3 3 5 5 5 3 5 5 5 5 3 5 5 3 5 5 5 5 5 5 5 3 5 5 5 5 5 5 5 5 5 5 5 5 5 5 5 3 5 5 5 5 5 5 5 5 3 5 3 5 5 5 3 5 3 5 5 5 5 5 5 5 5 5 5 5 5 5 5 5 5 5 5 5 5 5 5 5 5 5 5 5 3 5 5 5 3 5 5 5 5 5 5 3 5 5 5 3 5 3 5 5 5 5 5 5 5 5 3 3 5 5 5 5 5 5 3 5 5 5 3 5 5 5 3 5 5 5 5 5 5 5 5 5 5 5 5 3 5 3 5 5 5 5 5 5 5 5 5 5 3 5 3 3 5 5 5 5 5 5 5 5 5 5 5 5 5 3 5 5 3 5 3 5 5 5 5 5 5 3 5 5 5 3 5 3 5 5 5 3 5 5 3 3 5 3 5 5 3 5 5 5 5 5 5 5 5 5 5 5 5 5 3 3 5 5 5 5 5 5 5 5 5 5 5 5 5 5 5 5 5 5 5 5 3 5 3 3 5 5 5 3 5 3 3 5 5 5 5 3 5 5 5 5 5 5 3 5 5 5 5 5 5 5 5 5 5 5 5 3 5 5 5 5 5 5 5 5 5 5 5 5 5 3 5 3 5 5 5 5 5 5 5 5 3 5 3 5 5 5 3 5 5 5 5 5 3 5 3 3 5 5 3 5 5 5 5 3 5 3 5 5 3 5 5 3 5 5 5 5 5 5 3 3 5 5 3 5 5 3 5 5 3 3 5 5 5 3 5 5 5 3 5 3 5 3 5 5 3 5 5 3 5 5 5 3 5 5 5 3 5 5 5 3 5 3 5 5 5 3 5 5 5 5 5 5 5 5 5 5 5 5 5 5 5 5 5 5 5 5 5 5 5 5 5 5 5 5 5 5 5 5 5 5 5 5 5 5 5 5 5 5 5 3 5 5 5 5 5 5 3 3 5 5 5 5 5 5 5 5 5 5 5 5 5 5 5 5 5 5 5 5 5 5 5 5 5 5 5 5 5 5 5 5 5 5 5 5 5 5 5 5 3 5 5 5 3 5 5 3 3 5 5 3 5 3 5 3 3 5 5 5 5 5 3 5 3 5 5 3 5 5 5 5 5 3 5 5 5 5 5 5 5 5 5 5 5 5 3 5 3 5 3 5 5 5 5 5 3 3 3 5 5 3 3 5 5 5 3 5 3 5 3 3 5 3 5 5 5 3 5 5 5 5 5 5 5 3 3 5 5 3 5 5 3 5 3 5 5 3 5 5 3 5 3 5 5 5 3 5 3 5 5 3 5 3 3 5 3 3 3 5 5 5 5 3 5 5 3 5 5 5 5 3 5 5 5 5 5 5 3 5 3 5 5 5 3 3 5 5 5 5 5 5 3 5 5 3 5 3 5 5 3 5 5 3 5 5 5 5 3 3 5 5 5 5 3 5 5 5 5 5 5 5 5 5 3 5 5 5 5 5 5 5 3 5 3 5 3 5 5 3 5 5 5 5 3 3 5 5 5 3 3 3 5 5 5 5 3 3 3 3 5 5 3 5 5 3 5 5 5 3 5 5 5 3 5 3 5 5 5 5 5 5 5 3 3 5 5 3 5 5 5 5 5 5 5 3 5 5 5 5 5 5 5 3 5 5 5 5 5 5 5 5 5 5 5 5 5 5 3 5 5 5 5 5 5 5 5 5 5 3 5 5 3 5 3 5 5 5 3 5 3 5 5 5 5 5 5 5 3 5 5 5 5 5 5 5 5 5 5 5 5 5 5 5 5 3 5 5 3 5 3 5 3 5 3 5 5 5 3 3 5 5 5 5 5 5 3 5 5 5 5 5 5 5 3 5 5 3 5 5 5 5 5 5 5 5 5 5 5 5 5 5 5 5 5 3 5 5 5 3 5 5 5 5 5 5 5 5 5 5 5 5 5 5 5 5 5 5 5 5 5 5 5 5 3 5 5 5 5 5 5 5 5 5 5 5 3 5 5 5 5 5 5 3 5 5 5 5 5 5 5 5 5 5 3 5 5 3 3 5 3 5 5 5 3 5 5 5 3 5 5 5 5 5 5 5 5 5 5 3 5 5 5 5 5 5 5 5 5 5 5 5 3 5 5 3 5 5 5 5 3 5 5 3 5 5 5 3 5 5 5 3 3 5 5 5 3 5 3 5 5 5 5 5 5 5 5 5 5 5 3 5 5 3 5 5 5 5 3 5 5 3 5 5 5 5 5 3 3 5 5 5 5 3 5 5 5 5 5 5 5 3 5 5 5 5 3 5 5 5 5 5 5 3 5 5 3 5 5 3 5 5 3 3 5 3 5 5 5 3 3 5 5 3 5 5 3 5 3 5 5 5 5 5 5 5 3 5 5 5 5 3 5 5 5 5 5 5 5 5 5 5 5 5 5 5 5 5 5 3 5 5 5 5 5 5 5 5 5 5 5 5 5 5 3 5 5 5 5 5 3 5 5 3 5 5 5 5 3 5 5 5 3 5 5 5 3 5 5 5 5 5 5 5 5 5 5 5 5 5 5 5 5 5 5 5 3 5 5 5 3 5 5 3 5 5 5 5 3 5 5 5 5 5 3 5 5 5 5 5 5 5 5 5 5 5 3 5 5 5 5 5 5 5 5 5 5 5 3 5 5 5 5 3 5 3 5 5 5 5 5 5 5 5 5 5 3 5 3 3 5 3 5 5 5 5 3 3 5 5 3 5 5 3 5 5 5 3 5 5 3 5 5 5 5 3 5 5 5 5 3 3 5 5 5 5 5 5 5 3 5 5 5 5 5 5 5 5 5 5 5 5 5 5 5 5 5 5 5 3 3 5 5 5 5 3 5 5 5 3 5 5 5 5 5 5 5 5 5 5 5 3 5 5 3 5 5 5 5 5 5 3 5 3 5 5 5 5 3 5 3 5 5 3 5 5 3 5 5 5 3 5 5 5 3 5 5 3 5 5 5 5 5 5 3 5 5 3 5 5 5 5 5 3 5 3 5 5 3 5 5 3 5 3 5 5 5 5 5 3 3 5 5 5 5 5 3 5 5 5 5 5 5 5 5 5 5 5 5 5 5 5 5 5 5 5 5 3 5 5 5 5 3 5 5 5 3 3 5 5 5 5 5 3 5 5 5 5 5 5 5 3 5 5 5 5 5 5 5 5 3 5 5 3 5 5 5 5 3 5 5 5 5 3 5 3 5 5 3 5 5 5 5 5 3 5 5 5 5 3 5 5 5 5 5 3 5 5 5 5 5 5 3 5 5 3 5 5 3 5 5 5 3 5 3 5 5 3 5 5 5 5 5 5 5 3 5 5 5 5 5 3 5 5 5 3 5 5 5 5 5 5 5 5 5 5 5 5 5 5 5 5 5 3 5 5 5 5 3 5 5 5 5 5 5 5 5 5 5 5 5 5 5 5 5 5 3 5 5 5 5 5 3 3 5 5 5 3 5 5 5 5 3 5 5 5 5 5 5 3 3 5 5 5 5 5 5 3 3 5 5 5 5 3 5 5 5 5 5 5 3 5 5 5 5 5 5 5 5 5 5 3 5 5 3 5 5 5 5 5 5 5 5 5 5 5 5 5 5 5 5 5 5 5 5 5 5 5 5 5 5 5 5 5 5 5 5 5 5 5 5 5 5 5 5 5 3 5 5 5 3 5 5 5 5 5 5 3 5 5 5 5 5 5 5 5 5 3 5 5 5 5 5 5 5 5 5 5 5 5 5 5 3 5 5 3 3 5 5 5 5 5 5 5 5 5 5 5 5 5 5 5 5 5 5 5 5 5 3 5 5 5 5 3 5 5 5 5 5 5 3 5 5 3 5 5 3 5 5 5 3 5 5 5 5 5 5 5 5 3 5 5 5 5 5 5 5 5 5 5 3 5 3 5 5 5 5 3 5 5 3 5 5 5 5 5 5 5 5 5 5 3 5 5 5 5 5 5 5 5 5 5 5 3 5 3 5 5 5 5 5 5 5 5 5 5 5 5 5 5 5 5 5 5 5 5 3 5 5 5 3 5 3 5 3 5 5 3 5 3 3 5 5 5 3 3 5 5 3 5 5 5 5 5 5 5 5 5 5 5 5 5 5 3 3 5 5 3 5 3 5 5 5 5 3 5 5 5 5 5 5 5 5 3 5 5 5 5 5 5 5 5 5 5 5 5 5 5 5 5 5 5 5 5 5 3 5 3 5 5 5 5 3 3 5 3 5 5 5 5 5 3 5 5 5 3 5 3 5 3 5 5 5 5 5 5 5 5 5 5 3 5 5 3 5 5 5 3 5 5 5 5 5 5 5 5 5 5 5 5 5 5 3 3 5 5 5 5 3 5 3 5 3 5 5 5 5 5 5 3 5 3 3 5 5 5 5 3 3 5 3 5 5 5 5 5 3 5 5 5 5 5 5 5 3 5 5 5 5 5 5 3 3 5 5 5 5 5 3 5 5 5 5 5 3 3 5 5 5 3 5 5 5 3 5 5 5 5 5 5 5 5 5 5 5 5 5 5 5 5 5 5 5 5 5 5 5 5 5 5 5 5 5 3 5 5 5 5 3 3 5 5 5 5 5 5 5 5 5 5 5 5 5 5 5 5 3 5 5 5 5 5 5 5 5 5 5 5 5 5 5 5 3 5 5 5 5 5 5 5 5 5 5 3 5 5 5 5 5 5 3 5 5 5 5 5 5 5 5 5 5 5 5 5 5 5 5 5 5 5 5 5 5 5 5 5 5 5 5 5 5 5 5 5 5 5 5 5 5 5 5 5 5 5 5 5 5 5 5 5 5 5 5 3 5 5 5 5 5 5 5 5 5 5 5 5 5 5 5 5 5 5 5 5 5 5 5 5 5 5 5 5 3 5 5 5 5 5 5 5 5 5 5 5 5 5 5 5 5 5 5 5 5 5 5 5 5 5 5 5 5 5 5 5 5 5 5 5 5 5 5 5 5 5 5 5 5 5 5 5 5 5 5 5 5 5 5 5 5 5 5 5 5 5 5 5 5 5 5 5 5 3 5 5 5 5 5 5 5 5 5 5 5 5 5 5 3 5 5 3 5 5 5 5 5 5 5 5 5 5 5 5 3 3 5 5 5 5 5 5 5 5 5 5 5 5 5 3 5 3 5 5 5 5 3 5 5 5 5 5 5 5 5 5 5 5 3 5 5 5 5 5 5 5 5 5 3 5 3 5 5 3 5 5 3 3 5 5 5 3 3 5 5 5 5 5 5 5 3 5 3 3 5 5 3 5 5 5 5 5 5 5 3 5 5 3 5 5 3 5 3 5 3 5 5 5 5 5 3 3 3 5 5 5 5 5 5 5 3 5 5 5 3 3 5 5 5 5 5 3 5 5 5 5 5 5 5 5 5 5 5 5 5 5 5 5 5 5 5 5 5 5 5 5 5 5 5 5 5 5 5 5 5 5 5 5 5 5 3 5 5 5 3 5 3 5 5 5 3 5 5 3 5 3 3 3 5 5 5 5 5 5 3 5 5 5 5 5 5 3 5 5 5 5 5 5 5 5 5 5 5 5 5 5 5 5 5 5 5 5 3 5 5 5 5 5 5 3 5 5 5 5 5 5 5 3 5 3 5 5 5 5 3 5 5 5 5 5 3 3 5 5 3 5 5 5 3 5 5 5 5 5 5 5 3 5 5 5 5 5 5 5 5 5 5 5 5 5 5 5 5 5 3 3 5 5 5 5 5 5 5 5 5 5 5 5 5 5 5 5 5 5 5 5 5 5 5 5 5 5 5 5 5 5 5 5 5 5 3 3 5 5 5 5 5 3 5 5 5 5 5 5 5 5 5 5 5 5 5 5 5 5 5 5 5 5 5 5 5 5 5 5 5 5 5 5 5 5 5 3 5 5 5 5 5 3 5 5 5 5 5 5 3 5 5 5 5 5 3 5 5 5 5 5 5 3 5 5 5 5 5 5 5 5 3 5 5 3 5 5 5 3 5 5 5 5 5 3 5 5 5 5 5 5 5 5 5 5 5 5 5 5 5 5 5 3 3 5 5 5 5 5 5 5 5 5 5 5 5 5 5 5 5 3 5 5 5 5 5 5 5 5 5 5 5 5 5 5 5 5 5 5 5 5 5 5 5 5 5 5 5 5 5 5 5 5 5 5 5 5 5 5 5 5 5 3 5 5 5 5 3 5 5 5 5 5 3 5 5 5 3 5 5 3 3 3 5 5 5 5 5 5 5 5 5 5 3 5 5 5 5 5 5 5 5 5 5 5 5 5 5 5 5 5 5 5 3 5 3 5 5 5 5 5 5 3 3 5 5 5 5 5 5 5 5 5 5 5 5 5 5 5 5 3 5 5 5 5 5 5 5 5 3 5 5 5 3 5 5 5 5 5 5 5 5 5 5 5 3 5 5 5 5 5 5 5 5 5 5 5 5 5 5 5 5 5 5 5 5 3 5 5 5 5 3 5 5 3 5 5 5 5 5 5 5 3 5 5 5 5 5 5 3 3 5 5 5 5 5 5 5 5 5 5 5 5 5 5 5 5 5 3 5 3 5 5 5 5 3 5 5 5 3 5 5 5 5 5 5 5 5 5 5 5 5 5 5 3 5 5 5 5 5 3 5 5 3 5 5 5 5 3 5 5 5 3 5 3 3 5 5 5 5 3 3 5 5 5 5 5 5 5 5 5 5 5 5 5 5 3 5 3 5 5 5 3 5 5 5 5 5 5 5 5 5 5 5 5 5 5 5 5 5 5 3 5 5 3 5 5 3 3 5 3 3 5 5 5 5 3 5 3 5 5 5 5 3 5 5 5 3 5 5 5 5 5 5 5 5 3 5 5 5 5 5 3 5 5 5 5 5 3 3 5 5 5 5 3 3 5 5 3 3 3 3 5 5 5 3 5 5 5 3 5 3 5 5 5 5 5 5 5 5 5 5 5 5 5 5 5 5 3 5 5 5 5 5 5 5 3 5 5 5 5 5 5 5 5 5 5 5 5 5 5 5 5 5 5 5 5 5 5 5 5 5 3 5 3 5 5 5 3 3 5 5 5 5 5 5 5 5 5 5 5 5 5 5 5 5 5 5 5 5 5 5 5 5 5 5 5 5 3 5 5 5 5 3 5 5 3 5 5 5 5 5 5 5 5 5 3 5 5 5 5 3 5 3 5 5 5 3 5 3 5 5 5 5 5 5 5 5 5 5 5 5 3 5 3 5 3 3 5 3 3 5 3 5 5 3 5 3 5 5 3 5 5 3 3 5 5 3 5 5 3 5 3 3 5 5 5 3 3 5 5 3 5 5 3 3 5 5 5 5 3 5 5 3 5 5 5 5 5 5 5 3 5 5 5 3 5 5 5 5 3 5 5 3 5 3 3 5 3 3 5 5 5 3 3 5 5 3 5 3 5 3 5 5 3 5 5 3 3 5 3 5 3 5 5 5 5 3 5 5 5 5 5 5 5 5 5 5 3 5 5 5 3 5 3 5 5 5 3 5 5 5 5 5 3 5 5 5 5 5 5 3 5 5 5 5 5 5 5 5 5 5 5 5 5 5 5 5 5 5 5 3 5 5 5 5 5 3 5 3 5 5 5 5 5 3 5 5 5 5 5 3 5 5 5 5 5 3 3 5 5 5 5 5 5 5 5 5 5 5 5 5 5 5 5 5 5 5 5 3 5 5 5 5 5 5 3 5 5 5 5 5 5 3 3 5 5 5 5 5 3 5 5 3 3 5 3 5 3 5 5 5 3 5 5 5 5 3 5 5 5 5 5 3 5 5 5 5 5 3 3 5 3 5 5 3 3 5 3 3 5 5 3 5 5 5 5 5 5 5 5 5 5 5 5 5 3 3 5 5 5 5 5 5 3 5 5 3 5 5 5 5 5 3 3 5 5 5 3 5 5 5 5 5 5 3 5 5 5 5 5 5 5 5 5 5 5 5 3 3 5 5 5 5 5 5 5 5 5 5 5 5 5 5 5 5 5 5 3 5 5 5 5 5 5 5 5 5 5 5 5 5 5 5 5 5 5 5 5 5 5 5 5 5 5 5 5 5 5 5 5 5 5 3 5 5 5 5 5 5 5 5 3 5 5 5 3 5 5 5 5 5 3 5 5 3 5 5 5 3 5 5 5 5 5 3 5 5 5 5 5 3 5 5 5 5 3 5 5 5 5 5 5 5 5 5 5 5 5 5 5 5 5 5 5 5 3 5 5 5 5 5 5 5 5 5 3 5 5 5 5 5 5 5 5 5 5 5 5 5 5 5 5 5 5 5 5 5 5 5 5 5 5 5 5 5 5 5 5 5 5 5 5 5 5 5 5 5 5 5 5 5 5 5 5 5 5 5 5 5 5 5 5 5 5 5 5 5 5 5 5 5 3 5 5 5 3 5 5 5 5 5 5 5 5 5 5 5 5 5 5 5 5 5 5 5 5 5 5 5 5 5 5 5 3 5 5 5 5 5 5 5 5 3 5 5 5 5 5 5 5 5 5 5 5 5 5 5 5 5 5 5 5 5 5 5 5 5 5 5 5 5 5 5 5 5 5 5 5 5 5 5 5 3 5 5 5 5 5 5 5 3 5 3 5 5 5 5 5 5 5 5 5 5 5 5 5 5 5 5 5 5 5 5 5 5 5 5 5 5 5 3 5 3 5 3 3 5 5 5 3 3 5 3 5 5 5 5 3 5 5 5 5 5 5 5 5 5 5 5 5 5 5 3 5 5 3 5 3 3 5 5 5 3 5 5 5 5 5 5 5 5 5 5 5 5 5 5 5 5 5 5 5 5 5 5 5 5 5 5 5 5 5 5 5 5 5 5 5 5 5 5 5 5 5 5 5 5 5 5 5 5 5 5 5 5 5 5 5 5 5 5 5 5 5 5 5 3 5 5 5 5 5 5 5 5 5 3 5 3 5 5 3 5 5 5 5 5 5 5 5 5 3 5 5 5 3 5 5 5 5 5 5 5 5 5 3 5 5 5 5 5 5 5 5 5 5 3 5 5 5 5 5 5 5 5 5 5 5 5 5 5 5 5 5 5 5 5 5 5 5 3 5 3 5 5 5 5 5 5 5 5 5 5 3 5 5 5 5 5 5 5 5 5 5 5 5 5 5 5 5 5 5 5 5 5 5 5 5 5 5 5 5 5 5 5 5 5 5 5 3 5 5 5 5 3 5 5 5 5 5 5 5 5 5 5 5 5 3 5 5 5 5 5 5 5 5 5 3 5 5 5 5 3 5 5 5 5 5 5 5 3 5 3 5 5 5 5 5 5 3 5 3 3 5 5 5 3 5 5 3 5 5 5 5 3 5 5 5 5 5 5 5 5 5 3 5 5 5 5 3 5 5 5 5 3 5 5 3 5 5 3 5 3 5 5 5 5 5 5 5 5 3 5 5 5 5 5 5 5 5 5 5 3 5 3 5 5 5 5 5 5 5 5 5 5 5 5 5 5 5 5 5 5 5 5 5 5 5 5 5 5 5 5 5 5 5 5 5 5 5 5 5 5 5 5 5 5 5 5 5 5 5 5 5 5 5 5 5 5 5 5 5 5 5 5 5 5 5 5 3 5 5 5 5 5 5 5 5 5 3 5 5 5 5 5 5 5 5 5 5 3 5 5 5 5 5 5 5 5 5 5 5 5 5 5 5 3 5 5 5 5 3 5 5 3 5 5 5 5 5 5 3 5 3 5 5 5 3 5 3 3 5 5 5 3 5 5 5 5 5 5 5 5 5 5 3 5 5 5 3 5 5 3 5 3 3 3 5 5 3 5 3 3 5 5 5 3 5 3 5 3 5 5 3 5 5 5 3 5 3 5 3 5 5 5 5 5 3 5 5 5 5 3 5 3 5 5 3 3 5 3 5 5 5 5 5 3 5 5 5 5 5 5 3 5 5 5 5 5 5 5 5 5 5 5 5 5 5 5 5 5 5 5 5 5 5 5 5 5 5 5 5 5 5 5 5 5 5 5 5 5 5 3 5 5 5 5 5 5 5 5 5 5 5 5 5 5 5 5 5 5 5 5 5 5 5 5 5 5 5 5 5 5 5 5 5 5 5 5 5 5 5 5 5 5 5 5 3 5 5 3 5 5 3 5 5 5 5 5 5 5 5 5 5 5 5 5 5 5 5 5 5 5 3 5 5 5 5 3 5 3 5 3 5 5 5 5 3 5 5 5 5 5 5 5 5 5 3 5 5 5 5 3 5 3 5 5 5 5 5 3 5 5 5 5 5 5 5 5 5 5 3 5 5 5 5 5 5 5 5 5 5 5 3 5 5 5 3 5 5 5 5 5 5 5 5 5 5 3 5 5 5 5 5 5 5 5 5 3 5 5 5 5 5 5 3 5 5 5 5 5 3 5 5 5 5 5 5 5 5 5 5 5 5 5 5 5 5 5 3 5 5 5 5 5 3 3 3 5 3 5 5 5 5 5 5 5 5 5 5 5 5 5 5 5 5 5 5 5 5 5 5 5 5 5 5 5 5 3 5 5 5 5 5 5 5 3 5 5 5 5 5 5 5 5 5 5 5 3 5 5 5 5 5 5 5 3 5 3 5 5 5 3 5 5 3 5 5 5 5 5 5 5 5 5 5 5 5 5 5 3 3 5 5 5 5 5 3 5 5 5 5 3 5 5 3 5 5 5 3 5 5 5 5 3 5 5 5 5 5 5 5 5 5 5 5 5 5 5 5 5 3 5 5 5 5 5 5 3 5 3 5 3 5 5 5 5 5 5 3 3 5 5 5 5 5 3 5 5 5 5 5 5 5 5 5 5 5 5 5 5 5 3 5 5 5 5 3 5 5 5 5 5 5 5 5 5 5 5 3 5 5 5 5 5 5 5 5 5 5 5 5 5 5 5 5 5 5 5 5 5 5 5 5 3 5 5 5 5 5 3 3 5 5 5 5 5 3 3 5 3 5 5 5 5 5 5 5 3 3 5 3 5 3 5 5 5 5 5 5 5 5 5 5 5 3 5 5 5 5 5 5 5 5 5 5 5 5 5 5 5 5 5 5 5 5 5 5 5 5 5 5 5 5 3 5 5 3 5 5 5 3 5 5 5 3 3 5 5 5 5 5 5 5 5 3 3 5 5 5 5 5 5 5 5 3 5 5 5 5 5 5 5 5 5 5 5 5 5 5 5 5 5 5 5 5 5 5 5 5 5 5 5 5 5 5 5 5 5 5 5 5 3 5 3 5 5 5 5 5 5 5 5 5 5 3 5 5 5 5 3 5 5 5 5 3 5 5 5 5 5 5 5 3 5 3 5 3 5 5 5 5 5 3 5 5 5 5 3 5 5 5 5 5 5 5 5 5 5 5 5 5 5 5 5 5 5 5 5 5 5 5 5 5 5 5 5 5 5 5 5 5 5 5 5 5 5 5 5 5 5 5 5 5 5 5 5 5 5 5 5 5 5 5 5 5 5 5 5 5 5 5 5 3 5 5 5 5 5 5 5 5 5 5 5 5 5 5 5 5 3 5 5 3 5 5 5 5 5 5 5 5 5 5 5 5 5 5 5 5 5 5 5 5 5 5 5 5 5 3 5 5 5 3 5 5 3 5 5 5 5 5 3 5 5 5 5 5 5 5 5 5 5 5 5 5 3 5 5 5 3 5 3 5 3 5 5 5 5 5 5 5 5 5 5 5 5 5 5 3 5 5 5 3 5 3 5 5 5 3 5 5 5 5 5 5 5 5 5 5 5 5 5 5 5 5 5 5 5 5 3 5 5 5 5 5 5 5 5 5 5 5 5 5 5 5 5 5 5 5 5 5 5 5 5 5 5 5 5 5 5 5 5 5 5 5 5 5 5 5 5 3 5 5 5 5 5 5 5 5 3 5 5 5 3 5 5 5 5 5 5 5 5 5 5 5 5 5 5 5 5 3 5 5 5 5 5 5 5 5 5 5 5 5 5 5 5 5 5 5 3 5 5 5 5 5 5 5 5 5 3 5 5 5 5 5 5 5 5 5 3 5 5 5 5 5 5 5 5 5 3 5 5 5 5 5 5 3 5 5 5 5 5 5 5 5 5 3 5 3 5 5 5 5 3 3 5 5 3 5 5 5 5 5 5 5 5 5 5 5 5 5 5 5 5 5 5 5 5 5 5 5 5 5 5 5 5 5 5 3 5 5 5 5 5 5 5 5 5 5 5 3 5 5 5 5 5 5 5 5 5 3 5 5 3 5 5 5 5 5 5 5 5 5 5 5 5 5 5 5 5 5 5 5 5 5 5 5 5 5 5 5 5 5 5 5 5 5 5 5 5 5 5 5 5 5 5 5 5 5 5 5 5 5 5 5 5 5 5 5 5 5 5 5 5 5 5 5 5 5 5 5 5 5 5 5 5 5 5 5 5 5 5 5 5 5 5 5 5 5 5 5 5 5 5 5 5 5 5 5 5 5 5 5 5 5 5 5 5 5 5 5 5 5 5 5 5 5 5 5 5 5 5 5 5 5 5 5 5 5 5 5 5 5 5 5 5 5 5 5 5 5 5 5 5 5 5 5 5 3 3 3 3 5 5 5 5 5 5 5 5 5 3 5 5 3 5 5 5 5 5 5 5 5 5 5 5 5 3 5 5 5 5 3 5 5 5 5 3 5 5 5 5 5 5 3 3 5 5 5 5 5 5 5 3 5 5 5 5 5 3 5 5 5 5 5 5 5 5 5 5 3 5 5 5 5 5 5 5 3 5 5 5 5 5 3 5 5 5 5 5 5 5 5 5 5 5 5 5 5 5 5 5 5 5 5 5 5 5 5 5 5 5 5 5 5 5 5 5 5 5 3 5 5 5 5 5 5 5 5 5 5 5 3 3 5 5 5 3 5 3 5 5 5 5 3 5 5 5 5 5 5 5 5 5 5 5 5 5 5 5 5 5 5 5 5 5 5 5 5 5 5 5 5 5 5 5 3 5 5 5 5 5 5 3 5 5 5 5 5 5 5 5 5 3 5 5 5 5 5 5 3 5 5 5 5 5 5 5 3 5 5 5 5 5 5 3 5 5 3 3 3 5 5 5 3 5 5 3 3 5 5 3 5 5 5 3 5 5 5 3 5 5 5 3 5 5 5 3 5 5 5 5 5 5 3 5 5 5 5 5 5 5 5 5 5 5 5 5 5 5 5 5 3 5 5 5 3 5 5 3 5 5 5 5 5 5 5 5 5 5 5 5 3 5 5 5 5 5 5 5 5 5 5 5 5 5 3 3 5 5 5 5 5 5 3 5 5 3 5 5 5 5 5 5 5 5 5 5 5 5 3 5 5 5 5 5 5 5 5 5 5 5 5 5 5 3 5 5 5 5 5 5 5 3 3 5 5 5 5 5 5 5 5 5 5 5 5 5 5 5 5 5 5 5 5 5 5 5 5 3 5 5 5 5 5 5 3 5 5 5 3 5 5 5 3 5 5 3 5 5 5 5 5 3 5 3 5 5 5 5 3 5 5 5 5 5 3 5 5 3 3 5 5 5 5 3 5 5 5 5 5 5 5 3 5 5 5 5 5 5 5 5 5 3 5 5 5 5 5 5 3 5 5 3 5 3 5 5 5 5 3 5 5 5 5 5 5 5 5 5 3 5 5 5 5 3 3 5 5 5 5 5 5 5 5 5 5 5 5 5 5 5 5 5 5 5 5 5 5 5 3 5 5 5 3 5 5 5 5 5 5 5 5 5 5 3 3 5 3 5 5 5 3 5 5 5 5 5 5 5 5 5 5 5 5 5 5 5 5 5 5 5 5 5 3 5 5 5 5 3 5 5 5 5 3 5 5 3 5 5 5 3 5 5 5 5 5 5 5 5 5 5 5 5 5 3 5 5 5 5 3 5 5 3 5 3 5 5 5 5 5 5 5 5 5 5 5 5 5 5 5 5 5 3 5 5 5 5 5 5 3 5 5 5 5 3 5 5 3 5 5 5 5 5 5 5 5 5 3 5 3 3 5 5 5 5 5 3 5 5 5 5 5 5 5 5 5 5 5 5 3 5 5 5 5 5 5 5 5 5 5 5 5 5 5 3 5 5 5 5 5 5 5 5 5 5 5 5 5 5 5 5 3 5 5 5 5 5 5 5 3 5 5 5 5 5 5 3 5 3 5 5 5 5 5 5 5 5 5 5 5 5 5 5 5 5 5 5 5 5 5 5 5 5 5 5 5 3 5 5 5 5 5 5 3 3 5 5 5 5 5 3 5 5 5 3 5 5 3 5 5 5 5 3 5 5 5 5 5 5 5 3 5 5 3 3 5 5 5 5 5 5 5 5 5 5 5 5 5 5 5 5 3 5 5 5 3 5 5 5 5 5 5 3 5 5 3 5 5 5 5 5 5 5 5 5 3 5 5 5 5 5 5 5 5 3 5 5 5 5 3 5 5 5 5 5 5 3 5 5 5 5 5 5 5 5 3 5 5 5 5 5 5 5 5 3 3 5 5 5 5 5 5 5 5 3 5 3 5 5 5 5 3 5 3 3 5 5 5 5 5 5 5 5 5 5 5 5 3 5 3 3 5 5 5 5 3 5 5 3 5 5 3 5 3 5 5 5 5 5 5 5 5 5 5 5 5 5 5 5 5 5 5 5 5 5 5 5 5 5 3 5 5 5 5 5 5 3 3 5 5 5 5 5 5 5 5 5 5 5 5 5 5 5 5 5 5 5 5 5 3 5 3 5 5 3 5 3 5 5 5 5 5 5 5 5 5 5 5 5 5 5 5 5 5 5 5 5 5 5 5 5 5 3 5 5 5 5 5 5 5 5 5 5 5 5 5 5 5 5 5 5 5 5 5 5 5 5 5 3 5 5 5 5 5 5 5 5 5 3 5 3 5 5 5 3 5 5 5 5 5 5 5 5 5 5 5 3 5 5 5 5 5 5 5 5 5 5 5 5 5 5 5 5 5 5 5 5 5 5 5 5 5 5 5 5 3 3 5 5 3 5 5 5 5 5 3 5 5 5 5 5 3 5 5 5 5 5 5 3 5 5 5 5 3 5 3 5 5 5 5 5 5 5 5 3 5 5 5 5 5 5 5 5 5 5 5 3 5 5 5 3 3 5 5 5 5 3 5 3 5 5 5 5 5 5 5 5 5 5 5 3 5 5 5 5 5 5 3 5 3 5 3 3 3 5 5 5 5 5 3 5 5 3 5 5 5 5 5 5 5 5 5 5 5 5 5 3 3 3 5 5 5 3 5 3 3 5 5 5 5 3 5 5 5 5 5 5 5 5 5 5 3 5 3 5 5 5 5 5 5 5 5 5 3 5 3 5 5 5 3 5 3 5 3 5 5 3 3 5 5 5 5 3 5 5 3 3 3 5 5 3 5 3 5 5 5 5 3 3 3 5 5 3 5 5 3 3 5 5 5 5 3 5 3 3 5 5 5 3 3 3 5 5 5 5 5 5 3 5 5 5 3 5 3 5 5 3 5 5 5 5 5 5 3 3 5 5 5 5 5 5 5 3 5 5 5 5 5 5 5 5 5 5 5 5 5 5 3 5 5 3 5 5 5 5 5 5 5 5 5 5 5 5 5 5 5 5 5 3 5 5 3 5 5 3 3 5 5 5 3 5 5 5 5 5 5 3 5 5 5 5 5 5 5 3 5 5 5 3 5 5 5 3 5 3 5 3 5 5 3 5 5 3 5 5 5 3 5 3 5 5 3 5 3 5 3 3 5 5 5 3 5 3 3 5 5 5 3 3 3 5 5 5 5 5 5 5 5 5 5 3 5 5 5 5 5 5 5 5 3 5 5 5 5 3 5 5 5 5 5 5 5 5 5 5 3 5 3 5 5 5 5 5 5 5 5 5 5 5 5 5 5 5 5 3 5 5 5 3 3 5 5 5 3 3 5 5 5 5 3 5 5 3 5 5 5 3 5 3 3 5 3 5 5 5 5 5 5 5 5 5 5 5 3 5 5 5 3 5 5 5 5 5 5 3 5 5 3 5 5 3 5 5 5 5 5 5 5 5 5 5 5 5 5 5 5 5 5 5 5 5 5 5 5 5 5 5 5 5 5 3 5 5 5 5 5 5 5 5 5 5 5 5 5 5 5 5 5 5 5 5 5 5 5 5 5 5 5 5 5 5 3 5 5 5 3 5 5 5 5 5 5 5 5 5 5 5 5 5 5 5 5 5 5 5 3 3 3 5 5 3 3 5 5 5 5 3 3 5 5 3 5 5 5 5 3 5 5 5 5 5 5 5 5 5 5 5 5 5 5 5 5 5 5 5 5 5 5 5 5 5 5 5 5 5 5 5 5 5 5 3 3 5 5 5 3 5 5 5 5 5 5 5 5 5 5 3 5 5 5 3 5 5 5 5 5 5 5 5 5 5 5 5 5 5 5 5 5 5 5 5 5 5 5 5 5 5 5 5 5 3 5 5 5 5 5 5 3 5 5 5 5 3 5 3 5 5 3 5 5 5 5 3 5 3 5 5 5 5 5 3 5 3 5 5 5 5 5 5 5 5 3 5 5 5 5 5 3 5 5 5 5 5 3 5 5 5 5 5 3 5 3 3 5 3 5 3 3 5 3 5 3 5 5 3 5 5 5 5 5 5 5 5 5 5 5 3 5 5 5 5 5 5 3 5 5 5 5 5 5 5 5 5 5 5 5 5 5 5 5 5 5 5 5 5 5 5 5 5 5 3 5 5 3 3 5 3 5 5 5 5 5 5 5 5 5 5 5 5 5 5 5 5 3 5 3 5 5 5 5 5 5 5 5 3 5 3 5 5 3 3 5 5 3 5 5 5 5 5 5 5 3 5 5 3 5 5 5 5 5 5 5 5 5 5 5 5 5 5 5 5 5 3 5 3 5 5 5 5 5 5 5 5 5 5 5 5 5 3 3 5 5 5 5 5 5 3 5 5 3 5 5 5 5 5 5 5 5 5 5 3 5 5 3 5 5 5 3 5 3 5 3 5 3 3 5 5 5 3 5 5 5 5 5 5 5 5 5 5 5 5 5 5 5 5 5 5 5 3 5 5 5 5 5 5 5 3 5 5 5 5 3 5 5 5 5 5 5 5 5 5 5 5 5 5 5 5 5 5 5 5 5 5 5 5 5 3 5 5 5 5 5 5 3 5 5 5 5 5 5 5 5 5 5 5 5 5 5 3 5 3 5 5 5 5 3 5 5 5 5 3 5 5 3 5 3 5 5 3 5 5 5 5 3 5 5 5 5 5 3 3 5 3 5 5 5 5 5 5 5 5 5 5 5 5 3 5 5 5 3 5 3 5 5 3 5 5 5 5 5 5 5 3 5 5 5 3 5 5 3 5 5 3 5 3 3 5 5 5 3 5 5 5 5 5 5 5 5 5 5 5 3 5 5 5 5 5 5 5 5 5 5 5 5 5 5 5 5 5 5 5 5 3 5 5 5 5 3 5 5 5 5 5 5 5 5 5 5 5 3 5 5 3 5 3 5 5 5 5 5 5 5 5 5 3 5 5 5 5 5 5 5 5 5 5 3 5 5 5 5 5 5 5 3 5 5 5 3 3 5 5 5 5 5 5 5 5 3 5 5 3 5 5 5 5 5 5 5 5 5 5 5 5 5 5 3 5 5 5 5 5 5 5 5 5 5 5 5 5 5 5 5 5 5 5 5 5 3 5 5 3 5 5 5 5 5 5 5 5 5 5 5 5 5 5 5 3 5 5 5 5 5 5 5 3 5 5 3 5 5 5 5 5 5 5 5 5 5 5 3 5 5 5 3 5 5 5 5 5 5 5 5 3 5 5 5 5 5 5 3 5 5 5 5 5 5 5 5 5 5 5 5 5 5 5 5 5 5 5 5 5 3 5 5 5 5 3 5 5 5 5 5 5 5 3 5 5 5 3 5 5 5 5 5 5 5 5 3 5 3 5 5 5 5 5 5 5 3 5 5 5 5 5 5 5 3 3 5 5 5 5 3 3 5 5 5 3 5 5 5 5 5 5 5 5 3 5 5 3 5 5 5 5 3 3 5 5 5 5 5 5 5 5 5 3 5 5 3 5 5 5 5 5 5 5 5 3 5 5 5 5 5 3 5 5 5 5 5 5 5 5 5 5 3 5 5 5 5 5 5 5 5 5 5 5 5 5 5 5 5 3 5 5 5 5 5 5 3 3 5 3 5 5 5 5 5 5 5 5 5 5 5 5 5 5 5 5 5 5 5 3 5 5 3 3 5 5 5 5 5 5 5 5 5 5 5 5 3 5 5 5 5 5 5 5 5 5 5 5 5 5 5 5 5 5 5 5 5 3 5 3 5 5 5 5 5 5 5 5 5 5 5 5 5 5 5 5 5 5 5 5 5 3 5 5 5 5 3 5 5 5 5 5 5 5 5 5 3 3 5 5 5 5 3 5 5 5 5 5 5 3 5 3 5 5 5 5 5 5 5 5 5 5 5 5 5 5 5 5 5 5 5 5 5 3 5 3 5 3 5 5 3 5 3 5 5 5 5 5 3 3 5 5 5 3 5 5 3 5 5 5 5 5 5 5 3 3 5 5 5 3 5 5 5 5 5 5 5 5 3 5 5 5 5 5 5 5 3 5 5 5 5 5 5 5 5 5 5 3 5 3 5 5 5 5 5 5 3 5 5 5 5 3 5 5 5 5 3 5 5 5 5 5 3 5 5 5 5 5 5 5 5 3 5 5 5 5 5 5 5 3 5 5 5 3 5 5 5 5 5 5 5 5 5 5 5 5 5 5 5 5 5 5 5 5 5 5 5 5 5 5 5 5 5 5 5 5 5 5 5 5 5 5 5 3 5 5 5 5 5 5 5 5 3 5 3 5 5 5 5 3 5 5 5 5 5 5 5 5 5 5 5 5 5 5 5 5 5 5 5 5 3 5 5 5 5 5 5 5 3 5 5 5 5 5 5 3 5 5 3 5 3 5 5 3 5 5 5 5 5 5 5 5 3 5 5 3 5 5 5 5 5 5 5 5 5 5 5 5 5 5 3 5 5 5 5 3 5 5 3 5 3 5 5 5 5 3 5 5 5 5 5 5 5 5 5 5 5 5 3 5 5 5 5 5 5 3 5 5 5 5 5 5 5 3 5 5 5 5 5 5 5 5 5 5 5 5 5 5 5 5 5 5 5 5 5 5 5 3 5 5 5 5 3 5 5 5 5 3 5 5 5 5 5 5 5 5 5 5 5 5 5 5 5 5 5 5 5 5 5 5 5 5 5 5 5 5 5 5 5 5 5 5 5 5 5 5 5 5 5 3 5 5 5 5 5 5 5 5 5 5 5 5 3 5 5 5 5 5 5 5 5 5 5 5 5 5 3 5 5 5 5 5 5 5 5 5 5 5 5 5 5 5 3 5 5 5 5 5 3 5 5 5 5 5 5 5 5 5 5 5 5 5 5 5 5 5 5 5 5 5 5 5 5 5 3 5 5 5 5 5 5 5 5 5 5 5 5 5 5 5 5 5 5 5 5 5 5 5 5 5 5 5 5 5 5 5 5 5 5 5 5 5 5 5 5 5 5 5 5 5 5 5 5 5 5 5 5 5 3 5 5 5 5 5 5 5 5 5 5 5 5 5 5 5 5 5 5 5 3 5 5 5 5 5 5 5 5 3 5 5 5 5 5 3 3 5 5 5 5 5 3 5 5 3 5 3 5 5 3 3 3 5 3 5 5 5 5 5 5 5 3 3 5 5 5 3 5 5 5 5 5 5 5 3 3 5 5 3 5 5 5 5 3 5 3 5 5 3 5 5 3 5 5 5 5 5 5 5 5 5 5 5 5 5 5 5 5 5 5 5 5 5 3 5 3 5 3 5 5 5 5 5 3 5 5 5 5 5 3 5 3 5 5 5 5 3 5 5 5 5 5 5 5 5 3 5 5 5 5 5 5 5 5 3 5 5 5 5 5 5 5 5 5 5 3 5 5 5 5 5 5 5 5 5 5 3 5 5 5 5 5 5 5 5 5 5 5 5 5 3 5 5 5 3 5 5 3 5 5 3 5 5 5 5 5 5 5 5 3 5 5 3 5 5 5 3 5 5 5 5 5 5 3 3 5 3 5 3 5 3 3 5 5 5 5 5 5 5 5 5 3 3 5 5 5 5 5 5 3 5 5 5 5 5 5 5 5 5 5 5 3 5 5 5 5 5 5 5 3 5 5 5 5 5 5 3 5 3 5 5 5 3 5 5 5 5 5 5 5 5 5 5 5 5 5 5 5 5 5 5 5 5 5 5 5 5 5 5 5 5 5 5 5 5 5 5 5 5 5 5 5 5 5 5 5 5 5 5 3 5 5 5 5 5 3 5 5 5 3 5 5 5 5 5 5 3 5 5 5 5 5 
</DataArray>
</Cells>
<PointData Scalars="" Vectors="displacement," Tensors="">
<DataArray type="Float64" Name="displacement" NumberOfComponents="3" format="ascii">
-0.034997574327286632 -5.187986484888065e-09 0 -0.033645807730394786 -0.00013941054670868702 0 -0.034997558743221413 -1.4521416398320363e-07 0 -0.034997574327286632 -5.187986484888065e-09 0 -0.032325285480048635 -1.1590404601573601e-06 0 -0.033645807730394786 -0.00013941054670868702 0 -0.032325285480048635 -1.1590404601573601e-06 0 -0.031898037222141379 -0.00015914574389357903 0 -0.033645807730394786 -0.00013941054670868702 0 -0.033149251603964841 5.4773508057297478e-05 0 -0.033645807730394786 -0.00013941054670868702 0 -0.033931243579898338 -2.6204671056328748e-06 0 -0.033149251603964841 5.4773508057297478e-05 0 -0.032700531135583591 -6.3848607255384841e-05 0 -0.032462975677539807 -1.395295885193316e-05 0 -0.031898037222141379 -0.00015914574389357903 0 -0.032700531135583591 -6.3848607255384841e-05 0 -0.032083109442410405 -3.5780188510295142e-05 0 -0.031898037222141379 -0.00015914574389357903 0 -0.032700531135583591 -6.3848607255384841e-05 0 -0.033645807730394786 -0.00013941054670868702 0 -0.033149251603964841 5.4773508057297478e-05 0 -0.032700531135583591 -6.3848607255384841e-05 0 -0.033645807730394786 -0.00013941054670868702 0 -0.033645807730394786 -0.00013941054670868702 0 -0.034997558743221413 -1.4521416398320363e-07 0 -0.033931243579898338 -2.6204671056328748e-06 0 -0.034997558743221413 -1.4521416398320363e-07 0 -0.034086975280596933 0.00013352738192592183 0 -0.034368189042423107 0.0002947238372239945 0 -0.034997558743221413 -1.4521416398320363e-07 0 -0.034998388713355283 3.857874990144265e-07 0 -0.034368189042423107 0.0002947238372239945 0 -0.034086975280596933 0.00013352738192592183 0 -0.033931243579898338 -2.6204671056328748e-06 0 -0.033662210995987797 -2.3063539155834483e-05 0 -0.034997558743221413 -1.4521416398320363e-07 0 -0.034086975280596933 0.00013352738192592183 0 -0.033931243579898338 -2.6204671056328748e-06 0 -0.035000111829476301 -2.8303284051605949e-08 0 -0.035007693514291914 -1.6525424275995876e-05 0 -0.034997519551306158 -1.4986838405515778e-05 0 -0.034939678423718076 -3.4067482365983627e-05 0 -0.035135276249851813 0.00027666810509161232 0 -0.034998388713355283 3.857874990144265e-07 0 -0.034368189042423107 0.0002947238372239945 0 -0.035011261449379376 0.00036726564998816158 0 -0.034086975280596933 0.00013352738192592183 0 -0.033652900088475178 0.00021223422362198256 0 -0.033460518927433111 1.4351740046448938e-05 0 -0.034086975280596933 0.00013352738192592183 0 -0.034368189042423107 0.0002947238372239945 0 -0.033652900088475178 0.00021223422362198256 0 -0.034368189042423107 0.0002947238372239945 0 -0.033652900088475178 0.00021223422362198256 0 -0.032890265822653732 0.00051231770748119882 0 -0.032890265822653732 0.00051231770748119882 0 -0.03295590394235158 8.6448627142706727e-05 0 -0.031991023834928384 0.00027154775768072238 0 -0.034368189042423107 0.0002947238372239945 0 -0.034896413913102463 0.00059363284053164198 0 -0.035011261449379376 0.00036726564998816158 0 -0.034188774690688498 0.0003765708121470458 0 -0.033887573352101664 0.00047733527814442037 0 -0.033652900088475178 0.00021223422362198256 0 -0.032890265822653732 0.00051231770748119882 0 -0.03295590394235158 8.6448627142706727e-05 0 -0.033887573352101664 0.00047733527814442037 0 -0.033862855881515677 0.00026867082983889876 0 -0.034896413913102463 0.00059363284053164198 0 -0.035011261449379376 0.00036726564998816158 0 -0.035306850745963743 0.00083694035478252095 0 -0.032441511988858127 -0.00011187483909088192 0 -0.03295590394235158 8.6448627142706727e-05 0 -0.031991023834928384 0.00027154775768072238 0 -0.032441511988858127 -0.00011187483909088192 0 -0.032860706565973286 -0.00019269473460403687 0 -0.032303560161025244 -0.00040850564788848904 0 -0.032441511988858127 -0.00011187483909088192 0 -0.03295590394235158 8.6448627142706727e-05 0 -0.032860706565973286 -0.00019269473460403687 0 -0.032860706565973286 -0.00019269473460403687 0 -0.033460518927433111 1.4351740046448938e-05 0 -0.033125573616624979 -0.00023778685684444582 0 -0.033652900088475178 0.00021223422362198256 0 -0.03295590394235158 8.6448627142706727e-05 0 -0.033460518927433111 1.4351740046448938e-05 0 -0.03295590394235158 8.6448627142706727e-05 0 -0.032860706565973286 -0.00019269473460403687 0 -0.033460518927433111 1.4351740046448938e-05 0 -0.033460518927433111 1.4351740046448938e-05 0 -0.033125573616624979 -0.00023778685684444582 0 -0.033662210995987797 -2.3063539155834483e-05 0 -0.033125573616624979 -0.00023778685684444582 0 -0.032989604234156839 -0.00043664697321138611 0 -0.032603236903259537 -0.00055239034441677596 0 -0.033125573616624979 -0.00023778685684444582 0 -0.032634651434986388 -0.00040267056070969926 0 -0.032603236903259537 -0.00055239034441677596 0 -0.032860706565973286 -0.00019269473460403687 0 -0.033125573616624979 -0.00023778685684444582 0 -0.032634651434986388 -0.00040267056070969926 0 -0.032860706565973286 -0.00019269473460403687 0 -0.032634651434986388 -0.00040267056070969926 0 -0.032303560161025244 -0.00040850564788848904 0 -0.032634651434986388 -0.00040267056070969926 0 -0.032303560161025244 -0.00040850564788848904 0 -0.032026003319382469 -0.00073586204813659681 0 -0.032303560161025244 -0.00040850564788848904 0 -0.032026003319382469 -0.00073586204813659681 0 -0.031862294909935522 -0.00059030212084333275 0 -0.032441511988858127 -0.00011187483909088192 0 -0.032303560161025244 -0.00040850564788848904 0 -0.031900445782091807 -0.00033398024171600273 0 -0.033149251603964841 5.4773508057297478e-05 0 -0.033931243579898338 -2.6204671056328748e-06 0 -0.033467014980097139 -0.00013190118877212534 0 -0.033931243579898338 -2.6204671056328748e-06 0 -0.033662210995987797 -2.3063539155834483e-05 0 -0.033467014980097139 -0.00013190118877212534 0 -0.034086975280596933 0.00013352738192592183 0 -0.033460518927433111 1.4351740046448938e-05 0 -0.033662210995987797 -2.3063539155834483e-05 0 -0.033125573616624979 -0.00023778685684444582 0 -0.033662210995987797 -2.3063539155834483e-05 0 -0.033467014980097139 -0.00013190118877212534 0 -0.033125573616624979 -0.00023778685684444582 0 -0.033467014980097139 -0.00013190118877212534 0 -0.032989604234156839 -0.00043664697321138611 0 -0.033467014980097139 -0.00013190118877212534 0 -0.033313760507600536 -0.00025505818950250376 0 -0.032989604234156839 -0.00043664697321138611 0 -0.033149251603964841 5.4773508057297478e-05 0 -0.033313760507600536 -0.00025505818950250376 0 -0.033333618448455546 -0.00060538197995882155 0 -0.032982149129055477 -5.0640693966577227e-06 0 -0.032054462439538717 -0.00039103072141294734 0 -0.033149251603964841 5.4773508057297478e-05 0 -0.033467014980097139 -0.00013190118877212534 0 -0.033313760507600536 -0.00025505818950250376 0 -0.033149251603964841 5.4773508057297478e-05 0 -0.030829278011479284 -2.091882600946508e-05 0 -0.032462975677539807 -1.395295885193316e-05 0 -0.030829278011479284 -2.091882600946508e-05 0 -0.032462975677539807 -1.395295885193316e-05 0 -0.03189594032550773 -0.0001960971140326771 0 -0.033313760507600536 -0.00025505818950250376 0 -0.032989604234156839 -0.00043664697321138611 0 -0.033333618448455546 -0.00060538197995882155 0 -0.032989604234156839 -0.00043664697321138611 0 -0.032682081110552763 -0.00082138961866724824 0 -0.033333618448455546 -0.00060538197995882155 0 -0.030829278011479284 -2.091882600946508e-05 0 -0.030390571113996515 -0.00071359485174804418 0 -0.029117407143038395 -0.0014577905338110616 0 -0.032054462439538717 -0.00039103072141294734 0 -0.030652581320684772 -0.0013746224823316157 0 -0.032682081110552763 -0.00082138961866724824 0 -0.033333618448455546 -0.00060538197995882155 0 -0.032086039797856444 -0.0014515484959963028 0 -0.030140697864488811 -0.00055633753405836726 0 -0.031023581130952917 -0.00071940751520259394 0 -0.030829278011479284 -2.091882600946508e-05 0 -0.030390571113996515 -0.00071359485174804418 0 -0.03189594032550773 -0.0001960971140326771 0 -0.030390571113996515 -0.00071359485174804418 0 -0.031991992726696707 -0.00017900475494985938 0 -0.03189594032550773 -0.0001960971140326771 0 -0.032026003319382469 -0.00073586204813659681 0 -0.031553852761188064 -0.00084077737892708406 0 -0.031454825905144153 -0.0010495201208469281 0 -0.032026003319382469 -0.00073586204813659681 0 -0.032319160259663395 -0.0008348352195641232 0 -0.031549758377615242 -0.0011528159394743409 0 -0.032026003319382469 -0.00073586204813659681 0 -0.032603236903259537 -0.00055239034441677596 0 -0.032319160259663395 -0.0008348352195641232 0 -0.032634651434986388 -0.00040267056070969926 0 -0.032026003319382469 -0.00073586204813659681 0 -0.032603236903259537 -0.00055239034441677596 0 -0.032989604234156839 -0.00043664697321138611 0 -0.032603236903259537 -0.00055239034441677596 0 -0.032319160259663395 -0.0008348352195641232 0 -0.032989604234156839 -0.00043664697321138611 0 -0.032682081110552763 -0.00082138961866724824 0 -0.032319160259663395 -0.0008348352195641232 0 -0.032319160259663395 -0.0008348352195641232 0 -0.031549758377615242 -0.0011528159394743409 0 -0.032086039797856444 -0.0014515484959963028 0 -0.032682081110552763 -0.00082138961866724824 0 -0.032319160259663395 -0.0008348352195641232 0 -0.032086039797856444 -0.0014515484959963028 0 -0.031549758377615242 -0.0011528159394743409 0 -0.031454825905144153 -0.0010495201208469281 0 -0.031024603970374435 -0.0012897681903456548 0 -0.032026003319382469 -0.00073586204813659681 0 -0.031549758377615242 -0.0011528159394743409 0 -0.031454825905144153 -0.0010495201208469281 0 -0.031549758377615242 -0.0011528159394743409 0 -0.030912363060090025 -0.0014076923333541623 0 -0.031024603970374435 -0.0012897681903456548 0 -0.030912363060090025 -0.0014076923333541623 0 -0.032086039797856444 -0.0014515484959963028 0 -0.030090166208738573 -0.0014163733122048126 0 -0.030652581320684772 -0.0013746224823316157 0 -0.030209524564030608 -0.001360869163037385 0 -0.031549758377615242 -0.0011528159394743409 0 -0.030912363060090025 -0.0014076923333541623 0 -0.032086039797856444 -0.0014515484959963028 0 -0.029117407143038395 -0.0014577905338110616 0 -0.030090166208738573 -0.0014163733122048126 0 -0.028938672524694779 -0.0014542117729164333 0 -0.030912363060090025 -0.0014076923333541623 0 -0.030090166208738573 -0.0014163733122048126 0 -0.03064062895902582 -0.0012746545022992585 0 -0.029383430192532315 -0.0013339340669201514 0 -0.028823120593529577 -0.0012953188147567447 0 -0.029283974803406845 -0.0011958735123549404 0 -0.030390571113996515 -0.00071359485174804418 0 -0.029383430192532315 -0.0013339340669201514 0 -0.029283974803406845 -0.0011958735123549404 0 -0.029117407143038395 -0.0014577905338110616 0 -0.029383430192532315 -0.0013339340669201514 0 -0.028938672524694779 -0.0014542117729164333 0 -0.030390571113996515 -0.00071359485174804418 0 -0.029117407143038395 -0.0014577905338110616 0 -0.029383430192532315 -0.0013339340669201514 0 -0.029383430192532315 -0.0013339340669201514 0 -0.028938672524694779 -0.0014542117729164333 0 -0.028823120593529577 -0.0012953188147567447 0 -0.028938672524694779 -0.0014542117729164333 0 -0.028823120593529577 -0.0012953188147567447 0 -0.027900267059735605 -0.0013386474851066503 0 -0.028823120593529577 -0.0012953188147567447 0 -0.029108778156737358 -0.0013952525314211404 0 -0.027900267059735605 -0.0013386474851066503 0 -0.028823120593529577 -0.0012953188147567447 0 -0.029108778156737358 -0.0013952525314211404 0 -0.029283974803406845 -0.0011958735123549404 0 -0.027298642948840372 -0.0015650671406299535 0 -0.027999620682931638 -0.00052052396465686508 0 -0.029108778156737358 -0.0013952525314211404 0 -0.029283974803406845 -0.0011958735123549404 0 -0.029301421325495909 -0.0013059577313303771 0 -0.031023581130952917 -0.00071940751520259394 0 -0.027999620682931638 -0.00052052396465686508 0 -0.031991992726696707 -0.00017900475494985938 0 -0.03168286997539449 0.0008155508967301738 0 -0.031798232152187939 0.00014088965998351743 0 -0.03168286997539449 0.0008155508967301738 0 -0.030799038954994664 0.00090013873264384976 0 -0.031798232152187939 0.00014088965998351743 0 -0.025735251403305754 -0.001620385321265233 0 -0.025086781916108587 -0.0012121719736818137 0 -0.024831745186360079 -0.00079850269327895842 0 -0.027999620682931638 -0.00052052396465686508 0 -0.024459521181164894 -0.0002881045549615733 0 -0.025400744263796893 -1.8927127064320522e-05 0 -0.026190665573652676 -4.8176187297809919e-05 0 -0.026127660002191622 0.00030567449233505665 0 -0.025400744263796893 -1.8927127064320522e-05 0 -0.026190665573652676 -4.8176187297809919e-05 0 -0.025417926184289012 -0.00042017296534156907 0 -0.026190665573652676 -4.8176187297809919e-05 0 -0.026554716236514987 -1.0598156172364609e-06 0 -0.025417926184289012 -0.00042017296534156907 0 -0.026190665573652676 -4.8176187297809919e-05 0 -0.026127660002191622 0.00030567449233505665 0 -0.028556003308116522 1.9466200909067928e-06 0 -0.026190665573652676 -4.8176187297809919e-05 0 -0.026554716236514987 -1.0598156172364609e-06 0 -0.028556003308116522 1.9466200909067928e-06 0 -0.028560862501508025 0.00058945258277357969 0 -0.028558147057156574 2.348794488996424e-08 0 -0.027999620682931638 -0.00052052396465686508 0 -0.028560862501508025 0.00058945258277357969 0 -0.032325285480048635 -1.1590404601573601e-06 0 -0.031898037222141379 -0.00015914574389357903 0 -0.02856402498739714 1.8787098844023165e-06 0 -0.031898037222141379 -0.00015914574389357903 0 -0.031128749686659081 4.3530288793654123e-05 0 -0.02856402498739714 1.8787098844023165e-06 0 -0.030799038954994664 0.00090013873264384976 0 -0.031128749686659081 4.3530288793654123e-05 0 -0.031798232152187939 0.00014088965998351743 0 -0.030799038954994664 0.00090013873264384976 0 -0.031128749686659081 4.3530288793654123e-05 0 -0.02856402498739714 1.8787098844023165e-06 0 -0.031898037222141379 -0.00015914574389357903 0 -0.031128749686659081 4.3530288793654123e-05 0 -0.032083109442410405 -3.5780188510295142e-05 0 -0.032700531135583591 -6.3848607255384841e-05 0 -0.032083109442410405 -3.5780188510295142e-05 0 -0.032462975677539807 -1.395295885193316e-05 0 -0.032083109442410405 -3.5780188510295142e-05 0 -0.032462975677539807 -1.395295885193316e-05 0 -0.03189594032550773 -0.0001960971140326771 0 -0.031991992726696707 -0.00017900475494985938 0 -0.03189594032550773 -0.0001960971140326771 0 -0.031798232152187939 0.00014088965998351743 0 -0.032083109442410405 -3.5780188510295142e-05 0 -0.03189594032550773 -0.0001960971140326771 0 -0.031798232152187939 0.00014088965998351743 0 -0.031128749686659081 4.3530288793654123e-05 0 -0.032083109442410405 -3.5780188510295142e-05 0 -0.031798232152187939 0.00014088965998351743 0 -0.030300750865430725 -0.00026568558461150931 0 -0.033485297515106732 -0.00031907163046233737 0 -0.032005629582166295 -0.0003626509250385661 0 -0.031754542255445543 -0.00094974257402310471 0 -0.033018453574053148 -0.00018241270259093694 0 -0.032005629582166295 -0.0003626509250385661 0 -0.031754542255445543 -0.00094974257402310471 0 -0.031586923331526851 -0.00073780570727163147 0 -0.032005629582166295 -0.0003626509250385661 0 -0.031479480877984536 -0.00032069228258510725 0 -0.031586923331526851 -0.00073780570727163147 0 -0.030300750865430725 -0.00026568558461150931 0 -0.03090457226368171 -0.00078798412597876782 0 -0.033018453574053148 -0.00018241270259093694 0 -0.033509300995331073 -0.0009902741113332514 0 -0.032805816628924636 -0.0010983182593017639 0 -0.031734196540812443 -0.00087802827874978214 0 -0.033018453574053148 -0.00018241270259093694 0 -0.032805816628924636 -0.0010983182593017639 0 -0.033018453574053148 -0.00018241270259093694 0 -0.032255997199592969 4.9921061505525464e-05 0 -0.032664055566256289 0.0009411673250071447 0 -0.032005629582166295 -0.0003626509250385661 0 -0.033018453574053148 -0.00018241270259093694 0 -0.032255997199592969 4.9921061505525464e-05 0 -0.032005629582166295 -0.0003626509250385661 0 -0.032255997199592969 4.9921061505525464e-05 0 -0.031866089167389852 -6.6804482274932208e-05 0 -0.032005629582166295 -0.0003626509250385661 0 -0.031866089167389852 -6.6804482274932208e-05 0 -0.031479480877984536 -0.00032069228258510725 0 -0.031866089167389852 -6.6804482274932208e-05 0 -0.031674220574837854 0.00030602294730051492 0 -0.031479480877984536 -0.00032069228258510725 0 -0.032255997199592969 4.9921061505525464e-05 0 -0.031866089167389852 -6.6804482274932208e-05 0 -0.031674220574837854 0.00030602294730051492 0 -0.032140183627572004 0.00061741958566944829 0 -0.032266302949257565 0.00094460799107576364 0 -0.032664055566256289 0.0009411673250071447 0 -0.032140183627572004 0.00061741958566944829 0 -0.032266302949257565 0.00094460799107576364 0 -0.03207410711281429 0.00083273135555157556 0 -0.031899402776155536 0.00046032224152020194 0 -0.032607589784811673 0.00091960211995007737 0 -0.032255997199592969 4.9921061505525464e-05 0 -0.031674220574837854 0.00030602294730051492 0 -0.032664055566256289 0.0009411673250071447 0 -0.033569292950933256 0.00065796310896670276 0 -0.033570002170654645 0.00059893119557536344 0 -0.032266302949257565 0.00094460799107576364 0 -0.032570718457314123 0.0015907298224549378 0 -0.032664055566256289 0.0009411673250071447 0 -0.032266302949257565 0.00094460799107576364 0 -0.032570718457314123 0.0015907298224549378 0 -0.031947691925228353 0.0011146138560984705 0 -0.033569292950933256 0.00065796310896670276 0 -0.034315381168448025 0.00050392878752427827 0 -0.032570718457314123 0.0015907298224549378 0 -0.032664055566256289 0.0009411673250071447 0 -0.03357022814261449 0.00099661657948121678 0 -0.033018453574053148 -0.00018241270259093694 0 -0.032664055566256289 0.0009411673250071447 0 -0.03357022814261449 0.00099661657948121678 0 -0.034950913106824182 2.4790716414819436e-08 0 -0.034985735604284036 1.4965297845543374e-05 0 -0.034999934991377858 -3.127564626224926e-09 0 -0.034985735604284036 1.4965297845543374e-05 0 -0.034999934991377858 -3.127564626224926e-09 0 -0.034942041789780894 1.8509138904623584e-05 0 -0.034999934991377858 -3.127564626224926e-09 0 -0.034942041789780894 1.8509138904623584e-05 0 -0.034999927180828332 5.6191071429128619e-08 0 -0.03357022814261449 0.00099661657948121678 0 -0.033840539791868643 8.1206684346904023e-05 0 -0.034804951366115645 2.7899335308486873e-05 0 -0.034985735604284036 1.4965297845543374e-05 0 -0.034942041789780894 1.8509138904623584e-05 0 -0.034804951366115645 2.7899335308486873e-05 0 -0.034315381168448025 0.00050392878752427827 0 -0.034776280709760875 5.408210742385108e-05 0 -0.03398705513244725 -0.00048933469662859022 0 -0.034649959074279028 -0.0004221599166874283 0 -0.034804951366115645 2.7899335308486873e-05 0 -0.033840539791868643 8.1206684346904023e-05 0 -0.03398705513244725 -0.00048933469662859022 0 -0.034804951366115645 2.7899335308486873e-05 0 -0.033018453574053148 -0.00018241270259093694 0 -0.03357022814261449 0.00099661657948121678 0 -0.033840539791868643 8.1206684346904023e-05 0 -0.033018453574053148 -0.00018241270259093694 0 -0.033840539791868643 8.1206684346904023e-05 0 -0.03398705513244725 -0.00048933469662859022 0 -0.033018453574053148 -0.00018241270259093694 0 -0.033509300995331073 -0.0009902741113332514 0 -0.03398705513244725 -0.00048933469662859022 0 -0.033509300995331073 -0.0009902741113332514 0 -0.03398705513244725 -0.00048933469662859022 0 -0.034088475749166229 -0.0014232612540633017 0 -0.03398705513244725 -0.00048933469662859022 0 -0.034743232172824386 -0.0010124405921966503 0 -0.034088475749166229 -0.0014232612540633017 0 -0.03398705513244725 -0.00048933469662859022 0 -0.034649959074279028 -0.0004221599166874283 0 -0.034743232172824386 -0.0010124405921966503 0 -0.03373291640454705 -0.00017797212395670469 0 -0.033289810682968497 -0.00010681550787988799 0 -0.032643210407479896 -9.6168461357417552e-05 0 -0.032561392094832962 -0.00035805492901366966 0 -0.032265393652702076 -0.00031048716340243896 0 -0.034649959074279028 -0.0004221599166874283 0 -0.035060791194533772 -0.00010885920909766828 0 -0.034743232172824386 -0.0010124405921966503 0 -0.0350546952784688 -0.00018311747363063349 0 -0.033289810682968497 -0.00010681550787988799 0 -0.03482188462256431 -0.00023410638915915362 0 -0.034775969481977066 -0.00013611726186528298 0 -0.034621014406926429 -0.00034176213560573585 0 -0.032643210407479896 -9.6168461357417552e-05 0 -0.032937578442256622 -0.00028851308840517761 0 -0.032561392094832962 -0.00035805492901366966 0 -0.03373291640454705 -0.00017797212395670469 0 -0.034029204548494903 6.0200024567182496e-06 0 -0.034775969481977066 -0.00013611726186528298 0 -0.0349078509026415 -2.6465107852081661e-05 0 -0.03491772365652529 -8.3962073868175079e-05 0 -0.03482188462256431 -0.00023410638915915362 0 -0.034868567520385245 -0.00014461557992023196 0 -0.034775969481977066 -0.00013611726186528298 0 -0.0350546952784688 -0.00018311747363063349 0 -0.034941708200417101 -8.0359088195208519e-06 0 -0.034868567520385245 -0.00014461557992023196 0 -0.034775969481977066 -0.00013611726186528298 0 -0.03491772365652529 -8.3962073868175079e-05 0 -0.03482188462256431 -0.00023410638915915362 0 -0.034868567520385245 -0.00014461557992023196 0 -0.034947679907359787 -0.00013069139028645005 0 -0.035060791194533772 -0.00010885920909766828 0 -0.034804951366115645 2.7899335308486873e-05 0 -0.034951721004903999 3.4616404651304118e-05 0 -0.034649959074279028 -0.0004221599166874283 0 -0.035060791194533772 -0.00010885920909766828 0 -0.034804951366115645 2.7899335308486873e-05 0 -0.034942041789780894 1.8509138904623584e-05 0 -0.034804951366115645 2.7899335308486873e-05 0 -0.034951721004903999 3.4616404651304118e-05 0 -0.034942041789780894 1.8509138904623584e-05 0 -0.034951721004903999 3.4616404651304118e-05 0 -0.034999927180828332 5.6191071429128619e-08 0 -0.034999927180828332 5.6191071429128619e-08 0 -0.035002854338239311 2.8915326989889457e-05 0 -0.035000017680808813 -1.1768374633192318e-08 0 -0.034951721004903999 3.4616404651304118e-05 0 -0.034999927180828332 5.6191071429128619e-08 0 -0.035002854338239311 2.8915326989889457e-05 0 -0.035060791194533772 -0.00010885920909766828 0 -0.034951721004903999 3.4616404651304118e-05 0 -0.035002854338239311 2.8915326989889457e-05 0 -0.0349078509026415 -2.6465107852081661e-05 0 -0.034957633359404577 -5.9129558555217665e-05 0 -0.03491772365652529 -8.3962073868175079e-05 0 -0.035000111829476301 -2.8303284051605949e-08 0 -0.034999836358535978 2.6195152837038904e-08 0 -0.034997519551306158 -1.4986838405515778e-05 0 -0.0349078509026415 -2.6465107852081661e-05 0 -0.034957633359404577 -5.9129558555217665e-05 0 -0.034997519551306158 -1.4986838405515778e-05 0 -0.0349078509026415 -2.6465107852081661e-05 0 -0.034999836358535978 2.6195152837038904e-08 0 -0.034997519551306158 -1.4986838405515778e-05 0 -0.034941708200417101 -8.0359088195208519e-06 0 -0.034999989473846339 8.9458337858772438e-09 0 -0.034957633359404577 -5.9129558555217665e-05 0 -0.034997519551306158 -1.4986838405515778e-05 0 -0.035004680174994716 -6.2278450855031493e-05 0 -0.035007693514291914 -1.6525424275995876e-05 0 -0.034997519551306158 -1.4986838405515778e-05 0 -0.035004680174994716 -6.2278450855031493e-05 0 -0.035135276249851813 0.00027666810509161232 0 -0.033862855881515677 0.00026867082983889876 0 -0.032441511988858127 -0.00011187483909088192 0 -0.031991023834928384 0.00027154775768072238 0 -0.031900445782091807 -0.00033398024171600273 0 -0.033862855881515677 0.00026867082983889876 0 -0.03200371509672973 -0.00031026504356745097 0 -0.033862855881515677 0.00026867082983889876 0 -0.034029204548494903 6.0200024567182496e-06 0 -0.031991023834928384 0.00027154775768072238 0 -0.03128592131947832 -0.00041830028366785291 0 -0.031900445782091807 -0.00033398024171600273 0 -0.034957633359404577 -5.9129558555217665e-05 0 -0.035004680174994716 -6.2278450855031493e-05 0 -0.034947679907359787 -0.00013069139028645005 0 -0.033415178417539632 0.00035173170776660166 0 -0.033022941677125821 0.00012545907153894097 0 -0.033090386646289514 -8.3126101932169482e-05 0 -0.034957633359404577 -5.9129558555217665e-05 0 -0.03491772365652529 -8.3962073868175079e-05 0 -0.034947679907359787 -0.00013069139028645005 0 -0.034868567520385245 -0.00014461557992023196 0 -0.03491772365652529 -8.3962073868175079e-05 0 -0.034947679907359787 -0.00013069139028645005 0 -0.032643210407479896 -9.6168461357417552e-05 0 -0.033090386646289514 -8.3126101932169482e-05 0 -0.032937578442256622 -0.00028851308840517761 0 -0.03128592131947832 -0.00041830028366785291 0 -0.031087628032942582 -0.00072464959881909246 0 -0.031250959520510851 -0.00087866984029836323 0 -0.032643210407479896 -9.6168461357417552e-05 0 -0.033022941677125821 0.00012545907153894097 0 -0.033090386646289514 -8.3126101932169482e-05 0 -0.03128592131947832 -0.00041830028366785291 0 -0.031569248740166748 -0.00062698114727534056 0 -0.031250959520510851 -0.00087866984029836323 0 -0.03200371509672973 -0.00031026504356745097 0 -0.031782019832282189 -0.00060129952511886692 0 -0.031569248740166748 -0.00062698114727534056 0 -0.031862294909935522 -0.00059030212084333275 0 -0.031900445782091807 -0.00033398024171600273 0 -0.031569248740166748 -0.00062698114727534056 0 -0.031862294909935522 -0.00059030212084333275 0 -0.031553852761188064 -0.00084077737892708406 0 -0.032303560161025244 -0.00040850564788848904 0 -0.031862294909935522 -0.00059030212084333275 0 -0.031900445782091807 -0.00033398024171600273 0 -0.03128592131947832 -0.00041830028366785291 0 -0.031569248740166748 -0.00062698114727534056 0 -0.031900445782091807 -0.00033398024171600273 0 -0.032026003319382469 -0.00073586204813659681 0 -0.031862294909935522 -0.00059030212084333275 0 -0.031553852761188064 -0.00084077737892708406 0 -0.031553852761188064 -0.00084077737892708406 0 -0.031238895378168957 -0.0010573497717449348 0 -0.031454825905144153 -0.0010495201208469281 0 -0.031553852761188064 -0.00084077737892708406 0 -0.031250959520510851 -0.00087866984029836323 0 -0.031238895378168957 -0.0010573497717449348 0 -0.031569248740166748 -0.00062698114727534056 0 -0.031553852761188064 -0.00084077737892708406 0 -0.031250959520510851 -0.00087866984029836323 0 -0.031087628032942582 -0.00072464959881909246 0 -0.031250959520510851 -0.00087866984029836323 0 -0.031000331338964231 -0.0010382459801441645 0 -0.031250959520510851 -0.00087866984029836323 0 -0.031090678531986698 -0.0010893630950287773 0 -0.031000331338964231 -0.0010382459801441645 0 -0.031250959520510851 -0.00087866984029836323 0 -0.031090678531986698 -0.0010893630950287773 0 -0.031238895378168957 -0.0010573497717449348 0 -0.031090678531986698 -0.0010893630950287773 0 -0.031048773624004791 -0.0011871465373789673 0 -0.031238895378168957 -0.0010573497717449348 0 -0.031090678531986698 -0.0010893630950287773 0 -0.031048773624004791 -0.0011871465373789673 0 -0.031018697313927614 -0.001153824870403597 0 -0.031048773624004791 -0.0011871465373789673 0 -0.031238895378168957 -0.0010573497717449348 0 -0.031024603970374435 -0.0012897681903456548 0 -0.031238895378168957 -0.0010573497717449348 0 -0.031454825905144153 -0.0010495201208469281 0 -0.031024603970374435 -0.0012897681903456548 0 -0.030912363060090025 -0.0014076923333541623 0 -0.031024603970374435 -0.0012897681903456548 0 -0.03064062895902582 -0.0012746545022992585 0 -0.031024603970374435 -0.0012897681903456548 0 -0.03064062895902582 -0.0012746545022992585 0 -0.03091670177128783 -0.0011899727569161544 0 -0.03064062895902582 -0.0012746545022992585 0 -0.03091670177128783 -0.0011899727569161544 0 -0.030695079518261489 -0.00090125880530095607 0 -0.03091670177128783 -0.0011899727569161544 0 -0.031022155880755714 -0.00085091965329098414 0 -0.030695079518261489 -0.00090125880530095607 0 -0.031048773624004791 -0.0011871465373789673 0 -0.031024603970374435 -0.0012897681903456548 0 -0.03091670177128783 -0.0011899727569161544 0 -0.031048773624004791 -0.0011871465373789673 0 -0.03091670177128783 -0.0011899727569161544 0 -0.031018697313927614 -0.001153824870403597 0 -0.03091670177128783 -0.0011899727569161544 0 -0.031083480822897795 -0.0011113510834125707 0 -0.031018697313927614 -0.001153824870403597 0 -0.03091670177128783 -0.0011899727569161544 0 -0.031083480822897795 -0.0011113510834125707 0 -0.031022155880755714 -0.00085091965329098414 0 -0.031083480822897795 -0.0011113510834125707 0 -0.031249361614184772 -0.00096913633549814261 0 -0.031022155880755714 -0.00085091965329098414 0 -0.031083480822897795 -0.0011113510834125707 0 -0.031055973538592709 -0.0011134456791306415 0 -0.03115834824619286 -0.0010966716252103598 0 -0.031090678531986698 -0.0010893630950287773 0 -0.031018697313927614 -0.001153824870403597 0 -0.031000331338964231 -0.0010382459801441645 0 -0.031083480822897795 -0.0011113510834125707 0 -0.031055973538592709 -0.0011134456791306415 0 -0.031018697313927614 -0.001153824870403597 0 -0.031055973538592709 -0.0011134456791306415 0 -0.031018697313927614 -0.001153824870403597 0 -0.031000331338964231 -0.0010382459801441645 0 -0.031043647192225878 -0.0010892854508545932 0 -0.031000331338964231 -0.0010382459801441645 0 -0.031054833815762805 -0.0010980055262508383 0 -0.031055973538592709 -0.0011134456791306415 0 -0.031000331338964231 -0.0010382459801441645 0 -0.031054833815762805 -0.0010980055262508383 0 -0.030974515960506998 -0.001079508732533764 0 -0.031043647192225878 -0.0010892854508545932 0 -0.031000331338964231 -0.0010382459801441645 0 -0.031782019832282189 -0.00060129952511886692 0 -0.031901919356391431 -0.00071786932808647053 0 -0.031782019832282189 -0.00060129952511886692 0 -0.030989983907993807 -0.0011695425861532925 0 -0.031043647192225878 -0.0010892854508545932 0 -0.031054833815762805 -0.0010980055262508383 0 -0.031072695670600014 -0.0011155056371857375 0 -0.032561392094832962 -0.00035805492901366966 0 -0.032265393652702076 -0.00031048716340243896 0 -0.032191852428980428 -0.00043141994407667241 0 -0.031901919356391431 -0.00071786932808647053 0 -0.030958536671283475 0.00034171539237092793 0 -0.033289810682968497 -0.00010681550787988799 0 -0.030958536671283475 0.00034171539237092793 0 -0.031055973538592709 -0.0011134456791306415 0 -0.031054833815762805 -0.0010980055262508383 0 -0.031072695670600014 -0.0011155056371857375 0 -0.027494383921696126 0.0026764011509431444 0 -0.028284757463040596 0.0028288418283582226 0 -0.027253135339737028 0.0019008717242592508 0 -0.030872026485465946 0.0006289274360342734 0 -0.030958536671283475 0.00034171539237092793 0 -0.032197604775766622 0.00052490767532092637 0 -0.031161475834778272 -7.3367937621748394e-05 0 -0.03194479790027388 9.2225355529833715e-05 0 -0.033289810682968497 -0.00010681550787988799 0 -0.030872026485465946 0.0006289274360342734 0 -0.030637189554203723 0.0017890823612580343 0 -0.028481236172968608 0.0013359783514283591 0 -0.028889679663948103 0.00078217070490514229 0 -0.033509300995331073 -0.0009902741113332514 0 -0.034088475749166229 -0.0014232612540633017 0 -0.033266785004679215 -0.0016224586049149194 0 -0.030872026485465946 0.0006289274360342734 0 -0.031460891749043561 -2.2647843649688939e-05 0 -0.033509300995331073 -0.0009902741113332514 0 -0.033266785004679215 -0.0016224586049149194 0 -0.032805816628924636 -0.0010983182593017639 0 -0.030872026485465946 0.0006289274360342734 0 -0.027746981220541516 0.0014790399499625018 0 -0.027494383921696126 0.0026764011509431444 0 -0.026454037015663904 0.0020942155513557232 0 -0.027253135339737028 0.0019008717242592508 0 -0.026454037015663904 0.0020942155513557232 0 -0.026591409015431746 0.0012173320867388268 0 -0.025440362415234168 0.0015126117983243518 0 -0.026454037015663904 0.0020942155513557232 0 -0.026864427413060575 0.0015780745863345498 0 -0.026591409015431746 0.0012173320867388268 0 -0.026454037015663904 0.0020942155513557232 0 -0.026864427413060575 0.0015780745863345498 0 -0.027253135339737028 0.0019008717242592508 0 -0.028481236172968608 0.0013359783514283591 0 -0.028889679663948103 0.00078217070490514229 0 -0.02713214414485968 -0.00023171797913470207 0 -0.026864427413060575 0.0015780745863345498 0 -0.027176571552982406 0.0010461168657837699 0 -0.027253135339737028 0.0019008717242592508 0 -0.026864427413060575 0.0015780745863345498 0 -0.026591409015431746 0.0012173320867388268 0 -0.027176571552982406 0.0010461168657837699 0 -0.028284757463040596 0.0028288418283582226 0 -0.027176571552982406 0.0010461168657837699 0 -0.027253135339737028 0.0019008717242592508 0 -0.030958536671283475 0.00034171539237092793 0 -0.027490888109086047 0.00048159149418993796 0 -0.031055973538592709 -0.0011134456791306415 0 -0.031072695670600014 -0.0011155056371857375 0 -0.03115834824619286 -0.0010966716252103598 0 -0.025197746822773759 0.0013330322350681319 0 -0.024910255147270782 0.0021344621276197006 0 -0.025443131324432416 0.0018048772943834975 0 -0.031083480822897795 -0.0011113510834125707 0 -0.03115834824619286 -0.0010966716252103598 0 -0.031249361614184772 -0.00096913633549814261 0 -0.027490888109086047 0.00048159149418993796 0 -0.0285006159713189 9.2424737066630882e-05 0 -0.024910255147270782 0.0021344621276197006 0 -0.025443131324432416 0.0018048772943834975 0 -0.025034208259742553 0.0023662096371679193 0 -0.017148025371395915 0.0060326159604359442 0 -0.017175710590188853 0.0061435338621493186 0 -0.017023376915911406 0.0059894668108139131 0 -0.02256722778874435 0.0025102073898395942 0 -0.020343655091081117 0.0049902461352542083 0 -0.017148025371395915 0.0060326159604359442 0 -0.017175710590188853 0.0061435338621493186 0 -0.017284083199618546 0.006075839581531543 0 -0.02256722778874435 0.0025102073898395942 0 -0.017039067238315556 0.0046075513933391031 0 -0.026591409015431746 0.0012173320867388268 0 -0.026544667857364809 1.7722890726656401e-05 0 -0.025440362415234168 0.0015126117983243518 0 -0.026591409015431746 0.0012173320867388268 0 -0.027176571552982406 0.0010461168657837699 0 -0.026544667857364809 1.7722890726656401e-05 0 -0.027490888109086047 0.00048159149418993796 0 -0.02256722778874435 0.0025102073898395942 0 -0.02256722778874435 0.0025102073898395942 0 -0.024031017334605102 0.0019172413320155527 0 -0.021112375070725515 0.0025713103182670016 0 -0.02080896390568817 0.002722194273494375 0 -0.021168162898417997 0.0028939269069630912 0 -0.021430057314562097 0.0025157238903618789 0 -0.021112375070725515 0.0025713103182670016 0 -0.021168162898417997 0.0028939269069630912 0 -0.021430057314562097 0.0025157238903618789 0 -0.021112375070725515 0.0025713103182670016 0 -0.021187227027722678 0.0021516981643913014 0 -0.018005005414583521 0.0024879075391048581 0 -0.017039067238315556 0.0046075513933391031 0 -0.021112375070725515 0.0025713103182670016 0 -0.020813535858207086 0.0023488169106334411 0 -0.021187227027722678 0.0021516981643913014 0 -0.021112375070725515 0.0025713103182670016 0 -0.020813535858207086 0.0023488169106334411 0 -0.02080896390568817 0.002722194273494375 0 -0.020096035163117299 0.0026587020955396961 0 -0.024031017334605102 0.0019172413320155527 0 -0.026857178777803192 0.00064002473216058736 0 -0.022948670260050066 0.0016587561553711389 0 -0.02080896390568817 0.002722194273494375 0 -0.021529304134902293 0.0030636999044170075 0 -0.021295760559261023 0.0033705482784982567 0 -0.02080896390568817 0.002722194273494375 0 -0.021295760559261023 0.0033705482784982567 0 -0.020387565006131605 0.0031769740155804852 0 -0.027940735924373603 0.00072585256274205275 0 -0.025717353566483216 0.00078334346428302331 0 -0.025336590113612705 0.00013764855608532301 0 -0.028481236172968608 0.0013359783514283591 0 -0.02713214414485968 -0.00023171797913470207 0 -0.02631609615073472 0.00087379321511299468 0 -0.027746981220541516 0.0014790399499625018 0 -0.024031017334605102 0.0019172413320155527 0 -0.024031017334605102 0.0019172413320155527 0 -0.026857178777803192 0.00064002473216058736 0 -0.031460891749043561 -2.2647843649688939e-05 0 -0.026857178777803192 0.00064002473216058736 0 -0.033266785004679215 -0.0016224586049149194 0 -0.032410810313768579 -0.0018011452715536479 0 -0.032805816628924636 -0.0010983182593017639 0 -0.0265729041518151 0.0025325585491207145 0 -0.027940735924373603 0.00072585256274205275 0 -0.025717353566483216 0.00078334346428302331 0 -0.031734196540812443 -0.00087802827874978214 0 -0.032410810313768579 -0.0018011452715536479 0 -0.032805816628924636 -0.0010983182593017639 0 -0.030300750865430725 -0.00026568558461150931 0 -0.026857178777803192 0.00064002473216058736 0 -0.01177458389924844 0.0015799507348483455 0 -0.011210259074686521 0.0030694546544584554 0 -0.010196842687114026 0.0013251255261871825 0 -0.01177458389924844 0.0015799507348483455 0 -0.012650150750892254 0.0027618890485487106 0 -0.011210259074686521 0.0030694546544584554 0 -0.011438800914252058 0.001588225813849172 0 -0.010313420351422808 0.0018646644719631047 0 -0.013541397026576623 0.0013824638019569952 0 -0.012650150750892254 0.0027618890485487106 0 -0.015044552737574863 0.0034599349605840871 0 -0.01177458389924844 0.0015799507348483455 0 -0.013541397026576623 0.0013824638019569952 0 -0.012650150750892254 0.0027618890485487106 0 -0.013272814574786393 0.004209720770703587 0 -0.014354579774502489 0.0053902172703352985 0 -0.015044552737574863 0.0034599349605840871 0 -0.012650150750892254 0.0027618890485487106 0 -0.013272814574786393 0.004209720770703587 0 -0.015044552737574863 0.0034599349605840871 0 -0.012650150750892254 0.0027618890485487106 0 -0.013272814574786393 0.004209720770703587 0 -0.011784456024410346 0.0040306621045733378 0 -0.012650150750892254 0.0027618890485487106 0 -0.011784456024410346 0.0040306621045733378 0 -0.011210259074686521 0.0030694546544584554 0 -0.014492502896986472 0.0015899810287183672 0 -0.014282428049637591 0.0012212636866419612 0 -0.014197836072328955 0.0018415312992579029 0 -0.013071203423852328 0.0028695738962240327 0 -0.012455981840750504 0.0022789183449263371 0 -0.014197836072328955 0.0018415312992579029 0 -0.014504337239115012 0.0026691583956079063 0 -0.014770514048173504 0.0020726653682078527 0 -0.014492502896986472 0.0015899810287183672 0 -0.014197836072328955 0.0018415312992579029 0 -0.014770514048173504 0.0020726653682078527 0 -0.013071203423852328 0.0028695738962240327 0 -0.013386811826976422 0.0036768580666526663 0 -0.013272814574786393 0.004209720770703587 0 -0.011784456024410346 0.0040306621045733378 0 -0.012566022973587826 0.0053256374880203518 0 -0.014385301181938712 0.0034066570053122528 0 -0.014504337239115012 0.0026691583956079063 0 -0.015261521789013978 0.0029032204543562095 0 -0.014385301181938712 0.0034066570053122528 0 -0.014504337239115012 0.0026691583956079063 0 -0.01377014514184083 0.0027839070528806612 0 -0.014197836072328955 0.0018415312992579029 0 -0.014504337239115012 0.0026691583956079063 0 -0.01377014514184083 0.0027839070528806612 0 -0.017039067238315556 0.0046075513933391031 0 -0.013386811826976422 0.0036768580666526663 0 -0.014504337239115012 0.0026691583956079063 0 -0.015261521789013978 0.0029032204543562095 0 -0.014770514048173504 0.0020726653682078527 0 -0.013936324307586368 0.0076339378953958602 0 -0.014354579774502489 0.0053902172703352985 0 -0.012566022973587826 0.0053256374880203518 0 -0.013272814574786393 0.004209720770703587 0 -0.014354579774502489 0.0053902172703352985 0 -0.012566022973587826 0.0053256374880203518 0 -0.014354579774502489 0.0053902172703352985 0 -0.015769726764627102 0.00512316014880034 0 -0.015044552737574863 0.0034599349605840871 0 -0.015769726764627102 0.00512316014880034 0 -0.015564071524251407 0.0066541152697289791 0 -0.017312529406509951 0.005525532764574478 0 -0.014354579774502489 0.0053902172703352985 0 -0.015769726764627102 0.00512316014880034 0 -0.015564071524251407 0.0066541152697289791 0 -0.013936324307586368 0.0076339378953958602 0 -0.014354579774502489 0.0053902172703352985 0 -0.015564071524251407 0.0066541152697289791 0 -0.017148025371395915 0.0060326159604359442 0 -0.017126328707861266 0.0058569124549543447 0 -0.017284083199618546 0.006075839581531543 0 -0.017039067238315556 0.0046075513933391031 0 -0.01601377256997559 0.006414411845596683 0 -0.017148025371395915 0.0060326159604359442 0 -0.017023376915911406 0.0059894668108139131 0 -0.017126328707861266 0.0058569124549543447 0 -0.024910255147270782 0.0021344621276197006 0 -0.025034208259742553 0.0023662096371679193 0 -0.024675477317903111 0.0029136792104201233 0 -0.0285006159713189 9.2424737066630882e-05 0 -0.025923634364625713 0.0028898867029700116 0 -0.017284083199618546 0.006075839581531543 0 -0.017341329878096608 0.0057969188316168638 0 -0.018062251804275047 0.0056583735415988651 0 -0.020343655091081117 0.0049902461352542083 0 -0.025923634364625713 0.0028898867029700116 0 -0.017126328707861266 0.0058569124549543447 0 -0.017284083199618546 0.006075839581531543 0 -0.017341329878096608 0.0057969188316168638 0 -0.017126328707861266 0.0058569124549543447 0 -0.017341329878096608 0.0057969188316168638 0 -0.017312529406509951 0.005525532764574478 0 -0.017341329878096608 0.0057969188316168638 0 -0.017312529406509951 0.005525532764574478 0 -0.018062251804275047 0.0056583735415988651 0 -0.01601377256997559 0.006414411845596683 0 -0.017316468440557689 0.0055703932634912365 0 -0.015769726764627102 0.00512316014880034 0 -0.017312529406509951 0.005525532764574478 0 -0.016891953477246875 0.0045596171822422952 0 -0.015769726764627102 0.00512316014880034 0 -0.016891953477246875 0.0045596171822422952 0 -0.016395895986357562 0.0036517907787964941 0 -0.017312529406509951 0.005525532764574478 0 -0.016891953477246875 0.0045596171822422952 0 -0.017841032822770529 0.0043265224000292998 0 -0.017312529406509951 0.005525532764574478 0 -0.017841032822770529 0.0043265224000292998 0 -0.018062251804275047 0.0056583735415988651 0 -0.017841032822770529 0.0043265224000292998 0 -0.017387356076266194 0.0037501339228596499 0 -0.018114778231321661 0.00317743010792119 0 -0.016891953477246875 0.0045596171822422952 0 -0.017841032822770529 0.0043265224000292998 0 -0.017387356076266194 0.0037501339228596499 0 -0.017387356076266194 0.0037501339228596499 0 -0.016758508334211046 0.0023735320421012112 0 -0.018114778231321661 0.00317743010792119 0 -0.017387356076266194 0.0037501339228596499 0 -0.016395895986357562 0.0036517907787964941 0 -0.016758508334211046 0.0023735320421012112 0 -0.016891953477246875 0.0045596171822422952 0 -0.017387356076266194 0.0037501339228596499 0 -0.016395895986357562 0.0036517907787964941 0 -0.015769726764627102 0.00512316014880034 0 -0.016395895986357562 0.0036517907787964941 0 -0.015044552737574863 0.0034599349605840871 0 -0.016395895986357562 0.0036517907787964941 0 -0.015044552737574863 0.0034599349605840871 0 -0.016758508334211046 0.0023735320421012112 0 -0.013541397026576623 0.0013824638019569952 0 -0.015044552737574863 0.0034599349605840871 0 -0.015216718046617997 0.00062440631665387661 0 -0.014950149087105393 0.0035390705987285056 0 -0.01575994815862021 0.00017021009520202751 0 -0.015044552737574863 0.0034599349605840871 0 -0.016758508334211046 0.0023735320421012112 0 -0.015519818118757602 0.00067361584559266134 0 -0.016758508334211046 0.0023735320421012112 0 -0.017631417960272684 0.00073154148758668982 0 -0.015519818118757602 0.00067361584559266134 0 -0.016758508334211046 0.0023735320421012112 0 -0.018444666186767072 0.0022247195847053965 0 -0.017631417960272684 0.00073154148758668982 0 -0.016758508334211046 0.0023735320421012112 0 -0.018444666186767072 0.0022247195847053965 0 -0.018114778231321661 0.00317743010792119 0 -0.018643476265147386 0.0014554047231816203 0 -0.019779795030089524 0.0017213296865620971 0 -0.018444666186767072 0.0022247195847053965 0 -0.01928522439906525 0.003125158809120412 0 -0.020512057704683086 0.00033393832682011517 0 -0.031120153348932797 0.0009799992191711637 0 -0.030236873863293674 0.0015923129199314811 0 -0.023464279379966157 0.0032868711845431375 0 -0.027482626787934002 0.0010818961555857612 0 -0.031231770176562108 0.00013384033304246069 0 -0.030745154823151783 0.00055210079287862542 0 -0.030525711467698596 0.0013758148875927072 0 -0.029562091632663358 0.0026573743610710052 0 -0.030317875785117403 0.0015094625185027098 0 -0.030525711467698596 0.0013758148875927072 0 -0.029562091632663358 0.0026573743610710052 0 -0.02906261200361154 0.0025313259066656892 0 -0.029615055441765164 0.0011119291902009177 0 -0.029562091632663358 0.0026573743610710052 0 -0.030317875785117403 0.0015094625185027098 0 -0.029615055441765164 0.0011119291902009177 0 -0.031231770176562108 0.00013384033304246069 0 -0.030866822795641995 2.6324653423258742e-05 0 -0.031069902066275745 -0.00037065282535815282 0 -0.031231770176562108 0.00013384033304246069 0 -0.030866822795641995 2.6324653423258742e-05 0 -0.030745154823151783 0.00055210079287862542 0 -0.017841032822770529 0.0043265224000292998 0 -0.01928522439906525 0.003125158809120412 0 -0.018062251804275047 0.0056583735415988651 0 -0.029562091632663358 0.0026573743610710052 0 -0.02906261200361154 0.0025313259066656892 0 -0.028413074227310365 0.0040394504104922391 0 -0.018444666186767072 0.0022247195847053965 0 -0.01928522439906525 0.003125158809120412 0 -0.018114778231321661 0.00317743010792119 0 -0.017841032822770529 0.0043265224000292998 0 -0.01928522439906525 0.003125158809120412 0 -0.018114778231321661 0.00317743010792119 0 -0.023464279379966157 0.0032868711845431375 0 -0.025923634364625713 0.0028898867029700116 0 -0.031120153348932797 0.0009799992191711637 0 -0.025923634364625713 0.0028898867029700116 0 -0.031231770176562108 0.00013384033304246069 0 -0.031331801251144722 -0.00058905519207848452 0 -0.031069902066275745 -0.00037065282535815282 0 -0.031249361614184772 -0.00096913633549814261 0 -0.031331801251144722 -0.00058905519207848452 0 -0.031022155880755714 -0.00085091965329098414 0 -0.031022155880755714 -0.00085091965329098414 0 -0.031069902066275745 -0.00037065282535815282 0 -0.030801585657503527 -0.00040709846923708153 0 -0.031331801251144722 -0.00058905519207848452 0 -0.031022155880755714 -0.00085091965329098414 0 -0.031069902066275745 -0.00037065282535815282 0 -0.030866822795641995 2.6324653423258742e-05 0 -0.031069902066275745 -0.00037065282535815282 0 -0.030801585657503527 -0.00040709846923708153 0 -0.030801585657503527 -0.00040709846923708153 0 -0.030420595599821122 -0.00041566141148642919 0 -0.030695079518261489 -0.00090125880530095607 0 -0.030801585657503527 -0.00040709846923708153 0 -0.030420595599821122 -0.00041566141148642919 0 -0.030508634339277689 1.3439749499643748e-05 0 -0.031022155880755714 -0.00085091965329098414 0 -0.030801585657503527 -0.00040709846923708153 0 -0.030695079518261489 -0.00090125880530095607 0 -0.030090166208738573 -0.0014163733122048126 0 -0.03064062895902582 -0.0012746545022992585 0 -0.030273312246613674 -0.00084526586673527599 0 -0.03064062895902582 -0.0012746545022992585 0 -0.030695079518261489 -0.00090125880530095607 0 -0.030273312246613674 -0.00084526586673527599 0 -0.030420595599821122 -0.00041566141148642919 0 -0.030695079518261489 -0.00090125880530095607 0 -0.030273312246613674 -0.00084526586673527599 0 -0.030420595599821122 -0.00041566141148642919 0 -0.030273312246613674 -0.00084526586673527599 0 -0.029847904808451113 -0.00027462965220246703 0 -0.030420595599821122 -0.00041566141148642919 0 -0.029847904808451113 -0.00027462965220246703 0 -0.030102069845082645 6.18502396360453e-05 0 -0.029847904808451113 -0.00027462965220246703 0 -0.030102069845082645 6.18502396360453e-05 0 -0.029502837234637671 0.00035295569534294832 0 -0.029902866042191254 0.00045209718310787927 0 -0.030102069845082645 6.18502396360453e-05 0 -0.029502837234637671 0.00035295569534294832 0 -0.030185968658140969 0.00047456287267187778 0 -0.030102069845082645 6.18502396360453e-05 0 -0.030508634339277689 1.3439749499643748e-05 0 -0.029902866042191254 0.00045209718310787927 0 -0.030185968658140969 0.00047456287267187778 0 -0.030102069845082645 6.18502396360453e-05 0 -0.030420595599821122 -0.00041566141148642919 0 -0.030102069845082645 6.18502396360453e-05 0 -0.030508634339277689 1.3439749499643748e-05 0 -0.030866822795641995 2.6324653423258742e-05 0 -0.030801585657503527 -0.00040709846923708153 0 -0.030508634339277689 1.3439749499643748e-05 0 -0.030866822795641995 2.6324653423258742e-05 0 -0.030577128445994899 0.00045003912495283926 0 -0.030745154823151783 0.00055210079287862542 0 -0.030866822795641995 2.6324653423258742e-05 0 -0.030508634339277689 1.3439749499643748e-05 0 -0.030577128445994899 0.00045003912495283926 0 -0.030185968658140969 0.00047456287267187778 0 -0.030508634339277689 1.3439749499643748e-05 0 -0.030577128445994899 0.00045003912495283926 0 -0.030185968658140969 0.00047456287267187778 0 -0.030577128445994899 0.00045003912495283926 0 -0.030260013211394786 0.00094746354897194554 0 -0.030577128445994899 0.00045003912495283926 0 -0.030538553863445998 0.00085184388971625534 0 -0.030260013211394786 0.00094746354897194554 0 -0.030577128445994899 0.00045003912495283926 0 -0.030745154823151783 0.00055210079287862542 0 -0.030538553863445998 0.00085184388971625534 0 -0.030745154823151783 0.00055210079287862542 0 -0.030538553863445998 0.00085184388971625534 0 -0.030525711467698596 0.0013758148875927072 0 -0.030538553863445998 0.00085184388971625534 0 -0.030384315723328777 0.001131908874341939 0 -0.030525711467698596 0.0013758148875927072 0 -0.030260013211394786 0.00094746354897194554 0 -0.030384315723328777 0.001131908874341939 0 -0.030259826623103107 0.0013731460170967175 0 -0.030538553863445998 0.00085184388971625534 0 -0.030260013211394786 0.00094746354897194554 0 -0.030384315723328777 0.001131908874341939 0 -0.030260013211394786 0.00094746354897194554 0 -0.029808874682364591 0.00093048661436669067 0 -0.029971656231606775 0.0014840673726290354 0 -0.029808874682364591 0.00093048661436669067 0 -0.029575050535799105 0.0014075872795294778 0 -0.029161083664793756 0.0010964314864754855 0 -0.029902866042191254 0.00045209718310787927 0 -0.029808874682364591 0.00093048661436669067 0 -0.029502837234637671 0.00035295569534294832 0 -0.030185968658140969 0.00047456287267187778 0 -0.030260013211394786 0.00094746354897194554 0 -0.029808874682364591 0.00093048661436669067 0 -0.029902866042191254 0.00045209718310787927 0 -0.030185968658140969 0.00047456287267187778 0 -0.029808874682364591 0.00093048661436669067 0 -0.029629128455488065 0.0017929624898212538 0 -0.029971656231606775 0.0014840673726290354 0 -0.029950102747613463 0.002089968742016841 0 -0.029629128455488065 0.0017929624898212538 0 -0.029395112929512853 0.0021502643721905278 0 -0.02923566520524383 0.0017670134096340172 0 -0.029629128455488065 0.0017929624898212538 0 -0.029575050535799105 0.0014075872795294778 0 -0.02923566520524383 0.0017670134096340172 0 -0.029808874682364591 0.00093048661436669067 0 -0.029575050535799105 0.0014075872795294778 0 -0.029971656231606775 0.0014840673726290354 0 -0.029629128455488065 0.0017929624898212538 0 -0.029575050535799105 0.0014075872795294778 0 -0.029971656231606775 0.0014840673726290354 0 -0.030260013211394786 0.00094746354897194554 0 -0.029971656231606775 0.0014840673726290354 0 -0.030259826623103107 0.0013731460170967175 0 -0.030384315723328777 0.001131908874341939 0 -0.030259826623103107 0.0013731460170967175 0 -0.030525711467698596 0.0013758148875927072 0 -0.030259826623103107 0.0013731460170967175 0 -0.030412641834526695 0.0015846830206102088 0 -0.030196621381333593 0.0016786066011772621 0 -0.029971656231606775 0.0014840673726290354 0 -0.030259826623103107 0.0013731460170967175 0 -0.030196621381333593 0.0016786066011772621 0 -0.030317875785117403 0.0015094625185027098 0 -0.030525711467698596 0.0013758148875927072 0 -0.030429245491999768 0.0015486662713497341 0 -0.030259826623103107 0.0013731460170967175 0 -0.030525711467698596 0.0013758148875927072 0 -0.030412641834526695 0.0015846830206102088 0 -0.030525711467698596 0.0013758148875927072 0 -0.030412641834526695 0.0015846830206102088 0 -0.030429245491999768 0.0015486662713497341 0 -0.030412641834526695 0.0015846830206102088 0 -0.030492911857932833 0.0016757371299725944 0 -0.030429245491999768 0.0015486662713497341 0 -0.030412641834526695 0.0015846830206102088 0 -0.030372636537992704 0.001822533572037302 0 -0.030492911857932833 0.0016757371299725944 0 -0.030412641834526695 0.0015846830206102088 0 -0.030372636537992704 0.001822533572037302 0 -0.030196621381333593 0.0016786066011772621 0 -0.029971656231606775 0.0014840673726290354 0 -0.030196621381333593 0.0016786066011772621 0 -0.029950102747613463 0.002089968742016841 0 -0.030372636537992704 0.001822533572037302 0 -0.030196621381333593 0.0016786066011772621 0 -0.029950102747613463 0.002089968742016841 0 -0.030372636537992704 0.001822533572037302 0 -0.029950102747613463 0.002089968742016841 0 -0.030512848435540172 0.002137842704491614 0 -0.029950102747613463 0.002089968742016841 0 -0.029968713117077113 0.0027562026088071524 0 -0.030512848435540172 0.002137842704491614 0 -0.029968713117077113 0.0027562026088071524 0 -0.030611110299691494 0.0026649288814832696 0 -0.030512848435540172 0.002137842704491614 0 -0.029950102747613463 0.002089968742016841 0 -0.029339677844783609 0.002644444624009755 0 -0.029968713117077113 0.0027562026088071524 0 -0.029950102747613463 0.002089968742016841 0 -0.029395112929512853 0.0021502643721905278 0 -0.029339677844783609 0.002644444624009755 0 -0.029629128455488065 0.0017929624898212538 0 -0.029950102747613463 0.002089968742016841 0 -0.029395112929512853 0.0021502643721905278 0 -0.029339677844783609 0.002644444624009755 0 -0.02940615143143735 0.0032808299441720624 0 -0.029968713117077113 0.0027562026088071524 0 -0.026941215666443308 0.0032264466798694216 0 -0.020671070454065327 0.0015964806384515062 0 -0.02253552142843936 0.0024696136149170659 0 -0.023030733476919238 0.0013355573899956463 0 -0.02197958317668908 0.0014853986290668105 0 -0.02253552142843936 0.0024696136149170659 0 -0.02089399217946011 0.0016846736179570814 0 -0.02197958317668908 0.0014853986290668105 0 -0.020671070454065327 0.0015964806384515062 0 -0.023489738565444798 0.0023871519585748017 0 -0.02940615143143735 0.0032808299441720624 0 -0.03013238527920711 0.0036134899220535989 0 -0.029968713117077113 0.0027562026088071524 0 -0.03013238527920711 0.0036134899220535989 0 -0.029968713117077113 0.0027562026088071524 0 -0.030611110299691494 0.0026649288814832696 0 -0.015006180855800383 0.0019383193049708756 0 -0.014433101731482311 -2.2097828656047527e-06 0 -0.01298890136282134 0.00075820817151806908 0 -0.016168960061728244 -0.00056270485989358356 0 -0.014433101731482311 -2.2097828656047527e-06 0 -0.014613751007563923 -0.0013377287012665356 0 -0.016168960061728244 -0.00056270485989358356 0 -0.015006180855800383 0.0019383193049708756 0 -0.014433101731482311 -2.2097828656047527e-06 0 -0.014433101731482311 -2.2097828656047527e-06 0 -0.01320276941109009 -0.00067391881004230897 0 -0.014613751007563923 -0.0013377287012665356 0 -0.01320276941109009 -0.00067391881004230897 0 -0.01298890136282134 0.00075820817151806908 0 -0.010960319072274736 -0.00070522939695946154 0 -0.014433101731482311 -2.2097828656047527e-06 0 -0.01320276941109009 -0.00067391881004230897 0 -0.01298890136282134 0.00075820817151806908 0 -0.01298890136282134 0.00075820817151806908 0 -0.013229438024442597 0.0025522247925305907 0 -0.012040461829990523 0.0021132306812391781 0 -0.015006180855800383 0.0019383193049708756 0 -0.01298890136282134 0.00075820817151806908 0 -0.013229438024442597 0.0025522247925305907 0 -0.013229438024442597 0.0025522247925305907 0 -0.013879069297092901 0.0044222276416295836 0 -0.01222872672354427 0.0035251432955199983 0 -0.013229438024442597 0.0025522247925305907 0 -0.01222872672354427 0.0035251432955199983 0 -0.012040461829990523 0.0021132306812391781 0 -0.023489738565444798 0.0023871519585748017 0 -0.019779795030089524 0.0017213296865620971 0 -0.015006180855800383 0.0019383193049708756 0 -0.013229438024442597 0.0025522247925305907 0 -0.013879069297092901 0.0044222276416295836 0 -0.030611110299691494 0.0026649288814832696 0 -0.030512848435540172 0.002137842704491614 0 -0.030880855434136874 0.0016772756798307063 0 -0.030372636537992704 0.001822533572037302 0 -0.030512848435540172 0.002137842704491614 0 -0.03054810961178266 0.0018487566973502709 0 -0.030660644234094959 0.0016808505019864615 0 -0.03054810961178266 0.0018487566973502709 0 -0.030880855434136874 0.0016772756798307063 0 -0.030512848435540172 0.002137842704491614 0 -0.03054810961178266 0.0018487566973502709 0 -0.030880855434136874 0.0016772756798307063 0 -0.030660644234094959 0.0016808505019864615 0 -0.030668543104439647 0.0015543848067903205 0 -0.030880855434136874 0.0016772756798307063 0 -0.027919983509630965 0.0010093041241155153 0 -0.027482626787934002 0.0010818961555857612 0 -0.027482626787934002 0.0010818961555857612 0 -0.019779795030089524 0.0017213296865620971 0 -0.030372636537992704 0.001822533572037302 0 -0.03054810961178266 0.0018487566973502709 0 -0.030492911857932833 0.0016757371299725944 0 -0.030660644234094959 0.0016808505019864615 0 -0.030492911857932833 0.0016757371299725944 0 -0.030683235424585044 0.0015806335388885244 0 -0.030660644234094959 0.0016808505019864615 0 -0.03054810961178266 0.0018487566973502709 0 -0.030492911857932833 0.0016757371299725944 0 -0.030317875785117403 0.0015094625185027098 0 -0.030429245491999768 0.0015486662713497341 0 -0.030683235424585044 0.0015806335388885244 0 -0.030492911857932833 0.0016757371299725944 0 -0.030429245491999768 0.0015486662713497341 0 -0.030683235424585044 0.0015806335388885244 0 -0.030740697978537776 0.0019359916700719367 0 -0.027482626787934002 0.0010818961555857612 0 -0.019779795030089524 0.0017213296865620971 0 -0.01465500243991605 0.0011009958890222111 0 -0.018444666186767072 0.0022247195847053965 0 -0.020512057704683086 0.00033393832682011517 0 -0.019739361580123793 -9.8094406934332639e-05 0 -0.018444666186767072 0.0022247195847053965 0 -0.019457580617234401 -8.7359521433762137e-05 0 -0.017631417960272684 0.00073154148758668982 0 -0.019457580617234401 -8.7359521433762137e-05 0 -0.017631417960272684 0.00073154148758668982 0 -0.017661290138632033 -0.0010908886883667518 0 -0.017631417960272684 0.00073154148758668982 0 -0.015519818118757602 0.00067361584559266134 0 -0.017661290138632033 -0.0010908886883667518 0 -0.01575994815862021 0.00017021009520202751 0 -0.012577802329056777 -5.7552121927484297e-05 0 -0.015216718046617997 0.00062440631665387661 0 -0.015512044738404566 -0.0022053878731914324 0 -0.01292269820311401 -0.0008128474157260429 0 -0.012577802329056777 -5.7552121927484297e-05 0 -0.01465500243991605 0.0011009958890222111 0 -0.015519818118757602 0.00067361584559266134 0 -0.015879523810378417 -0.0020795360143980165 0 -0.017661290138632033 -0.0010908886883667518 0 -0.010594785334253056 0.0026102050135610178 0 -0.01222872672354427 0.0035251432955199983 0 -0.012040461829990523 0.0021132306812391781 0 -0.01298890136282134 0.00075820817151806908 0 -0.012040461829990523 0.0021132306812391781 0 -0.010785357573717265 0.00095435469046504422 0 -0.010594785334253056 0.0026102050135610178 0 -0.012040461829990523 0.0021132306812391781 0 -0.010785357573717265 0.00095435469046504422 0 -0.01298890136282134 0.00075820817151806908 0 -0.010960319072274736 -0.00070522939695946154 0 -0.010785357573717265 0.00095435469046504422 0 -0.0021539697043009187 -0.00024986406494301985 0 -0.0081717223894159797 0.00090515161557116672 0 -0.0056846543060450243 -0.00019662384415190768 0 -0.0051740995330785767 0.00013763223172550895 0 -0.0056451340128519838 0.00039327681057927462 0 -0.0021539697043009187 -0.00024986406494301985 0 -0.00045226156417895331 0.00036767633137589493 0 -0.0051740995330785767 0.00013763223172550895 0 -0.0052243858923204222 0.00045009040613706538 0 -0.005047439762374757 0.00021608728217002593 0 -0.0051740995330785767 0.00013763223172550895 0 -0.0052243858923204222 0.00045009040613706538 0 -0.0056451340128519838 0.00039327681057927462 0 -0.00045226156417895331 0.00036767633137589493 0 -0.00034608709305673703 0.0004863428321172421 0 -0.012577802329056777 -5.7552121927484297e-05 0 -0.0081717223894159797 0.00090515161557116672 0 -0.012577802329056777 -5.7552121927484297e-05 0 -0.0032826726911640292 -0.00067332138673710149 0 -0.0056104697443369617 0.0010159895638888307 0 -0.0052243858923204222 0.00045009040613706538 0 -0.0046252941836765057 0.00049076725421855086 0 -0.0056104697443369617 0.0010159895638888307 0 -0.0052243858923204222 0.00045009040613706538 0 -0.0056451340128519838 0.00039327681057927462 0 -0.0052243858923204222 0.00045009040613706538 0 -0.0046252941836765057 0.00049076725421855086 0 -0.005047439762374757 0.00021608728217002593 0 -0.0032826726911640292 -0.00067332138673710149 0 -0.00034608709305673703 0.0004863428321172421 0 0.0037286818773759199 0.00018949542656223394 0 0.0035112582701118762 0.00030521253197763221 0 0.0037124411106666056 0.00055320076576902035 0 0.0034961899686642402 1.1620155358934782e-05 0 0.0036753592819748285 0.0001465716494045184 0 0.0035112582701118762 0.00030521253197763221 0 0.0037286818773759199 0.00018949542656223394 0 0.0036753592819748285 0.0001465716494045184 0 0.0035112582701118762 0.00030521253197763221 0 -0.0032826726911640292 -0.00067332138673710149 0 0.0055304010193227187 -0.00020883200725948527 0 0.0034961899686642402 1.1620155358934782e-05 0 0.0035112582701118762 0.00030521253197763221 0 0.0031617630796120458 0.00016499724149554847 0 0.0030805072019453286 6.8384190199030883e-05 0 0.0030704237432133659 1.7027685210494012e-05 0 0.0031617630796120458 0.00016499724149554847 0 -0.0032826726911640292 -0.00067332138673710149 0 -0.0042164048058989465 -0.0015187404084369735 0 -0.012675106498586506 -0.0037869243471538401 0 -0.010655096237334336 -0.0025130935944804814 0 -0.01292269820311401 -0.0008128474157260429 0 -0.010655096237334336 -0.0025130935944804814 0 -0.01292269820311401 -0.0008128474157260429 0 -0.011138704099754473 -0.00020655053220530389 0 -0.015512044738404566 -0.0022053878731914324 0 -0.012675106498586506 -0.0037869243471538401 0 -0.01292269820311401 -0.0008128474157260429 0 -0.013541397026576623 0.0013824638019569952 0 -0.015216718046617997 0.00062440631665387661 0 -0.01292269820311401 -0.0008128474157260429 0 -0.01177458389924844 0.0015799507348483455 0 -0.013541397026576623 0.0013824638019569952 0 -0.01292269820311401 -0.0008128474157260429 0 -0.01177458389924844 0.0015799507348483455 0 -0.011138704099754473 -0.00020655053220530389 0 -0.010020990598729764 0.0013407647792965905 0 -0.01177458389924844 0.0015799507348483455 0 -0.01292269820311401 -0.0008128474157260429 0 -0.011138704099754473 -0.00020655053220530389 0 -0.024738415306822831 -0.00024682824778829969 0 -0.023293453774329655 0.00032002015304768999 0 -0.023700864395754338 -0.00023599136930491538 0 -0.024738415306822831 -0.00024682824778829969 0 -0.026197288805760235 -0.0005040952364627491 0 -0.025992613283513342 -1.0884918543147832e-05 0 -0.024738415306822831 -0.00024682824778829969 0 -0.025155489980773493 0.00044700145276384018 0 -0.025992613283513342 -1.0884918543147832e-05 0 -0.024738415306822831 -0.00024682824778829969 0 -0.025155489980773493 0.00044700145276384018 0 -0.023293453774329655 0.00032002015304768999 0 -0.025155489980773493 0.00044700145276384018 0 -0.023293453774329655 0.00032002015304768999 0 -0.024083465856932346 0.0013113328601636514 0 -0.023293453774329655 0.00032002015304768999 0 -0.023700864395754338 -0.00023599136930491538 0 -0.021704557022273994 0.00048798179466635601 0 -0.022547485554280738 3.7180293644790254e-07 0 -0.023700864395754338 -0.00023599136930491538 0 -0.021704557022273994 0.00048798179466635601 0 -0.022547485554280738 3.7180293644790254e-07 0 -0.023700864395754338 -0.00023599136930491538 0 -0.02455101205521738 -7.6419797957534131e-07 0 -0.023700864395754338 -0.00023599136930491538 0 -0.024592319627991639 -0.00040659411356391514 0 -0.024831745186360079 -0.00079850269327895842 0 -0.023700864395754338 -0.00023599136930491538 0 -0.024592319627991639 -0.00040659411356391514 0 -0.02455101205521738 -7.6419797957534131e-07 0 -0.026554716236514987 -1.0598156172364609e-06 0 -0.02455101205521738 -7.6419797957534131e-07 0 -0.025417926184289012 -0.00042017296534156907 0 -0.024592319627991639 -0.00040659411356391514 0 -0.02455101205521738 -7.6419797957534131e-07 0 -0.025417926184289012 -0.00042017296534156907 0 -0.025086781916108587 -0.0012121719736818137 0 -0.025417926184289012 -0.00042017296534156907 0 -0.024831745186360079 -0.00079850269327895842 0 -0.024592319627991639 -0.00040659411356391514 0 -0.025417926184289012 -0.00042017296534156907 0 -0.024831745186360079 -0.00079850269327895842 0 -0.024738415306822831 -0.00024682824778829969 0 -0.023700864395754338 -0.00023599136930491538 0 -0.024831745186360079 -0.00079850269327895842 0 -0.024738415306822831 -0.00024682824778829969 0 -0.025560458931473663 -0.00092941427026503837 0 -0.026197288805760235 -0.0005040952364627491 0 -0.024738415306822831 -0.00024682824778829969 0 -0.024831745186360079 -0.00079850269327895842 0 -0.025560458931473663 -0.00092941427026503837 0 -0.025735251403305754 -0.001620385321265233 0 -0.024831745186360079 -0.00079850269327895842 0 -0.025560458931473663 -0.00092941427026503837 0 -0.025735251403305754 -0.001620385321265233 0 -0.025560458931473663 -0.00092941427026503837 0 -0.027900267059735605 -0.0013386474851066503 0 -0.027298642948840372 -0.0015650671406299535 0 -0.028005193544909296 -0.0012616956340866367 0 -0.028938672524694779 -0.0014542117729164333 0 -0.027900267059735605 -0.0013386474851066503 0 -0.028616817587222124 -0.00084544929031977795 0 -0.028616817587222124 -0.00084544929031977795 0 -0.02839083348865894 -7.4640765848170312e-05 0 -0.027346218206033564 -0.00017096287481195896 0 -0.027900267059735605 -0.0013386474851066503 0 -0.028616817587222124 -0.00084544929031977795 0 -0.027346218206033564 -0.00017096287481195896 0 -0.027900267059735605 -0.0013386474851066503 0 -0.026197288805760235 -0.0005040952364627491 0 -0.027346218206033564 -0.00017096287481195896 0 -0.025560458931473663 -0.00092941427026503837 0 -0.027900267059735605 -0.0013386474851066503 0 -0.026197288805760235 -0.0005040952364627491 0 -0.030090166208738573 -0.0014163733122048126 0 -0.030273312246613674 -0.00084526586673527599 0 -0.029490131196707101 -0.00062458818293080812 0 -0.030090166208738573 -0.0014163733122048126 0 -0.028938672524694779 -0.0014542117729164333 0 -0.028616817587222124 -0.00084544929031977795 0 -0.030090166208738573 -0.0014163733122048126 0 -0.028616817587222124 -0.00084544929031977795 0 -0.029490131196707101 -0.00062458818293080812 0 -0.028616817587222124 -0.00084544929031977795 0 -0.029490131196707101 -0.00062458818293080812 0 -0.02839083348865894 -7.4640765848170312e-05 0 -0.029490131196707101 -0.00062458818293080812 0 -0.029214129084265506 -3.171138580021924e-05 0 -0.02839083348865894 -7.4640765848170312e-05 0 -0.030273312246613674 -0.00084526586673527599 0 -0.029847904808451113 -0.00027462965220246703 0 -0.029490131196707101 -0.00062458818293080812 0 -0.029847904808451113 -0.00027462965220246703 0 -0.029490131196707101 -0.00062458818293080812 0 -0.029214129084265506 -3.171138580021924e-05 0 -0.029847904808451113 -0.00027462965220246703 0 -0.029502837234637671 0.00035295569534294832 0 -0.029214129084265506 -3.171138580021924e-05 0 -0.029502837234637671 0.00035295569534294832 0 -0.029214129084265506 -3.171138580021924e-05 0 -0.028736364803907465 0.00050162723266925923 0 -0.02839083348865894 -7.4640765848170312e-05 0 -0.028736364803907465 0.00050162723266925923 0 -0.027781635637022479 0.00049980622234128773 0 -0.029214129084265506 -3.171138580021924e-05 0 -0.02839083348865894 -7.4640765848170312e-05 0 -0.028736364803907465 0.00050162723266925923 0 -0.028269103089900063 0.0012138006050427803 0 -0.028736364803907465 0.00050162723266925923 0 -0.029161083664793756 0.0010964314864754855 0 -0.028269103089900063 0.0012138006050427803 0 -0.028736364803907465 0.00050162723266925923 0 -0.027781635637022479 0.00049980622234128773 0 -0.029502837234637671 0.00035295569534294832 0 -0.028736364803907465 0.00050162723266925923 0 -0.029161083664793756 0.0010964314864754855 0 -0.029808874682364591 0.00093048661436669067 0 -0.029502837234637671 0.00035295569534294832 0 -0.029161083664793756 0.0010964314864754855 0 -0.025992613283513342 -1.0884918543147832e-05 0 -0.027346218206033564 -0.00017096287481195896 0 -0.026585621256480604 0.00050022157799013613 0 -0.026197288805760235 -0.0005040952364627491 0 -0.025992613283513342 -1.0884918543147832e-05 0 -0.027346218206033564 -0.00017096287481195896 0 -0.02839083348865894 -7.4640765848170312e-05 0 -0.027346218206033564 -0.00017096287481195896 0 -0.027781635637022479 0.00049980622234128773 0 -0.027346218206033564 -0.00017096287481195896 0 -0.027781635637022479 0.00049980622234128773 0 -0.026585621256480604 0.00050022157799013613 0 -0.027781635637022479 0.00049980622234128773 0 -0.027153947103225481 0.0011743220392229541 0 -0.026585621256480604 0.00050022157799013613 0 -0.028269103089900063 0.0012138006050427803 0 -0.027781635637022479 0.00049980622234128773 0 -0.027153947103225481 0.0011743220392229541 0 -0.025155489980773493 0.00044700145276384018 0 -0.025992613283513342 -1.0884918543147832e-05 0 -0.026585621256480604 0.00050022157799013613 0 -0.025155489980773493 0.00044700145276384018 0 -0.026585621256480604 0.00050022157799013613 0 -0.025819506068443875 0.0011614400031467076 0 -0.027153947103225481 0.0011743220392229541 0 -0.026585621256480604 0.00050022157799013613 0 -0.025819506068443875 0.0011614400031467076 0 -0.025819506068443875 0.0011614400031467076 0 -0.026566024477022179 0.0019283157192995471 0 -0.024987077593139544 0.0022566153762361789 0 -0.027153947103225481 0.0011743220392229541 0 -0.025819506068443875 0.0011614400031467076 0 -0.026566024477022179 0.0019283157192995471 0 -0.028269103089900063 0.0012138006050427803 0 -0.027153947103225481 0.0011743220392229541 0 -0.027537263472782729 0.0018833434214963996 0 -0.027153947103225481 0.0011743220392229541 0 -0.026566024477022179 0.0019283157192995471 0 -0.027537263472782729 0.0018833434214963996 0 -0.026566024477022179 0.0019283157192995471 0 -0.027537263472782729 0.0018833434214963996 0 -0.027183461613819241 0.0029199006236655372 0 -0.027537263472782729 0.0018833434214963996 0 -0.027183461613819241 0.0029199006236655372 0 -0.028074041113509654 0.0024607882390002413 0 -0.026566024477022179 0.0019283157192995471 0 -0.027183461613819241 0.0029199006236655372 0 -0.024987077593139544 0.0022566153762361789 0 -0.026100484067101561 0.0030018715162510676 0 -0.024985214388924436 0.0023044217466402423 0 -0.025096001502246394 0.003188566444146015 0 -0.024983777874342757 0.0030093954570833449 0 -0.024987077593139544 0.0022566153762361789 0 -0.028269103089900063 0.0012138006050427803 0 -0.029161083664793756 0.0010964314864754855 0 -0.028757033329831597 0.0016065360124063372 0 -0.029575050535799105 0.0014075872795294778 0 -0.029161083664793756 0.0010964314864754855 0 -0.02923566520524383 0.0017670134096340172 0 -0.029161083664793756 0.0010964314864754855 0 -0.02923566520524383 0.0017670134096340172 0 -0.028757033329831597 0.0016065360124063372 0 -0.02923566520524383 0.0017670134096340172 0 -0.028757033329831597 0.0016065360124063372 0 -0.028786713128110267 0.0023502388317344709 0 -0.028757033329831597 0.0016065360124063372 0 -0.028251570357061408 0.0019485468768514174 0 -0.028786713128110267 0.0023502388317344709 0 -0.028269103089900063 0.0012138006050427803 0 -0.028757033329831597 0.0016065360124063372 0 -0.028251570357061408 0.0019485468768514174 0 -0.028269103089900063 0.0012138006050427803 0 -0.027537263472782729 0.0018833434214963996 0 -0.028251570357061408 0.0019485468768514174 0 -0.028074041113509654 0.0024607882390002413 0 -0.028786713128110267 0.0023502388317344709 0 -0.028512322852244653 0.0030853865923600897 0 -0.027183461613819241 0.0029199006236655372 0 -0.028074041113509654 0.0024607882390002413 0 -0.028512322852244653 0.0030853865923600897 0 -0.027537263472782729 0.0018833434214963996 0 -0.028251570357061408 0.0019485468768514174 0 -0.028074041113509654 0.0024607882390002413 0 -0.028251570357061408 0.0019485468768514174 0 -0.028074041113509654 0.0024607882390002413 0 -0.028786713128110267 0.0023502388317344709 0 -0.029339677844783609 0.002644444624009755 0 -0.028786713128110267 0.0023502388317344709 0 -0.028512322852244653 0.0030853865923600897 0 -0.029395112929512853 0.0021502643721905278 0 -0.029339677844783609 0.002644444624009755 0 -0.028786713128110267 0.0023502388317344709 0 -0.029395112929512853 0.0021502643721905278 0 -0.02923566520524383 0.0017670134096340172 0 -0.028786713128110267 0.0023502388317344709 0 -0.029339677844783609 0.002644444624009755 0 -0.02940615143143735 0.0032808299441720624 0 -0.028512322852244653 0.0030853865923600897 0 -0.02253552142843936 0.0024696136149170659 0 -0.024047122230460474 0.0030706925876409059 0 -0.023522356109128398 0.0022990496688295153 0 -0.026941215666443308 0.0032264466798694216 0 -0.026043384170074336 0.0029761294879334498 0 -0.025096001502246394 0.003188566444146015 0 -0.024047122230460474 0.0030706925876409059 0 -0.024720112492348418 0.002912050372352711 0 -0.026100484067101561 0.0030018715162510676 0 -0.026043384170074336 0.0029761294879334498 0 -0.024047122230460474 0.0030706925876409059 0 -0.024412774811008963 0.0022292413458069754 0 -0.024720112492348418 0.002912050372352711 0 -0.014298412471106577 0.0003845621034339524 0 -0.014180212218753338 2.9729162651164052e-05 0 -0.013784366295479002 0.00014364283445170037 0 -0.014298412471106577 0.0003845621034339524 0 -0.014642225791659948 0.00022010179163608185 0 -0.014180212218753338 2.9729162651164052e-05 0 -0.024047122230460474 0.0030706925876409059 0 -0.024412774811008963 0.0022292413458069754 0 -0.023522356109128398 0.0022990496688295153 0 -0.019337359985545175 0.0013106139566982119 0 -0.018417377151371483 0.00073848078460159454 0 -0.024412774811008963 0.0022292413458069754 0 -0.023522356109128398 0.0022990496688295153 0 -0.023030733476919238 0.0013355573899956463 0 -0.02253552142843936 0.0024696136149170659 0 -0.023522356109128398 0.0022990496688295153 0 -0.023030733476919238 0.0013355573899956463 0 -0.020097023892081373 0.0019212989043917834 0 -0.020545326521206195 0.0022140071620788434 0 -0.024983777874342757 0.0030093954570833449 0 -0.025168395367399912 0.0030161351134602916 0 -0.024335576999434352 0.0033845372381616193 0 -0.01510065959233858 0.00084152643156256367 0 -0.016089703617127464 0.00060866975543560399 0 -0.016822423594212366 0.0013549248906341742 0 -0.025096001502246394 0.003188566444146015 0 -0.024983777874342757 0.0030093954570833449 0 -0.025168395367399912 0.0030161351134602916 0 -0.024412774811008963 0.0022292413458069754 0 -0.025168395367399912 0.0030161351134602916 0 -0.024720112492348418 0.002912050372352711 0 -0.025096001502246394 0.003188566444146015 0 -0.025168395367399912 0.0030161351134602916 0 -0.024720112492348418 0.002912050372352711 0 -0.01510065959233858 0.00084152643156256367 0 -0.014642225791659948 0.00022010179163608185 0 -0.015192550147313277 0.00016381863900474775 0 -0.019337359985545175 0.0013106139566982119 0 -0.020097023892081373 0.0019212989043917834 0 -0.014298412471106577 0.0003845621034339524 0 -0.01510065959233858 0.00084152643156256367 0 -0.014642225791659948 0.00022010179163608185 0 -0.014642225791659948 0.00022010179163608185 0 -0.015192550147313277 0.00016381863900474775 0 -0.014616236230778982 -0.00011351552740323477 0 -0.015192550147313277 0.00016381863900474775 0 -0.015748631298532996 -1.6600720134518535e-05 0 -0.016089703617127464 0.00060866975543560399 0 -0.01510065959233858 0.00084152643156256367 0 -0.015192550147313277 0.00016381863900474775 0 -0.016089703617127464 0.00060866975543560399 0 -0.015748631298532996 -1.6600720134518535e-05 0 -0.016789213841369121 0.00011828786018486203 0 -0.016089703617127464 0.00060866975543560399 0 -0.016789213841369121 0.00011828786018486203 0 -0.018371281730939815 0.00040945602228257486 0 -0.016649156660412941 -0.00015151444491601381 0 -0.016789213841369121 0.00011828786018486203 0 -0.018371281730939815 0.00040945602228257486 0 -0.016822423594212366 0.0013549248906341742 0 -0.016789213841369121 0.00011828786018486203 0 -0.016089703617127464 0.00060866975543560399 0 -0.016822423594212366 0.0013549248906341742 0 -0.024335576999434352 0.0033845372381616193 0 -0.024987077593139544 0.0022566153762361789 0 -0.024083465856932346 0.0013113328601636514 0 -0.024335576999434352 0.0033845372381616193 0 -0.020800266247183757 0.0015259447822632481 0 -0.024083465856932346 0.0013113328601636514 0 -0.024983777874342757 0.0030093954570833449 0 -0.024335576999434352 0.0033845372381616193 0 -0.024987077593139544 0.0022566153762361789 0 -0.020545326521206195 0.0022140071620788434 0 -0.020643302558610761 0.0016567828123376369 0 -0.018371281730939815 0.00040945602228257486 0 -0.016822423594212366 0.0013549248906341742 0 -0.020800266247183757 0.0015259447822632481 0 -0.023293453774329655 0.00032002015304768999 0 -0.020800266247183757 0.0015259447822632481 0 -0.024083465856932346 0.0013113328601636514 0 -0.025155489980773493 0.00044700145276384018 0 -0.025819506068443875 0.0011614400031467076 0 -0.024083465856932346 0.0013113328601636514 0 -0.025819506068443875 0.0011614400031467076 0 -0.024987077593139544 0.0022566153762361789 0 -0.024083465856932346 0.0013113328601636514 0 -0.022547485554280738 3.7180293644790254e-07 0 -0.021704557022273994 0.00048798179466635601 0 -0.020544036706477219 1.0523142667926866e-06 0 -0.023293453774329655 0.00032002015304768999 0 -0.020800266247183757 0.0015259447822632481 0 -0.021704557022273994 0.00048798179466635601 0 -0.018371281730939815 0.00040945602228257486 0 -0.020800266247183757 0.0015259447822632481 0 -0.019744883695505241 0.00055741349039255868 0 -0.020800266247183757 0.0015259447822632481 0 -0.021704557022273994 0.00048798179466635601 0 -0.019744883695505241 0.00055741349039255868 0 -0.021704557022273994 0.00048798179466635601 0 -0.019744883695505241 0.00055741349039255868 0 -0.020544036706477219 1.0523142667926866e-06 0 -0.019744883695505241 0.00055741349039255868 0 -0.017622683947372712 -6.3194121071587755e-06 0 -0.01854052925959318 4.2929100072139274e-07 0 -0.019744883695505241 0.00055741349039255868 0 -0.020544036706477219 1.0523142667926866e-06 0 -0.01854052925959318 4.2929100072139274e-07 0 -0.018371281730939815 0.00040945602228257486 0 -0.019744883695505241 0.00055741349039255868 0 -0.017622683947372712 -6.3194121071587755e-06 0 -0.018371281730939815 0.00040945602228257486 0 -0.017622683947372712 -6.3194121071587755e-06 0 -0.016649156660412941 -0.00015151444491601381 0 -0.017622683947372712 -6.3194121071587755e-06 0 -0.01854052925959318 4.2929100072139274e-07 0 -0.016536576147706893 -3.2642629388166399e-07 0 -0.017622683947372712 -6.3194121071587755e-06 0 -0.016536576147706893 -3.2642629388166399e-07 0 -0.016231568138676548 -0.00019811581406705539 0 -0.017622683947372712 -6.3194121071587755e-06 0 -0.016231568138676548 -0.00019811581406705539 0 -0.016649156660412941 -0.00015151444491601381 0 -0.016231568138676548 -0.00019811581406705539 0 -0.015341461521003397 -0.00041259897375424599 0 -0.014993851172573529 -0.00026799590626530801 0 -0.016536576147706893 -3.2642629388166399e-07 0 -0.016231568138676548 -0.00019811581406705539 0 -0.014993851172573529 -0.00026799590626530801 0 -0.016536576147706893 -3.2642629388166399e-07 0 -0.014533023767739239 -4.2661356345039605e-07 0 -0.014993851172573529 -0.00026799590626530801 0 -0.015748631298532996 -1.6600720134518535e-05 0 -0.016789213841369121 0.00011828786018486203 0 -0.015564835963626379 -0.00032995675492929677 0 -0.015748631298532996 -1.6600720134518535e-05 0 -0.015564835963626379 -0.00032995675492929677 0 -0.015070822671496622 -0.00025011397461549063 0 -0.016231568138676548 -0.00019811581406705539 0 -0.016649156660412941 -0.00015151444491601381 0 -0.015341461521003397 -0.00041259897375424599 0 -0.015564835963626379 -0.00032995675492929677 0 -0.016649156660412941 -0.00015151444491601381 0 -0.015341461521003397 -0.00041259897375424599 0 -0.016789213841369121 0.00011828786018486203 0 -0.015564835963626379 -0.00032995675492929677 0 -0.016649156660412941 -0.00015151444491601381 0 -0.015564835963626379 -0.00032995675492929677 0 -0.01477892521229986 -0.00054632668029143947 0 -0.014883388209938335 -0.00047056468548128673 0 -0.015564835963626379 -0.00032995675492929677 0 -0.015341461521003397 -0.00041259897375424599 0 -0.01477892521229986 -0.00054632668029143947 0 -0.01477892521229986 -0.00054632668029143947 0 -0.014156242814873462 -0.00048383412084371426 0 -0.014126891623618481 -0.00061359294042844079 0 -0.015341461521003397 -0.00041259897375424599 0 -0.014156242814873462 -0.00048383412084371426 0 -0.014993851172573529 -0.00026799590626530801 0 -0.015341461521003397 -0.00041259897375424599 0 -0.01477892521229986 -0.00054632668029143947 0 -0.014156242814873462 -0.00048383412084371426 0 -0.014156242814873462 -0.00048383412084371426 0 -0.013017149591995878 -0.00027794888384223511 0 -0.013387406996332367 -0.00045959388301887731 0 -0.014156242814873462 -0.00048383412084371426 0 -0.013574590281934104 -0.00019887300232226366 0 -0.013017149591995878 -0.00027794888384223511 0 -0.014156242814873462 -0.00048383412084371426 0 -0.014126891623618481 -0.00061359294042844079 0 -0.013387406996332367 -0.00045959388301887731 0 -0.014533023767739239 -4.2661356345039605e-07 0 -0.014993851172573529 -0.00026799590626530801 0 -0.013574590281934104 -0.00019887300232226366 0 -0.014156242814873462 -0.00048383412084371426 0 -0.014993851172573529 -0.00026799590626530801 0 -0.013574590281934104 -0.00019887300232226366 0 -0.014533023767739239 -4.2661356345039605e-07 0 -0.013574590281934104 -0.00019887300232226366 0 -0.012529298885743686 -1.553236301383785e-07 0 -0.013574590281934104 -0.00019887300232226366 0 -0.012529298885743686 -1.553236301383785e-07 0 -0.011778310360818636 1.1688146701009075e-06 0 -0.012529298885743686 -1.553236301383785e-07 0 -0.011778310360818636 1.1688146701009075e-06 0 -0.010525866308327272 -1.7580491881033346e-08 0 -0.013574590281934104 -0.00019887300232226366 0 -0.011778310360818636 1.1688146701009075e-06 0 -0.013017149591995878 -0.00027794888384223511 0 -0.013017149591995878 -0.00027794888384223511 0 -0.013387406996332367 -0.00045959388301887731 0 -0.012270625470977172 -4.0878890896383579e-05 0 -0.011778310360818636 1.1688146701009075e-06 0 -0.013017149591995878 -0.00027794888384223511 0 -0.012270625470977172 -4.0878890896383579e-05 0 -0.012270625470977172 -4.0878890896383579e-05 0 -0.01077490858374652 0.0004564491140184422 0 -0.0134997948528854 0.00023953504273621984 0 -0.013387406996332367 -0.00045959388301887731 0 -0.012270625470977172 -4.0878890896383579e-05 0 -0.0134997948528854 0.00023953504273621984 0 -0.011778310360818636 1.1688146701009075e-06 0 -0.012270625470977172 -4.0878890896383579e-05 0 -0.01077490858374652 0.0004564491140184422 0 -0.010727406828084809 0.00058882746626025566 0 -0.011861793772930977 0.00075033952126051342 0 -0.01077490858374652 0.0004564491140184422 0 -0.0089434356205617873 -3.2465311277304817e-05 0 -0.0092081494090450085 0.0015378042236835344 0 -0.01077490858374652 0.0004564491140184422 0 -0.0095479592232634164 -7.3036841951489834e-05 0 -0.0089434356205617873 -3.2465311277304817e-05 0 -0.0095479592232634164 -7.3036841951489834e-05 0 -0.0097632655298366868 2.9190775817792455e-05 0 -0.0087111001305331323 -0.00016041852272994178 0 -0.01077490858374652 0.0004564491140184422 0 -0.0095479592232634164 -7.3036841951489834e-05 0 -0.0097632655298366868 2.9190775817792455e-05 0 -0.011778310360818636 1.1688146701009075e-06 0 -0.0097632655298366868 2.9190775817792455e-05 0 -0.010525866308327272 -1.7580491881033346e-08 0 -0.011778310360818636 1.1688146701009075e-06 0 -0.01077490858374652 0.0004564491140184422 0 -0.0097632655298366868 2.9190775817792455e-05 0 -0.0097632655298366868 2.9190775817792455e-05 0 -0.010525866308327272 -1.7580491881033346e-08 0 -0.0085224284301086174 -6.2882470441112741e-08 0 -0.0077343920982680323 0.00083922448139998591 0 -0.006685376146787084 0.00093483440647626275 0 -0.0068143666663671269 0.0016579469496180808 0 -0.0077343920982680323 0.00083922448139998591 0 -0.006685376146787084 0.00093483440647626275 0 -0.0066809206584251303 0.00023110245086123142 0 -0.006685376146787084 0.00093483440647626275 0 -0.0066809206584251303 0.00023110245086123142 0 -0.0054565785024973624 0.0010157570707203165 0 -0.006685376146787084 0.00093483440647626275 0 -0.0068143666663671269 0.0016579469496180808 0 -0.0054565785024973624 0.0010157570707203165 0 -0.0077343920982680323 0.00083922448139998591 0 -0.0066809206584251303 0.00023110245086123142 0 -0.0078897432661943229 -0.00036133327596597222 0 -0.0033585916370688857 0.0029020947538744169 0 -0.0042757876895601647 0.0019772260006786441 0 -0.0077343920982680323 0.00083922448139998591 0 -0.0089434356205617873 -3.2465311277304817e-05 0 -0.0078897432661943229 -0.00036133327596597222 0 -0.0077343920982680323 0.00083922448139998591 0 -0.0089434356205617873 -3.2465311277304817e-05 0 -0.0092081494090450085 0.0015378042236835344 0 -0.0077343920982680323 0.00083922448139998591 0 -0.0092081494090450085 0.0015378042236835344 0 -0.0081083539832019717 0.0022803682687108778 0 -0.011861793772930977 0.00075033952126051342 0 -0.0085025293456456076 0.00050958902359145796 0 -0.013387406996332367 -0.00045959388301887731 0 -0.0134997948528854 0.00023953504273621984 0 -0.014062054666552977 -0.00054016468945014453 0 -0.0134997948528854 0.00023953504273621984 0 -0.014062054666552977 -0.00054016468945014453 0 -0.014524582691199777 -0.00025447842236311745 0 -0.014062054666552977 -0.00054016468945014453 0 -0.014129466101813617 -0.00063985705871950677 0 -0.014188049890240936 -0.00065962684827267017 0 -0.015254661082338838 0.00031643318083609173 0 -0.0085025293456456076 0.00050958902359145796 0 -0.0085025293456456076 0.00050958902359145796 0 -0.0052241898701956002 0.00064199337705878783 0 0.0015174803330959459 0.0014770672773075856 0 0.002463071724725284 0.0011277381778404308 0 0.0024888687839584741 0.0019279948980140305 0 -0.0077343920982680323 0.00083922448139998591 0 -0.0081083539832019717 0.0022803682687108778 0 -0.0068143666663671269 0.0016579469496180808 0 -0.0085025293456456076 0.00050958902359145796 0 -0.0014929394357734776 0.0012898108850390192 0 0.002463071724725284 0.0011277381778404308 0 0.0031799323901609703 0.0012651486812310815 0 0.0029473556533012291 0.0015627910101498361 0 0.002463071724725284 0.0011277381778404308 0 0.0024888687839584741 0.0019279948980140305 0 0.0029473556533012291 0.0015627910101498361 0 -0.013908875788575614 -0.00077779505284643975 0 -0.014146808857065291 -0.00056648871155748045 0 -0.014188049890240936 -0.00065962684827267017 0 -0.014129466101813617 -0.00063985705871950677 0 -0.013908875788575614 -0.00077779505284643975 0 -0.014188049890240936 -0.00065962684827267017 0 -0.013908875788575614 -0.00077779505284643975 0 -0.014146808857065291 -0.00056648871155748045 0 -0.013801070533846766 -0.00042079142974273619 0 -0.013908875788575614 -0.00077779505284643975 0 -0.013801070533846766 -0.00042079142974273619 0 -0.013331479322161241 -0.00065069480672129171 0 -0.014126891623618481 -0.00061359294042844079 0 -0.013387406996332367 -0.00045959388301887731 0 -0.014062054666552977 -0.00054016468945014453 0 -0.014126891623618481 -0.00061359294042844079 0 -0.014062054666552977 -0.00054016468945014453 0 -0.014258685452576457 -0.00062635203339978418 0 -0.014258685452576457 -0.00062635203339978418 0 -0.014188049890240936 -0.00065962684827267017 0 -0.014323233380151493 -0.00060880689897559236 0 -0.014062054666552977 -0.00054016468945014453 0 -0.014258685452576457 -0.00062635203339978418 0 -0.014188049890240936 -0.00065962684827267017 0 -0.014146808857065291 -0.00056648871155748045 0 -0.014188049890240936 -0.00065962684827267017 0 -0.014323233380151493 -0.00060880689897559236 0 -0.014323233380151493 -0.00060880689897559236 0 -0.014501645115748705 -0.00060362493837981762 0 -0.01453674704955121 -0.00046091266812447302 0 -0.014146808857065291 -0.00056648871155748045 0 -0.014323233380151493 -0.00060880689897559236 0 -0.01453674704955121 -0.00046091266812447302 0 -0.01477892521229986 -0.00054632668029143947 0 -0.014126891623618481 -0.00061359294042844079 0 -0.014501645115748705 -0.00060362493837981762 0 -0.014258685452576457 -0.00062635203339978418 0 -0.014323233380151493 -0.00060880689897559236 0 -0.014501645115748705 -0.00060362493837981762 0 -0.014126891623618481 -0.00061359294042844079 0 -0.014258685452576457 -0.00062635203339978418 0 -0.014501645115748705 -0.00060362493837981762 0 -0.014501645115748705 -0.00060362493837981762 0 -0.014883388209938335 -0.00047056468548128673 0 -0.01453674704955121 -0.00046091266812447302 0 -0.014883388209938335 -0.00047056468548128673 0 -0.01453674704955121 -0.00046091266812447302 0 -0.015070822671496622 -0.00025011397461549063 0 -0.01477892521229986 -0.00054632668029143947 0 -0.014501645115748705 -0.00060362493837981762 0 -0.014883388209938335 -0.00047056468548128673 0 -0.01453674704955121 -0.00046091266812447302 0 -0.014616236230778982 -0.00011351552740323477 0 -0.014210426750172504 -0.00028712604621268316 0 -0.01453674704955121 -0.00046091266812447302 0 -0.014616236230778982 -0.00011351552740323477 0 -0.015070822671496622 -0.00025011397461549063 0 -0.014642225791659948 0.00022010179163608185 0 -0.014616236230778982 -0.00011351552740323477 0 -0.014180212218753338 2.9729162651164052e-05 0 -0.015564835963626379 -0.00032995675492929677 0 -0.014883388209938335 -0.00047056468548128673 0 -0.015070822671496622 -0.00025011397461549063 0 -0.015192550147313277 0.00016381863900474775 0 -0.014616236230778982 -0.00011351552740323477 0 -0.015070822671496622 -0.00025011397461549063 0 -0.015192550147313277 0.00016381863900474775 0 -0.015748631298532996 -1.6600720134518535e-05 0 -0.015070822671496622 -0.00025011397461549063 0 -0.013801070533846766 -0.00042079142974273619 0 -0.013906603066365809 -0.00012224775534587181 0 -0.013588972891033018 -7.4555452295262584e-05 0 -0.013801070533846766 -0.00042079142974273619 0 -0.014210426750172504 -0.00028712604621268316 0 -0.013906603066365809 -0.00012224775534587181 0 -0.014146808857065291 -0.00056648871155748045 0 -0.01453674704955121 -0.00046091266812447302 0 -0.014210426750172504 -0.00028712604621268316 0 -0.014146808857065291 -0.00056648871155748045 0 -0.013801070533846766 -0.00042079142974273619 0 -0.014210426750172504 -0.00028712604621268316 0 -0.014210426750172504 -0.00028712604621268316 0 -0.014180212218753338 2.9729162651164052e-05 0 -0.013906603066365809 -0.00012224775534587181 0 -0.014616236230778982 -0.00011351552740323477 0 -0.014210426750172504 -0.00028712604621268316 0 -0.014180212218753338 2.9729162651164052e-05 0 -0.014180212218753338 2.9729162651164052e-05 0 -0.013906603066365809 -0.00012224775534587181 0 -0.013784366295479002 0.00014364283445170037 0 -0.013906603066365809 -0.00012224775534587181 0 -0.013784366295479002 0.00014364283445170037 0 -0.013588972891033018 -7.4555452295262584e-05 0 -0.018417377151371483 0.00073848078460159454 0 -0.017191610501535851 0.00028386723154715356 0 -0.023030733476919238 0.0013355573899956463 0 -0.02197958317668908 0.0014853986290668105 0 -0.021442388674972654 0.00044384686508038191 0 -0.013784366295479002 0.00014364283445170037 0 -0.013588972891033018 -7.4555452295262584e-05 0 -0.013223421825443289 -2.251523021403894e-05 0 -0.013588972891033018 -7.4555452295262584e-05 0 -0.013378916898587053 -0.00011410601489109742 0 -0.013470448404814256 -0.00028953479912509458 0 -0.013470448404814256 -0.00028953479912509458 0 -0.013234568844047969 -7.5807508923046298e-05 0 -0.013331479322161241 -0.00065069480672129171 0 -0.013801070533846766 -0.00042079142974273619 0 -0.013588972891033018 -7.4555452295262584e-05 0 -0.013470448404814256 -0.00028953479912509458 0 -0.013588972891033018 -7.4555452295262584e-05 0 -0.013378916898587053 -0.00011410601489109742 0 -0.013223421825443289 -2.251523021403894e-05 0 -0.013378916898587053 -0.00011410601489109742 0 -0.013470448404814256 -0.00028953479912509458 0 -0.013234568844047969 -7.5807508923046298e-05 0 -0.013378916898587053 -0.00011410601489109742 0 -0.013234568844047969 -7.5807508923046298e-05 0 -0.013223421825443289 -2.251523021403894e-05 0 -0.013234568844047969 -7.5807508923046298e-05 0 -0.012556179693797522 -0.00028253010166614021 0 -0.013331479322161241 -0.00065069480672129171 0 -0.017191610501535851 0.00028386723154715356 0 -0.0032422695277372921 0.00016902700754371726 0 -0.01229486066442655 0.00084391807207977545 0 -0.015451358779718894 -0.0002697005386707335 0 -0.010420597357270326 -0.0029907707588496578 0 -0.013234568844047969 -7.5807508923046298e-05 0 -0.013201779458997464 -4.4803975481962511e-06 0 -0.012556179693797522 -0.00028253010166614021 0 -0.016868036430972896 0.00045120380255563752 0 -0.017191610501535851 0.00028386723154715356 0 -0.020671070454065327 0.0015964806384515062 0 -0.017191610501535851 0.00028386723154715356 0 -0.01344581151601024 0.004133319239328464 0 -0.01229486066442655 0.00084391807207977545 0 -0.015451358779718894 -0.0002697005386707335 0 -0.02089399217946011 0.0016846736179570814 0 -0.02197958317668908 0.0014853986290668105 0 -0.021442388674972654 0.00044384686508038191 0 -0.0094967509858548925 0.0021637755915376671 0 -0.0055627835139526625 0.0001896350874701435 0 -0.010420597357270326 -0.0029907707588496578 0 -0.01344581151601024 0.004133319239328464 0 -0.01229486066442655 0.00084391807207977545 0 -0.0094967509858548925 0.0021637755915376671 0 -0.01229486066442655 0.00084391807207977545 0 -0.0094967509858548925 0.0021637755915376671 0 -0.010420597357270326 -0.0029907707588496578 0 -0.020671070454065327 0.0015964806384515062 0 -0.011817547203907236 0.00029533630259568066 0 -0.01320276941109009 -0.00067391881004230897 0 -0.010960319072274736 -0.00070522939695946154 0 -0.013046367304745796 -0.0020908341575268529 0 -0.01320276941109009 -0.00067391881004230897 0 -0.014613751007563923 -0.0013377287012665356 0 -0.013046367304745796 -0.0020908341575268529 0 -0.011817547203907236 0.00029533630259568066 0 -0.004844793950073401 8.7318809027926513e-05 0 -0.004844793950073401 8.7318809027926513e-05 0 -0.0040817333095988029 -0.0001564519118916716 0 0.0039484682609466576 0.00078271484932717532 0 0.0039533291819284335 0.00078154376037749089 0 0.003939284387528383 0.00083780177673245775 0 0.0039533291819284335 0.00078154376037749089 0 0.003939284387528383 0.00083780177673245775 0 0.0040358137215302506 0.00092023924185927197 0 -0.004844793950073401 8.7318809027926513e-05 0 -0.0032422695277372921 0.00016902700754371726 0 0.0034745434753657065 0.0020097305988207043 0 0.0035817621227543141 0.0017598236594643464 0 0.0038325202973040137 0.0017508050012827769 0 -0.0032422695277372921 0.00016902700754371726 0 0.0051927497185124735 0.0011332729978751025 0 0.0035817621227543141 0.0017598236594643464 0 0.0038325202973040137 0.0017508050012827769 0 0.0038953232157236538 0.0014734070574710303 0 0.0035817621227543141 0.0017598236594643464 0 0.0038953232157236538 0.0014734070574710303 0 0.0038132293306257785 0.0014429310448639495 0 0.0035817621227543141 0.0017598236594643464 0 0.0035030812152836541 0.0016349479342425059 0 0.0038132293306257785 0.0014429310448639495 0 0.0035817621227543141 0.0017598236594643464 0 0.0035030812152836541 0.0016349479342425059 0 0.0031301049570678242 0.0019470346706712612 0 0.0035030812152836541 0.0016349479342425059 0 0.0032155017290247511 0.0017124151321751217 0 0.0031301049570678242 0.0019470346706712612 0 -0.0052241898701956002 0.00064199337705878783 0 -0.0054318466868019969 0.00068993685732608343 0 0.0024888687839584741 0.0019279948980140305 0 0.0032155017290247511 0.0017124151321751217 0 0.0031301049570678242 0.0019470346706712612 0 -0.013801070533846766 -0.00042079142974273619 0 -0.013470448404814256 -0.00028953479912509458 0 -0.013331479322161241 -0.00065069480672129171 0 0.0034745434753657065 0.0020097305988207043 0 0.0035817621227543141 0.0017598236594643464 0 0.0031301049570678242 0.0019470346706712612 0 -0.0032422695277372921 0.00016902700754371726 0 -0.0054318466868019969 0.00068993685732608343 0 0.003572436774060717 0.00074815931784753039 0 0.0032899777772003066 0.00048358406860439659 0 0.0032804323747551841 0.00065388690449608915 0 0.003572436774060717 0.00074815931784753039 0 0.0035300331553621066 0.00052783413573048038 0 0.0032899777772003066 0.00048358406860439659 0 0.0035112582701118762 0.00030521253197763221 0 0.0032899777772003066 0.00048358406860439659 0 0.0031617630796120458 0.00016499724149554847 0 0.0035112582701118762 0.00030521253197763221 0 0.0035300331553621066 0.00052783413573048038 0 0.0032899777772003066 0.00048358406860439659 0 0.0035112582701118762 0.00030521253197763221 0 0.0035300331553621066 0.00052783413573048038 0 0.0037124411106666056 0.00055320076576902035 0 0.003572436774060717 0.00074815931784753039 0 0.0037124411106666056 0.00055320076576902035 0 0.0038080697719838461 0.00093971950812509993 0 0.003572436774060717 0.00074815931784753039 0 0.0035300331553621066 0.00052783413573048038 0 0.0037124411106666056 0.00055320076576902035 0 0.0037124411106666056 0.00055320076576902035 0 0.0039645076738212045 0.00077536281023016251 0 0.0038080697719838461 0.00093971950812509993 0 0.0039407588964580405 0.00036998048093032671 0 0.0037286818773759199 0.00018949542656223394 0 0.0037124411106666056 0.00055320076576902035 0 0.0039407588964580405 0.00036998048093032671 0 0.0037124411106666056 0.00055320076576902035 0 0.0039645076738212045 0.00077536281023016251 0 0.0038568500853426477 0.00069970120115261177 0 0.003955554362855572 0.00077758419799819694 0 0.0039533291819284335 0.00078154376037749089 0 0.0038568500853426477 0.00069970120115261177 0 0.0039533291819284335 0.00078154376037749089 0 0.0039645076738212045 0.00077536281023016251 0 -0.0021539697043009187 -0.00024986406494301985 0 -0.004844793950073401 8.7318809027926513e-05 0 -0.0021539697043009187 -0.00024986406494301985 0 0.0049034450056532073 0.0012518424906271814 0 0.0039533291819284335 0.00078154376037749089 0 0.0040358137215302506 0.00092023924185927197 0 0.0039645076738212045 0.00077536281023016251 0 0.0038325202973040137 0.0017508050012827769 0 0.0038953232157236538 0.0014734070574710303 0 0.0039786701548362819 0.0012523299227635636 0 0.0051927497185124735 0.0011332729978751025 0 0.003468318820721824 0.0014498044592653654 0 0.0040358137215302506 0.00092023924185927197 0 0.0039645076738212045 0.00077536281023016251 0 0.0039786701548362819 0.0012523299227635636 0 0.0038953232157236538 0.0014734070574710303 0 0.0039786701548362819 0.0012523299227635636 0 0.0040357264504381337 0.0014002229135735495 0 0.0039786701548362819 0.0012523299227635636 0 0.0039242434124106664 0.0012520434931794688 0 0.0040357264504381337 0.0014002229135735495 0 0.0039786701548362819 0.0012523299227635636 0 0.0039242434124106664 0.0012520434931794688 0 0.0038080697719838461 0.00093971950812509993 0 0.0039645076738212045 0.00077536281023016251 0 0.0039786701548362819 0.0012523299227635636 0 0.0038080697719838461 0.00093971950812509993 0 0.003572436774060717 0.00074815931784753039 0 0.0038080697719838461 0.00093971950812509993 0 0.0037373748169479948 0.0010754664562458529 0 0.0039242434124106664 0.0012520434931794688 0 0.0038080697719838461 0.00093971950812509993 0 0.0037373748169479948 0.0010754664562458529 0 0.0039242434124106664 0.0012520434931794688 0 0.0037373748169479948 0.0010754664562458529 0 0.0039573238990010988 0.0013445938756495824 0 0.0037373748169479948 0.0010754664562458529 0 0.0036694308781317236 0.0011833614666010551 0 0.003481662526386519 0.00093746852239484472 0 0.0037373748169479948 0.0010754664562458529 0 0.0036694308781317236 0.0011833614666010551 0 0.0039573238990010988 0.0013445938756495824 0 0.003572436774060717 0.00074815931784753039 0 0.003481662526386519 0.00093746852239484472 0 0.0032804323747551841 0.00065388690449608915 0 0.003572436774060717 0.00074815931784753039 0 0.0037373748169479948 0.0010754664562458529 0 0.003481662526386519 0.00093746852239484472 0 0.0039573238990010988 0.0013445938756495824 0 0.0040014293684894576 0.0016066608819504265 0 0.0036851011578934792 0.0014185188674995677 0 0.0036694308781317236 0.0011833614666010551 0 0.0039573238990010988 0.0013445938756495824 0 0.0036851011578934792 0.0014185188674995677 0 0.0039573238990010988 0.0013445938756495824 0 0.0041728421948515294 0.0014781931279464863 0 0.0040357264504381337 0.0014002229135735495 0 0.0039573238990010988 0.0013445938756495824 0 0.0041728421948515294 0.0014781931279464863 0 0.0040014293684894576 0.0016066608819504265 0 0.0041728421948515294 0.0014781931279464863 0 0.0040357264504381337 0.0014002229135735495 0 0.0040853274132424339 0.0013757121512611126 0 0.0039242434124106664 0.0012520434931794688 0 0.0039573238990010988 0.0013445938756495824 0 0.0040357264504381337 0.0014002229135735495 0 0.0038953232157236538 0.0014734070574710303 0 0.0040357264504381337 0.0014002229135735495 0 0.0038132293306257785 0.0014429310448639495 0 0.0040357264504381337 0.0014002229135735495 0 0.0038132293306257785 0.0014429310448639495 0 0.0039003755849654144 0.0012995472160365572 0 0.0040357264504381337 0.0014002229135735495 0 0.0040853274132424339 0.0013757121512611126 0 0.0039003755849654144 0.0012995472160365572 0 0.0055770343369704956 0.0015849632332087292 0 0.0053285665613864806 0.0013737404547055619 0 0.0055237451936821788 0.0014551323771001537 0 0.0046811361376332223 0.0014017039096013277 0 0.0046912936203460228 0.0013806175392111879 0 0.0055770343369704956 0.0015849632332087292 0 0.0051268623161771845 0.0020077795930341122 0 0.005799292530945693 0.0022096243977152005 0 0.0055770343369704956 0.0015849632332087292 0 0.0055525865690705381 0.0015375334251833764 0 0.005799292530945693 0.0022096243977152005 0 0.0055770343369704956 0.0015849632332087292 0 0.0051268623161771845 0.0020077795930341122 0 0.0053285665613864806 0.0013737404547055619 0 0.0051268623161771845 0.0020077795930341122 0 0.0053285665613864806 0.0013737404547055619 0 0.0044119904784044586 0.001604536395889493 0 0.0046811361376332223 0.0014017039096013277 0 0.0044111824452460887 0.0015702762241365511 0 0.0041728421948515294 0.0014781931279464863 0 0.0044119904784044586 0.001604536395889493 0 0.0040014293684894576 0.0016066608819504265 0 0.0041728421948515294 0.0014781931279464863 0 0.0040853274132424339 0.0013757121512611126 0 0.0044119904784044586 0.001604536395889493 0 0.0051268623161771845 0.0020077795930341122 0 0.0044119904784044586 0.001604536395889493 0 0.0044379915978738638 0.0022487298936470111 0 0.0044379915978738638 0.0022487298936470111 0 0.0039783093583933317 0.002506596158083475 0 0.0038943827721682357 0.0020435599531492118 0 0.0044119904784044586 0.001604536395889493 0 0.0044379915978738638 0.0022487298936470111 0 0.0038943827721682357 0.0020435599531492118 0 0.0044119904784044586 0.001604536395889493 0 0.0040014293684894576 0.0016066608819504265 0 0.0038943827721682357 0.0020435599531492118 0 0.0039685139088519641 0.001142842758327348 0 0.0033772800040111472 0.001526656818385025 0 0.004860827011558504 0.0016516709079069285 0 0.0033772800040111472 0.001526656818385025 0 0.0034734211021908348 0.0015220200207602958 0 0.0035989944005558119 0.0013368618611057721 0 0.0034947443342947522 0.001545140822258531 0 0.0042181601761535504 0.0014718991191852461 0 0.002463071724725284 0.0011277381778404308 0 0.0031799323901609703 0.0012651486812310815 0 0.0034558538303941381 0.00076138314586050491 0 -0.0014929394357734776 0.0012898108850390192 0 0.00072473461269836567 0.0021469235617611725 0 0.0039685139088519641 0.001142842758327348 0 0.0031799323901609703 0.0012651486812310815 0 0.0033772800040111472 0.001526656818385025 0 0.0039685139088519641 0.001142842758327348 0 0.0031799323901609703 0.0012651486812310815 0 0.0034558538303941381 0.00076138314586050491 0 0.0031799323901609703 0.0012651486812310815 0 0.0033772800040111472 0.001526656818385025 0 0.0029473556533012291 0.0015627910101498361 0 0.0024888687839584741 0.0019279948980140305 0 0.0032155017290247511 0.0017124151321751217 0 0.0029473556533012291 0.0015627910101498361 0 0.0032155017290247511 0.0017124151321751217 0 0.0033772800040111472 0.001526656818385025 0 0.0029473556533012291 0.0015627910101498361 0 0.0035030812152836541 0.0016349479342425059 0 0.0032155017290247511 0.0017124151321751217 0 0.0034734211021908348 0.0015220200207602958 0 0.0032155017290247511 0.0017124151321751217 0 0.0033772800040111472 0.001526656818385025 0 0.0034734211021908348 0.0015220200207602958 0 0.0035030812152836541 0.0016349479342425059 0 0.0034734211021908348 0.0015220200207602958 0 0.0036550511975005076 0.0014498680675703269 0 0.0035030812152836541 0.0016349479342425059 0 0.0036550511975005076 0.0014498680675703269 0 0.0038132293306257785 0.0014429310448639495 0 0.0034734211021908348 0.0015220200207602958 0 0.0036550511975005076 0.0014498680675703269 0 0.0035989944005558119 0.0013368618611057721 0 0.0036550511975005076 0.0014498680675703269 0 0.0038132293306257785 0.0014429310448639495 0 0.0039003755849654144 0.0012995472160365572 0 0.0046912936203460228 0.0013806175392111879 0 0.0042181601761535504 0.0014718991191852461 0 0.0036550511975005076 0.0014498680675703269 0 0.0039003755849654144 0.0012995472160365572 0 0.0035989944005558119 0.0013368618611057721 0 0.0055237451936821788 0.0014551323771001537 0 0.004860827011558504 0.0016516709079069285 0 0.0050464386228685383 0.0011976172765381606 0 0.0039685139088519641 0.001142842758327348 0 0.004860827011558504 0.0016516709079069285 0 0.0050464386228685383 0.0011976172765381606 0 0.0050464386228685383 0.0011976172765381606 0 0.0054016087911172052 0.0013854892292831989 0 0.0051979247225794672 0.0012787299911016679 0 0.0048309159272843342 0.00073823988766586162 0 0.0053247952737442679 0.0028858312562257201 0 0.0050464386228685383 0.0011976172765381606 0 0.0047139516611430527 0.00031753814611547516 0 0.0042824822882983277 0.000887383902315291 0 0.0055770343369704956 0.0015849632332087292 0 0.0055237451936821788 0.0014551323771001537 0 0.0054016087911172052 0.0013854892292831989 0 0.0055237451936821788 0.0014551323771001537 0 0.0050464386228685383 0.0011976172765381606 0 0.0054016087911172052 0.0013854892292831989 0 0.0055770343369704956 0.0015849632332087292 0 0.0054016087911172052 0.0013854892292831989 0 0.0055525865690705381 0.0015375334251833764 0 0.0054016087911172052 0.0013854892292831989 0 0.0055525865690705381 0.0015375334251833764 0 0.0051979247225794672 0.0012787299911016679 0 0.0068847852646829327 0.0019717948824171166 0 0.0073851906108462345 0.0021946386948760331 0 0.0071724833530648407 0.0021480402216150665 0 0.0063980680616570048 0.0016420617262576738 0 0.0053247952737442679 0.0028858312562257201 0 0.0073851906108462345 0.0021946386948760331 0 0.0071724833530648407 0.0021480402216150665 0 0.0071222036851755349 0.0021171872856333668 0 0.0034596700391873901 0.0055944619433542005 0 0.0023379364283707634 0.0051165455652381299 0 0.0025739726156907092 0.0045127108179291104 0 0.0073851906108462345 0.0021946386948760331 0 0.0071222036851755349 0.0021171872856333668 0 0.0062888844950106208 0.002051856637622038 0 0.0034596700391873901 0.0055944619433542005 0 0.0023379364283707634 0.0051165455652381299 0 0.0021366608970157983 0.0062978448761266083 0 0.0053247952737442679 0.0028858312562257201 0 0.0046033406957091873 0.0031825532478092378 0 0.0053247952737442679 0.0028858312562257201 0 0.00072473461269836567 0.0021469235617611725 0 0.0047139516611430527 0.00031753814611547516 0 0.0042824822882983277 0.000887383902315291 0 0.0035156205496914019 0.00090265954604883093 0 0.0034456851842905585 0.0019214499013813829 0 0.00072473461269836567 0.0021469235617611725 0 0.0039685139088519641 0.001142842758327348 0 0.0042824822882983277 0.000887383902315291 0 0.0035156205496914019 0.00090265954604883093 0 0.0039685139088519641 0.001142842758327348 0 0.0050464386228685383 0.0011976172765381606 0 0.0042824822882983277 0.000887383902315291 0 -0.0033585916370688857 0.0029020947538744169 0 0.00072473461269836567 0.0021469235617611725 0 0.0023379364283707634 0.0051165455652381299 0 0.0021366608970157983 0.0062978448761266083 0 0.0014590012627359911 0.0048123586784940059 0 0.00070884524197464013 0.0053117472517855788 0 0.0021366608970157983 0.0062978448761266083 0 0.0014590012627359911 0.0048123586784940059 0 0.0023379364283707634 0.0051165455652381299 0 0.0014590012627359911 0.0048123586784940059 0 0.0020096716217416102 0.0043071585876397695 0 0.0014590012627359911 0.0048123586784940059 0 0.0020096716217416102 0.0043071585876397695 0 0.0013134967209277424 0.0038487662313730908 0 0.0020096716217416102 0.0043071585876397695 0 0.0018860035240925886 0.0037060907499172394 0 0.0023711649805201402 0.0038252938654953755 0 0.0020096716217416102 0.0043071585876397695 0 0.0013134967209277424 0.0038487662313730908 0 0.0018860035240925886 0.0037060907499172394 0 0.0013134967209277424 0.0038487662313730908 0 0.0016325841661114797 0.0032330865761248666 0 0.0018860035240925886 0.0037060907499172394 0 0.0018860035240925886 0.0037060907499172394 0 0.0020942001165808384 0.0033131079667072382 0 0.0023711649805201402 0.0038252938654953755 0 0.0020942001165808384 0.0033131079667072382 0 0.0023491709643986142 0.0031713594056881457 0 0.0023711649805201402 0.0038252938654953755 0 0.0016325841661114797 0.0032330865761248666 0 0.0018860035240925886 0.0037060907499172394 0 0.0020942001165808384 0.0033131079667072382 0 0.0016325841661114797 0.0032330865761248666 0 0.0020942001165808384 0.0033131079667072382 0 0.0020289757219156641 0.0028774429168695252 0 0.0023491709643986142 0.0031713594056881457 0 0.0022350249182464818 0.002670759951161734 0 0.0024468878053016353 0.0023512659203082128 0 0.0020942001165808384 0.0033131079667072382 0 0.0020289757219156641 0.0028774429168695252 0 0.0023491709643986142 0.0031713594056881457 0 0.0020289757219156641 0.0028774429168695252 0 0.0023491709643986142 0.0031713594056881457 0 0.0022350249182464818 0.002670759951161734 0 0.0016325841661114797 0.0032330865761248666 0 0.0015121265037680042 0.0026939025003710863 0 0.00077577176297477588 0.002988072203855194 0 0.0016325841661114797 0.0032330865761248666 0 0.0020289757219156641 0.0028774429168695252 0 0.0015121265037680042 0.0026939025003710863 0 0.00787353402989684 0.0026746601140547198 0 0.0080342194066815847 0.0032363094396433323 0 0.008321192016403172 0.0035508280864741354 0 0.0046033406957091873 0.0031825532478092378 0 0.0034110885792507494 0.0018613969536895414 0 0.0023491709643986142 0.0031713594056881457 0 0.0029126429543115677 0.0039890263930470295 0 0.0024468878053016353 0.0023512659203082128 0 0.0069221880168646843 0.0024039628355460624 0 0.0064061142022059214 0.0026555888927195306 0 0.0059818864517090179 0.0019694543644799712 0 0.0062888844950106208 0.002051856637622038 0 0.004494344104215512 0.0017125761030160819 0 0.0078037977073996028 0.0030082597379495661 0 0.00787353402989684 0.0026746601140547198 0 0.0080342194066815847 0.0032363094396433323 0 0.0078037977073996028 0.0030082597379495661 0 0.0077554463627856505 0.0032438779191833293 0 0.0080342194066815847 0.0032363094396433323 0 0.0023491709643986142 0.0031713594056881457 0 0.0029126429543115677 0.0039890263930470295 0 0.0023711649805201402 0.0038252938654953755 0 0.0078037977073996028 0.0030082597379495661 0 0.00787353402989684 0.0026746601140547198 0 0.0075559857963110374 0.002873808551364378 0 0.0071057699084319265 0.0022265495178111837 0 0.0069221880168646843 0.0024039628355460624 0 0.0071222036851755349 0.0021171872856333668 0 0.0059818864517090179 0.0019694543644799712 0 0.0062888844950106208 0.002051856637622038 0 0.0034596700391873901 0.0055944619433542005 0 0.0029126429543115677 0.0039890263930470295 0 0.0025739726156907092 0.0045127108179291104 0 0.0029126429543115677 0.0039890263930470295 0 0.0023711649805201402 0.0038252938654953755 0 0.0025739726156907092 0.0045127108179291104 0 0.0020096716217416102 0.0043071585876397695 0 0.0023711649805201402 0.0038252938654953755 0 0.0025739726156907092 0.0045127108179291104 0 0.0023379364283707634 0.0051165455652381299 0 0.0020096716217416102 0.0043071585876397695 0 0.0025739726156907092 0.0045127108179291104 0 0.0071724833530648407 0.0021480402216150665 0 0.0071222036851755349 0.0021171872856333668 0 0.0073789423301236327 0.0024117001898026772 0 0.0071222036851755349 0.0021171872856333668 0 0.00787353402989684 0.0026746601140547198 0 0.0073789423301236327 0.0024117001898026772 0 0.0071724833530648407 0.0021480402216150665 0 0.0073789423301236327 0.0024117001898026772 0 0.0070629335975504904 0.0023349019073391256 0 0.0073789423301236327 0.0024117001898026772 0 0.0070629335975504904 0.0023349019073391256 0 0.0072534011397446 0.0026908710021890233 0 0.00787353402989684 0.0026746601140547198 0 0.0073789423301236327 0.0024117001898026772 0 0.0075036443174904214 0.0026618231560398649 0 0.0073789423301236327 0.0024117001898026772 0 0.0075036443174904214 0.0026618231560398649 0 0.0072534011397446 0.0026908710021890233 0 0.0068847852646829327 0.0019717948824171166 0 0.0066987154135799247 0.0024914578629367519 0 0.005799292530945693 0.0022096243977152005 0 0.0068847852646829327 0.0019717948824171166 0 0.0070629335975504904 0.0023349019073391256 0 0.0066987154135799247 0.0024914578629367519 0 0.0068847852646829327 0.0019717948824171166 0 0.0071724833530648407 0.0021480402216150665 0 0.0070629335975504904 0.0023349019073391256 0 0.0070629335975504904 0.0023349019073391256 0 0.0066987154135799247 0.0024914578629367519 0 0.0072534011397446 0.0026908710021890233 0 0.0066987154135799247 0.0024914578629367519 0 0.0070173083221531391 0.0030492498554612704 0 0.0064413592566313427 0.0029537974728380701 0 0.0066987154135799247 0.0024914578629367519 0 0.0070173083221531391 0.0030492498554612704 0 0.0072534011397446 0.0026908710021890233 0 0.0070173083221531391 0.0030492498554612704 0 0.0068889853672726015 0.0034087598860434738 0 0.0064413592566313427 0.0029537974728380701 0 0.0075036443174904214 0.0026618231560398649 0 0.0075559857963110374 0.002873808551364378 0 0.0072534011397446 0.0026908710021890233 0 0.00787353402989684 0.0026746601140547198 0 0.0075036443174904214 0.0026618231560398649 0 0.0075559857963110374 0.002873808551364378 0 0.0075559857963110374 0.002873808551364378 0 0.0072534011397446 0.0026908710021890233 0 0.0074134630068870607 0.0031356708267933605 0 0.0070173083221531391 0.0030492498554612704 0 0.0074134630068870607 0.0031356708267933605 0 0.0072829643361881956 0.0034312483491602034 0 0.0070173083221531391 0.0030492498554612704 0 0.0072534011397446 0.0026908710021890233 0 0.0074134630068870607 0.0031356708267933605 0 0.0078037977073996028 0.0030082597379495661 0 0.0075559857963110374 0.002873808551364378 0 0.0077554463627856505 0.0032438779191833293 0 0.0075559857963110374 0.002873808551364378 0 0.0074134630068870607 0.0031356708267933605 0 0.0077554463627856505 0.0032438779191833293 0 0.0074134630068870607 0.0031356708267933605 0 0.0077554463627856505 0.0032438779191833293 0 0.0076151473726644887 0.0035261741380418995 0 0.0077554463627856505 0.0032438779191833293 0 0.0076151473726644887 0.0035261741380418995 0 0.007853818468333976 0.0035021200744200197 0 0.0074134630068870607 0.0031356708267933605 0 0.0072829643361881956 0.0034312483491602034 0 0.0076151473726644887 0.0035261741380418995 0 0.0072829643361881956 0.0034312483491602034 0 0.0076151473726644887 0.0035261741380418995 0 0.0074857247404826943 0.0038524542090615835 0 0.0076151473726644887 0.0035261741380418995 0 0.0077960520399997183 0.0039226388395022724 0 0.0074857247404826943 0.0038524542090615835 0 0.0078574881754341717 0.003687584039328565 0 0.0076151473726644887 0.0035261741380418995 0 0.0077960520399997183 0.0039226388395022724 0 0.0078574881754341717 0.003687584039328565 0 0.0076151473726644887 0.0035261741380418995 0 0.007853818468333976 0.0035021200744200197 0 0.0070173083221531391 0.0030492498554612704 0 0.0072829643361881956 0.0034312483491602034 0 0.0068889853672726015 0.0034087598860434738 0 0.0072829643361881956 0.0034312483491602034 0 0.0068889853672726015 0.0034087598860434738 0 0.0071505056939798134 0.0037014935311676551 0 0.0072829643361881956 0.0034312483491602034 0 0.0071505056939798134 0.0037014935311676551 0 0.0074857247404826943 0.0038524542090615835 0 0.0068889853672726015 0.0034087598860434738 0 0.0068615682151280926 0.0037985329500607539 0 0.0064631435483237017 0.0034761134998117465 0 0.0068889853672726015 0.0034087598860434738 0 0.0071505056939798134 0.0037014935311676551 0 0.0068615682151280926 0.0037985329500607539 0 0.0068615682151280926 0.0037985329500607539 0 0.0072277006626560846 0.0040062614424488004 0 0.0069112044341233803 0.0042158126564260023 0 0.0071505056939798134 0.0037014935311676551 0 0.0068615682151280926 0.0037985329500607539 0 0.0072277006626560846 0.0040062614424488004 0 0.0071505056939798134 0.0037014935311676551 0 0.0072277006626560846 0.0040062614424488004 0 0.0074857247404826943 0.0038524542090615835 0 0.0072277006626560846 0.0040062614424488004 0 0.0075723175648982179 0.0042519167599564143 0 0.0073021310395406267 0.0044443129818843964 0 0.0072277006626560846 0.0040062614424488004 0 0.0069112044341233803 0.0042158126564260023 0 0.0073021310395406267 0.0044443129818843964 0 0.0076854379987619809 0.0040481570470881929 0 0.0077960520399997183 0.0039226388395022724 0 0.0074857247404826943 0.0038524542090615835 0 0.0076854379987619809 0.0040481570470881929 0 0.0077960520399997183 0.0039226388395022724 0 0.0078845266049588376 0.0041582143717637902 0 0.0077960520399997183 0.0039226388395022724 0 0.0078845266049588376 0.0041582143717637902 0 0.0080006012315295017 0.0040047128844673957 0 0.0072277006626560846 0.0040062614424488004 0 0.0074857247404826943 0.0038524542090615835 0 0.0075723175648982179 0.0042519167599564143 0 0.0076854379987619809 0.0040481570470881929 0 0.0074857247404826943 0.0038524542090615835 0 0.0075723175648982179 0.0042519167599564143 0 0.0076854379987619809 0.0040481570470881929 0 0.0075723175648982179 0.0042519167599564143 0 0.0078845266049588376 0.0041582143717637902 0 0.0075723175648982179 0.0042519167599564143 0 0.0078845266049588376 0.0041582143717637902 0 0.0079441190476689013 0.0044820319524135812 0 0.0078845266049588376 0.0041582143717637902 0 0.0081298447020184961 0.0041917629664506633 0 0.0079441190476689013 0.0044820319524135812 0 0.0085695008249500326 0.0043281653874544029 0 0.008310479302709289 0.00380290041599168 0 0.008321192016403172 0.0035508280864741354 0 0.0078845266049588376 0.0041582143717637902 0 0.0081298447020184961 0.0041917629664506633 0 0.0080006012315295017 0.0040047128844673957 0 0.0081298447020184961 0.0041917629664506633 0 0.0080006012315295017 0.0040047128844673957 0 0.0081500132651810935 0.0039563276109097437 0 0.0080006012315295017 0.0040047128844673957 0 0.0081500132651810935 0.0039563276109097437 0 0.0080267982907970357 0.0038235696095077539 0 0.0081500132651810935 0.0039563276109097437 0 0.0080267982907970357 0.0038235696095077539 0 0.008165107465664288 0.0037673378559097879 0 0.0077960520399997183 0.0039226388395022724 0 0.0080006012315295017 0.0040047128844673957 0 0.0080267982907970357 0.0038235696095077539 0 0.0078574881754341717 0.003687584039328565 0 0.0077960520399997183 0.0039226388395022724 0 0.0080267982907970357 0.0038235696095077539 0 0.0082970581184756854 0.0039370679799712515 0 0.0085695008249500326 0.0043281653874544029 0 0.008310479302709289 0.00380290041599168 0 0.0081500132651810935 0.0039563276109097437 0 0.0082970581184756854 0.0039370679799712515 0 0.008165107465664288 0.0037673378559097879 0 0.0082970581184756854 0.0039370679799712515 0 0.008165107465664288 0.0037673378559097879 0 0.008310479302709289 0.00380290041599168 0 0.0081500132651810935 0.0039563276109097437 0 0.0082970581184756854 0.0039370679799712515 0 0.0082954536328961759 0.004079226178291877 0 0.0081298447020184961 0.0041917629664506633 0 0.0081500132651810935 0.0039563276109097437 0 0.0082954536328961759 0.004079226178291877 0 0.0082954536328961759 0.004079226178291877 0 0.0083201981022626784 0.0042982209645475965 0 0.0085695008249500326 0.0043281653874544029 0 0.0082970581184756854 0.0039370679799712515 0 0.0082954536328961759 0.004079226178291877 0 0.0085695008249500326 0.0043281653874544029 0 0.0081298447020184961 0.0041917629664506633 0 0.0082954536328961759 0.004079226178291877 0 0.0083201981022626784 0.0042982209645475965 0 0.0081298447020184961 0.0041917629664506633 0 0.0083201981022626784 0.0042982209645475965 0 0.0081993762298968459 0.0044313513982382081 0 0.0025747723618748143 0.00047162162723235967 0 0.0022239672166123512 0.00045627874692845118 0 0.0044700524953627981 0.0015807320341949178 0 0.0056136553237127211 0.0023368449173678976 0 0.0064061142022059214 0.0026555888927195306 0 0.0022239672166123512 0.00045627874692845118 0 0.0019602035452074835 0.0015503952822634058 0 0.0022016614513180413 0.0020356478246873885 0 0.0023423619055504179 0.000445584440171816 0 0.0034110885792507494 0.0018613969536895414 0 0.0022239672166123512 0.00045627874692845118 0 0.0017109060259164997 0.0011190953384390791 0 0.0012629862953376422 0.00041775191933753362 0 0.0022239672166123512 0.00045627874692845118 0 0.0017109060259164997 0.0011190953384390791 0 0.0019602035452074835 0.0015503952822634058 0 0.0017109060259164997 0.0011190953384390791 0 0.0019602035452074835 0.0015503952822634058 0 0.0015414108279221046 0.0016819196798588949 0 0.0017109060259164997 0.0011190953384390791 0 0.0015414108279221046 0.0016819196798588949 0 0.0012501625379514483 0.001291854270282531 0 0.0022239672166123512 0.00045627874692845118 0 0.0022016614513180413 0.0020356478246873885 0 0.0024468878053016353 0.0023512659203082128 0 0.0019602035452074835 0.0015503952822634058 0 0.0022016614513180413 0.0020356478246873885 0 0.0018031857309188453 0.0021434404576731198 0 0.0022239672166123512 0.00045627874692845118 0 0.004494344104215512 0.0017125761030160819 0 0.0044700524953627981 0.0015807320341949178 0 0.0019602035452074835 0.0015503952822634058 0 0.0015414108279221046 0.0016819196798588949 0 0.0018031857309188453 0.0021434404576731198 0 0.0015414108279221046 0.0016819196798588949 0 0.0018031857309188453 0.0021434404576731198 0 0.0011334944160359972 0.0022402953349501416 0 0.0018031857309188453 0.0021434404576731198 0 0.0015121265037680042 0.0026939025003710863 0 0.0020691374976935105 0.0024664072952007223 0 0.0018031857309188453 0.0021434404576731198 0 0.0015121265037680042 0.0026939025003710863 0 0.0011334944160359972 0.0022402953349501416 0 0.0022016614513180413 0.0020356478246873885 0 0.0020691374976935105 0.0024664072952007223 0 0.0024468878053016353 0.0023512659203082128 0 0.0022016614513180413 0.0020356478246873885 0 0.0018031857309188453 0.0021434404576731198 0 0.0020691374976935105 0.0024664072952007223 0 0.0020289757219156641 0.0028774429168695252 0 0.0015121265037680042 0.0026939025003710863 0 0.0020691374976935105 0.0024664072952007223 0 0.0020289757219156641 0.0028774429168695252 0 0.0020691374976935105 0.0024664072952007223 0 0.0022350249182464818 0.002670759951161734 0 0.0020691374976935105 0.0024664072952007223 0 0.0022350249182464818 0.002670759951161734 0 0.0024468878053016353 0.0023512659203082128 0 0.0080342194066815847 0.0032363094396433323 0 0.0080955377461370565 0.0034614854834188456 0 0.008321192016403172 0.0035508280864741354 0 0.0059818864517090179 0.0019694543644799712 0 0.004494344104215512 0.0017125761030160819 0 0.0044700524953627981 0.0015807320341949178 0 0.0077554463627856505 0.0032438779191833293 0 0.0080342194066815847 0.0032363094396433323 0 0.007954400685978932 0.0033936353507857111 0 0.007853818468333976 0.0035021200744200197 0 0.007954400685978932 0.0033936353507857111 0 0.0080353969826679039 0.0035223252572020021 0 0.0077554463627856505 0.0032438779191833293 0 0.007853818468333976 0.0035021200744200197 0 0.007954400685978932 0.0033936353507857111 0 0.0080342194066815847 0.0032363094396433323 0 0.007954400685978932 0.0033936353507857111 0 0.0080955377461370565 0.0034614854834188456 0 0.007954400685978932 0.0033936353507857111 0 0.0080955377461370565 0.0034614854834188456 0 0.0080353969826679039 0.0035223252572020021 0 0.0080955377461370565 0.0034614854834188456 0 0.0080353969826679039 0.0035223252572020021 0 0.0081758973705788798 0.0036342550582674953 0 0.0080186538741072316 0.0036578791309689997 0 0.0080353969826679039 0.0035223252572020021 0 0.0081758973705788798 0.0036342550582674953 0 0.007853818468333976 0.0035021200744200197 0 0.0080186538741072316 0.0036578791309689997 0 0.0080353969826679039 0.0035223252572020021 0 0.0078574881754341717 0.003687584039328565 0 0.007853818468333976 0.0035021200744200197 0 0.0080186538741072316 0.0036578791309689997 0 0.0078574881754341717 0.003687584039328565 0 0.0080267982907970357 0.0038235696095077539 0 0.0080186538741072316 0.0036578791309689997 0 0.0080186538741072316 0.0036578791309689997 0 0.008165107465664288 0.0037673378559097879 0 0.0081758973705788798 0.0036342550582674953 0 0.0080267982907970357 0.0038235696095077539 0 0.0080186538741072316 0.0036578791309689997 0 0.008165107465664288 0.0037673378559097879 0 0.008165107465664288 0.0037673378559097879 0 0.008310479302709289 0.00380290041599168 0 0.0081758973705788798 0.0036342550582674953 0 0.0080955377461370565 0.0034614854834188456 0 0.008321192016403172 0.0035508280864741354 0 0.0081758973705788798 0.0036342550582674953 0 0.008310479302709289 0.00380290041599168 0 0.008321192016403172 0.0035508280864741354 0 0.0081758973705788798 0.0036342550582674953 0 0.0043595635991270218 0.0028362998792283165 0 0.0043234847614815443 0.0035631480362563052 0 0.0038140333217777946 0.0029136776719898227 0 0.0043595635991270218 0.0028362998792283165 0 0.0044379915978738638 0.0022487298936470111 0 0.0039783093583933317 0.002506596158083475 0 0.0043595635991270218 0.0028362998792283165 0 0.0044379915978738638 0.0022487298936470111 0 0.0049745191587391652 0.0027388697932767335 0 0.0051268623161771845 0.0020077795930341122 0 0.0044379915978738638 0.0022487298936470111 0 0.0049745191587391652 0.0027388697932767335 0 0.0043595635991270218 0.0028362998792283165 0 0.0049745191587391652 0.0027388697932767335 0 0.0051629536558324028 0.0034075754272808387 0 0.0049745191587391652 0.0027388697932767335 0 0.0057137837795542528 0.00292990687904686 0 0.0051629536558324028 0.0034075754272808387 0 0.0051268623161771845 0.0020077795930341122 0 0.0049745191587391652 0.0027388697932767335 0 0.0057137837795542528 0.00292990687904686 0 0.0051268623161771845 0.0020077795930341122 0 0.0057137837795542528 0.00292990687904686 0 0.005799292530945693 0.0022096243977152005 0 0.0063980680616570048 0.0016420617262576738 0 0.005670937882384596 0.0022280505894874346 0 0.0066987154135799247 0.0024914578629367519 0 0.005799292530945693 0.0022096243977152005 0 0.0064413592566313427 0.0029537974728380701 0 0.0057137837795542528 0.00292990687904686 0 0.005799292530945693 0.0022096243977152005 0 0.0064413592566313427 0.0029537974728380701 0 0.0057137837795542528 0.00292990687904686 0 0.0064413592566313427 0.0029537974728380701 0 0.0064631435483237017 0.0034761134998117465 0 0.0057137837795542528 0.00292990687904686 0 0.0064631435483237017 0.0034761134998117465 0 0.0059421726060688703 0.0035987844439439188 0 0.0068889853672726015 0.0034087598860434738 0 0.0064413592566313427 0.0029537974728380701 0 0.0064631435483237017 0.0034761134998117465 0 0.0064631435483237017 0.0034761134998117465 0 0.0064271257213571352 0.0039385611295192401 0 0.0059421726060688703 0.0035987844439439188 0 0.0068615682151280926 0.0037985329500607539 0 0.0064631435483237017 0.0034761134998117465 0 0.0064271257213571352 0.0039385611295192401 0 0.0068615682151280926 0.0037985329500607539 0 0.0069112044341233803 0.0042158126564260023 0 0.0064271257213571352 0.0039385611295192401 0 0.0069112044341233803 0.0042158126564260023 0 0.0064271257213571352 0.0039385611295192401 0 0.0065311064907999337 0.0044134020073759916 0 0.0064271257213571352 0.0039385611295192401 0 0.005796818597234004 0.0041096858535425336 0 0.0065311064907999337 0.0044134020073759916 0 0.0064271257213571352 0.0039385611295192401 0 0.005796818597234004 0.0041096858535425336 0 0.0059421726060688703 0.0035987844439439188 0 0.0057137837795542528 0.00292990687904686 0 0.0059421726060688703 0.0035987844439439188 0 0.0051629536558324028 0.0034075754272808387 0 0.005796818597234004 0.0041096858535425336 0 0.0059421726060688703 0.0035987844439439188 0 0.0051629536558324028 0.0034075754272808387 0 0.005796818597234004 0.0041096858535425336 0 0.0051629536558324028 0.0034075754272808387 0 0.0050653578993974163 0.0042864054024139217 0 0.0054793795629679209 0.0042996720486007641 0 0.0048251403898510407 0.0042735655071736815 0 0.0047686937747003864 0.0036304930939967911 0 0.0052868545448330317 0.0042870311053376494 0 0.0045563807209585338 0.0036019960933698792 0 0.0043595635991270218 0.0028362998792283165 0 0.0051629536558324028 0.0034075754272808387 0 0.0043234847614815443 0.0035631480362563052 0 0.0051629536558324028 0.0034075754272808387 0 0.0050653578993974163 0.0042864054024139217 0 0.0043234847614815443 0.0035631480362563052 0 0.0051353547154740628 0.0052364893020378127 0 0.0053306530570085848 0.004821984874496265 0 0.005783571101067168 0.005196375234202506 0 0.0051353547154740628 0.0052364893020378127 0 0.0053306530570085848 0.004821984874496265 0 0.0049494144263429497 0.0048607633553258336 0 0.0048251403898510407 0.0042735655071736815 0 0.0053306530570085848 0.004821984874496265 0 0.0041255042633746965 0.0045125059439370535 0 0.0054793795629679209 0.0042996720486007641 0 0.0048251403898510407 0.0042735655071736815 0 0.0053306530570085848 0.004821984874496265 0 0.0052868545448330317 0.0042870311053376494 0 0.0059718324906440651 0.0048904554854536453 0 0.0054793795629679209 0.0042996720486007641 0 0.0053306530570085848 0.004821984874496265 0 0.0060725968380640604 0.0049265181428649156 0 0.005796818597234004 0.0041096858535425336 0 0.0050653578993974163 0.0042864054024139217 0 0.0060725968380640604 0.0049265181428649156 0 0.0053306530570085848 0.004821984874496265 0 0.005783571101067168 0.005196375234202506 0 0.0060725968380640604 0.0049265181428649156 0 0.0051353547154740628 0.0052364893020378127 0 0.005783571101067168 0.005196375234202506 0 0.0060977551070008334 0.0058630707679377539 0 0.005783571101067168 0.005196375234202506 0 0.0065882182813434831 0.0052325841817294858 0 0.0060725968380640604 0.0049265181428649156 0 0.0065882182813434831 0.0052325841817294858 0 0.0060725968380640604 0.0049265181428649156 0 0.0067045068187535709 0.0048843510135694011 0 0.005796818597234004 0.0041096858535425336 0 0.0060725968380640604 0.0049265181428649156 0 0.0065311064907999337 0.0044134020073759916 0 0.0060725968380640604 0.0049265181428649156 0 0.0065311064907999337 0.0044134020073759916 0 0.0067045068187535709 0.0048843510135694011 0 0.0065311064907999337 0.0044134020073759916 0 0.0070370048078526835 0.0046800040562047203 0 0.0067045068187535709 0.0048843510135694011 0 0.0069112044341233803 0.0042158126564260023 0 0.0065311064907999337 0.0044134020073759916 0 0.0070370048078526835 0.0046800040562047203 0 0.0065882182813434831 0.0052325841817294858 0 0.007212354050795242 0.0051577061155908387 0 0.0073175923608549461 0.0056626118863023428 0 0.0065882182813434831 0.0052325841817294858 0 0.0067045068187535709 0.0048843510135694011 0 0.007212354050795242 0.0051577061155908387 0 0.0070370048078526835 0.0046800040562047203 0 0.0067045068187535709 0.0048843510135694011 0 0.007212354050795242 0.0051577061155908387 0 0.0073175923608549461 0.0056626118863023428 0 0.0077445943990286561 0.0054483363192561396 0 0.0080861663097165897 0.0058165660980048503 0 0.007212354050795242 0.0051577061155908387 0 0.0073175923608549461 0.0056626118863023428 0 0.0077445943990286561 0.0054483363192561396 0 0.0073175923608549461 0.0056626118863023428 0 0.0080097994849412553 0.0063967458427825656 0 0.0080861663097165897 0.0058165660980048503 0 0.0080097994849412553 0.0063967458427825656 0 0.0080861663097165897 0.0058165660980048503 0 0.0081078195411151393 0.0065515405512155426 0 0.0073175923608549461 0.0056626118863023428 0 0.0080097994849412553 0.0063967458427825656 0 0.0060977551070008334 0.0058630707679377539 0 0.0080097994849412553 0.0063967458427825656 0 0.008303925964222969 0.0063993803375684321 0 0.0082969763324217075 0.006438856990742853 0 0.0079044504342158112 0.0063847408123347219 0 0.007216018924132519 0.0060981754563431134 0 0.0065882182813434831 0.0052325841817294858 0 0.0073175923608549461 0.0056626118863023428 0 0.0060977551070008334 0.0058630707679377539 0 0.005783571101067168 0.005196375234202506 0 0.0065882182813434831 0.0052325841817294858 0 0.0060977551070008334 0.0058630707679377539 0 0.0065438228049691629 0.0055530495850678466 0 0.007216018924132519 0.0060981754563431134 0 0.008303925964222969 0.0063993803375684321 0 0.008022176820825927 0.0064904910821671985 0 0.0082969763324217075 0.006438856990742853 0 0.014035080782096278 0.0075934295335268742 0 0.012380032179190936 0.0078309325450030502 0 0.013794727423414204 0.0070944622842689167 0 0.010975091737445077 0.0070395080675694013 0 0.010266144950511044 0.0070440685956068309 0 0.014035080782096278 0.0075934295335268742 0 0.013794727423414204 0.0070944622842689167 0 0.014147073755745237 0.0071649330819836187 0 0.0080404294024936946 0.0059252683890109025 0 0.008303925964222969 0.0063993803375684321 0 0.008022176820825927 0.0064904910821671985 0 0.0082754785431688304 0.0052436674542679362 0 0.0084707417208467108 0.0047194534162038259 0 0.0081482095977595693 0.0047759779171028796 0 0.0082754785431688304 0.0052436674542679362 0 0.0081482095977595693 0.0047759779171028796 0 0.0078840214529831212 0.0051422584404984539 0 0.010623738674576057 0.0044103661858417853 0 0.005621917455362101 0.0021068076434879557 0 0.0082754785431688304 0.0052436674542679362 0 0.0087509006624535979 0.0049470568669613543 0 0.0084707417208467108 0.0047194534162038259 0 0.0056136553237127211 0.0023368449173678976 0 0.005621917455362101 0.0021068076434879557 0 0.0022239672166123512 0.00045627874692845118 0 0.0018651634461683674 -0.0013506210649402465 0 0.0012629862953376422 0.00041775191933753362 0 0.0085695008249500326 0.0043281653874544029 0 0.0087509006624535979 0.0049470568669613543 0 0.0084707417208467108 0.0047194534162038259 0 0.0025747723618748143 0.00047162162723235967 0 0.0022239672166123512 0.00045627874692845118 0 0.0018651634461683674 -0.0013506210649402465 0 0.0085695008249500326 0.0043281653874544029 0 0.0084707417208467108 0.0047194534162038259 0 0.0083894945338775853 0.0044671465581671383 0 0.0083894945338775853 0.0044671465581671383 0 0.0081482095977595693 0.0047759779171028796 0 0.0081993762298968459 0.0044313513982382081 0 0.0083201981022626784 0.0042982209645475965 0 0.0085695008249500326 0.0043281653874544029 0 0.0083894945338775853 0.0044671465581671383 0 0.0083201981022626784 0.0042982209645475965 0 0.0083894945338775853 0.0044671465581671383 0 0.0081993762298968459 0.0044313513982382081 0 0.0084707417208467108 0.0047194534162038259 0 0.0083894945338775853 0.0044671465581671383 0 0.0081482095977595693 0.0047759779171028796 0 0.0081482095977595693 0.0047759779171028796 0 0.0081993762298968459 0.0044313513982382081 0 0.0079441190476689013 0.0044820319524135812 0 0.0081298447020184961 0.0041917629664506633 0 0.0081993762298968459 0.0044313513982382081 0 0.0079441190476689013 0.0044820319524135812 0 0.0075723175648982179 0.0042519167599564143 0 0.0079441190476689013 0.0044820319524135812 0 0.0075989986436604141 0.0045598680779290442 0 0.0079441190476689013 0.0044820319524135812 0 0.0075989986436604141 0.0045598680779290442 0 0.0078029739156968104 0.0047848949611811638 0 0.0075989986436604141 0.0045598680779290442 0 0.0078029739156968104 0.0047848949611811638 0 0.007523384682405679 0.0049152872081573793 0 0.0081482095977595693 0.0047759779171028796 0 0.0079441190476689013 0.0044820319524135812 0 0.0078029739156968104 0.0047848949611811638 0 0.0069112044341233803 0.0042158126564260023 0 0.0070370048078526835 0.0046800040562047203 0 0.0073021310395406267 0.0044443129818843964 0 0.0075723175648982179 0.0042519167599564143 0 0.0075989986436604141 0.0045598680779290442 0 0.0073021310395406267 0.0044443129818843964 0 0.0075989986436604141 0.0045598680779290442 0 0.0073021310395406267 0.0044443129818843964 0 0.007523384682405679 0.0049152872081573793 0 0.0070370048078526835 0.0046800040562047203 0 0.0073021310395406267 0.0044443129818843964 0 0.007523384682405679 0.0049152872081573793 0 0.007212354050795242 0.0051577061155908387 0 0.007523384682405679 0.0049152872081573793 0 0.0077445943990286561 0.0054483363192561396 0 0.007523384682405679 0.0049152872081573793 0 0.0078840214529831212 0.0051422584404984539 0 0.0077445943990286561 0.0054483363192561396 0 0.0070370048078526835 0.0046800040562047203 0 0.007212354050795242 0.0051577061155908387 0 0.007523384682405679 0.0049152872081573793 0 0.0081482095977595693 0.0047759779171028796 0 0.0078029739156968104 0.0047848949611811638 0 0.0078840214529831212 0.0051422584404984539 0 0.0078029739156968104 0.0047848949611811638 0 0.007523384682405679 0.0049152872081573793 0 0.0078840214529831212 0.0051422584404984539 0 0.0082754785431688304 0.0052436674542679362 0 0.0078840214529831212 0.0051422584404984539 0 0.0079289901161821216 0.005496846012475934 0 0.0078840214529831212 0.0051422584404984539 0 0.0079289901161821216 0.005496846012475934 0 0.0077445943990286561 0.0054483363192561396 0 0.010623738674576057 0.0044103661858417853 0 0.008745925663253282 0.005140673852322572 0 0.0079289901161821216 0.005496846012475934 0 0.0077445943990286561 0.0054483363192561396 0 0.0080861663097165897 0.0058165660980048503 0 0.008745925663253282 0.005140673852322572 0 0.008171239615533411 0.0056761935003057243 0 0.0080861663097165897 0.0058165660980048503 0 0.0098653547585655834 0.0058646621996326503 0 0.0088361380496047876 0.0064501050223022358 0 0.0098335732216607158 0.0045506807116850933 0 0.0080861663097165897 0.0058165660980048503 0 0.0098653547585655834 0.0058646621996326503 0 0.0080861663097165897 0.0058165660980048503 0 0.0088361380496047876 0.0064501050223022358 0 0.0081078195411151393 0.0065515405512155426 0 0.0098653547585655834 0.0058646621996326503 0 0.011740330325939021 0.0056427952575146311 0 0.010035074776937502 0.0072795953193793448 0 0.0098335732216607158 0.0045506807116850933 0 0.0098653547585655834 0.0058646621996326503 0 0.011740330325939021 0.0056427952575146311 0 0.011499867156998861 0.0038320705043168898 0 0.0098335732216607158 0.0045506807116850933 0 0.011740330325939021 0.0056427952575146311 0 0.011499867156998861 0.0038320705043168898 0 0.011740330325939021 0.0056427952575146311 0 0.01345003566429793 0.0051244776056974372 0 0.011499867156998861 0.0038320705043168898 0 0.012804376118106251 0.0031069732457071025 0 0.01345003566429793 0.0051244776056974372 0 0.011740330325939021 0.0056427952575146311 0 0.01345003566429793 0.0051244776056974372 0 0.013064626637097485 0.0063980530196303294 0 -0.0010307796105039702 -0.00037671681901275868 0 -0.00141186020737507 -0.00067832753031148347 0 -0.0014311391043068113 -0.00064796083563261231 0 -0.0010307796105039702 -0.00037671681901275868 0 -0.0013549297038980208 3.0096662613791128e-05 0 -0.0017668454471250511 -0.00031183353914152837 0 0.0062230093003234292 0.0022909534080046228 0 0.0059744205643038652 0.0029756211740420155 0 0.01345003566429793 0.0051244776056974372 0 0.013395419840371108 0.0066054827218754372 0 0.013064626637097485 0.0063980530196303294 0 -0.0010307796105039702 -0.00037671681901275868 0 -0.0017668454471250511 -0.00031183353914152837 0 -0.0014311391043068113 -0.00064796083563261231 0 -0.00073007140308385449 0.00022507391042504658 0 -0.0010307796105039702 -0.00037671681901275868 0 -0.0013549297038980208 3.0096662613791128e-05 0 0.005621917455362101 0.0021068076434879557 0 0.0062230093003234292 0.0022909534080046228 0 -0.00073007140308385449 0.00022507391042504658 0 -0.0013549297038980208 3.0096662613791128e-05 0 -0.0012908498123480959 0.00052258985114652301 0 -0.0013549297038980208 3.0096662613791128e-05 0 -0.0012908498123480959 0.00052258985114652301 0 -0.001940049054045367 0.00018705911243518223 0 -0.0015506394260067337 3.0561109374065422e-05 0 -0.0014193750203574239 0.00079076829362631441 0 0.0018651634461683674 -0.0013506210649402465 0 -3.9435270131971612e-05 -0.00026278102130532525 0 0.0012629862953376422 0.00041775191933753362 0 0.005621917455362101 0.0021068076434879557 0 -0.0015506394260067337 3.0561109374065422e-05 0 -0.002960759464713387 0.00057758331657405473 0 -0.001940049054045367 0.00018705911243518223 0 -0.0017976132034127723 0.00089932386007241373 0 -0.0012908498123480959 0.00052258985114652301 0 -0.001940049054045367 0.00018705911243518223 0 -0.0017976132034127723 0.00089932386007241373 0 -0.0013549297038980208 3.0096662613791128e-05 0 -0.001940049054045367 0.00018705911243518223 0 -0.0017668454471250511 -0.00031183353914152837 0 -0.002960759464713387 0.00057758331657405473 0 -0.001940049054045367 0.00018705911243518223 0 -0.0028175130276596925 -0.00021673978553408055 0 -0.0017668454471250511 -0.00031183353914152837 0 -0.0022695323248897448 -0.00050257981033457457 0 -0.0028175130276596925 -0.00021673978553408055 0 -0.001940049054045367 0.00018705911243518223 0 -0.0017668454471250511 -0.00031183353914152837 0 -0.0028175130276596925 -0.00021673978553408055 0 -0.0017668454471250511 -0.00031183353914152837 0 -0.0022695323248897448 -0.00050257981033457457 0 -0.0014311391043068113 -0.00064796083563261231 0 -0.0022695323248897448 -0.00050257981033457457 0 -0.0029118881884211698 -0.00045019156431122509 0 -0.0025464740428837933 -0.00046977062935338386 0 -0.0022695323248897448 -0.00050257981033457457 0 -0.0029118881884211698 -0.00045019156431122509 0 -0.0028175130276596925 -0.00021673978553408055 0 -0.0029118881884211698 -0.00045019156431122509 0 -0.0031823054085989059 -0.00057040971410805298 0 -0.0025464740428837933 -0.00046977062935338386 0 -0.0029118881884211698 -0.00045019156431122509 0 -0.0035721844205408972 -0.00023956854130084039 0 -0.0031823054085989059 -0.00057040971410805298 0 -0.0029118881884211698 -0.00045019156431122509 0 -0.0035721844205408972 -0.00023956854130084039 0 -0.0028175130276596925 -0.00021673978553408055 0 -0.00050759570038874592 -1.6237990723775504e-06 0 -0.001169341552338382 -0.00034151746026489017 0 -0.00062950551033711321 -0.00025679666090973129 0 -0.0035721844205408972 -0.00023956854130084039 0 -0.0031823054085989059 -0.00057040971410805298 0 -0.0045212967931689257 0.00012240491276272502 0 -0.0022401195290367871 -0.00038561073325662322 0 -0.0036287385827223646 8.4996637308680534e-06 0 -0.001169341552338382 -0.00034151746026489017 0 -0.0025108644916254893 -3.3467790256886059e-08 0 -0.0026920948815948669 3.7471660469344364e-05 0 -0.00050759570038874592 -1.6237990723775504e-06 0 -0.001169341552338382 -0.00034151746026489017 0 -0.0025108644916254893 -3.3467790256886059e-08 0 -0.0035721844205408972 -0.00023956854130084039 0 -0.0045212967931689257 0.00012240491276272502 0 -0.0039535093031494457 0.00011925328515870995 0 -0.0045212967931689257 0.00012240491276272502 0 -0.0049049254903064249 0.00039646594163246599 0 -0.0039535093031494457 0.00011925328515870995 0 -0.0045212967931689257 0.00012240491276272502 0 -0.0049049254903064249 0.00039646594163246599 0 -0.005085451346080171 0.0002538463470224763 0 -0.0025108644916254893 -3.3467790256886059e-08 0 -0.0026920948815948669 3.7471660469344364e-05 0 -0.0045153033256940516 9.4487650135656004e-07 0 -0.0036287385827223646 8.4996637308680534e-06 0 -0.0048331094793281071 0.0001859082979138894 0 -0.0026920948815948669 3.7471660469344364e-05 0 -0.0045153033256940516 9.4487650135656004e-07 0 -0.005085451346080171 0.0002538463470224763 0 -0.002960759464713387 0.00057758331657405473 0 -0.0028175130276596925 -0.00021673978553408055 0 -0.0039535093031494457 0.00011925328515870995 0 -0.0035721844205408972 -0.00023956854130084039 0 -0.0028175130276596925 -0.00021673978553408055 0 -0.0039535093031494457 0.00011925328515870995 0 -0.0049049254903064249 0.00039646594163246599 0 -0.0039535093031494457 0.00011925328515870995 0 -0.005599315077240959 0.00078867692232183293 0 -0.0039535093031494457 0.00011925328515870995 0 -0.0040414302231884004 0.00072848417679256935 0 -0.005599315077240959 0.00078867692232183293 0 -0.002960759464713387 0.00057758331657405473 0 -0.0039535093031494457 0.00011925328515870995 0 -0.0040414302231884004 0.00072848417679256935 0 -0.002960759464713387 0.00057758331657405473 0 -0.0040414302231884004 0.00072848417679256935 0 -0.0036111429551229286 0.002189751386663785 0 -0.0040414302231884004 0.00072848417679256935 0 -0.005599315077240959 0.00078867692232183293 0 -0.0036111429551229286 0.002189751386663785 0 -0.0057405277036521344 0.00083022534935417219 0 -0.0059580939418376203 0.0011393949315665177 0 -0.005599315077240959 0.00078867692232183293 0 -0.0083891843184139576 0.00022070029724378424 0 -0.007716678050017382 -0.00010841496555335397 0 -0.0045153033256940516 9.4487650135656004e-07 0 -0.005085451346080171 0.0002538463470224763 0 -0.0065184555517580423 -9.8894247980004687e-08 0 -0.005599315077240959 0.00078867692232183293 0 -0.005085451346080171 0.0002538463470224763 0 -0.0065349594054145725 0.00013756051309399067 0 -0.0049049254903064249 0.00039646594163246599 0 -0.005599315077240959 0.00078867692232183293 0 -0.005085451346080171 0.0002538463470224763 0 -0.005599315077240959 0.00078867692232183293 0 -0.0065349594054145725 0.00013756051309399067 0 -0.007716678050017382 -0.00010841496555335397 0 -0.005085451346080171 0.0002538463470224763 0 -0.0065349594054145725 0.00013756051309399067 0 -0.0065184555517580423 -9.8894247980004687e-08 0 -0.0065349594054145725 0.00013756051309399067 0 -0.0065184555517580423 -9.8894247980004687e-08 0 -0.0078674767224900678 -7.6769808308292786e-05 0 -0.0065184555517580423 -9.8894247980004687e-08 0 -0.0078674767224900678 -7.6769808308292786e-05 0 -0.0085224284301086174 -6.2882470441112741e-08 0 -0.0078674767224900678 -7.6769808308292786e-05 0 -0.007716678050017382 -0.00010841496555335397 0 -0.0087111001305331323 -0.00016041852272994178 0 -0.0065349594054145725 0.00013756051309399067 0 -0.0078674767224900678 -7.6769808308292786e-05 0 -0.007716678050017382 -0.00010841496555335397 0 -0.0097632655298366868 2.9190775817792455e-05 0 -0.0078674767224900678 -7.6769808308292786e-05 0 -0.0087111001305331323 -0.00016041852272994178 0 -0.0097632655298366868 2.9190775817792455e-05 0 -0.0078674767224900678 -7.6769808308292786e-05 0 -0.0085224284301086174 -6.2882470441112741e-08 0 -0.0083891843184139576 0.00022070029724378424 0 -0.0088024391499164183 -0.00033063741923223719 0 -0.0087078903954049755 -0.00042489030699203003 0 -0.0083891843184139576 0.00022070029724378424 0 -0.007716678050017382 -0.00010841496555335397 0 -0.0088024391499164183 -0.00033063741923223719 0 -0.007716678050017382 -0.00010841496555335397 0 -0.0087111001305331323 -0.00016041852272994178 0 -0.0088024391499164183 -0.00033063741923223719 0 -0.0095479592232634164 -7.3036841951489834e-05 0 -0.0087111001305331323 -0.00016041852272994178 0 -0.0088024391499164183 -0.00033063741923223719 0 -0.0095479592232634164 -7.3036841951489834e-05 0 -0.0089434356205617873 -3.2465311277304817e-05 0 -0.0088024391499164183 -0.00033063741923223719 0 -0.0089434356205617873 -3.2465311277304817e-05 0 -0.0088024391499164183 -0.00033063741923223719 0 -0.0087078903954049755 -0.00042489030699203003 0 -0.0023154272465743934 0.0031907754864991416 0 -0.00080983572516052295 0.0042926210733851061 0 -0.00087165652893050807 0.0026526046752636447 0 -0.0054900398075160683 0.0014073515186363813 0 -0.0042757876895601647 0.0019772260006786441 0 -0.0089434356205617873 -3.2465311277304817e-05 0 -0.0087078903954049755 -0.00042489030699203003 0 -0.0078897432661943229 -0.00036133327596597222 0 0.00070884524197464013 0.0053117472517855788 0 -0.00080983572516052295 0.0042926210733851061 0 0.00037347936261490373 0.0039829769761859811 0 0.0014590012627359911 0.0048123586784940059 0 0.0013134967209277424 0.0038487662313730908 0 0.00037347936261490373 0.0039829769761859811 0 0.00070884524197464013 0.0053117472517855788 0 0.0014590012627359911 0.0048123586784940059 0 0.00037347936261490373 0.0039829769761859811 0 0.0013134967209277424 0.0038487662313730908 0 0.00037347936261490373 0.0039829769761859811 0 0.00077577176297477588 0.002988072203855194 0 0.0013134967209277424 0.0038487662313730908 0 0.0016325841661114797 0.0032330865761248666 0 0.00077577176297477588 0.002988072203855194 0 -0.00080983572516052295 0.0042926210733851061 0 0.00037347936261490373 0.0039829769761859811 0 -0.00087165652893050807 0.0026526046752636447 0 0.00037347936261490373 0.0039829769761859811 0 0.00077577176297477588 0.002988072203855194 0 -0.00087165652893050807 0.0026526046752636447 0 0.00077577176297477588 0.002988072203855194 0 -0.00087165652893050807 0.0026526046752636447 0 0.00027131603935896191 0.0020836307932636678 0 -0.00087165652893050807 0.0026526046752636447 0 0.00027131603935896191 0.0020836307932636678 0 -0.0004497072664830556 0.0012465445930973753 0 0.00077577176297477588 0.002988072203855194 0 0.0011334944160359972 0.0022402953349501416 0 0.00027131603935896191 0.0020836307932636678 0 0.0015121265037680042 0.0026939025003710863 0 0.00077577176297477588 0.002988072203855194 0 0.0011334944160359972 0.0022402953349501416 0 0.00027131603935896191 0.0020836307932636678 0 0.00093269525810307362 0.0017238086348893035 0 0.00057024983596317921 0.0011312567469661703 0 0.0015414108279221046 0.0016819196798588949 0 0.0011334944160359972 0.0022402953349501416 0 0.00093269525810307362 0.0017238086348893035 0 0.0011334944160359972 0.0022402953349501416 0 0.00027131603935896191 0.0020836307932636678 0 0.00093269525810307362 0.0017238086348893035 0 -3.9435270131971612e-05 -0.00026278102130532525 0 0.00057024983596317921 0.0011312567469661703 0 0.0012629862953376422 0.00041775191933753362 0 0.00093269525810307362 0.0017238086348893035 0 0.0012501625379514483 0.001291854270282531 0 0.00057024983596317921 0.0011312567469661703 0 0.0015414108279221046 0.0016819196798588949 0 0.00093269525810307362 0.0017238086348893035 0 0.0012501625379514483 0.001291854270282531 0 0.0012501625379514483 0.001291854270282531 0 0.00057024983596317921 0.0011312567469661703 0 0.0012629862953376422 0.00041775191933753362 0 0.0017109060259164997 0.0011190953384390791 0 0.0012501625379514483 0.001291854270282531 0 0.0012629862953376422 0.00041775191933753362 0 -3.9435270131971612e-05 -0.00026278102130532525 0 0.00057024983596317921 0.0011312567469661703 0 -0.0004497072664830556 0.0012465445930973753 0 -0.00087165652893050807 0.0026526046752636447 0 -0.0004497072664830556 0.0012465445930973753 0 -0.0017976132034127723 0.00089932386007241373 0 -3.9435270131971612e-05 -0.00026278102130532525 0 -0.0004497072664830556 0.0012465445930973753 0 -0.0017976132034127723 0.00089932386007241373 0 0.00027131603935896191 0.0020836307932636678 0 0.00057024983596317921 0.0011312567469661703 0 -0.0004497072664830556 0.0012465445930973753 0 -0.002960759464713387 0.00057758331657405473 0 -0.0017976132034127723 0.00089932386007241373 0 -0.0024470483581598289 0.0019184773091158094 0 -0.002960759464713387 0.00057758331657405473 0 -0.0036111429551229286 0.002189751386663785 0 -0.0024470483581598289 0.0019184773091158094 0 -0.0059580939418376203 0.0011393949315665177 0 -0.0054900398075160683 0.0014073515186363813 0 -0.0036111429551229286 0.002189751386663785 0 -0.0023154272465743934 0.0031907754864991416 0 -0.0024470483581598289 0.0019184773091158094 0 -0.00087165652893050807 0.0026526046752636447 0 -0.0017976132034127723 0.00089932386007241373 0 -0.0024470483581598289 0.0019184773091158094 0 -0.0023154272465743934 0.0031907754864991416 0 -0.00087165652893050807 0.0026526046752636447 0 -0.0024470483581598289 0.0019184773091158094 0 0.003781362200741982 0.0033833601824040708 0 0.0037138374274473343 0.0033796327421093128 0 0.0037280169921157015 0.0034533526238222762 0 0.007641151783657053 0.002373113650038304 0 0.0065763982794968317 0.0026480920744124197 0 0.011351827365753683 0.0013676643025284873 0 0.011132049363150279 0.0011669131269495441 0 0.011142336728551028 0.0013636857084431755 0 0.011351827365753683 0.0013676643025284873 0 0.011361359642804301 0.0015548618026317411 0 0.011142336728551028 0.0013636857084431755 0 0.011361359642804301 0.0015548618026317411 0 0.011142336728551028 0.0013636857084431755 0 0.011115713240787565 0.0015293370077066307 0 0.007641151783657053 0.002373113650038304 0 0.0078396758258604173 0.0023618882483833607 0 0.003781362200741982 0.0033833601824040708 0 0.0037425518213343532 0.0033090693854814627 0 0.0037138374274473343 0.0033796327421093128 0 0.011351827365753683 0.0013676643025284873 0 0.011361359642804301 0.0015548618026317411 0 0.011483298980738329 0.0015840882457442737 0 0.0037425518213343532 0.0033090693854814627 0 0.0036682166554966433 0.0033257432906481071 0 0.0037138374274473343 0.0033796327421093128 0 0.0036476651144363203 0.0034309725737453303 0 0.0035745644179080256 0.0033136816179945706 0 0.0035623335788206268 0.0034581648604545784 0 0.0036682166554966433 0.0033257432906481071 0 0.0036476651144363203 0.0034309725737453303 0 0.0035745644179080256 0.0033136816179945706 0 0.0036682166554966433 0.0033257432906481071 0 0.0037138374274473343 0.0033796327421093128 0 0.0036476651144363203 0.0034309725737453303 0 0.0037138374274473343 0.0033796327421093128 0 0.0036476651144363203 0.0034309725737453303 0 0.0037280169921157015 0.0034533526238222762 0 0.0036476651144363203 0.0034309725737453303 0 0.0036731244141210684 0.0035186376720351248 0 0.0037280169921157015 0.0034533526238222762 0 0.0036476651144363203 0.0034309725737453303 0 0.0036042993610120437 0.0035051970710242544 0 0.0035623335788206268 0.0034581648604545784 0 0.0036042993610120437 0.0035051970710242544 0 0.0035289503082576081 0.0035547479171968524 0 0.0036049389207726832 0.0035541022943053092 0 0.0036476651144363203 0.0034309725737453303 0 0.0036042993610120437 0.0035051970710242544 0 0.0036731244141210684 0.0035186376720351248 0 0.0036042993610120437 0.0035051970710242544 0 0.0036731244141210684 0.0035186376720351248 0 0.0036049389207726832 0.0035541022943053092 0 0.0036731244141210684 0.0035186376720351248 0 0.0037280169921157015 0.0034533526238222762 0 0.0037432380270271959 0.0035298833993348822 0 0.003781362200741982 0.0033833601824040708 0 0.0037280169921157015 0.0034533526238222762 0 0.0038077076266485503 0.0034435446632259566 0 0.0065763982794968317 0.0026480920744124197 0 0.0025064216033566485 0.0039579984425547905 0 0.0037280169921157015 0.0034533526238222762 0 0.0038077076266485503 0.0034435446632259566 0 0.0037432380270271959 0.0035298833993348822 0 0.0011087809445491784 0.0039949126872887101 0 0.0016032252646416235 0.0044785203687309691 0 0.0016603940949241694 0.0036631914078069424 0 0.010672261296879993 0.00050648308190234218 0 0.01037411147361611 0.00078423636264100946 0 0.010111394310371084 0.00045820447786627225 0 0.0058520293481190422 0.0022435944035378475 0 0.0054340282643964826 0.0016903499821081282 0 0.010672261296879993 0.00050648308190234218 0 0.010111394310371084 0.00045820447786627225 0 0.010199548394178363 3.4384817843814483e-05 0 0.010672261296879993 0.00050648308190234218 0 0.01037411147361611 0.00078423636264100946 0 0.010699938455278127 0.00081151338253898902 0 0.01037411147361611 0.00078423636264100946 0 0.010699938455278127 0.00081151338253898902 0 0.010722311399857642 0.0010411261518522346 0 0.010672261296879993 0.00050648308190234218 0 0.010999582582147741 0.00088416595748422983 0 0.010699938455278127 0.00081151338253898902 0 0.010999582582147741 0.00088416595748422983 0 0.010699938455278127 0.00081151338253898902 0 0.010722311399857642 0.0010411261518522346 0 0.0058520293481190422 0.0022435944035378475 0 0.0065763982794968317 0.0026480920744124197 0 0.0093534855836986622 0.00041803682556292596 0 0.0095630947977115039 0.00017640998005867428 0 0.0090908716819820858 0.0002131756269010945 0 0.0093534855836986622 0.00041803682556292596 0 0.00966385463982713 0.00054661771905061343 0 0.0091706284926529914 0.00073820815042391992 0 0.00966385463982713 0.00054661771905061343 0 0.0095630947977115039 0.00017640998005867428 0 0.0098572809815343967 0.00022993591494316121 0 0.0093534855836986622 0.00041803682556292596 0 0.00966385463982713 0.00054661771905061343 0 0.0095630947977115039 0.00017640998005867428 0 0.00966385463982713 0.00054661771905061343 0 0.010111394310371084 0.00045820447786627225 0 0.0099660419005773004 0.00073938265176202284 0 0.00966385463982713 0.00054661771905061343 0 0.010111394310371084 0.00045820447786627225 0 0.0098572809815343967 0.00022993591494316121 0 0.01037411147361611 0.00078423636264100946 0 0.010111394310371084 0.00045820447786627225 0 0.0099660419005773004 0.00073938265176202284 0 0.00966385463982713 0.00054661771905061343 0 0.009793643093464869 0.0011018650663059612 0 0.0099660419005773004 0.00073938265176202284 0 0.01037411147361611 0.00078423636264100946 0 0.009793643093464869 0.0011018650663059612 0 0.0099660419005773004 0.00073938265176202284 0 0.01037411147361611 0.00078423636264100946 0 0.009793643093464869 0.0011018650663059612 0 0.010024083701373424 0.0015827042579231883 0 0.00966385463982713 0.00054661771905061343 0 0.009793643093464869 0.0011018650663059612 0 0.0091706284926529914 0.00073820815042391992 0 0.009793643093464869 0.0011018650663059612 0 0.0091706284926529914 0.00073820815042391992 0 0.0092489296305908828 0.0012645182360663701 0 0.009793643093464869 0.0011018650663059612 0 0.009413211685408979 0.0017387686354244584 0 0.0092489296305908828 0.0012645182360663701 0 0.009793643093464869 0.0011018650663059612 0 0.010024083701373424 0.0015827042579231883 0 0.009413211685408979 0.0017387686354244584 0 0.010024083701373424 0.0015827042579231883 0 0.009413211685408979 0.0017387686354244584 0 0.0097573465471220734 0.0022206088710993938 0 0.010490215700655125 0.0012342896965724442 0 0.010749280730049347 0.0015620289160345876 0 0.01039763872696659 0.0016758746837723635 0 0.010254760372735415 0.0013879039471628527 0 0.010076612309493577 0.0019461977152443258 0 0.010999582582147741 0.00088416595748422983 0 0.011007432861370646 0.001203581475654297 0 0.010722311399857642 0.0010411261518522346 0 0.0065763982794968317 0.0026480920744124197 0 0.011267390424541553 0.00088516370176008028 0 0.011007432861370646 0.001203581475654297 0 0.010722311399857642 0.0010411261518522346 0 0.010810677370351346 0.0013046753782001122 0 0.010380019781395168 0.00080038525297766575 0 0.010254760372735415 0.0013879039471628527 0 0.01037411147361611 0.00078423636264100946 0 0.010490215700655125 0.0012342896965724442 0 0.010722311399857642 0.0010411261518522346 0 0.010490215700655125 0.0012342896965724442 0 0.010722311399857642 0.0010411261518522346 0 0.010810677370351346 0.0013046753782001122 0 0.010490215700655125 0.0012342896965724442 0 0.010810677370351346 0.0013046753782001122 0 0.010749280730049347 0.0015620289160345876 0 0.011267390424541553 0.00088516370176008028 0 0.01106555863644554 0.0016668959744703313 0 0.010810677370351346 0.0013046753782001122 0 0.011115713240787565 0.0015293370077066307 0 0.010749280730049347 0.0015620289160345876 0 0.011007432861370646 0.001203581475654297 0 0.010810677370351346 0.0013046753782001122 0 0.011115713240787565 0.0015293370077066307 0 0.011115713240787565 0.0015293370077066307 0 0.010749280730049347 0.0015620289160345876 0 0.011050139686445056 0.0018039765756756 0 0.011115713240787565 0.0015293370077066307 0 0.011050139686445056 0.0018039765756756 0 0.01146699649102596 0.0017438165291498522 0 0.010749280730049347 0.0015620289160345876 0 0.010672461934176822 0.0018726839146915543 0 0.011050139686445056 0.0018039765756756 0 0.010672461934176822 0.0018726839146915543 0 0.010933531837566861 0.0021008236254257033 0 0.011050139686445056 0.0018039765756756 0 0.010672461934176822 0.0018726839146915543 0 0.010933531837566861 0.0021008236254257033 0 0.010688089925947844 0.0021646180959704387 0 0.010933531837566861 0.0021008236254257033 0 0.011050139686445056 0.0018039765756756 0 0.011335527692136001 0.0021375375145801768 0 0.011050139686445056 0.0018039765756756 0 0.011335527692136001 0.0021375375145801768 0 0.01146699649102596 0.0017438165291498522 0 0.0097573465471220734 0.0022206088710993938 0 0.0092212067514385373 0.0021057194259783705 0 0.0092215352741348636 0.0024624775504503908 0 0.009413211685408979 0.0017387686354244584 0 0.0097573465471220734 0.0022206088710993938 0 0.0092212067514385373 0.0021057194259783705 0 0.010749280730049347 0.0015620289160345876 0 0.010672461934176822 0.0018726839146915543 0 0.01039763872696659 0.0016758746837723635 0 0.010672461934176822 0.0018726839146915543 0 0.01039763872696659 0.0016758746837723635 0 0.010474012196438986 0.002223985207564276 0 0.010672461934176822 0.0018726839146915543 0 0.010474012196438986 0.002223985207564276 0 0.010688089925947844 0.0021646180959704387 0 0.010076612309493577 0.0019461977152443258 0 0.0098457426628315581 0.0025250604546444874 0 0.01039763872696659 0.0016758746837723635 0 0.01012727896261607 0.0022496918446221689 0 0.010474012196438986 0.002223985207564276 0 0.0097573465471220734 0.0022206088710993938 0 0.009584971836079861 0.0027541754171409548 0 0.0092215352741348636 0.0024624775504503908 0 0.009584971836079861 0.0027541754171409548 0 0.0092215352741348636 0.0024624775504503908 0 0.009298657262648528 0.0027009203834553849 0 0.0094194003839351368 0.0028245431639061865 0 0.009584971836079861 0.0027541754171409548 0 0.0094436747853459298 0.0029884950637597153 0 0.0094194003839351368 0.0028245431639061865 0 0.009584971836079861 0.0027541754171409548 0 0.009298657262648528 0.0027009203834553849 0 0.010474012196438986 0.002223985207564276 0 0.010561494390847382 0.0027074473922023231 0 0.010825854076912949 0.0024109557985525659 0 0.010474012196438986 0.002223985207564276 0 0.010561494390847382 0.0027074473922023231 0 0.010274811486707626 0.0025691561655618151 0 0.01012727896261607 0.0022496918446221689 0 0.010474012196438986 0.002223985207564276 0 0.010274811486707626 0.0025691561655618151 0 0.010333290469226751 0.0029404702406179862 0 0.010274811486707626 0.0025691561655618151 0 0.010042493359878701 0.0032209358857795147 0 0.010561494390847382 0.0027074473922023231 0 0.010508147281266901 0.0030429678346131656 0 0.010794398193827227 0.0029744466937467306 0 0.010561494390847382 0.0027074473922023231 0 0.010333290469226751 0.0029404702406179862 0 0.010508147281266901 0.0030429678346131656 0 0.010561494390847382 0.0027074473922023231 0 0.010333290469226751 0.0029404702406179862 0 0.010274811486707626 0.0025691561655618151 0 0.01012727896261607 0.0022496918446221689 0 0.010274811486707626 0.0025691561655618151 0 0.009554831685997028 0.003252254128971315 0 0.010274811486707626 0.0025691561655618151 0 0.009554831685997028 0.003252254128971315 0 0.009661431238405415 0.0034665448026341742 0 0.010242757770338395 0.0025944430873414762 0 0.0098556762253529332 0.003327881649884042 0 0.0098457426628315581 0.0025250604546444874 0 0.0095762281629100023 0.0032351257756618418 0 0.009584971836079861 0.0027541754171409548 0 0.0094436747853459298 0.0029884950637597153 0 0.009554831685997028 0.003252254128971315 0 0.0094436747853459298 0.0029884950637597153 0 0.0093076743389790741 0.003152542210315691 0 0.009554831685997028 0.003252254128971315 0 0.0094194003839351368 0.0028245431639061865 0 0.0094436747853459298 0.0029884950637597153 0 0.0093098063778904814 0.0029802904266621271 0 0.010933531837566861 0.0021008236254257033 0 0.011117393559119193 0.0023407650789457105 0 0.011335527692136001 0.0021375375145801768 0 0.011117393559119193 0.0023407650789457105 0 0.011379110686860181 0.0024528401061216531 0 0.011172812121628737 0.0026227857298190618 0 0.011379110686860181 0.0024528401061216531 0 0.011335527692136001 0.0021375375145801768 0 0.011684183555335789 0.0024527329624801962 0 0.011117393559119193 0.0023407650789457105 0 0.011379110686860181 0.0024528401061216531 0 0.011335527692136001 0.0021375375145801768 0 0.010933531837566861 0.0021008236254257033 0 0.011117393559119193 0.0023407650789457105 0 0.010825854076912949 0.0024109557985525659 0 0.010933531837566861 0.0021008236254257033 0 0.010688089925947844 0.0021646180959704387 0 0.010825854076912949 0.0024109557985525659 0 0.010474012196438986 0.002223985207564276 0 0.010688089925947844 0.0021646180959704387 0 0.010825854076912949 0.0024109557985525659 0 0.011117393559119193 0.0023407650789457105 0 0.010825854076912949 0.0024109557985525659 0 0.011172812121628737 0.0026227857298190618 0 0.010825854076912949 0.0024109557985525659 0 0.010894662538815278 0.0027297991780916779 0 0.011172812121628737 0.0026227857298190618 0 0.010561494390847382 0.0027074473922023231 0 0.010825854076912949 0.0024109557985525659 0 0.010894662538815278 0.0027297991780916779 0 0.010561494390847382 0.0027074473922023231 0 0.010894662538815278 0.0027297991780916779 0 0.010794398193827227 0.0029744466937467306 0 0.010894662538815278 0.0027297991780916779 0 0.011079473859916047 0.0029299572702142481 0 0.010794398193827227 0.0029744466937467306 0 0.010894662538815278 0.0027297991780916779 0 0.011079473859916047 0.0029299572702142481 0 0.011172812121628737 0.0026227857298190618 0 0.011079473859916047 0.0029299572702142481 0 0.011361912377663767 0.0028868524027451012 0 0.011172812121628737 0.0026227857298190618 0 0.011379110686860181 0.0024528401061216531 0 0.011172812121628737 0.0026227857298190618 0 0.011585109786971777 0.0027223370047193183 0 0.011361912377663767 0.0028868524027451012 0 0.011172812121628737 0.0026227857298190618 0 0.011585109786971777 0.0027223370047193183 0 0.011361912377663767 0.0028868524027451012 0 0.011585109786971777 0.0027223370047193183 0 0.011729192450497822 0.0030350596216016305 0 0.011933616125679263 0.0027456303057852029 0 0.011585109786971777 0.0027223370047193183 0 0.011729192450497822 0.0030350596216016305 0 0.011933616125679263 0.0027456303057852029 0 0.011729192450497822 0.0030350596216016305 0 0.012066579086372892 0.0030429327417934499 0 0.011933616125679263 0.0027456303057852029 0 0.011980469050965373 0.0024859298549664019 0 0.011684183555335789 0.0024527329624801962 0 0.011933616125679263 0.0027456303057852029 0 0.011585109786971777 0.0027223370047193183 0 0.011684183555335789 0.0024527329624801962 0 0.011379110686860181 0.0024528401061216531 0 0.011585109786971777 0.0027223370047193183 0 0.011684183555335789 0.0024527329624801962 0 0.011933616125679263 0.0027456303057852029 0 0.01225619608689558 0.002763105587951978 0 0.012066579086372892 0.0030429327417934499 0 0.011933616125679263 0.0027456303057852029 0 0.01225619608689558 0.002763105587951978 0 0.011980469050965373 0.0024859298549664019 0 0.01225619608689558 0.002763105587951978 0 0.011980469050965373 0.0024859298549664019 0 0.012227450825702351 0.0022672905293760507 0 0.013523620691196333 0.0024618131755472302 0 0.011681944043824556 0.0024850462757757142 0 0.01432947018096398 0.0025268213104143551 0 0.01453169303996968 0.0016630612081478886 0 0.014674013609500467 0.0021192251477364617 0 0.01225619608689558 0.002763105587951978 0 0.012227450825702351 0.0022672905293760507 0 0.012347254147761135 0.002117004686232697 0 0.012227450825702351 0.0022672905293760507 0 0.011800241248793378 0.0021635081547816321 0 0.012406635682488511 0.0020750350261539347 0 0.011980469050965373 0.0024859298549664019 0 0.012227450825702351 0.0022672905293760507 0 0.011800241248793378 0.0021635081547816321 0 0.012158816122452098 0.0021403615033886892 0 0.011681944043824556 0.0024850462757757142 0 0.011335527692136001 0.0021375375145801768 0 0.011684183555335789 0.0024527329624801962 0 0.011800241248793378 0.0021635081547816321 0 0.011980469050965373 0.0024859298549664019 0 0.011684183555335789 0.0024527329624801962 0 0.011800241248793378 0.0021635081547816321 0 0.011335527692136001 0.0021375375145801768 0 0.011800241248793378 0.0021635081547816321 0 0.01146699649102596 0.0017438165291498522 0 0.011558697709613059 0.0015912568643524883 0 0.011681944043824556 0.0024850462757757142 0 0.011800241248793378 0.0021635081547816321 0 0.01146699649102596 0.0017438165291498522 0 0.012406635682488511 0.0020750350261539347 0 0.011465995468676504 0.0017016575993844126 0 0.011469257607606739 0.0017193051862782987 0 0.011468983294140454 0.0017235387292654854 0 0.01146699649102596 0.0017438165291498522 0 0.011465995468676504 0.0017016575993844126 0 0.011468983294140454 0.0017235387292654854 0 0.011465995468676504 0.0017016575993844126 0 0.01147569079489579 0.0016900576130826773 0 0.011469257607606739 0.0017193051862782987 0 0.011361359642804301 0.0015548618026317411 0 0.011483298980738329 0.0015840882457442737 0 0.011465995468676504 0.0017016575993844126 0 0.011483298980738329 0.0015840882457442737 0 0.011465995468676504 0.0017016575993844126 0 0.01147569079489579 0.0016900576130826773 0 0.011361359642804301 0.0015548618026317411 0 0.01146699649102596 0.0017438165291498522 0 0.011465995468676504 0.0017016575993844126 0 0.011361359642804301 0.0015548618026317411 0 0.011115713240787565 0.0015293370077066307 0 0.01146699649102596 0.0017438165291498522 0 0.0053312368996666429 0.0037828666496767089 0 0.0030869330111577393 0.0035109210487693004 0 0.0030345209507464709 0.003919778984365495 0 0.0032895695337209082 0.0039520546664963416 0 0.0033346132004691449 0.0035977412465313806 0 0.0036682166554966433 0.0033257432906481071 0 0.0036813696431359831 0.0032334454453727072 0 0.0035745644179080256 0.0033136816179945706 0 0.0037425518213343532 0.0033090693854814627 0 0.0036682166554966433 0.0033257432906481071 0 0.0036813696431359831 0.0032334454453727072 0 0.0078396758258604173 0.0023618882483833607 0 0.0053312368996666429 0.0037828666496767089 0 0.011483298980738329 0.0015840882457442737 0 0.01147569079489579 0.0016900576130826773 0 0.011485414951599774 0.0017115553949001484 0 0.0054840020110056712 0.0062398343438694239 0 0.0063349598426976619 0.0053695883310036366 0 0.0053106668812438898 0.0053971284254878595 0 0.0053312368996666429 0.0037828666496767089 0 0.011681944043824556 0.0024850462757757142 0 0.01147569079489579 0.0016900576130826773 0 0.011485414951599774 0.0017115553949001484 0 0.011469257607606739 0.0017193051862782987 0 0.011485414951599774 0.0017115553949001484 0 0.011469257607606739 0.0017193051862782987 0 0.011466938774523729 0.0017283573186421979 0 0.011675414293263036 0.0020394386964995167 0 0.011681944043824556 0.0024850462757757142 0 0.0053312368996666429 0.0037828666496767089 0 0.0038508945050816238 0.0049152984739670542 0 0.0030345209507464709 0.003919778984365495 0 0.003276443679202884 0.0042549186743760514 0 0.0032895695337209082 0.0039520546664963416 0 0.0054840020110056712 0.0062398343438694239 0 0.0053106668812438898 0.0053971284254878595 0 0.0045952731013432996 0.0052696087861810667 0 0.0053106668812438898 0.0053971284254878595 0 0.0048545022157272669 0.004730596937638938 0 0.0045952731013432996 0.0052696087861810667 0 0.015448225870159212 0.0021451669412068087 0 0.014946279499991298 0.0021694631568978202 0 0.015158044426124593 0.0023854802285130927 0 0.0063349598426976619 0.0053695883310036366 0 0.0053106668812438898 0.0053971284254878595 0 0.0048545022157272669 0.004730596937638938 0 0.015448225870159212 0.0021451669412068087 0 0.014740412716805599 0.001888550278198866 0 0.014946279499991298 0.0021694631568978202 0 0.011681944043824556 0.0024850462757757142 0 0.0099128940111594468 0.0035602934159269205 0 0.01453169303996968 0.0016630612081478886 0 0.015448225870159212 0.0021451669412068087 0 0.014740412716805599 0.001888550278198866 0 0.01453169303996968 0.0016630612081478886 0 0.014740412716805599 0.001888550278198866 0 0.014674013609500467 0.0021192251477364617 0 0.014740412716805599 0.001888550278198866 0 0.014946279499991298 0.0021694631568978202 0 0.014674013609500467 0.0021192251477364617 0 0.01432947018096398 0.0025268213104143551 0 0.014674013609500467 0.0021192251477364617 0 0.014825330910306658 0.0024491694820534477 0 0.014946279499991298 0.0021694631568978202 0 0.014825330910306658 0.0024491694820534477 0 0.015158044426124593 0.0023854802285130927 0 0.014825330910306658 0.0024491694820534477 0 0.015101654855463742 0.0026583099741316401 0 0.015158044426124593 0.0023854802285130927 0 0.014946279499991298 0.0021694631568978202 0 0.014674013609500467 0.0021192251477364617 0 0.014825330910306658 0.0024491694820534477 0 0.014825330910306658 0.0024491694820534477 0 0.015101654855463742 0.0026583099741316401 0 0.014758379318266301 0.0028322557642003216 0 0.01432947018096398 0.0025268213104143551 0 0.014825330910306658 0.0024491694820534477 0 0.014758379318266301 0.0028322557642003216 0 0.015448225870159212 0.0021451669412068087 0 0.015453834803126508 0.0026413713624360898 0 0.015904432341257865 0.0028326196172432667 0 0.015448225870159212 0.0021451669412068087 0 0.015158044426124593 0.0023854802285130927 0 0.015453834803126508 0.0026413713624360898 0 0.015101654855463742 0.0026583099741316401 0 0.015453834803126508 0.0026413713624360898 0 0.015430592122550248 0.0029846606333303501 0 0.015101654855463742 0.0026583099741316401 0 0.015158044426124593 0.0023854802285130927 0 0.015453834803126508 0.0026413713624360898 0 0.0099128940111594468 0.0035602934159269205 0 0.010225207291799474 0.0036598251934939333 0 0.0048545022157272669 0.004730596937638938 0 0.0038111770381438052 0.004644369219647948 0 0.0036895122507883079 0.0045288890221232151 0 0.015453834803126508 0.0026413713624360898 0 0.015904432341257865 0.0028326196172432667 0 0.015691261128763602 0.0029199780003277545 0 0.015448225870159212 0.0021451669412068087 0 0.015904432341257865 0.0028326196172432667 0 0.016375808457745871 0.0027023218896756389 0 0.0035996542117552426 0.0043365199269082329 0 0.003276443679202884 0.0042549186743760514 0 0.0038111770381438052 0.004644369219647948 0 0.0038508945050816238 0.0049152984739670542 0 0.0038137447572828146 0.0045940637517594756 0 0.0048545022157272669 0.004730596937638938 0 0.0045952731013432996 0.0052696087861810667 0 0.0038111770381438052 0.004644369219647948 0 0.0035996542117552426 0.0043365199269082329 0 0.003276443679202884 0.0042549186743760514 0 0.0034621285151549388 0.004094069164405769 0 0.0035996542117552426 0.0043365199269082329 0 0.003673971243222949 0.0042609187811589039 0 0.0034621285151549388 0.004094069164405769 0 0.003673971243222949 0.0042609187811589039 0 0.0038444631418750189 0.0043812239217522553 0 0.0037906095937744601 0.0041873400663484574 0 0.003673971243222949 0.0042609187811589039 0 0.0037514088199229346 0.0044383415508859655 0 0.0038444631418750189 0.0043812239217522553 0 0.0035996542117552426 0.0043365199269082329 0 0.003673971243222949 0.0042609187811589039 0 0.0037514088199229346 0.0044383415508859655 0 0.0035996542117552426 0.0043365199269082329 0 0.0037514088199229346 0.0044383415508859655 0 0.0038111770381438052 0.004644369219647948 0 0.0037514088199229346 0.0044383415508859655 0 0.0038444631418750189 0.0043812239217522553 0 0.0038245222838419139 0.0045354277483782585 0 0.0038245222838419139 0.0045354277483782585 0 0.0036895122507883079 0.0045288890221232151 0 0.0039937477477038187 0.0046412758236869956 0 0.0037514088199229346 0.0044383415508859655 0 0.0038245222838419139 0.0045354277483782585 0 0.0038111770381438052 0.004644369219647948 0 0.0038245222838419139 0.0045354277483782585 0 0.0038111770381438052 0.004644369219647948 0 0.0036895122507883079 0.0045288890221232151 0 0.0036895122507883079 0.0045288890221232151 0 0.0039937477477038187 0.0046412758236869956 0 0.0041997850707716613 0.0050627851456826432 0 0.0039937477477038187 0.0046412758236869956 0 0.0043189860258883534 0.0046280813909125394 0 0.0041997850707716613 0.0050627851456826432 0 0.0039937477477038187 0.0046412758236869956 0 0.0043189860258883534 0.0046280813909125394 0 0.0040276801639637884 0.0044649192677791247 0 0.0038245222838419139 0.0045354277483782585 0 0.0039937477477038187 0.0046412758236869956 0 0.0040276801639637884 0.0044649192677791247 0 0.0043189860258883534 0.0046280813909125394 0 0.0046547951445679425 0.0046242833652170535 0 0.0046660228877166048 0.0049312140091745402 0 0.0043189860258883534 0.0046280813909125394 0 0.0044524094662383553 0.0043656019194594194 0 0.0046547951445679425 0.0046242833652170535 0 0.0043189860258883534 0.0046280813909125394 0 0.0042008368894339496 0.0043664174684215637 0 0.0040276801639637884 0.0044649192677791247 0 0.0043189860258883534 0.0046280813909125394 0 0.0042008368894339496 0.0043664174684215637 0 0.0044524094662383553 0.0043656019194594194 0 0.0042008368894339496 0.0043664174684215637 0 0.0039890889612626919 0.004204458484301914 0 0.0042353551679544556 0.0041819792774789562 0 0.0042008368894339496 0.0043664174684215637 0 0.0044524094662383553 0.0043656019194594194 0 0.0042353551679544556 0.0041819792774789562 0 0.0038444631418750189 0.0043812239217522553 0 0.0038245222838419139 0.0045354277483782585 0 0.0040276801639637884 0.0044649192677791247 0 0.0042008368894339496 0.0043664174684215637 0 0.0040276801639637884 0.0044649192677791247 0 0.0039890889612626919 0.004204458484301914 0 0.0038444631418750189 0.0043812239217522553 0 0.0040276801639637884 0.0044649192677791247 0 0.0039890889612626919 0.004204458484301914 0 0.0038444631418750189 0.0043812239217522553 0 0.0039890889612626919 0.004204458484301914 0 0.0037906095937744601 0.0041873400663484574 0 0.0039890889612626919 0.004204458484301914 0 0.0037933530326379793 0.0039946617643671287 0 0.0037906095937744601 0.0041873400663484574 0 0.0039890889612626919 0.004204458484301914 0 0.0039410269347345166 0.0039910692107238705 0 0.004101481514290465 0.0040415806900288851 0 0.0039410269347345166 0.0039910692107238705 0 0.004101481514290465 0.0040415806900288851 0 0.0040185130493257679 0.0038998458995963543 0 0.0039890889612626919 0.004204458484301914 0 0.0039410269347345166 0.0039910692107238705 0 0.0037933530326379793 0.0039946617643671287 0 0.0039410269347345166 0.0039910692107238705 0 0.0037933530326379793 0.0039946617643671287 0 0.0038603182952799265 0.0038459607508772994 0 0.0042353551679544556 0.0041819792774789562 0 0.0042565836060456863 0.0040398361821259087 0 0.0044431760523194622 0.0040823204221085803 0 0.0044524094662383553 0.0043656019194594194 0 0.0042353551679544556 0.0041819792774789562 0 0.0044431760523194622 0.0040823204221085803 0 0.0039890889612626919 0.004204458484301914 0 0.0042353551679544556 0.0041819792774789562 0 0.004101481514290465 0.0040415806900288851 0 0.0042353551679544556 0.0041819792774789562 0 0.004101481514290465 0.0040415806900288851 0 0.0042565836060456863 0.0040398361821259087 0 0.004101481514290465 0.0040415806900288851 0 0.004179343557410526 0.0039360205107747907 0 0.0040185130493257679 0.0038998458995963543 0 0.004101481514290465 0.0040415806900288851 0 0.0042565836060456863 0.0040398361821259087 0 0.004179343557410526 0.0039360205107747907 0 0.0042565836060456863 0.0040398361821259087 0 0.004179343557410526 0.0039360205107747907 0 0.0043054018404780911 0.0039569758419998489 0 0.0042565836060456863 0.0040398361821259087 0 0.0043054018404780911 0.0039569758419998489 0 0.0044431760523194622 0.0040823204221085803 0 0.0040791317158245972 0.0037386458669729393 0 0.0043108237697005248 0.0037643249406225719 0 0.0038438254882474307 0.0035661394699552473 0 0.0042248577266576102 0.0038621756436266696 0 0.0040791317158245972 0.0037386458669729393 0 0.0044190053368597156 0.0038486386041540069 0 0.0043054018404780911 0.0039569758419998489 0 0.0042248577266576102 0.0038621756436266696 0 0.0044190053368597156 0.0038486386041540069 0 0.004179343557410526 0.0039360205107747907 0 0.0042248577266576102 0.0038621756436266696 0 0.0040907622789604905 0.0038413528430573827 0 0.004179343557410526 0.0039360205107747907 0 0.0043054018404780911 0.0039569758419998489 0 0.0042248577266576102 0.0038621756436266696 0 0.0042248577266576102 0.0038621756436266696 0 0.0040907622789604905 0.0038413528430573827 0 0.0040791317158245972 0.0037386458669729393 0 0.004179343557410526 0.0039360205107747907 0 0.0040907622789604905 0.0038413528430573827 0 0.0040185130493257679 0.0038998458995963543 0 0.0040907622789604905 0.0038413528430573827 0 0.0040185130493257679 0.0038998458995963543 0 0.0039546251950482343 0.003773863329357573 0 0.0039546251950482343 0.003773863329357573 0 0.0040791317158245972 0.0037386458669729393 0 0.0038837748923606732 0.0036580374064270438 0 0.0040907622789604905 0.0038413528430573827 0 0.0039546251950482343 0.003773863329357573 0 0.0040791317158245972 0.0037386458669729393 0 0.0040791317158245972 0.0037386458669729393 0 0.0044190053368597156 0.0038486386041540069 0 0.0043108237697005248 0.0037643249406225719 0 0.0037933530326379793 0.0039946617643671287 0 0.0038603182952799265 0.0038459607508772994 0 0.0036915603162383211 0.0037649818292536915 0 0.0039410269347345166 0.0039910692107238705 0 0.0040185130493257679 0.0038998458995963543 0 0.0038603182952799265 0.0038459607508772994 0 0.0040185130493257679 0.0038998458995963543 0 0.0039546251950482343 0.003773863329357573 0 0.0038603182952799265 0.0038459607508772994 0 0.0039546251950482343 0.003773863329357573 0 0.0038603182952799265 0.0038459607508772994 0 0.0037977493438767513 0.0037176888182082982 0 0.0039546251950482343 0.003773863329357573 0 0.0037977493438767513 0.0037176888182082982 0 0.0038837748923606732 0.0036580374064270438 0 0.0038603182952799265 0.0038459607508772994 0 0.0037977493438767513 0.0037176888182082982 0 0.0036915603162383211 0.0037649818292536915 0 0.0037977493438767513 0.0037176888182082982 0 0.0036915603162383211 0.0037649818292536915 0 0.0036025828786906671 0.0035414209761620687 0 0.0036915603162383211 0.0037649818292536915 0 0.0036248396134159256 0.0038720199707716436 0 0.0035292904657692973 0.0036539975134846948 0 0.0037933530326379793 0.0039946617643671287 0 0.0036915603162383211 0.0037649818292536915 0 0.0036248396134159256 0.0038720199707716436 0 0.0036248396134159256 0.0038720199707716436 0 0.0034723560875767898 0.003871645457114633 0 0.0035292904657692973 0.0036539975134846948 0 0.0034723560875767898 0.003871645457114633 0 0.0033346132004691449 0.0035977412465313806 0 0.0035292904657692973 0.0036539975134846948 0 0.0034723560875767898 0.003871645457114633 0 0.0032895695337209082 0.0039520546664963416 0 0.0033346132004691449 0.0035977412465313806 0 0.0034723560875767898 0.003871645457114633 0 0.0032895695337209082 0.0039520546664963416 0 0.0034621285151549388 0.004094069164405769 0 0.0034723560875767898 0.003871645457114633 0 0.0034621285151549388 0.004094069164405769 0 0.0036580419648428227 0.0040700132052803014 0 0.003276443679202884 0.0042549186743760514 0 0.0032895695337209082 0.0039520546664963416 0 0.0034621285151549388 0.004094069164405769 0 0.003673971243222949 0.0042609187811589039 0 0.0034621285151549388 0.004094069164405769 0 0.0036580419648428227 0.0040700132052803014 0 0.0037933530326379793 0.0039946617643671287 0 0.0037906095937744601 0.0041873400663484574 0 0.0036580419648428227 0.0040700132052803014 0 0.003673971243222949 0.0042609187811589039 0 0.0037906095937744601 0.0041873400663484574 0 0.0036580419648428227 0.0040700132052803014 0 0.0037933530326379793 0.0039946617643671287 0 0.0036248396134159256 0.0038720199707716436 0 0.0036580419648428227 0.0040700132052803014 0 0.0036248396134159256 0.0038720199707716436 0 0.0034723560875767898 0.003871645457114633 0 0.0036580419648428227 0.0040700132052803014 0 0.0080404294024936946 0.0059252683890109025 0 0.008022176820825927 0.0064904910821671985 0 0.0072780323979362849 0.006223708503305417 0 0.010975091737445077 0.0070395080675694013 0 0.010710381520894601 0.0066183733221271334 0 0.014035080782096278 0.0075934295335268742 0 0.014277510325609149 0.0072825792135598434 0 0.014347152489516252 0.007124018748648527 0 0.014035080782096278 0.0075934295335268742 0 0.014277510325609149 0.0072825792135598434 0 0.014147073755745237 0.0071649330819836187 0 0.014277510325609149 0.0072825792135598434 0 0.014147073755745237 0.0071649330819836187 0 0.014309263319210459 0.0070198709489947622 0 0.014277510325609149 0.0072825792135598434 0 0.014322347894653562 0.0071790561605780834 0 0.014257754035650794 0.0072223114116003748 0 0.014277510325609149 0.0072825792135598434 0 0.014322347894653562 0.0071790561605780834 0 0.014309263319210459 0.0070198709489947622 0 0.014322347894653562 0.0071790561605780834 0 0.014248125970111904 0.0072913681782085602 0 0.014362101357142779 0.0072419503218920682 0 0.014322347894653562 0.0071790561605780834 0 0.014257754035650794 0.0072223114116003748 0 0.014248125970111904 0.0072913681782085602 0 0.014277510325609149 0.0072825792135598434 0 0.014257754035650794 0.0072223114116003748 0 0.014347152489516252 0.007124018748648527 0 0.014347152489516252 0.007124018748648527 0 0.014077298372690714 0.0070618388953003347 0 0.013853573047561022 0.0064185935398376262 0 0.014257754035650794 0.0072223114116003748 0 0.014077298372690714 0.0070618388953003347 0 0.014248125970111904 0.0072913681782085602 0 0.014257754035650794 0.0072223114116003748 0 0.014347152489516252 0.007124018748648527 0 0.014077298372690714 0.0070618388953003347 0 0.013667730825935238 0.0057939469391297621 0 0.0087317133710962305 0.0054860019214633023 0 0.014077298372690714 0.0070618388953003347 0 0.014248125970111904 0.0072913681782085602 0 0.013562865081083206 0.0069619372887439104 0 0.014077298372690714 0.0070618388953003347 0 0.013562865081083206 0.0069619372887439104 0 0.013853573047561022 0.0064185935398376262 0 0.0052483634196362778 0.0047788193807825488 0 0.0049154949196967539 0.0047766965677316928 0 0.0048615833323515188 0.0042845874937567242 0 0.014248125970111904 0.0072913681782085602 0 0.014195401949851633 0.0073792635967014431 0 0.013562865081083206 0.0069619372887439104 0 0.01360024168680163 0.0063206751909239993 0 0.013667730825935238 0.0057939469391297621 0 0.0052483634196362778 0.0047788193807825488 0 0.0049154949196967539 0.0047766965677316928 0 0.0050428599786922768 0.0050930075803459303 0 0.0049154949196967539 0.0047766965677316928 0 0.0046547951445679425 0.0046242833652170535 0 0.0048615833323515188 0.0042845874937567242 0 0.0049154949196967539 0.0047766965677316928 0 0.0046547951445679425 0.0046242833652170535 0 0.0046660228877166048 0.0049312140091745402 0 0.0044524094662383553 0.0043656019194594194 0 0.0046547951445679425 0.0046242833652170535 0 0.0048615833323515188 0.0042845874937567242 0 0.0044524094662383553 0.0043656019194594194 0 0.0048615833323515188 0.0042845874937567242 0 0.0044431760523194622 0.0040823204221085803 0 0.0087317133710962305 0.0054860019214633023 0 0.0083793944401473735 0.0050345669949812223 0 0.0048615833323515188 0.0042845874937567242 0 0.0044431760523194622 0.0040823204221085803 0 0.0044190053368597156 0.0038486386041540069 0 0.013562865081083206 0.0069619372887439104 0 0.012837342177393424 0.0059326438978904161 0 0.013853573047561022 0.0064185935398376262 0 0.0043054018404780911 0.0039569758419998489 0 0.0044431760523194622 0.0040823204221085803 0 0.0044190053368597156 0.0038486386041540069 0 0.0074041035399065851 0.0044226611096428335 0 0.010176659260949515 0.0062328642931238978 0 0.004455060147787294 0.004825231387455082 0 0.0056444692587327705 0.0048401684097254356 0 0.0060177829880660666 0.0056973338079713432 0 0.004455060147787294 0.004825231387455082 0 0.0052543487102623895 0.0043801993452904859 0 0.0056444692587327705 0.0048401684097254356 0 0.012837342177393424 0.0059326438978904161 0 0.012703262585998841 0.0056781775363318942 0 0.013853573047561022 0.0064185935398376262 0 0.0083793944401473735 0.0050345669949812223 0 0.0074041035399065851 0.0044226611096428335 0 0.004455060147787294 0.004825231387455082 0 0.0052543487102623895 0.0043801993452904859 0 0.0047650232726577767 0.0042976068398078776 0 0.004455060147787294 0.004825231387455082 0 0.0047650232726577767 0.0042976068398078776 0 0.0044463964754056107 0.0040540353337430559 0 0.0056444692587327705 0.0048401684097254356 0 0.0063570173607538907 0.005044033455256708 0 0.0059769465725283593 0.0038817021788815752 0 0.0052543487102623895 0.0043801993452904859 0 0.0056444692587327705 0.0048401684097254356 0 0.0059769465725283593 0.0038817021788815752 0 0.0056444692587327705 0.0048401684097254356 0 0.0063570173607538907 0.005044033455256708 0 0.0060177829880660666 0.0056973338079713432 0 0.0063570173607538907 0.005044033455256708 0 0.0060177829880660666 0.0056973338079713432 0 0.006761299074195125 0.005526646226665986 0 0.0072780323979362849 0.006223708503305417 0 0.0071932712383543174 0.0056021000193154542 0 0.006761299074195125 0.005526646226665986 0 0.0072780323979362849 0.006223708503305417 0 0.0060177829880660666 0.0056973338079713432 0 0.006761299074195125 0.005526646226665986 0 0.010710381520894601 0.0066183733221271334 0 0.010176659260949515 0.0062328642931238978 0 0.0071932712383543174 0.0056021000193154542 0 0.006761299074195125 0.005526646226665986 0 0.0072773765910676032 0.0050448125411202815 0 0.0063570173607538907 0.005044033455256708 0 0.006761299074195125 0.005526646226665986 0 0.0072773765910676032 0.0050448125411202815 0 0.0063570173607538907 0.005044033455256708 0 0.0072773765910676032 0.0050448125411202815 0 0.0059769465725283593 0.0038817021788815752 0 0.0060920468506635806 0.004969901794958786 0 0.0041848963813063281 0.0039701792627436748 0 0.0045923748551924878 0.0047703688772132271 0 0.0046743299059257932 0.0046115408157708735 0 0.0041085044108183904 0.0043860756611454402 0 0.0053130570160385528 0.0048173867127892867 0 0.0043110752510715543 0.0045765888174209776 0 0.0053306530570085848 0.004821984874496265 0 0.0046743299059257932 0.0046115408157708735 0 0.0049494144263429497 0.0048607633553258336 0 0.0045923748551924878 0.0047703688772132271 0 0.0046743299059257932 0.0046115408157708735 0 0.0049494144263429497 0.0048607633553258336 0 0.0065438228049691629 0.0055530495850678466 0 0.0060920468506635806 0.004969901794958786 0 0.0080404294024936946 0.0059252683890109025 0 0.0072780323979362849 0.006223708503305417 0 0.0074703840238399813 0.0056944599288593903 0 0.0080404294024936946 0.0059252683890109025 0 0.0072773765910676032 0.0050448125411202815 0 0.0074703840238399813 0.0056944599288593903 0 0.0051353547154740628 0.0052364893020378127 0 0.0045923748551924878 0.0047703688772132271 0 0.0049494144263429497 0.0048607633553258336 0 0.0071932712383543174 0.0056021000193154542 0 0.0072773765910676032 0.0050448125411202815 0 0.0074703840238399813 0.0056944599288593903 0 0.0072780323979362849 0.006223708503305417 0 0.0071932712383543174 0.0056021000193154542 0 0.0074703840238399813 0.0056944599288593903 0 0.0045563807209585338 0.0036019960933698792 0 0.0039734687307082153 0.0030155522541463783 0 0.0047686937747003864 0.0036304930939967911 0 0.0040734408632924638 0.0037475089341739687 0 0.0043698463172175796 0.0040760806166624574 0 0.0047686937747003864 0.0036304930939967911 0 0.0040734408632924638 0.0037475089341739687 0 0.0041293795011370605 0.0031017459067261364 0 0.0048251403898510407 0.0042735655071736815 0 0.0041255042633746965 0.0045125059439370535 0 0.0043698463172175796 0.0040760806166624574 0 0.0048251403898510407 0.0042735655071736815 0 0.0047686937747003864 0.0036304930939967911 0 0.0043698463172175796 0.0040760806166624574 0 0.0041255042633746965 0.0045125059439370535 0 0.0043698463172175796 0.0040760806166624574 0 0.0038670063101728818 0.0040649668034397207 0 0.0040734408632924638 0.0037475089341739687 0 0.0043698463172175796 0.0040760806166624574 0 0.0038670063101728818 0.0040649668034397207 0 0.0043110752510715543 0.0045765888174209776 0 0.0041848963813063281 0.0039701792627436748 0 0.0040734408632924638 0.0037475089341739687 0 0.0038670063101728818 0.0040649668034397207 0 0.0035558134159562158 0.0038118821346030786 0 0.0041255042633746965 0.0045125059439370535 0 0.0038670063101728818 0.0040649668034397207 0 0.0032187117672237606 0.0040974365978342971 0 0.0038670063101728818 0.0040649668034397207 0 0.0035558134159562158 0.0038118821346030786 0 0.0032187117672237606 0.0040974365978342971 0 0.0040734408632924638 0.0037475089341739687 0 0.0035819405897758085 0.0034849381545845977 0 0.0041293795011370605 0.0031017459067261364 0 0.0040734408632924638 0.0037475089341739687 0 0.0035558134159562158 0.0038118821346030786 0 0.0035819405897758085 0.0034849381545845977 0 0.0035819405897758085 0.0034849381545845977 0 0.0031047562911488786 0.0036842166492656332 0 0.0031548139262852978 0.0033990851243717 0 0.0031047562911488786 0.0036842166492656332 0 0.0032187117672237606 0.0040974365978342971 0 0.0027846692801783558 0.003560784608492342 0 0.0035558134159562158 0.0038118821346030786 0 0.0035819405897758085 0.0034849381545845977 0 0.0031047562911488786 0.0036842166492656332 0 0.0031047562911488786 0.0036842166492656332 0 0.0029600451486282704 0.0035212917093652221 0 0.0031548139262852978 0.0033990851243717 0 0.0029600451486282704 0.0035212917093652221 0 0.0029669799731132187 0.0034098305091842577 0 0.0031548139262852978 0.0033990851243717 0 0.0035558134159562158 0.0038118821346030786 0 0.0031047562911488786 0.0036842166492656332 0 0.0032187117672237606 0.0040974365978342971 0 0.0041848963813063281 0.0039701792627436748 0 0.0029153219902797903 0.0033596968392547895 0 0.0041848963813063281 0.0039701792627436748 0 0.0040520015646733293 0.0033580058459357211 0 0.0052543487102623895 0.0043801993452904859 0 0.0059769465725283593 0.0038817021788815752 0 0.0048834940726950431 0.0039481112316687786 0 0.0033545348024135073 0.0033092344395492411 0 0.0033232940064307423 0.0032944406105737882 0 0.0033163279555363419 0.0033055790570767235 0 0.0059769465725283593 0.0038817021788815752 0 0.0048834940726950431 0.0039481112316687786 0 0.004641350529072971 0.0033640121034212646 0 0.0052543487102623895 0.0043801993452904859 0 0.0047650232726577767 0.0042976068398078776 0 0.0048834940726950431 0.0039481112316687786 0 0.0048834940726950431 0.0039481112316687786 0 0.0044463964754056107 0.0040540353337430559 0 0.004258923490132285 0.0035943058988903566 0 0.0047650232726577767 0.0042976068398078776 0 0.0048834940726950431 0.0039481112316687786 0 0.0044463964754056107 0.0040540353337430559 0 0.0048834940726950431 0.0039481112316687786 0 0.004641350529072971 0.0033640121034212646 0 0.004258923490132285 0.0035943058988903566 0 0.0031047562911488786 0.0036842166492656332 0 0.0027846692801783558 0.003560784608492342 0 0.0029600451486282704 0.0035212917093652221 0 0.0027846692801783558 0.003560784608492342 0 0.0029600451486282704 0.0035212917093652221 0 0.0028690389407676985 0.0034742922808721224 0 0.0029600451486282704 0.0035212917093652221 0 0.0028690389407676985 0.0034742922808721224 0 0.0029669799731132187 0.0034098305091842577 0 0.0027846692801783558 0.003560784608492342 0 0.0028690389407676985 0.0034742922808721224 0 0.0028665323253416488 0.0034630360249372646 0 0.0028730574087702564 0.0033899219741189866 0 0.0028665323253416488 0.0034630360249372646 0 0.0028219741312737277 0.003415608041279179 0 0.0028690389407676985 0.0034742922808721224 0 0.0028730574087702564 0.0033899219741189866 0 0.0028665323253416488 0.0034630360249372646 0 0.0028730574087702564 0.0033899219741189866 0 0.0029669799731132187 0.0034098305091842577 0 0.0030280745217752402 0.0031975980769668867 0 0.0028690389407676985 0.0034742922808721224 0 0.0028730574087702564 0.0033899219741189866 0 0.0029669799731132187 0.0034098305091842577 0 0.0028730574087702564 0.0033899219741189866 0 0.0028485492982818473 0.0032612660237958209 0 0.0030280745217752402 0.0031975980769668867 0 0.0028485492982818473 0.0032612660237958209 0 0.0028716029707578799 0.003046426226992464 0 0.0030280745217752402 0.0031975980769668867 0 0.0028730574087702564 0.0033899219741189866 0 0.0028485492982818473 0.0032612660237958209 0 0.0028219741312737277 0.003415608041279179 0 0.0028485492982818473 0.0032612660237958209 0 0.0028219741312737277 0.003415608041279179 0 0.0027289325656389596 0.0032167446723819874 0 0.0028716029707578799 0.003046426226992464 0 0.0030964550229558873 0.0027104664392447898 0 0.0026685062217455249 0.0027812586744775645 0 0.0028716029707578799 0.003046426226992464 0 0.0030964550229558873 0.0027104664392447898 0 0.0030280745217752402 0.0031975980769668867 0 0.0028485492982818473 0.0032612660237958209 0 0.0028716029707578799 0.003046426226992464 0 0.0027289325656389596 0.0032167446723819874 0 0.0028716029707578799 0.003046426226992464 0 0.0027289325656389596 0.0032167446723819874 0 0.0026685062217455249 0.0027812586744775645 0 0.0030964550229558873 0.0027104664392447898 0 0.0033927499703111522 0.0030644488193941359 0 0.0030280745217752402 0.0031975980769668867 0 0.0030964550229558873 0.0027104664392447898 0 0.0033927499703111522 0.0030644488193941359 0 0.0035207524775317141 0.0025933778824788461 0 0.0035819405897758085 0.0034849381545845977 0 0.0033927499703111522 0.0030644488193941359 0 0.0031548139262852978 0.0033990851243717 0 0.0033927499703111522 0.0030644488193941359 0 0.0030280745217752402 0.0031975980769668867 0 0.0031548139262852978 0.0033990851243717 0 0.0029669799731132187 0.0034098305091842577 0 0.0030280745217752402 0.0031975980769668867 0 0.0031548139262852978 0.0033990851243717 0 0.0035819405897758085 0.0034849381545845977 0 0.0033927499703111522 0.0030644488193941359 0 0.0041293795011370605 0.0031017459067261364 0 0.0035684376534142756 0.0026154237941660402 0 0.0039734687307082153 0.0030155522541463783 0 0.0033927499703111522 0.0030644488193941359 0 0.0035207524775317141 0.0025933778824788461 0 0.0041293795011370605 0.0031017459067261364 0 0.0035207524775317141 0.0025933778824788461 0 0.0039783093583933317 0.002506596158083475 0 0.0038140333217777946 0.0029136776719898227 0 0.0043595635991270218 0.0028362998792283165 0 0.0039783093583933317 0.002506596158083475 0 0.0038140333217777946 0.0029136776719898227 0 0.0034741560475593787 0.0033730129724622681 0 0.0035745644179080256 0.0033136816179945706 0 0.0035623335788206268 0.0034581648604545784 0 0.0036114103155563343 0.0033292212418561968 0 0.0030869330111577393 0.0035109210487693004 0 0.0034741560475593787 0.0033730129724622681 0 0.0035292904657692973 0.0036539975134846948 0 0.0036025828786906671 0.0035414209761620687 0 0.0034741560475593787 0.0033730129724622681 0 0.0033346132004691449 0.0035977412465313806 0 0.0035292904657692973 0.0036539975134846948 0 0.0036915603162383211 0.0037649818292536915 0 0.0035292904657692973 0.0036539975134846948 0 0.0036025828786906671 0.0035414209761620687 0 0.0036025828786906671 0.0035414209761620687 0 0.0038438254882474307 0.0035661394699552473 0 0.003477897746174245 0.0033734925266071594 0 0.0036025828786906671 0.0035414209761620687 0 0.0038837748923606732 0.0036580374064270438 0 0.0038438254882474307 0.0035661394699552473 0 0.0037977493438767513 0.0037176888182082982 0 0.0036025828786906671 0.0035414209761620687 0 0.0038837748923606732 0.0036580374064270438 0 0.004641350529072971 0.0033640121034212646 0 0.004258923490132285 0.0035943058988903566 0 0.0034400487458604787 0.0032989538689952424 0 0.004455060147787294 0.004825231387455082 0 0.0044463964754056107 0.0040540353337430559 0 0.0038438254882474307 0.0035661394699552473 0 0.0074041035399065851 0.0044226611096428335 0 0.0034451073125353906 0.003264220852802562 0 0.0040791317158245972 0.0037386458669729393 0 0.0038837748923606732 0.0036580374064270438 0 0.0038438254882474307 0.0035661394699552473 0 0.0044463964754056107 0.0040540353337430559 0 0.0038438254882474307 0.0035661394699552473 0 0.004258923490132285 0.0035943058988903566 0 0.0038438254882474307 0.0035661394699552473 0 0.004258923490132285 0.0035943058988903566 0 0.0034400487458604787 0.0032989538689952424 0 0.0027846692801783558 0.003560784608492342 0 0.0028665323253416488 0.0034630360249372646 0 0.0031105608270194378 0.0033702237105728973 0 0.0029153219902797903 0.0033596968392547895 0 0.0031809205579513516 0.0034435685487847712 0 0.0040520015646733293 0.0033580058459357211 0 0.0035028953775425066 0.0032751843220866794 0 0.0033163279555363419 0.0033055790570767235 0 0.0034400487458604787 0.0032989538689952424 0 0.0031105608270194378 0.0033702237105728973 0 0.0033232940064307423 0.0032944406105737882 0 0.0033163279555363419 0.0033055790570767235 0 0.0034400487458604787 0.0032989538689952424 0 0.0038438254882474307 0.0035661394699552473 0 0.0034400487458604787 0.0032989538689952424 0 0.003477897746174245 0.0033734925266071594 0 0.0034741560475593787 0.0033730129724622681 0 0.003477897746174245 0.0033734925266071594 0 0.0034036074465773015 0.0033547097323898089 0 0.0034741560475593787 0.0033730129724622681 0 0.0036025828786906671 0.0035414209761620687 0 0.003477897746174245 0.0033734925266071594 0 0.0034400487458604787 0.0032989538689952424 0 0.003477897746174245 0.0033734925266071594 0 0.0034036074465773015 0.0033547097323898089 0 0.0034400487458604787 0.0032989538689952424 0 0.0034036074465773015 0.0033547097323898089 0 0.0031105608270194378 0.0033702237105728973 0 0.0034036074465773015 0.0033547097323898089 0 0.0031105608270194378 0.0033702237105728973 0 0.0034333267183975303 0.0035828328203605635 0 0.0031105608270194378 0.0033702237105728973 0 0.0027936887330780738 0.0035229510712887326 0 0.0034333267183975303 0.0035828328203605635 0 0.0034741560475593787 0.0033730129724622681 0 0.0034036074465773015 0.0033547097323898089 0 0.0034333267183975303 0.0035828328203605635 0 0.0027294910956723838 0.0035245507254733932 0 0.0024299131229719643 0.003494013810092384 0 0.0028665323253416488 0.0034630360249372646 0 0.0028719423780170202 0.0034560171058639604 0 0.0031105608270194378 0.0033702237105728973 0 0.0028665323253416488 0.0034630360249372646 0 0.0028719423780170202 0.0034560171058639604 0 0.0028219741312737277 0.003415608041279179 0 0.0028719423780170202 0.0034560171058639604 0 0.0027936887330780738 0.0035229510712887326 0 0.0028219741312737277 0.003415608041279179 0 0.0028719423780170202 0.0034560171058639604 0 0.0031105608270194378 0.0033702237105728973 0 0.0027936887330780738 0.0035229510712887326 0 0.0027936887330780738 0.0035229510712887326 0 0.0028219741312737277 0.003415608041279179 0 0.0027289325656389596 0.0032167446723819874 0 0.0027936887330780738 0.0035229510712887326 0 0.0022227769627764901 0.0030498910897311239 0 0.0027289325656389596 0.0032167446723819874 0 0.0022227769627764901 0.0030498910897311239 0 0.0027289325656389596 0.0032167446723819874 0 0.0026685062217455249 0.0027812586744775645 0 0.0027936887330780738 0.0035229510712887326 0 0.0022227769627764901 0.0030498910897311239 0 0.0014703871998212102 0.0034410721035165294 0 0.0022227769627764901 0.0030498910897311239 0 0.0014703871998212102 0.0034410721035165294 0 0.0015533153598323768 0.0026275290162339226 0 0.0024299131229719643 0.003494013810092384 0 0.0019784483933716771 0.0033904897112542452 0 0.0034333267183975303 0.0035828328203605635 0 0.0035623335788206268 0.0034581648604545784 0 0.0035289503082576081 0.0035547479171968524 0 0.0034741560475593787 0.0033730129724622681 0 0.0034333267183975303 0.0035828328203605635 0 0.0035623335788206268 0.0034581648604545784 0 0.0036042993610120437 0.0035051970710242544 0 0.0035623335788206268 0.0034581648604545784 0 0.0035289503082576081 0.0035547479171968524 0 0.00044170459621646461 0.0032352101821645518 0 2.3625637642325691e-05 0.0025441522506269186 0 -0.00059651441188126079 0.0029382936170675674 0 0.00044170459621646461 0.0032352101821645518 0 2.3625637642325691e-05 0.0025441522506269186 0 0.00081077088617629352 0.0026539660661401162 0 2.3625637642325691e-05 0.0025441522506269186 0 0.00037646210914671059 0.0022023447810086468 0 0.00081077088617629352 0.0026539660661401162 0 2.3625637642325691e-05 0.0025441522506269186 0 0.00037646210914671059 0.0022023447810086468 0 -0.00018749354550943965 0.0019927022655653603 0 0.00099630191234090291 0.0021584839307917077 0 0.00081077088617629352 0.0026539660661401162 0 0.0015533153598323768 0.0026275290162339226 0 0.00037646210914671059 0.0022023447810086468 0 0.00099630191234090291 0.0021584839307917077 0 0.00042067204483467962 0.0017274981257604496 0 0.00037646210914671059 0.0022023447810086468 0 0.00099630191234090291 0.0021584839307917077 0 0.00081077088617629352 0.0026539660661401162 0 0.0014703871998212102 0.0034410721035165294 0 0.00081077088617629352 0.0026539660661401162 0 0.0015533153598323768 0.0026275290162339226 0 0.0014703871998212102 0.0034410721035165294 0 0.00044170459621646461 0.0032352101821645518 0 0.00081077088617629352 0.0026539660661401162 0 0.0022227769627764901 0.0030498910897311239 0 0.0015533153598323768 0.0026275290162339226 0 0.0021702534179449638 0.0023730869279084987 0 0.0022227769627764901 0.0030498910897311239 0 0.0021702534179449638 0.0023730869279084987 0 0.0026685062217455249 0.0027812586744775645 0 0.0021702534179449638 0.0023730869279084987 0 0.001582792116899703 0.0021212982896929786 0 0.0019132876928096522 0.001755452182761089 0 0.0021702534179449638 0.0023730869279084987 0 0.0019132876928096522 0.001755452182761089 0 0.0024457448085276725 0.0019918535105005524 0 0.00099630191234090291 0.0021584839307917077 0 0.0015533153598323768 0.0026275290162339226 0 0.001582792116899703 0.0021212982896929786 0 0.0015533153598323768 0.0026275290162339226 0 0.0021702534179449638 0.0023730869279084987 0 0.001582792116899703 0.0021212982896929786 0 0.00099630191234090291 0.0021584839307917077 0 0.001582792116899703 0.0021212982896929786 0 0.0012351017251660569 0.0016932599080403015 0 0.001582792116899703 0.0021212982896929786 0 0.0012351017251660569 0.0016932599080403015 0 0.0019132876928096522 0.001755452182761089 0 0.0012351017251660569 0.0016932599080403015 0 0.0019132876928096522 0.001755452182761089 0 0.0013675403161477245 0.0011737415914301371 0 0.0019132876928096522 0.001755452182761089 0 0.0024457448085276725 0.0019918535105005524 0 0.0024244026520980132 0.0016165608999379939 0 0.0019132876928096522 0.001755452182761089 0 0.0020596268258719248 0.0012731181331371536 0 0.0024244026520980132 0.0016165608999379939 0 0.0019132876928096522 0.001755452182761089 0 0.0020596268258719248 0.0012731181331371536 0 0.0013675403161477245 0.0011737415914301371 0 0.0020596268258719248 0.0012731181331371536 0 0.0013675403161477245 0.0011737415914301371 0 0.0018328558207626692 0.00088602708992538057 0 0.0013675403161477245 0.0011737415914301371 0 0.00072761847155722412 0.0012042179987058169 0 0.00092346429559099854 0.00076957746462404065 0 0.0012351017251660569 0.0016932599080403015 0 0.0013675403161477245 0.0011737415914301371 0 0.00072761847155722412 0.0012042179987058169 0 0.00017020885728375061 0.00063346360924009296 0 -0.00026588675794093908 0.0014553898339191649 0 0.0003277105654654048 0.0012428180953786827 0 0.00046678054348654816 0.00058463818754756727 0 -0.00029233744002520067 0.0014837126881011976 0 0.00072761847155722412 0.0012042179987058169 0 0.0003277105654654048 0.0012428180953786827 0 0.00046678054348654816 0.00058463818754756727 0 -8.0773256930244584e-05 0.00058818697831930142 0 -0.00042175127833343019 0.00096151186428759718 0 -0.00029233744002520067 0.0014837126881011976 0 0.00072761847155722412 0.0012042179987058169 0 0.0003277105654654048 0.0012428180953786827 0 0.00042067204483467962 0.0017274981257604496 0 0.00042067204483467962 0.0017274981257604496 0 -0.00029233744002520067 0.0014837126881011976 0 -0.00018749354550943965 0.0019927022655653603 0 0.0003277105654654048 0.0012428180953786827 0 0.00042067204483467962 0.0017274981257604496 0 -0.00029233744002520067 0.0014837126881011976 0 0.00037646210914671059 0.0022023447810086468 0 0.00042067204483467962 0.0017274981257604496 0 -0.00018749354550943965 0.0019927022655653603 0 0.00099630191234090291 0.0021584839307917077 0 0.0012351017251660569 0.0016932599080403015 0 0.00042067204483467962 0.0017274981257604496 0 0.0012351017251660569 0.0016932599080403015 0 0.00072761847155722412 0.0012042179987058169 0 0.00042067204483467962 0.0017274981257604496 0 0.0040014293684894576 0.0016066608819504265 0 0.0038943827721682357 0.0020435599531492118 0 0.0034691593271229159 0.0017982475126649274 0 0.0035207524775317141 0.0025933778824788461 0 0.0039783093583933317 0.002506596158083475 0 0.0038943827721682357 0.0020435599531492118 0 0.0035207524775317141 0.0025933778824788461 0 0.0038943827721682357 0.0020435599531492118 0 0.0034570485069814255 0.0021723429753754504 0 0.0030964550229558873 0.0027104664392447898 0 0.0035207524775317141 0.0025933778824788461 0 0.0034570485069814255 0.0021723429753754504 0 0.0034570485069814255 0.0021723429753754504 0 0.0034691593271229159 0.0017982475126649274 0 0.003092358534233214 0.0021895111288170593 0 0.0038943827721682357 0.0020435599531492118 0 0.0034570485069814255 0.0021723429753754504 0 0.0034691593271229159 0.0017982475126649274 0 0.0034691593271229159 0.0017982475126649274 0 0.003092358534233214 0.0021895111288170593 0 0.0028925205621055782 0.001790091916199596 0 0.003092358534233214 0.0021895111288170593 0 0.0027271717327313934 0.0023358772058539564 0 0.0028925205621055782 0.001790091916199596 0 0.0030964550229558873 0.0027104664392447898 0 0.003092358534233214 0.0021895111288170593 0 0.0027271717327313934 0.0023358772058539564 0 0.0030964550229558873 0.0027104664392447898 0 0.0034570485069814255 0.0021723429753754504 0 0.003092358534233214 0.0021895111288170593 0 0.0030964550229558873 0.0027104664392447898 0 0.0027271717327313934 0.0023358772058539564 0 0.0026685062217455249 0.0027812586744775645 0 0.0021702534179449638 0.0023730869279084987 0 0.0027271717327313934 0.0023358772058539564 0 0.0026685062217455249 0.0027812586744775645 0 0.0027271717327313934 0.0023358772058539564 0 0.0024457448085276725 0.0019918535105005524 0 0.0028925205621055782 0.001790091916199596 0 0.0021702534179449638 0.0023730869279084987 0 0.0027271717327313934 0.0023358772058539564 0 0.0024457448085276725 0.0019918535105005524 0 0.0024244026520980132 0.0016165608999379939 0 0.0027313818752583109 0.0012776422043593643 0 0.0028925205621055782 0.001790091916199596 0 0.0024457448085276725 0.0019918535105005524 0 0.0024244026520980132 0.0016165608999379939 0 0.0028925205621055782 0.001790091916199596 0 0.0020596268258719248 0.0012731181331371536 0 0.0027313818752583109 0.0012776422043593643 0 0.0024629070683385894 0.00089094934170205612 0 0.0020596268258719248 0.0012731181331371536 0 0.0024244026520980132 0.0016165608999379939 0 0.0027313818752583109 0.0012776422043593643 0 0.0027313818752583109 0.0012776422043593643 0 0.0032125869957874485 0.0013952884088369558 0 0.0030073772226477872 0.0010515496601308017 0 0.0027313818752583109 0.0012776422043593643 0 0.0028925205621055782 0.001790091916199596 0 0.0032125869957874485 0.0013952884088369558 0 0.0034691593271229159 0.0017982475126649274 0 0.0028925205621055782 0.001790091916199596 0 0.0032125869957874485 0.0013952884088369558 0 0.0034691593271229159 0.0017982475126649274 0 0.0032125869957874485 0.0013952884088369558 0 0.0036851011578934792 0.0014185188674995677 0 0.0032125869957874485 0.0013952884088369558 0 0.0033934353510865294 0.0011331780450930763 0 0.0030073772226477872 0.0010515496601308017 0 0.0032125869957874485 0.0013952884088369558 0 0.0036851011578934792 0.0014185188674995677 0 0.0033934353510865294 0.0011331780450930763 0 0.0036694308781317236 0.0011833614666010551 0 0.0036851011578934792 0.0014185188674995677 0 0.0033934353510865294 0.0011331780450930763 0 0.0040014293684894576 0.0016066608819504265 0 0.0034691593271229159 0.0017982475126649274 0 0.0036851011578934792 0.0014185188674995677 0 0.003481662526386519 0.00093746852239484472 0 0.0031502373131674526 0.00081831619141718281 0 0.0032804323747551841 0.00065388690449608915 0 0.0036694308781317236 0.0011833614666010551 0 0.003481662526386519 0.00093746852239484472 0 0.0033934353510865294 0.0011331780450930763 0 0.003481662526386519 0.00093746852239484472 0 0.0033934353510865294 0.0011331780450930763 0 0.0031502373131674526 0.00081831619141718281 0 0.0033934353510865294 0.0011331780450930763 0 0.0031502373131674526 0.00081831619141718281 0 0.0030073772226477872 0.0010515496601308017 0 0.0031502373131674526 0.00081831619141718281 0 0.0030665143678729962 0.00058090469725334049 0 0.0032804323747551841 0.00065388690449608915 0 0.0031502373131674526 0.00081831619141718281 0 0.0029058619357959893 0.00060006841140259693 0 0.0030665143678729962 0.00058090469725334049 0 0.0031502373131674526 0.00081831619141718281 0 0.0029058619357959893 0.00060006841140259693 0 0.0027867529704570931 0.00073945933239536702 0 0.0029058619357959893 0.00060006841140259693 0 0.0027867529704570931 0.00073945933239536702 0 0.0027119925616646418 0.00051220357645542368 0 0.0027867529704570931 0.00073945933239536702 0 0.00251874366331092 0.00058566000701304835 0 0.0027119925616646418 0.00051220357645542368 0 0.0031502373131674526 0.00081831619141718281 0 0.0027867529704570931 0.00073945933239536702 0 0.0030073772226477872 0.0010515496601308017 0 0.0027313818752583109 0.0012776422043593643 0 0.0030073772226477872 0.0010515496601308017 0 0.0024629070683385894 0.00089094934170205612 0 0.0027867529704570931 0.00073945933239536702 0 0.0030073772226477872 0.0010515496601308017 0 0.0024629070683385894 0.00089094934170205612 0 0.00251874366331092 0.00058566000701304835 0 0.0025545477493657503 0.00038798358013967984 0 0.0020488947435180925 0.0005498639537525466 0 0.0027867529704570931 0.00073945933239536702 0 0.0024629070683385894 0.00089094934170205612 0 0.00251874366331092 0.00058566000701304835 0 0.0023071946377254344 0.00025167318756708898 0 0.0020581906296577913 0.00056596950965393628 0 0.0024629070683385894 0.00089094934170205612 0 0.00251874366331092 0.00058566000701304835 0 0.0020488947435180925 0.0005498639537525466 0 0.0020850328642176607 9.0026728935630506e-05 0 0.0020460502461040705 6.4607641467979618e-05 0 0.0019696018194765266 0.0001312983036303813 0 0.00251874366331092 0.00058566000701304835 0 0.0025545477493657503 0.00038798358013967984 0 0.0027119925616646418 0.00051220357645542368 0 0.0020850328642176607 9.0026728935630506e-05 0 0.0020460502461040705 6.4607641467979618e-05 0 0.0019419688207780103 7.7726924143783574e-05 0 0.0010719124677622542 0.00032936725553556163 0 0.0013466026526234918 0.00023322045885368391 0 0.0023071946377254344 0.00025167318756708898 0 0.0022747221543451246 0.0001995737855086639 0 0.0025545477493657503 0.00038798358013967984 0 0.0027763965527804247 0.00022917654807747017 0 0.0028212836200369675 0.00040130969567847227 0 0.0027763965527804247 0.00022917654807747017 0 0.0028947508703363141 0.00029156545210371772 0 0.0028212836200369675 0.00040130969567847227 0 0.0027763965527804247 0.00022917654807747017 0 0.0028947508703363141 0.00029156545210371772 0 0.002892639816328888 0.00022174663681952597 0 0.0025545477493657503 0.00038798358013967984 0 0.0028212836200369675 0.00040130969567847227 0 0.0027119925616646418 0.00051220357645542368 0 0.0029058619357959893 0.00060006841140259693 0 0.0028212836200369675 0.00040130969567847227 0 0.0027119925616646418 0.00051220357645542368 0 0.0029058619357959893 0.00060006841140259693 0 0.0028212836200369675 0.00040130969567847227 0 0.0030665143678729962 0.00058090469725334049 0 0.0028212836200369675 0.00040130969567847227 0 0.0030665143678729962 0.00058090469725334049 0 0.0030433127849734216 0.00040569736251084789 0 0.0030665143678729962 0.00058090469725334049 0 0.0030433127849734216 0.00040569736251084789 0 0.0032804323747551841 0.00065388690449608915 0 0.0028947508703363141 0.00029156545210371772 0 0.0030433127849734216 0.00040569736251084789 0 0.002985427947022579 0.00022488986558619184 0 0.0028947508703363141 0.00029156545210371772 0 0.0028212836200369675 0.00040130969567847227 0 0.0030433127849734216 0.00040569736251084789 0 0.0030433127849734216 0.00040569736251084789 0 0.0031163101779711593 0.00032432807825691687 0 0.002985427947022579 0.00022488986558619184 0 0.0028947508703363141 0.00029156545210371772 0 0.002985427947022579 0.00022488986558619184 0 0.002892639816328888 0.00022174663681952597 0 0.0032899777772003066 0.00048358406860439659 0 0.0031163101779711593 0.00032432807825691687 0 0.0031617630796120458 0.00016499724149554847 0 0.0030433127849734216 0.00040569736251084789 0 0.0032899777772003066 0.00048358406860439659 0 0.0031163101779711593 0.00032432807825691687 0 0.0030433127849734216 0.00040569736251084789 0 0.0032899777772003066 0.00048358406860439659 0 0.0032804323747551841 0.00065388690449608915 0 0.00089978524123910276 0.00047014601809251914 0 0.00046678054348654816 0.00058463818754756727 0 0.00086213334988412553 0.00028305550982350648 0 0.00089978524123910276 0.00047014601809251914 0 0.00092289153623968537 0.00034044585476553243 0 0.00086213334988412553 0.00028305550982350648 0 -0.00019364239394743031 0.00022494020250847689 0 -8.0773256930244584e-05 0.00058818697831930142 0 9.2203464568914477e-05 3.8108258236110252e-05 0 0.00017020885728375061 0.00063346360924009296 0 0.00049560030807516186 0.00013139735776811621 0 -0.00019364239394743031 0.00022494020250847689 0 -0.00029445384217644053 -7.6512262762840229e-05 0 -0.00048097766777751308 0.00044740365504003114 0 -0.00019364239394743031 0.00022494020250847689 0 -8.0773256930244584e-05 0.00058818697831930142 0 -0.00048097766777751308 0.00044740365504003114 0 -8.0773256930244584e-05 0.00058818697831930142 0 -0.00048097766777751308 0.00044740365504003114 0 -0.00042175127833343019 0.00096151186428759718 0 0.00072761847155722412 0.0012042179987058169 0 0.00046678054348654816 0.00058463818754756727 0 0.00092346429559099854 0.00076957746462404065 0 0.00089978524123910276 0.00047014601809251914 0 0.00046678054348654816 0.00058463818754756727 0 0.00092346429559099854 0.00076957746462404065 0 0.00089978524123910276 0.00047014601809251914 0 0.00092346429559099854 0.00076957746462404065 0 0.0012571416847693914 0.00061192359871418294 0 0.0013675403161477245 0.0011737415914301371 0 0.0012571416847693914 0.00061192359871418294 0 0.0018328558207626692 0.00088602708992538057 0 0.0013675403161477245 0.0011737415914301371 0 0.00092346429559099854 0.00076957746462404065 0 0.0012571416847693914 0.00061192359871418294 0 0.0020596268258719248 0.0012731181331371536 0 0.0024629070683385894 0.00089094934170205612 0 0.0018328558207626692 0.00088602708992538057 0 0.0024629070683385894 0.00089094934170205612 0 0.0018328558207626692 0.00088602708992538057 0 0.0020488947435180925 0.0005498639537525466 0 0.0012571416847693914 0.00061192359871418294 0 0.0018328558207626692 0.00088602708992538057 0 0.0020488947435180925 0.0005498639537525466 0 0.0020850328642176607 9.0026728935630506e-05 0 0.0020488947435180925 0.0005498639537525466 0 0.0019696018194765266 0.0001312983036303813 0 0.0012571416847693914 0.00061192359871418294 0 0.0020488947435180925 0.0005498639537525466 0 0.0019696018194765266 0.0001312983036303813 0 0.00089978524123910276 0.00047014601809251914 0 0.0012571416847693914 0.00061192359871418294 0 0.00092289153623968537 0.00034044585476553243 0 0.0012571416847693914 0.00061192359871418294 0 0.00092289153623968537 0.00034044585476553243 0 0.00073490017132181082 0.00027110682131383586 0 0.0012193110903125659 0.00062007225065643717 0 0.0013466026526234918 0.00023322045885368391 0 0.00092289153623968537 0.00034044585476553243 0 0.00084757524009586988 0.00034823464993266525 0 0.00086213334988412553 0.00028305550982350648 0 0.00092289153623968537 0.00034044585476553243 0 0.00076599531723932021 0.00035036747759833764 0 0.00073490017132181082 0.00027110682131383586 0 0.00092289153623968537 0.00034044585476553243 0 0.00076599531723932021 0.00035036747759833764 0 0.00084757524009586988 0.00034823464993266525 0 0.00076599531723932021 0.00035036747759833764 0 0.00084757524009586988 0.00034823464993266525 0 0.00077184411852709823 0.00040329047475430336 0 0.00076599531723932021 0.00035036747759833764 0 0.00073490017132181082 0.00027110682131383586 0 0.00057294954735451393 0.00043339602074980667 0 0.00024686823625171786 0.00054468556373440784 0 0.00073490017132181082 0.00027110682131383586 0 0.00057294954735451393 0.00043339602074980667 0 0.00076599531723932021 0.00035036747759833764 0 0.00057294954735451393 0.00043339602074980667 0 0.00068405210806622696 0.00042649789395301846 0 0.00057294954735451393 0.00043339602074980667 0 0.00068405210806622696 0.00042649789395301846 0 0.000592659559770185 0.00049650126018865599 0 0.00068405210806622696 0.00042649789395301846 0 0.000592659559770185 0.00049650126018865599 0 0.00070629045202959891 0.00046307400873464376 0 0.00052422833540432352 0.00056758887447005578 0 0.000592659559770185 0.00049650126018865599 0 0.00065262479919833997 0.00053156905702456776 0 0.00052422833540432352 0.00056758887447005578 0 0.000592659559770185 0.00049650126018865599 0 0.00044276785194370764 0.00056611191659373136 0 0.00024686823625171786 0.00054468556373440784 0 0.00057294954735451393 0.00043339602074980667 0 0.00044276785194370764 0.00056611191659373136 0 0.00057294954735451393 0.00043339602074980667 0 0.000592659559770185 0.00049650126018865599 0 0.00044276785194370764 0.00056611191659373136 0 0.00084757524009586988 0.00034823464993266525 0 0.00082795503263660643 0.00040606201321249382 0 0.00077184411852709823 0.00040329047475430336 0 0.00082795503263660643 0.00040606201321249382 0 0.00077184411852709823 0.00040329047475430336 0 0.00077123125705728826 0.00045402847603801525 0 0.00076599531723932021 0.00035036747759833764 0 0.00068405210806622696 0.00042649789395301846 0 0.00077184411852709823 0.00040329047475430336 0 0.00068405210806622696 0.00042649789395301846 0 0.00077184411852709823 0.00040329047475430336 0 0.00070629045202959891 0.00046307400873464376 0 0.00077184411852709823 0.00040329047475430336 0 0.00070629045202959891 0.00046307400873464376 0 0.00077123125705728826 0.00045402847603801525 0 0.00073267591068946461 0.00049360858420218411 0 0.00070629045202959891 0.00046307400873464376 0 0.00077123125705728826 0.00045402847603801525 0 0.000592659559770185 0.00049650126018865599 0 0.00070629045202959891 0.00046307400873464376 0 0.00065262479919833997 0.00053156905702456776 0 0.00073267591068946461 0.00049360858420218411 0 0.00070629045202959891 0.00046307400873464376 0 0.00065262479919833997 0.00053156905702456776 0 0.00073267591068946461 0.00049360858420218411 0 0.00065262479919833997 0.00053156905702456776 0 0.00070734541609666717 0.00053842050521056486 0 0.00073267591068946461 0.00049360858420218411 0 0.00070734541609666717 0.00053842050521056486 0 0.0007636472241281814 0.00050771643948310937 0 0.00070734541609666717 0.00053842050521056486 0 0.0007636472241281814 0.00050771643948310937 0 0.00073810634542798112 0.00055342415336398509 0 0.00082795503263660643 0.00040606201321249382 0 0.00082071036472565429 0.00048438692823650389 0 0.00084210543796465001 0.00050123652988676637 0 0.00082795503263660643 0.00040606201321249382 0 0.00077123125705728826 0.00045402847603801525 0 0.00082071036472565429 0.00048438692823650389 0 0.00078122167245503232 0.00053607145023201025 0 0.00084372242554933707 0.00052892873525200708 0 0.00073810634542798112 0.00055342415336398509 0 0.00078122167245503232 0.00053607145023201025 0 0.0007636472241281814 0.00050771643948310937 0 0.00073810634542798112 0.00055342415336398509 0 0.00078122167245503232 0.00053607145023201025 0 0.0007636472241281814 0.00050771643948310937 0 0.00082071036472565429 0.00048438692823650389 0 0.0007636472241281814 0.00050771643948310937 0 0.00077123125705728826 0.00045402847603801525 0 0.00082071036472565429 0.00048438692823650389 0 0.00073267591068946461 0.00049360858420218411 0 0.0007636472241281814 0.00050771643948310937 0 0.00077123125705728826 0.00045402847603801525 0 0.00049489051155220912 0.0003159923453925812 0 0.0004085484133211849 0.00021225416258831148 0 0.00078122167245503232 0.00053607145023201025 0 0.00082071036472565429 0.00048438692823650389 0 0.00084372242554933707 0.00052892873525200708 0 0.00026777400112240087 -0.00038789817559927348 0 -2.6530968969740543e-05 -0.00028016012064729034 0 0.00021124566332386373 -0.00047320912710430607 0 0.0004085484133211849 0.00021225416258831148 0 0.00049560030807516186 0.00013139735776811621 0 0.00026777400112240087 -0.00038789817559927348 0 9.2203464568914477e-05 3.8108258236110252e-05 0 -2.6530968969740543e-05 -0.00028016012064729034 0 0.00082795503263660643 0.00040606201321249382 0 0.00084210543796465001 0.00050123652988676637 0 0.00086213334988412553 0.00028305550982350648 0 -0.00032957089133990976 -6.7571103409527381e-05 0 -0.00012681742518813949 0.00042567182388243561 0 0.00084757524009586988 0.00034823464993266525 0 0.00082795503263660643 0.00040606201321249382 0 0.00086213334988412553 0.00028305550982350648 0 9.2203464568914477e-05 3.8108258236110252e-05 0 -0.00029445384217644053 -7.6512262762840229e-05 0 -2.6530968969740543e-05 -0.00028016012064729034 0 -0.00019364239394743031 0.00022494020250847689 0 9.2203464568914477e-05 3.8108258236110252e-05 0 -0.00029445384217644053 -7.6512262762840229e-05 0 -0.00080227110047567153 0.00032040259418375261 0 -0.00079960115360460499 0.00032045385000479187 0 -0.00080236351796458361 0.00032038297743155797 0 -0.0009769267989728444 0.00035871982390510757 0 -0.00032957089133990976 -6.7571103409527381e-05 0 -0.0009769267989728444 0.00035871982390510757 0 -0.0010611560826153177 0.00021557186313503845 0 -0.0014759991946009757 0.00060558462199884668 0 -0.0016781279510641566 0.00046653146391672845 0 -0.0014530804643873537 0.000191263041014131 0 -0.0016781279510641566 0.00046653146391672845 0 -0.0019142732215753282 0.00036856098290050007 0 -0.0017703822452977021 0.0001674486963420832 0 -0.0019142732215753282 0.00036856098290050007 0 -0.001907495777846026 0.00064141894069707334 0 -0.0022289230554842152 0.00036664750827934873 0 -0.0016781279510641566 0.00046653146391672845 0 -0.0019142732215753282 0.00036856098290050007 0 -0.001907495777846026 0.00064141894069707334 0 -0.001907495777846026 0.00064141894069707334 0 -0.0015459763003010524 0.00076466843334536407 0 -0.0017657910726299015 0.00087880080239996895 0 -0.0016781279510641566 0.00046653146391672845 0 -0.001907495777846026 0.00064141894069707334 0 -0.0015459763003010524 0.00076466843334536407 0 -0.0014759991946009757 0.00060558462199884668 0 -0.0016781279510641566 0.00046653146391672845 0 -0.0015459763003010524 0.00076466843334536407 0 -0.0009769267989728444 0.00035871982390510757 0 -0.0016589573432612315 0.00084629898464472512 0 -0.0023090376022567799 0.00069091581275945431 0 -0.0029761553465350917 0.00052543201460453085 0 -0.002601583504106891 0.00014037011601363412 0 -0.0022289230554842152 0.00036664750827934873 0 -0.0023090376022567799 0.00069091581275945431 0 -0.002601583504106891 0.00014037011601363412 0 -0.001907495777846026 0.00064141894069707334 0 -0.0022289230554842152 0.00036664750827934873 0 -0.0023090376022567799 0.00069091581275945431 0 -0.001907495777846026 0.00064141894069707334 0 -0.0020137809859235912 0.00080543478848410293 0 -0.0017657910726299015 0.00087880080239996895 0 -0.0020137809859235912 0.00080543478848410293 0 -0.0023090376022567799 0.00069091581275945431 0 -0.002125148093788986 0.00090803695979663071 0 -0.001907495777846026 0.00064141894069707334 0 -0.0020137809859235912 0.00080543478848410293 0 -0.0023090376022567799 0.00069091581275945431 0 -0.0024006772613960315 0.00083274097054851178 0 -0.0023073455186502796 0.00083144213789743289 0 -0.0023090376022567799 0.00069091581275945431 0 -0.0027673217160387987 0.00084701207471664071 0 -0.0026939927398523435 0.0012973168082100897 0 -0.0023090376022567799 0.00069091581275945431 0 -0.0027673217160387987 0.00084701207471664071 0 -0.0029761553465350917 0.00052543201460453085 0 -0.0023090376022567799 0.00069091581275945431 0 -0.0023928246453854603 0.00089376670040561561 0 -0.002125148093788986 0.00090803695979663071 0 -0.0023928246453854603 0.00089376670040561561 0 -0.002125148093788986 0.00090803695979663071 0 -0.0023788408621801664 0.0012786664245651501 0 -0.002125148093788986 0.00090803695979663071 0 -0.0019048121754965692 0.00095997978336442662 0 -0.0019190411452938135 0.0011137213263663411 0 -0.0020137809859235912 0.00080543478848410293 0 -0.002125148093788986 0.00090803695979663071 0 -0.0019048121754965692 0.00095997978336442662 0 -0.0020137809859235912 0.00080543478848410293 0 -0.0019048121754965692 0.00095997978336442662 0 -0.0017657910726299015 0.00087880080239996895 0 -0.0019048121754965692 0.00095997978336442662 0 -0.0017657910726299015 0.00087880080239996895 0 -0.0016639404916295203 0.0010877487639692977 0 -0.002125148093788986 0.00090803695979663071 0 -0.0019190411452938135 0.0011137213263663411 0 -0.002062474586851405 0.0013223879654039501 0 -0.0019048121754965692 0.00095997978336442662 0 -0.0019190411452938135 0.0011137213263663411 0 -0.0016639404916295203 0.0010877487639692977 0 -0.0019190411452938135 0.0011137213263663411 0 -0.0016639404916295203 0.0010877487639692977 0 -0.0017822286459681751 0.0013018511449998554 0 -0.0019190411452938135 0.0011137213263663411 0 -0.0017822286459681751 0.0013018511449998554 0 -0.002062474586851405 0.0013223879654039501 0 -0.002125148093788986 0.00090803695979663071 0 -0.0023788408621801664 0.0012786664245651501 0 -0.0021738918623729615 0.0017206525945093517 0 -0.0020954232654071705 0.00098005741227076971 0 -0.0021957277122779408 0.0014068372509513346 0 -0.0024577882016033207 0.0015581104129935611 0 -0.0023788408621801664 0.0012786664245651501 0 -0.0021738918623729615 0.0017206525945093517 0 -0.0009769267989728444 0.00035871982390510757 0 -0.00088490573040355736 0.00073436833084541866 0 -0.0015459763003010524 0.00076466843334536407 0 -0.0015227712946492072 0.00098125152110504739 0 -0.0013531224311114157 0.0010041469554834266 0 -0.0013654021154748648 0.00059713456822696801 0 -0.0015459763003010524 0.00076466843334536407 0 -0.0013531224311114157 0.0010041469554834266 0 -0.0015459763003010524 0.00076466843334536407 0 -0.0017657910726299015 0.00087880080239996895 0 -0.0015227712946492072 0.00098125152110504739 0 -0.0017657910726299015 0.00087880080239996895 0 -0.0015227712946492072 0.00098125152110504739 0 -0.0016639404916295203 0.0010877487639692977 0 -0.0016639404916295203 0.0010877487639692977 0 -0.0013597980824183583 0.0011446632794471915 0 -0.0014012708285016759 0.0013361204184328549 0 -0.0015227712946492072 0.00098125152110504739 0 -0.0016639404916295203 0.0010877487639692977 0 -0.0013597980824183583 0.0011446632794471915 0 -0.00088490573040355736 0.00073436833084541866 0 -0.00093202398103474013 0.0014158240973433118 0 -0.0013597980824183583 0.0011446632794471915 0 -0.0013531224311114157 0.0010041469554834266 0 -0.00089234041398092358 0.0014088833619404374 0 -0.00048097766777751308 0.00044740365504003114 0 -0.00042175127833343019 0.00096151186428759718 0 -0.00089234041398092358 0.0014088833619404374 0 -0.0015227712946492072 0.00098125152110504739 0 -0.0013597980824183583 0.0011446632794471915 0 -0.0013531224311114157 0.0010041469554834266 0 -0.00042175127833343019 0.00096151186428759718 0 -0.00089234041398092358 0.0014088833619404374 0 -0.00029233744002520067 0.0014837126881011976 0 -0.00029233744002520067 0.0014837126881011976 0 -0.00068077728894951918 0.0017937027288984391 0 -0.00018749354550943965 0.0019927022655653603 0 -0.00089234041398092358 0.0014088833619404374 0 -0.00029233744002520067 0.0014837126881011976 0 -0.00068077728894951918 0.0017937027288984391 0 -0.00089234041398092358 0.0014088833619404374 0 -0.00068077728894951918 0.0017937027288984391 0 -0.0012109250255511945 0.0018090461457300564 0 -0.00068077728894951918 0.0017937027288984391 0 -0.00018749354550943965 0.0019927022655653603 0 -0.00073552237501314701 0.0022440405840807366 0 -0.00068077728894951918 0.0017937027288984391 0 -0.0012109250255511945 0.0018090461457300564 0 -0.00073552237501314701 0.0022440405840807366 0 -0.0013597980824183583 0.0011446632794471915 0 -0.00089234041398092358 0.0014088833619404374 0 -0.0014012708285016759 0.0013361204184328549 0 -0.0012109250255511945 0.0018090461457300564 0 -0.0014012708285016759 0.0013361204184328549 0 -0.0016549428342518017 0.0015902288856864551 0 -0.0016639404916295203 0.0010877487639692977 0 -0.0014012708285016759 0.0013361204184328549 0 -0.0017822286459681751 0.0013018511449998554 0 -0.00089234041398092358 0.0014088833619404374 0 -0.0012109250255511945 0.0018090461457300564 0 -0.0014012708285016759 0.0013361204184328549 0 -0.0017822286459681751 0.0013018511449998554 0 -0.0018595578097996878 0.0014754365787520635 0 -0.002062474586851405 0.0013223879654039501 0 -0.0018595578097996878 0.0014754365787520635 0 -0.0016549428342518017 0.0015902288856864551 0 -0.0019346722844874355 0.0017142727403215412 0 -0.0018595578097996878 0.0014754365787520635 0 -0.002062474586851405 0.0013223879654039501 0 -0.0019346722844874355 0.0017142727403215412 0 -0.0017822286459681751 0.0013018511449998554 0 -0.0018595578097996878 0.0014754365787520635 0 -0.0016549428342518017 0.0015902288856864551 0 -0.0014012708285016759 0.0013361204184328549 0 -0.0017822286459681751 0.0013018511449998554 0 -0.0016549428342518017 0.0015902288856864551 0 -0.0021738918623729615 0.0017206525945093517 0 -0.0022630892033945345 0.0024712840285854147 0 -0.0025265411412503445 0.0018901669347000328 0 -0.0024577882016033207 0.0015581104129935611 0 -0.0021738918623729615 0.0017206525945093517 0 -0.0025265411412503445 0.0018901669347000328 0 -0.002362722266072822 0.0042009214630119905 0 -0.002393195655545776 0.0044482550793849144 0 -0.0032997601935266748 0.0040508476397003246 0 -0.002062474586851405 0.0013223879654039501 0 -0.0022108355386955547 0.0020062777149353343 0 -0.0019346722844874355 0.0017142727403215412 0 -0.0014747387500860139 0.002845758518373044 0 -0.0026223801700377149 0.0025824777358925371 0 -0.0021957277122779408 0.0014068372509513346 0 -0.0014747387500860139 0.002845758518373044 0 -0.0022108355386955547 0.0020062777149353343 0 -0.0019346722844874355 0.0017142727403215412 0 -0.0022322550045641779 0.0021529156119864897 0 -0.0014747387500860139 0.002845758518373044 0 0.00024461636593130491 0.0028814430178175986 0 -0.0019346722844874355 0.0017142727403215412 0 -0.00168188322527686 0.0020007425234087051 0 -0.0022322550045641779 0.0021529156119864897 0 -0.0012109250255511945 0.0018090461457300564 0 -0.0016549428342518017 0.0015902288856864551 0 -0.00168188322527686 0.0020007425234087051 0 -0.0016549428342518017 0.0015902288856864551 0 -0.0019346722844874355 0.0017142727403215412 0 -0.00168188322527686 0.0020007425234087051 0 -0.00168188322527686 0.0020007425234087051 0 -0.0015258693592676926 0.002530495001385886 0 -0.0022322550045641779 0.0021529156119864897 0 0.0036589995285783972 0.003562654432124794 0 0.0036819689618047282 0.003574377442205178 0 0.0036924841776530665 0.0035502331371818447 0 0.0011642661094820013 0.003065724851820154 0 0.00024461636593130491 0.0028814430178175986 0 -0.0012109250255511945 0.0018090461457300564 0 -0.00168188322527686 0.0020007425234087051 0 -0.0015258693592676926 0.002530495001385886 0 0.00024461636593130491 0.0028814430178175986 0 0.0025064216033566485 0.0039579984425547905 0 0.0036819689618047282 0.003574377442205178 0 0.0037432380270271959 0.0035298833993348822 0 0.0036924841776530665 0.0035502331371818447 0 0.0036731244141210684 0.0035186376720351248 0 0.0037432380270271959 0.0035298833993348822 0 0.0036924841776530665 0.0035502331371818447 0 0.0036731244141210684 0.0035186376720351248 0 0.0036589995285783972 0.003562654432124794 0 0.0036924841776530665 0.0035502331371818447 0 0.0011642661094820013 0.003065724851820154 0 0.0014823424965063621 0.0032316382276077345 0 0.0036731244141210684 0.0035186376720351248 0 0.0036589995285783972 0.003562654432124794 0 0.0036049389207726832 0.0035541022943053092 0 0.0019784483933716771 0.0033904897112542452 0 0.0014823424965063621 0.0032316382276077345 0 2.3625637642325691e-05 0.0025441522506269186 0 -0.00059651441188126079 0.0029382936170675674 0 -0.00073552237501314701 0.0022440405840807366 0 2.3625637642325691e-05 0.0025441522506269186 0 -0.00018749354550943965 0.0019927022655653603 0 -0.00073552237501314701 0.0022440405840807366 0 -0.0015258693592676926 0.002530495001385886 0 -0.00059651441188126079 0.0029382936170675674 0 -0.00073552237501314701 0.0022440405840807366 0 -0.0012109250255511945 0.0018090461457300564 0 -0.0015258693592676926 0.002530495001385886 0 -0.00073552237501314701 0.0022440405840807366 0 0.0042338681277353102 0.0020776153136138377 0 0.0054340282643964826 0.0016903499821081282 0 0.00047474119383630691 0.0029535669596362254 0 8.3796377552875759e-05 0.0029235806050243248 0 0.00059596258231857889 0.0034942807054838625 0 0.0096936079376212219 -0.00044925774050013229 0 0.0095200682690812326 -0.00029369117142515397 0 0.009859987219998442 -6.6422950162847133e-05 0 0.0042338681277353102 0.0020776153136138377 0 0.006318487179812233 0.00085093704310396892 0 0.00047474119383630691 0.0029535669596362254 0 0.0002285825986430909 0.0028387124062544083 0 8.3796377552875759e-05 0.0029235806050243248 0 0.00047474119383630691 0.0029535669596362254 0 0.0002285825986430909 0.0028387124062544083 0 0.00050465960592220138 0.0025643471207272895 0 0.0002285825986430909 0.0028387124062544083 0 8.3796377552875759e-05 0.0029235806050243248 0 0.00010634033322954628 0.0027949625745212086 0 0.006318487179812233 0.00085093704310396892 0 0.0032168557038369859 0.0022157883448467104 0 0.00098521605586588952 0.003065946529195041 0 0.0008229249953833833 0.0032123428043677434 0 0.00054609046634624412 0.0026666707653546702 0 8.3796377552875759e-05 0.0029235806050243248 0 0.00010634033322954628 0.0027949625745212086 0 0.00011855824904942302 0.0026302167306331212 0 0.0095991739644711374 -0.00026944398813587723 0 0.0095630947977115039 0.00017640998005867428 0 0.009859987219998442 -6.6422950162847133e-05 0 0.006318487179812233 0.00085093704310396892 0 0.0084079858701413008 0.00080277360775653163 0 0.0095991739644711374 -0.00026944398813587723 0 0.0095630947977115039 0.00017640998005867428 0 0.0090908716819820858 0.0002131756269010945 0 0.0095630947977115039 0.00017640998005867428 0 0.0098572809815343967 0.00022993591494316121 0 0.009859987219998442 -6.6422950162847133e-05 0 0.0096936079376212219 -0.00044925774050013229 0 0.009859987219998442 -6.6422950162847133e-05 0 0.010199548394178363 3.4384817843814483e-05 0 0.006318487179812233 0.00085093704310396892 0 0.0095518486495777474 0.00070591448169113097 0 0.0098572809815343967 0.00022993591494316121 0 0.009859987219998442 -6.6422950162847133e-05 0 0.010199548394178363 3.4384817843814483e-05 0 0.010111394310371084 0.00045820447786627225 0 0.0098572809815343967 0.00022993591494316121 0 0.010199548394178363 3.4384817843814483e-05 0 0.0011087809445491784 0.0039949126872887101 0 0.00059596258231857889 0.0034942807054838625 0 0.0010582962288686708 0.0031428531919825819 0 0.0011087809445491784 0.0039949126872887101 0 0.0016603940949241694 0.0036631914078069424 0 0.0010582962288686708 0.0031428531919825819 0 0.0017420212364516303 0.0028162089428032107 0 0.0010582962288686708 0.0031428531919825819 0 0.0011927102209128939 0.002569220252263416 0 0.0017420212364516303 0.0028162089428032107 0 0.0016603940949241694 0.0036631914078069424 0 0.0010582962288686708 0.0031428531919825819 0 0.0010582962288686708 0.0031428531919825819 0 0.00079039556772555336 0.0027201496988573728 0 0.0011927102209128939 0.002569220252263416 0 0.00047474119383630691 0.0029535669596362254 0 0.00059596258231857889 0.0034942807054838625 0 0.0010582962288686708 0.0031428531919825819 0 0.00047474119383630691 0.0029535669596362254 0 0.0010582962288686708 0.0031428531919825819 0 0.00079039556772555336 0.0027201496988573728 0 -0.0044778669756507569 0.0035530840721902982 0 -0.00072503981922135972 0.0034440989347590176 0 0.00079039556772555336 0.0027201496988573728 0 0.00063637095053812427 0.0023377651168115412 0 0.00050465960592220138 0.0025643471207272895 0 0.00079039556772555336 0.0027201496988573728 0 0.00063637095053812427 0.0023377651168115412 0 0.0011927102209128939 0.002569220252263416 0 0.00047474119383630691 0.0029535669596362254 0 0.00079039556772555336 0.0027201496988573728 0 0.00050465960592220138 0.0025643471207272895 0 -0.0042046852177149005 0.003647796094683688 0 -0.0032997601935266748 0.0040508476397003246 0 -0.0034237732962950941 0.0034584041541149409 0 -0.0044778669756507569 0.0035530840721902982 0 -0.00084587411219715081 0.0014374023918883733 0 -0.002362722266072822 0.0042009214630119905 0 -0.0032997601935266748 0.0040508476397003246 0 -0.0028283683242842509 0.0032289879237340502 0 0.00024461636593130491 0.0028814430178175986 0 -0.00072503981922135972 0.0034440989347590176 0 -0.0032997601935266748 0.0040508476397003246 0 -0.0028283683242842509 0.0032289879237340502 0 -0.0034237732962950941 0.0034584041541149409 0 -0.0028283683242842509 0.0032289879237340502 0 -0.0034237732962950941 0.0034584041541149409 0 -0.0037354786886008222 0.0029572854789716996 0 -0.0026223801700377149 0.0025824777358925371 0 -0.004739927727350525 0.0024349611792775189 0 -0.0028283683242842509 0.0032289879237340502 0 -0.0037354786886008222 0.0029572854789716996 0 -0.0032702438883558827 0.0022662941838499182 0 -0.012011635481156116 0.0050438997433989025 0 -0.011690594459861705 0.0045595044164587267 0 -0.012281790802753115 0.0043622186266958473 0 -0.0042046852177149005 0.003647796094683688 0 -0.0034237732962950941 0.0034584041541149409 0 -0.0037354786886008222 0.0029572854789716996 0 -0.0044778669756507569 0.0035530840721902982 0 -0.0080333459273640422 0.0044278713131088252 0 -0.012011635481156116 0.0050438997433989025 0 -0.012936346328735651 0.0045582798549278526 0 -0.012281790802753115 0.0043622186266958473 0 -0.0044778669756507569 0.0035530840721902982 0 -0.007070719679235277 0.0029226199107732298 0 0.00010547024610772204 0.0027140491204388894 0 0.00050465960592220138 0.0025643471207272895 0 -0.00074495666340005219 0.0014009266746716838 0 0.00080322541131425183 0.0020944256193860364 0 0.00050465960592220138 0.0025643471207272895 0 -0.00074495666340005219 0.0014009266746716838 0 0.0002285825986430909 0.0028387124062544083 0 0.00010634033322954628 0.0027949625745212086 0 0.00010547024610772204 0.0027140491204388894 0 0.0002285825986430909 0.0028387124062544083 0 0.00010547024610772204 0.0027140491204388894 0 0.00050465960592220138 0.0025643471207272895 0 0.00010634033322954628 0.0027949625745212086 0 0.00010547024610772204 0.0027140491204388894 0 0.00011855824904942302 0.0026302167306331212 0 0.00010547024610772204 0.0027140491204388894 0 -0.00074495666340005219 0.0014009266746716838 0 -0.0016328071197543256 0.0019012843671000789 0 3.2582079906261689e-05 0.0026740207425804963 0 -0.00072801833092091869 0.0022087984955344643 0 0.0008229249953833833 0.0032123428043677434 0 0.00054609046634624412 0.0026666707653546702 0 0.00016176573852475393 0.0027000820825994515 0 0.00010547024610772204 0.0027140491204388894 0 0.00011855824904942302 0.0026302167306331212 0 0.00016507303601716609 0.0025182528546049015 0 0.0042338681277353102 0.0020776153136138377 0 3.3839423027045853e-05 0.0024883414869081243 0 -0.00074495666340005219 0.0014009266746716838 0 -0.0016328071197543256 0.0019012843671000789 0 -0.0025609966517262084 0.00066725912262153404 0 -0.007070719679235277 0.0029226199107732298 0 -0.0077802140674379221 0.0023861062883655964 0 -0.012936346328735651 0.0045582798549278526 0 -0.013233362403115904 0.0039994116164059103 0 -0.012826869614478447 0.00404273977731301 0 -0.012936346328735651 0.0045582798549278526 0 -0.013233362403115904 0.0039994116164059103 0 -0.01336465317019005 0.0039742646547350161 0 -0.013233362403115904 0.0039994116164059103 0 -0.012826869614478447 0.00404273977731301 0 -0.013327087757671247 0.0037669697825454596 0 -0.012936346328735651 0.0045582798549278526 0 -0.012281790802753115 0.0043622186266958473 0 -0.012826869614478447 0.00404273977731301 0 -0.012281790802753115 0.0043622186266958473 0 -0.012317942869904105 0.003880072041775276 0 -0.012826869614478447 0.00404273977731301 0 -0.012317942869904105 0.003880072041775276 0 -0.012710527989334057 0.0035916150535616922 0 -0.011745770521420116 0.0031415218322850226 0 -0.012317942869904105 0.003880072041775276 0 -0.012826869614478447 0.00404273977731301 0 -0.012710527989334057 0.0035916150535616922 0 -0.012710527989334057 0.0035916150535616922 0 -0.013327087757671247 0.0037669697825454596 0 -0.012733955857161311 0.002865715723040463 0 -0.013327087757671247 0.0037669697825454596 0 -0.013536634685826925 0.003967415555942288 0 -0.013386954427714544 0.0038800296903273874 0 -0.013233362403115904 0.0039994116164059103 0 -0.013327087757671247 0.0037669697825454596 0 -0.013386954427714544 0.0038800296903273874 0 -0.012826869614478447 0.00404273977731301 0 -0.012710527989334057 0.0035916150535616922 0 -0.013327087757671247 0.0037669697825454596 0 -0.0024577882016033207 0.0015581104129935611 0 -0.0025265411412503445 0.0018901669347000328 0 -0.0027494503463235706 0.0013481038355462938 0 -0.0023928246453854603 0.00089376670040561561 0 -0.0023788408621801664 0.0012786664245651501 0 -0.0027494503463235706 0.0013481038355462938 0 -0.0024577882016033207 0.0015581104129935611 0 -0.0023788408621801664 0.0012786664245651501 0 -0.0027494503463235706 0.0013481038355462938 0 -0.0080333459273640422 0.0044278713131088252 0 -0.004739927727350525 0.0024349611792775189 0 -0.011690594459861705 0.0045595044164587267 0 -0.011335157640240949 0.0040744395033101601 0 -0.011868380812930511 0.0040638155489095594 0 -0.011690594459861705 0.0045595044164587267 0 -0.012281790802753115 0.0043622186266958473 0 -0.011868380812930511 0.0040638155489095594 0 -0.012281790802753115 0.0043622186266958473 0 -0.012317942869904105 0.003880072041775276 0 -0.011868380812930511 0.0040638155489095594 0 -0.012317942869904105 0.003880072041775276 0 -0.011868380812930511 0.0040638155489095594 0 -0.011745770521420116 0.0031415218322850226 0 -0.011335157640240949 0.0040744395033101601 0 -0.011868380812930511 0.0040638155489095594 0 -0.011745770521420116 0.0031415218322850226 0 -0.0023073455186502796 0.00083144213789743289 0 -0.004739927727350525 0.0024349611792775189 0 -0.004739927727350525 0.0024349611792775189 0 -0.0074919970668525238 0.0019399030798019029 0 -0.0026939927398523435 0.0012973168082100897 0 -0.0030712218548749701 0.0018319506515130286 0 -0.003380843284388224 0.0010471499582329568 0 -0.0027673217160387987 0.00084701207471664071 0 -0.0026939927398523435 0.0012973168082100897 0 -0.003380843284388224 0.0010471499582329568 0 -0.0027673217160387987 0.00084701207471664071 0 -0.003380843284388224 0.0010471499582329568 0 -0.0029761553465350917 0.00052543201460453085 0 -0.0074919970668525238 0.0019399030798019029 0 -0.011113265742280524 0.0026810568565974803 0 -0.011745770521420116 0.0031415218322850226 0 -0.012184099182846757 0.002111470955677782 0 -0.012733955857161311 0.002865715723040463 0 -0.003380843284388224 0.0010471499582329568 0 -0.003646382940815773 0.0004036701111598822 0 -0.0029761553465350917 0.00052543201460453085 0 -0.013536634685826925 0.003967415555942288 0 -0.01386102132018977 0.0039652656262849414 0 -0.013845753393837533 0.0042295495348444725 0 -0.013327087757671247 0.0037669697825454596 0 -0.013536634685826925 0.003967415555942288 0 -0.01386102132018977 0.0039652656262849414 0 -0.013269273105063961 0.0036359500954650879 0 -0.013577237586131405 0.0036583988678744279 0 -0.012710527989334057 0.0035916150535616922 0 -0.011745770521420116 0.0031415218322850226 0 -0.012733955857161311 0.002865715723040463 0 -0.014188508237673099 0.0042319088769175077 0 -0.01386102132018977 0.0039652656262849414 0 -0.014013151978959169 0.0042595557984810278 0 -0.011113265742280524 0.0026810568565974803 0 -0.013577237586131405 0.0036583988678744279 0 -0.01386102132018977 0.0039652656262849414 0 -0.014013151978959169 0.0042595557984810278 0 -0.013845753393837533 0.0042295495348444725 0 -0.014013151978959169 0.0042595557984810278 0 -0.013845753393837533 0.0042295495348444725 0 -0.014015338652225215 0.0043888158993509226 0 -0.013536634685826925 0.003967415555942288 0 -0.013845753393837533 0.0042295495348444725 0 -0.013683222870044538 0.0042514084834795593 0 -0.013845753393837533 0.0042295495348444725 0 -0.013943100583641068 0.004411772697725652 0 -0.013683222870044538 0.0042514084834795593 0 -0.013845753393837533 0.0042295495348444725 0 -0.013943100583641068 0.004411772697725652 0 -0.014015338652225215 0.0043888158993509226 0 -0.014010493292441844 0.0053033124870294065 0 -0.014148871044460339 0.0044603773555517857 0 -0.013997751237504638 0.0043405022163474066 0 -0.014188508237673099 0.0042319088769175077 0 -0.014013151978959169 0.0042595557984810278 0 -0.014148871044460339 0.0044603773555517857 0 -0.011113265742280524 0.0026810568565974803 0 -0.013202502938202158 0.0043070041585579434 0 -0.014013151978959169 0.0042595557984810278 0 -0.014148871044460339 0.0044603773555517857 0 -0.014015338652225215 0.0043888158993509226 0 -0.013943100583641068 0.004411772697725652 0 -0.014015338652225215 0.0043888158993509226 0 -0.014110110114927561 0.0044585395628876897 0 -0.014148871044460339 0.0044603773555517857 0 -0.014110110114927561 0.0044585395628876897 0 -0.013997751237504638 0.0043405022163474066 0 -0.014148871044460339 0.0044603773555517857 0 -0.014015338652225215 0.0043888158993509226 0 -0.014110110114927561 0.0044585395628876897 0 -0.013943100583641068 0.004411772697725652 0 -0.014110110114927561 0.0044585395628876897 0 -0.014127793637242295 0.0045548697977473521 0 -0.014110110114927561 0.0044585395628876897 0 -0.014202081114257383 0.0045776633740035374 0 -0.013997751237504638 0.0043405022163474066 0 -0.014127793637242295 0.0045548697977473521 0 -0.014202081114257383 0.0045776633740035374 0 -0.014398218565841775 0.0046648763587047136 0 -0.014110110114927561 0.0044585395628876897 0 -0.014127793637242295 0.0045548697977473521 0 -0.014202081114257383 0.0045776633740035374 0 -0.013943100583641068 0.004411772697725652 0 -0.014127793637242295 0.0045548697977473521 0 -0.013908242157588114 0.004544728228750866 0 -0.013943100583641068 0.004411772697725652 0 -0.013908242157588114 0.004544728228750866 0 -0.013644805278095326 0.0044111148326738238 0 -0.013908242157588114 0.004544728228750866 0 -0.014105708671667532 0.0047560274953828826 0 -0.013675424209746632 0.0046313185279017758 0 -0.014127793637242295 0.0045548697977473521 0 -0.013908242157588114 0.004544728228750866 0 -0.014105708671667532 0.0047560274953828826 0 -0.014127793637242295 0.0045548697977473521 0 -0.014105708671667532 0.0047560274953828826 0 -0.014398218565841775 0.0046648763587047136 0 -0.016762813129826502 0.0058000096481215166 0 -0.014819323074105432 0.0045074963215801424 0 -0.01659815132574256 0.0043355814689511642 0 -0.014105708671667532 0.0047560274953828826 0 -0.014398218565841775 0.0046648763587047136 0 -0.014819323074105432 0.0045074963215801424 0 -0.01543649360207601 0.0052307744749249142 0 -0.014799750660781629 0.0045766471631108665 0 -0.016762813129826502 0.0058000096481215166 0 -0.01659815132574256 0.0043355814689511642 0 -0.018448096894251313 0.0051589911393890202 0 -0.01367266635966264 0.0042973805325154371 0 -0.014292776929181157 0.0045574651514524297 0 -0.014317972675366841 0.0047481597110378363 0 -0.01367266635966264 0.0042973805325154371 0 -0.014292776929181157 0.0045574651514524297 0 -0.013866869586394416 0.00350359103722532 0 -0.014398218565841775 0.0046648763587047136 0 -0.014819323074105432 0.0045074963215801424 0 -0.014292776929181157 0.0045574651514524297 0 -0.014819323074105432 0.0045074963215801424 0 -0.014292776929181157 0.0045574651514524297 0 -0.013866869586394416 0.00350359103722532 0 -0.014398218565841775 0.0046648763587047136 0 -0.014292776929181157 0.0045574651514524297 0 -0.014317972675366841 0.0047481597110378363 0 -0.014202081114257383 0.0045776633740035374 0 -0.014398218565841775 0.0046648763587047136 0 -0.014317972675366841 0.0047481597110378363 0 -0.011714208045766993 -1.2802115038827109e-05 0 -0.012884359600417401 0.0022634079779354339 0 -0.011266793902055263 0.0020807922795478542 0 -0.012749369170085413 0.0020625067965514107 0 -0.013570745404289947 0.0035153657370483662 0 -0.0029288371941486434 -0.00042051582807536484 0 -0.0032411656188407576 -5.0053510901344122e-05 0 -0.002601583504106891 0.00014037011601363412 0 -0.0071159987116313547 0.00082755838145673203 0 -0.007690627232053571 0.0018130569538768594 0 -0.012884359600417401 0.0022634079779354339 0 -0.011266793902055263 0.0020807922795478542 0 -0.012749127340935253 0.0038764390871412245 0 -0.014202081114257383 0.0045776633740035374 0 -0.014317972675366841 0.0047481597110378363 0 -0.013997751237504638 0.0043405022163474066 0 -0.012884359600417401 0.0022634079779354339 0 -0.012749127340935253 0.0038764390871412245 0 -0.013997751237504638 0.0043405022163474066 0 -0.013570745404289947 0.0035153657370483662 0 -0.013991420599831075 0.0043094507481698094 0 -0.014010493292441844 0.0053033124870294065 0 -0.012749127340935253 0.0038764390871412245 0 -0.013997751237504638 0.0043405022163474066 0 -0.011113265742280524 0.0026810568565974803 0 -0.007690627232053571 0.0018130569538768594 0 -0.003646382940815773 0.0004036701111598822 0 -0.0029761553465350917 0.00052543201460453085 0 -0.0032411656188407576 -5.0053510901344122e-05 0 -0.0029761553465350917 0.00052543201460453085 0 -0.0032411656188407576 -5.0053510901344122e-05 0 -0.002601583504106891 0.00014037011601363412 0 -0.0022289230554842152 0.00036664750827934873 0 -0.002601583504106891 0.00014037011601363412 0 -0.0021472173430257032 -5.7686278430533569e-05 0 -0.002601583504106891 0.00014037011601363412 0 -0.0021472173430257032 -5.7686278430533569e-05 0 -0.0024913359662205189 -0.00041532346982865926 0 -0.0021472173430257032 -5.7686278430533569e-05 0 -0.0021194380383522796 -0.00033949730000856798 0 -0.0024913359662205189 -0.00041532346982865926 0 -0.0029288371941486434 -0.00042051582807536484 0 -0.002601583504106891 0.00014037011601363412 0 -0.0024913359662205189 -0.00041532346982865926 0 -0.0017703822452977021 0.0001674486963420832 0 -0.0017749180385924774 -0.0001707615305487472 0 -0.0014530804643873537 0.000191263041014131 0 -0.0016781279510641566 0.00046653146391672845 0 -0.0017703822452977021 0.0001674486963420832 0 -0.0014530804643873537 0.000191263041014131 0 -0.0019142732215753282 0.00036856098290050007 0 -0.0017703822452977021 0.0001674486963420832 0 -0.0021472173430257032 -5.7686278430533569e-05 0 -0.0019142732215753282 0.00036856098290050007 0 -0.0022289230554842152 0.00036664750827934873 0 -0.0021472173430257032 -5.7686278430533569e-05 0 -0.0017703822452977021 0.0001674486963420832 0 -0.0021472173430257032 -5.7686278430533569e-05 0 -0.0017749180385924774 -0.0001707615305487472 0 -0.0021472173430257032 -5.7686278430533569e-05 0 -0.0017749180385924774 -0.0001707615305487472 0 -0.0021194380383522796 -0.00033949730000856798 0 -0.0017032977530712459 -0.00055836891129637783 0 -0.0017859076620100921 -0.00042175584793674583 0 -0.0016392499955547759 -0.00038730290735946606 0 -0.0017032977530712459 -0.00055836891129637783 0 -0.0017859076620100921 -0.00042175584793674583 0 -0.0018442289880191364 -0.00052200565172599953 0 -0.0017749180385924774 -0.0001707615305487472 0 -0.0017859076620100921 -0.00042175584793674583 0 -0.0016392499955547759 -0.00038730290735946606 0 -0.0017749180385924774 -0.0001707615305487472 0 -0.0017859076620100921 -0.00042175584793674583 0 -0.0019572472873883554 -0.00044270843101954806 0 -0.0017859076620100921 -0.00042175584793674583 0 -0.0019572472873883554 -0.00044270843101954806 0 -0.0018442289880191364 -0.00052200565172599953 0 -0.0019572472873883554 -0.00044270843101954806 0 -0.0018442289880191364 -0.00052200565172599953 0 -0.0019315098199780955 -0.00066347503013507874 0 -0.0021194380383522796 -0.00033949730000856798 0 -0.0022378258467745582 -0.00061990696256716447 0 -0.0024913359662205189 -0.00041532346982865926 0 -0.0017749180385924774 -0.0001707615305487472 0 -0.0019572472873883554 -0.00044270843101954806 0 -0.0021194380383522796 -0.00033949730000856798 0 -0.0019572472873883554 -0.00044270843101954806 0 -0.0021194380383522796 -0.00033949730000856798 0 -0.0022378258467745582 -0.00061990696256716447 0 -0.0019572472873883554 -0.00044270843101954806 0 -0.0022378258467745582 -0.00061990696256716447 0 -0.0019315098199780955 -0.00066347503013507874 0 -0.002249746152989019 -0.00085797204862346206 0 -0.0019315098199780955 -0.00066347503013507874 0 -0.0019387229841521653 -0.0010523332394749636 0 -0.0022378258467745582 -0.00061990696256716447 0 -0.002249746152989019 -0.00085797204862346206 0 -0.0025120828018353942 -0.00081556299665552713 0 -0.002249746152989019 -0.00085797204862346206 0 -0.0025120828018353942 -0.00081556299665552713 0 -0.0024868123489851434 -0.0010198965047503938 0 -0.0022378258467745582 -0.00061990696256716447 0 -0.002249746152989019 -0.00085797204862346206 0 -0.0019315098199780955 -0.00066347503013507874 0 -0.00993178012340383 0.0012428670976283994 0 -0.0099764028730261051 0.0010595298765415622 0 -0.010039193480022345 0.0011769436234024308 0 -0.0051146910953349381 9.2926723525552294e-05 0 -0.0051887892663214493 -0.00026009784602057791 0 -0.0019315098199780955 -0.00066347503013507874 0 -0.0019387229841521653 -0.0010523332394749636 0 -0.0016253867506756583 -0.00057015211598860673 0 -0.0017032977530712459 -0.00055836891129637783 0 -0.0019315098199780955 -0.00066347503013507874 0 -0.0016253867506756583 -0.00057015211598860673 0 -0.0017032977530712459 -0.00055836891129637783 0 -0.0018442289880191364 -0.00052200565172599953 0 -0.0019315098199780955 -0.00066347503013507874 0 -0.0071159987116313547 0.00082755838145673203 0 -0.0064489549784019946 -0.0002215845823390955 0 -0.0029288371941486434 -0.00042051582807536484 0 -0.0024913359662205189 -0.00041532346982865926 0 -0.0027184734769255862 -0.00076575915685423194 0 -0.0024913359662205189 -0.00041532346982865926 0 -0.0025120828018353942 -0.00081556299665552713 0 -0.0027184734769255862 -0.00076575915685423194 0 -0.0022378258467745582 -0.00061990696256716447 0 -0.0024913359662205189 -0.00041532346982865926 0 -0.0025120828018353942 -0.00081556299665552713 0 -0.011714208045766993 -1.2802115038827109e-05 0 -0.011266793902055263 0.0020807922795478542 0 -0.0098092046706662519 0.00016553326546451437 0 -0.011714208045766993 -1.2802115038827109e-05 0 -0.0098092046706662519 0.00016553326546451437 0 -0.010554820156247384 -0.0023580454576063881 0 -0.0098092046706662519 0.00016553326546451437 0 -0.0083636029533311774 -0.0018087926278639239 0 -0.010554820156247384 -0.0023580454576063881 0 -0.0064489549784019946 -0.0002215845823390955 0 -0.0041514976941525571 -0.0016411496135455431 0 -0.0025120828018353942 -0.00081556299665552713 0 -0.0027184734769255862 -0.00076575915685423194 0 -0.0026275012001589007 -0.0011662125558829402 0 -0.0025120828018353942 -0.00081556299665552713 0 -0.0026275012001589007 -0.0011662125558829402 0 -0.0024868123489851434 -0.0010198965047503938 0 -0.0026275012001589007 -0.0011662125558829402 0 -0.0026126469626259691 -0.0011540507528435379 0 -0.0024868123489851434 -0.0010198965047503938 0 -0.0041514976941525571 -0.0016411496135455431 0 -0.003844239103119177 -0.001701669504029976 0 -0.0029226552702291725 -0.0011890969236123389 0 -0.0026126469626259691 -0.0011540507528435379 0 -0.0028390099203300019 -0.0013554498040527407 0 -0.0041514976941525571 -0.0016411496135455431 0 -0.0033089025739276418 -0.0014034010996613253 0 -0.0026126469626259691 -0.0011540507528435379 0 -0.0028390099203300019 -0.0013554498040527407 0 -0.0025283266516824819 -0.0014150795752023554 0 -0.0030529130652759339 -0.00184406691692294 0 -0.002559770466518499 -0.0021725158279270649 0 -0.0039978892558388017 -0.0025009923079411904 0 -0.0030411036520502344 -0.0010628186800610072 0 -0.0035034865460848667 -0.0016307999685699339 0 -0.0045807651535522504 -0.0013662786513296079 0 -0.0028390099203300019 -0.0013554498040527407 0 -0.0030529130652759339 -0.00184406691692294 0 -0.0025283266516824819 -0.0014150795752023554 0 -0.0030411036520502344 -0.0010628186800610072 0 -0.0035034865460848667 -0.0016307999685699339 0 -0.0028390099203300019 -0.0013554498040527407 0 -0.0035034865460848667 -0.0016307999685699339 0 -0.0028390099203300019 -0.0013554498040527407 0 -0.0030529130652759339 -0.00184406691692294 0 -0.0035034865460848667 -0.0016307999685699339 0 -0.0030529130652759339 -0.00184406691692294 0 -0.0039978892558388017 -0.0025009923079411904 0 -0.0035034865460848667 -0.0016307999685699339 0 -0.0045807651535522504 -0.0013662786513296079 0 -0.0039978892558388017 -0.0025009923079411904 0 -0.0041514976941525571 -0.0016411496135455431 0 -0.011193395675989632 0.0006411033781487266 0 -0.011193395675989632 0.0006411033781487266 0 -0.0098810198640157387 -0.00021310846320865651 0 -0.015425829976205299 0.0018133663332286509 0 -0.015438702427499626 0.0015992629117506526 0 -0.015325961832257482 0.0015662161007260369 0 -0.0019387229841521653 -0.0010523332394749636 0 -0.0023615392359930035 -0.0010725414384058943 0 -0.0025283266516824819 -0.0014150795752023554 0 -0.002249746152989019 -0.00085797204862346206 0 -0.0019387229841521653 -0.0010523332394749636 0 -0.0023615392359930035 -0.0010725414384058943 0 -0.002249746152989019 -0.00085797204862346206 0 -0.0024868123489851434 -0.0010198965047503938 0 -0.0023615392359930035 -0.0010725414384058943 0 -0.0026126469626259691 -0.0011540507528435379 0 -0.0023615392359930035 -0.0010725414384058943 0 -0.0025283266516824819 -0.0014150795752023554 0 -0.0026126469626259691 -0.0011540507528435379 0 -0.0024868123489851434 -0.0010198965047503938 0 -0.0023615392359930035 -0.0010725414384058943 0 -0.0051146910953349381 9.2926723525552294e-05 0 -0.012288077200011715 0.0010941065995498012 0 -0.0019387229841521653 -0.0010523332394749636 0 -0.0025283266516824819 -0.0014150795752023554 0 -0.002559770466518499 -0.0021725158279270649 0 -0.0030529130652759339 -0.00184406691692294 0 -0.0025283266516824819 -0.0014150795752023554 0 -0.002559770466518499 -0.0021725158279270649 0 -0.00993178012340383 0.0012428670976283994 0 -0.010034994194863298 0.0013676834837476855 0 -0.0099121158501857404 0.0013694919163397704 0 -0.015319746210151544 0.0029586135861594518 0 -0.012288077200011715 0.0010941065995498012 0 -0.00993178012340383 0.0012428670976283994 0 -0.010034994194863298 0.0013676834837476855 0 -0.010068960482219922 0.0012798169593793015 0 -0.018779964388669981 0.0042819645465410981 0 -0.019442000381364451 0.0027013765178542739 0 -0.021554498577577443 0.003708261809114054 0 -0.019442000381364451 0.0027013765178542739 0 -0.021384569026000728 0.0028822974175827598 0 -0.021554498577577443 0.003708261809114054 0 -0.020341027424016313 0.0027791483276630564 0 -0.021206219285992967 0.0028505852381191716 0 -0.020927675638646538 0.0028335977983429917 0 -0.021384569026000728 0.0028822974175827598 0 -0.021192198624218984 0.002656424722641115 0 -0.021384569026000728 0.0028822974175827598 0 -0.021559705133677821 0.0022655542568037024 0 -0.022069688907905331 0.0023678059017189839 0 -0.021384569026000728 0.0028822974175827598 0 -0.021559705133677821 0.0022655542568037024 0 -0.021192198624218984 0.002656424722641115 0 -0.021559705133677821 0.0022655542568037024 0 -0.021192198624218984 0.002656424722641115 0 -0.021224150227598156 0.0023027410577173362 0 -0.020927675638646538 0.0028335977983429917 0 -0.021083085926147105 0.0025327412280230373 0 -0.020908474096866681 0.0025301753414596817 0 -0.021192198624218984 0.002656424722641115 0 -0.021083085926147105 0.0025327412280230373 0 -0.021224150227598156 0.0023027410577173362 0 -0.020927675638646538 0.0028335977983429917 0 -0.021192198624218984 0.002656424722641115 0 -0.021083085926147105 0.0025327412280230373 0 -0.021083085926147105 0.0025327412280230373 0 -0.021224150227598156 0.0023027410577173362 0 -0.021014125189739562 0.0023468603705336421 0 -0.021224150227598156 0.0023027410577173362 0 -0.021014125189739562 0.0023468603705336421 0 -0.020897271583240846 0.0022154127457499691 0 -0.021083085926147105 0.0025327412280230373 0 -0.021014125189739562 0.0023468603705336421 0 -0.020908474096866681 0.0025301753414596817 0 -0.021014125189739562 0.0023468603705336421 0 -0.020887721160086373 0.0022178737183707539 0 -0.020908474096866681 0.0025301753414596817 0 -0.020887721160086373 0.0022178737183707539 0 -0.020630902048547683 0.0025798705261159448 0 -0.020550927016711181 0.0025315330888034593 0 -0.02104157524480714 0.002059314596423765 0 -0.019742217199498643 0.0024328447808290767 0 -0.020887721160086373 0.0022178737183707539 0 -0.020908474096866681 0.0025301753414596817 0 -0.020630902048547683 0.0025798705261159448 0 -0.021062269258867297 0.0021473415320582417 0 -0.02104157524480714 0.002059314596423765 0 -0.020927675638646538 0.0028335977983429917 0 -0.020908474096866681 0.0025301753414596817 0 -0.020630902048547683 0.0025798705261159448 0 -0.015369212096125424 0.0013993406270612124 0 -0.015325961832257482 0.0015662161007260369 0 -0.015219672201787599 0.0013144923841525021 0 -0.015369212096125424 0.0013993406270612124 0 -0.015415219179741799 0.0014935859545070899 0 -0.015325961832257482 0.0015662161007260369 0 -0.015369212096125424 0.0013993406270612124 0 -0.015481524517517078 0.0014213896675532921 0 -0.015415219179741799 0.0014935859545070899 0 -0.015481524517517078 0.0014213896675532921 0 -0.015555672831222434 0.0013279117387122016 0 -0.015574885847636307 0.0014989213300343255 0 -0.015481524517517078 0.0014213896675532921 0 -0.015415219179741799 0.0014935859545070899 0 -0.015574885847636307 0.0014989213300343255 0 -0.015415219179741799 0.0014935859545070899 0 -0.015438702427499626 0.0015992629117506526 0 -0.015574885847636307 0.0014989213300343255 0 -0.015415219179741799 0.0014935859545070899 0 -0.015438702427499626 0.0015992629117506526 0 -0.015325961832257482 0.0015662161007260369 0 -0.021384569026000728 0.0028822974175827598 0 -0.021554498577577443 0.003708261809114054 0 -0.022069688907905331 0.0023678059017189839 0 -0.014973756854025475 0.0015511580862151266 0 -0.015253810276064695 0.0015036530724461628 0 -0.015219672201787599 0.0013144923841525021 0 -0.012288077200011715 0.0010941065995498012 0 -0.018368058726682041 0.00224067034990215 0 -0.014973756854025475 0.0015511580862151266 0 -0.015219208928573752 0.0012830695040990001 0 -0.015219672201787599 0.0013144923841525021 0 -0.012288077200011715 0.0010941065995498012 0 -0.0098810198640157387 -0.00021310846320865651 0 -0.0098810198640157387 -0.00021310846320865651 0 -0.015927509619627606 0.0025041946956705931 0 -0.015369212096125424 0.0013993406270612124 0 -0.015219208928573752 0.0012830695040990001 0 -0.015219672201787599 0.0013144923841525021 0 -0.021559705133677821 0.0022655542568037024 0 -0.022069688907905331 0.0023678059017189839 0 -0.021835700107380795 0.0019683879544981631 0 -0.015219208928573752 0.0012830695040990001 0 -0.015555672831222434 0.0013279117387122016 0 -0.015547423424637049 0.00095223597414566177 0 -0.015369212096125424 0.0013993406270612124 0 -0.015219208928573752 0.0012830695040990001 0 -0.015555672831222434 0.0013279117387122016 0 -0.015369212096125424 0.0013993406270612124 0 -0.015481524517517078 0.0014213896675532921 0 -0.015555672831222434 0.0013279117387122016 0 -0.015555672831222434 0.0013279117387122016 0 -0.015778468187896119 0.001430192018739054 0 -0.015829466554584757 0.0011567626958438573 0 -0.015555672831222434 0.0013279117387122016 0 -0.015574885847636307 0.0014989213300343255 0 -0.015778468187896119 0.001430192018739054 0 -0.015438702427499626 0.0015992629117506526 0 -0.015574885847636307 0.0014989213300343255 0 -0.015787393214832454 0.001754188660064893 0 -0.015574885847636307 0.0014989213300343255 0 -0.015778468187896119 0.001430192018739054 0 -0.015787393214832454 0.001754188660064893 0 -0.015933811104038596 0.0015883684051672421 0 -0.01614223584563319 0.0018671066201289739 0 -0.015787393214832454 0.001754188660064893 0 -0.015778468187896119 0.001430192018739054 0 -0.015933811104038596 0.0015883684051672421 0 -0.016114911983964787 0.001230445131526753 0 -0.015778468187896119 0.001430192018739054 0 -0.015933811104038596 0.0015883684051672421 0 -0.015787393214832454 0.001754188660064893 0 -0.015778468187896119 0.001430192018739054 0 -0.016114911983964787 0.001230445131526753 0 -0.015829466554584757 0.0011567626958438573 0 -0.024794280391801933 0.00029721862822574418 0 -0.02444991906169363 0.00018454622686876971 0 -0.03327600891527966 -0.00070723974187043934 0 -0.032917746467934175 -0.00048252486959138188 0 -0.032784596751349607 -0.00099231023339631328 0 -0.016114911983964787 0.001230445131526753 0 -0.017295555907713894 0.0014597356107493439 0 -0.01614223584563319 0.0018671066201289739 0 -0.024794280391801933 0.00029721862822574418 0 -0.025026701921087142 0.00026596946601992899 0 -0.015933811104038596 0.0015883684051672421 0 -0.016114911983964787 0.001230445131526753 0 -0.01614223584563319 0.0018671066201289739 0 -0.015855245538653102 0.0018792934513611121 0 -0.015657063396526717 0.0022121951113335215 0 -0.01614223584563319 0.0018671066201289739 0 -0.015403656282703721 0.0032825892188557229 0 -0.014285954544962152 0.0024628720871500043 0 -0.017295555907713894 0.0014597356107493439 0 -0.01614223584563319 0.0018671066201289739 0 -0.017504189365713768 0.0031189710738602607 0 -0.01614223584563319 0.0018671066201289739 0 -0.015403656282703721 0.0032825892188557229 0 -0.017504189365713768 0.0031189710738602607 0 -0.01659815132574256 0.0043355814689511642 0 -0.015403656282703721 0.0032825892188557229 0 -0.017504189365713768 0.0031189710738602607 0 -0.014819323074105432 0.0045074963215801424 0 -0.01659815132574256 0.0043355814689511642 0 -0.015403656282703721 0.0032825892188557229 0 -0.014819323074105432 0.0045074963215801424 0 -0.015403656282703721 0.0032825892188557229 0 -0.013866869586394416 0.00350359103722532 0 -0.012749369170085413 0.0020625067965514107 0 -0.011193395675989632 0.0006411033781487266 0 -0.01367266635966264 0.0042973805325154371 0 -0.012832750155631826 0.002940113203810353 0 -0.013866869586394416 0.00350359103722532 0 -0.012832750155631826 0.002940113203810353 0 -0.013866869586394416 0.00350359103722532 0 -0.014285954544962152 0.0024628720871500043 0 -0.015425829976205299 0.0018133663332286509 0 -0.015438702427499626 0.0015992629117506526 0 -0.015787393214832454 0.001754188660064893 0 -0.011193395675989632 0.0006411033781487266 0 -0.015657063396526717 0.0022121951113335215 0 -0.015403656282703721 0.0032825892188557229 0 -0.013866869586394416 0.00350359103722532 0 -0.014285954544962152 0.0024628720871500043 0 -0.0021594643407887742 0.00022174549095286888 0 -0.010489743238195371 0.0017097604235898573 0 -0.0049161026421968039 -0.0016036348808669432 0 -0.0078851870467724506 0.0034102584640637143 0 -0.0074185308987639214 0.003335780381891956 0 -0.0049161026421968039 -0.0016036348808669432 0 -0.0042355275198667896 -0.0011714794919771587 0 -0.0074185308987639214 0.003335780381891956 0 -0.011138704099754473 -0.00020655053220530389 0 -0.0084956146549174626 -0.0011832565915370389 0 -0.010020990598729764 0.0013407647792965905 0 -0.0021203573460716121 -0.00034147905315205042 0 -0.010313420351422808 0.0018646644719631047 0 -0.0070996779114011798 0.0012967625025299594 0 -0.0073473363362486664 0.00020154154990287431 0 -0.0082730449687975303 0.0014941439582321497 0 -0.0070996779114011798 0.0012967625025299594 0 -0.0073473363362486664 0.00020154154990287431 0 -0.0059515247371215866 0.0011030210513902447 0 -0.0021594643407887742 0.00022174549095286888 0 0.0014307967376719459 0.00053931321122358325 0 -0.0021203573460716121 -0.00034147905315205042 0 0.0028365886519151821 0.00013746088287891126 0 0.0013316178418313583 0.00076869761715872174 0 0.0013961422026594608 0.00080913422112568469 0 0.0016769569477742738 0.00033661238100680458 0 -0.0021203573460716121 -0.00034147905315205042 0 -0.0021594643407887742 0.00022174549095286888 0 -0.010655096237334336 -0.0025130935944804814 0 -0.011138704099754473 -0.00020655053220530389 0 -0.0084956146549174626 -0.0011832565915370389 0 0.0030704237432133659 1.7027685210494012e-05 0 0.002944848155569548 -7.6700384488462479e-05 0 0.002997536961958632 2.9545281280837671e-05 0 -0.0042164048058989465 -0.0015187404084369735 0 -0.0021203573460716121 -0.00034147905315205042 0 0.0030704237432133659 1.7027685210494012e-05 0 0.002997536961958632 2.9545281280837671e-05 0 0.0031617630796120458 0.00016499724149554847 0 0.002997536961958632 2.9545281280837671e-05 0 0.0031617630796120458 0.00016499724149554847 0 0.0029919024490615647 0.00011763750459774159 0 0.0031163101779711593 0.00032432807825691687 0 0.0031617630796120458 0.00016499724149554847 0 0.002985427947022579 0.00022488986558619184 0 0.0031617630796120458 0.00016499724149554847 0 0.002985427947022579 0.00022488986558619184 0 0.0029919024490615647 0.00011763750459774159 0 0.002985427947022579 0.00022488986558619184 0 0.0029159645315400117 0.00014287020073463881 0 0.002892639816328888 0.00022174663681952597 0 0.002985427947022579 0.00022488986558619184 0 0.0029919024490615647 0.00011763750459774159 0 0.0029159645315400117 0.00014287020073463881 0 0.0029919024490615647 0.00011763750459774159 0 0.0029159645315400117 0.00014287020073463881 0 0.0029043018243988866 6.2864372935727005e-05 0 0.002944848155569548 -7.6700384488462479e-05 0 0.002997536961958632 2.9545281280837671e-05 0 0.0029043018243988866 6.2864372935727005e-05 0 0.0013961422026594608 0.00080913422112568469 0 0.0016769569477742738 0.00033661238100680458 0 0.0018126625674645114 0.00033663704286479096 0 0.002997536961958632 2.9545281280837671e-05 0 0.0029919024490615647 0.00011763750459774159 0 0.0029043018243988866 6.2864372935727005e-05 0 0.00013862554597973307 0.00077296377416699493 0 0.00011089742477756961 0.00076393470783503459 0 0.00011574289171952159 0.0007670966979686373 0 0.00013862554597973307 0.00077296377416699493 0 0.00015925758966391361 0.0007583795329135708 0 0.00011089742477756961 0.00076393470783503459 0 0.00015925758966391361 0.0007583795329135708 0 0.00011089742477756961 0.00076393470783503459 0 0.00019868058196674922 0.00070930691839686186 0 0.0022747221543451246 0.0001995737855086639 0 0.0028365886519151821 0.00013746088287891126 0 0.0010719124677622542 0.00032936725553556163 0 0.0014307967376719459 0.00053931321122358325 0 0.0019419688207780103 7.7726924143783574e-05 0 0.0016769569477742738 0.00033661238100680458 0 0.0018126625674645114 0.00033663704286479096 0 0.0027763965527804247 0.00022917654807747017 0 0.0029159645315400117 0.00014287020073463881 0 0.0029043018243988866 6.2864372935727005e-05 0 0.0020460502461040705 6.4607641467979618e-05 0 0.0019419688207780103 7.7726924143783574e-05 0 0.0018126625674645114 0.00033663704286479096 0 0.0027763965527804247 0.00022917654807747017 0 0.0029159645315400117 0.00014287020073463881 0 0.002892639816328888 0.00022174663681952597 0 0.00024686823625171786 0.00054468556373440784 0 0.00011089742477756961 0.00076393470783503459 0 0.00019868058196674922 0.00070930691839686186 0 0.00024686823625171786 0.00054468556373440784 0 0.00019868058196674922 0.00070930691839686186 0 0.0002894062578706855 0.00067852065390495053 0 0.00024686823625171786 0.00054468556373440784 0 0.00044276785194370764 0.00056611191659373136 0 0.0002894062578706855 0.00067852065390495053 0 0.00019868058196674922 0.00070930691839686186 0 0.0002894062578706855 0.00067852065390495053 0 0.00018919387330752882 0.00077882701351953646 0 0.0002894062578706855 0.00067852065390495053 0 0.00018919387330752882 0.00077882701351953646 0 0.00030595335879262775 0.00078724256225411204 0 0.00018919387330752882 0.00077882701351953646 0 0.00018047487293063277 0.0008161569240138232 0 0.00030595335879262775 0.00078724256225411204 0 0.00015925758966391361 0.0007583795329135708 0 0.00019868058196674922 0.00070930691839686186 0 0.00018919387330752882 0.00077882701351953646 0 0.00013862554597973307 0.00077296377416699493 0 0.00018919387330752882 0.00077882701351953646 0 0.00014449486639281616 0.0007776164191841252 0 0.00013862554597973307 0.00077296377416699493 0 0.00015925758966391361 0.0007583795329135708 0 0.00018919387330752882 0.00077882701351953646 0 0.00018919387330752882 0.00077882701351953646 0 0.00018047487293063277 0.0008161569240138232 0 0.00014449486639281616 0.0007776164191841252 0 0.00018047487293063277 0.0008161569240138232 0 0.00014449486639281616 0.0007776164191841252 0 0.00012341405088260295 0.00074248635011788704 0 0.00014449486639281616 0.0007776164191841252 0 0.00011574429839485201 0.00075094232917412437 0 0.00012341405088260295 0.00074248635011788704 0 0.00013862554597973307 0.00077296377416699493 0 0.00014449486639281616 0.0007776164191841252 0 0.00011574289171952159 0.0007670966979686373 0 8.801165960237666e-05 0.0007594972567446346 0 0.00011089742477756961 0.00076393470783503459 0 0.00011574289171952159 0.0007670966979686373 0 8.801165960237666e-05 0.0007594972567446346 0 0.00011574289171952159 0.0007670966979686373 0 0.00011574429839485201 0.00075094232917412437 0 0.00014449486639281616 0.0007776164191841252 0 0.00011574289171952159 0.0007670966979686373 0 0.00011574429839485201 0.00075094232917412437 0 -0.0021594643407887742 0.00022174549095286888 0 -0.0067291599252701081 0.0008765737267172832 0 8.801165960237666e-05 0.0007594972567446346 0 0.00011574429839485201 0.00075094232917412437 0 8.600427119856683e-05 0.00073484056831144842 0 -0.010512259737355256 0.00087235911919902106 0 -0.0067291599252701081 0.0008765737267172832 0 -0.0067291599252701081 0.0008765737267172832 0 -0.01112352358212699 -0.00065651998721271657 0 0.00011574429839485201 0.00075094232917412437 0 8.600427119856683e-05 0.00073484056831144842 0 7.4109584111956995e-05 0.00065697326161729731 0 0.00011574429839485201 0.00075094232917412437 0 7.4109584111956995e-05 0.00065697326161729731 0 0.00012341405088260295 0.00074248635011788704 0 -0.012167624031691093 0.00014656596124841022 0 -0.011029811205447146 -9.5935604647003346e-05 0 -0.011846619223048208 0.0003499332114255352 0 -0.0067291599252701081 0.0008765737267172832 0 -0.0053168367832913148 0.00021491263141455578 0 7.4109584111956995e-05 0.00065697326161729731 0 -0.00021530200495451592 0.00056555324163976625 0 -7.3916275800722186e-07 0.00070835492283804363 0 -0.0053168367832913148 0.00021491263141455578 0 -0.0051023548402909565 0.0002491997606479631 0 -0.0051023548402909565 0.0002491997606479631 0 -0.01101006950853972 0.0012161229750796592 0 -0.010174518767406963 -0.00014957307935979704 0 -0.0098498135848036922 0.00080749875114340846 0 -0.010964443035922497 0.0014208921556290415 0 -0.011029811205447146 -9.5935604647003346e-05 0 -0.0097690948558428782 -0.00031775021546435632 0 -0.010324273332630904 0.00065581029724469083 0 -7.3916275800722186e-07 0.00070835492283804363 0 -0.00012353412624147502 0.00087495614784818441 0 -0.00037438770373363035 0.00074469673961219905 0 -0.00021530200495451592 0.00056555324163976625 0 -7.3916275800722186e-07 0.00070835492283804363 0 -0.00037438770373363035 0.00074469673961219905 0 -0.0051023548402909565 0.0002491997606479631 0 -0.00030540753264913216 8.9533582769635525e-05 0 0.00018047487293063277 0.0008161569240138232 0 0.00012341405088260295 0.00074248635011788704 0 0.00021213483020382108 0.00088053398516194526 0 -7.3916275800722186e-07 0.00070835492283804363 0 0.00021213483020382108 0.00088053398516194526 0 -0.00012353412624147502 0.00087495614784818441 0 -7.3916275800722186e-07 0.00070835492283804363 0 0.00012341405088260295 0.00074248635011788704 0 0.00021213483020382108 0.00088053398516194526 0 7.4109584111956995e-05 0.00065697326161729731 0 -7.3916275800722186e-07 0.00070835492283804363 0 0.00012341405088260295 0.00074248635011788704 0 0.00018047487293063277 0.0008161569240138232 0 0.00021213483020382108 0.00088053398516194526 0 0.00030595335879262775 0.00078724256225411204 0 0.00021213483020382108 0.00088053398516194526 0 0.00043815225281367752 0.00078154786611405 0 0.00030595335879262775 0.00078724256225411204 0 0.00024656210330553039 0.00090290907422327469 0 0.00020554266530283766 0.00088847365310402895 0 0.00021213483020382108 0.00088053398516194526 0 0.00043815225281367752 0.00078154786611405 0 0.00063995862259955941 0.00079930712564887766 0 0.0002894062578706855 0.00067852065390495053 0 0.00030595335879262775 0.00078724256225411204 0 0.00041884486483589829 0.00065382081270022444 0 0.00030595335879262775 0.00078724256225411204 0 0.00050130624297890823 0.00069459117806537054 0 0.00041884486483589829 0.00065382081270022444 0 0.00043815225281367752 0.00078154786611405 0 0.00030595335879262775 0.00078724256225411204 0 0.00050130624297890823 0.00069459117806537054 0 0.00043815225281367752 0.00078154786611405 0 0.00050130624297890823 0.00069459117806537054 0 0.00054916107836131423 0.00073626622035468726 0 0.00052422833540432352 0.00056758887447005578 0 0.0005743594268001783 0.00060889511958134236 0 0.00041884486483589829 0.00065382081270022444 0 0.00050130624297890823 0.00069459117806537054 0 0.0005743594268001783 0.00060889511958134236 0 0.00041884486483589829 0.00065382081270022444 0 0.00052422833540432352 0.00056758887447005578 0 0.00065262479919833997 0.00053156905702456776 0 0.0005743594268001783 0.00060889511958134236 0 0.00052422833540432352 0.00056758887447005578 0 0.00044276785194370764 0.00056611191659373136 0 0.00041884486483589829 0.00065382081270022444 0 0.00044276785194370764 0.00056611191659373136 0 0.0002894062578706855 0.00067852065390495053 0 0.00041884486483589829 0.00065382081270022444 0 0.00084372242554933707 0.00052892873525200708 0 0.00072635476899873342 0.00064936452724978554 0 0.00071595471394547976 0.00074588030780246503 0 0.00023789504865243962 0.00034690208287987354 0 8.2391235241384617e-05 0.00070686397673189519 0 0.00032987325918223059 0.00049323993933937682 0 0.0004085484133211849 0.00021225416258831148 0 0.00014599821983254254 0.00082057063868343205 0 0.00084372242554933707 0.00052892873525200708 0 0.00072635476899873342 0.00064936452724978554 0 0.00073810634542798112 0.00055342415336398509 0 0.00065262479919833997 0.00053156905702456776 0 0.00070734541609666717 0.00053842050521056486 0 0.0006820364203933291 0.00059356525404455471 0 0.00072635476899873342 0.00064936452724978554 0 0.00073810634542798112 0.00055342415336398509 0 0.0006820364203933291 0.00059356525404455471 0 0.00070734541609666717 0.00053842050521056486 0 0.00073810634542798112 0.00055342415336398509 0 0.0006820364203933291 0.00059356525404455471 0 0.00065262479919833997 0.00053156905702456776 0 0.0005743594268001783 0.00060889511958134236 0 0.0006820364203933291 0.00059356525404455471 0 0.00050130624297890823 0.00069459117806537054 0 0.0005743594268001783 0.00060889511958134236 0 0.00062643250074541953 0.00067936255330815903 0 0.0005743594268001783 0.00060889511958134236 0 0.0006820364203933291 0.00059356525404455471 0 0.00062643250074541953 0.00067936255330815903 0 0.00072635476899873342 0.00064936452724978554 0 0.0006820364203933291 0.00059356525404455471 0 0.00062643250074541953 0.00067936255330815903 0 0.00072635476899873342 0.00064936452724978554 0 0.00062643250074541953 0.00067936255330815903 0 0.00071595471394547976 0.00074588030780246503 0 0.00050130624297890823 0.00069459117806537054 0 0.00062643250074541953 0.00067936255330815903 0 0.00054916107836131423 0.00073626622035468726 0 0.00062643250074541953 0.00067936255330815903 0 0.00054916107836131423 0.00073626622035468726 0 0.00063995862259955941 0.00079930712564887766 0 0.00043815225281367752 0.00078154786611405 0 0.00054916107836131423 0.00073626622035468726 0 0.00063995862259955941 0.00079930712564887766 0 0.00062643250074541953 0.00067936255330815903 0 0.00063995862259955941 0.00079930712564887766 0 0.00071595471394547976 0.00074588030780246503 0 0.00020554266530283766 0.00088847365310402895 0 0.00014599821983254254 0.00082057063868343205 0 -0.00016719089493112137 0.0012376135818087414 0 -0.00032324658817917731 0.0011585148119070601 0 -0.00035845001408304187 0.0013940505877546704 0 0.00014599821983254254 0.00082057063868343205 0 -0.00012681742518813949 0.00042567182388243561 0 -9.3671147638305679e-05 0.0011779820889578679 0 -0.00016719089493112137 0.0012376135818087414 0 -0.00032324658817917731 0.0011585148119070601 0 -0.00023232592747096935 0.0010387380877349029 0 -0.00039398005757294857 0.00096162018368810785 0 -0.00032324658817917731 0.0011585148119070601 0 -9.3671147638305679e-05 0.0011779820889578679 0 -0.00023232592747096935 0.0010387380877349029 0 -0.00032324658817917731 0.0011585148119070601 0 -9.3671147638305679e-05 0.0011779820889578679 0 -0.00023232592747096935 0.0010387380877349029 0 -0.00012353412624147502 0.00087495614784818441 0 0.00021213483020382108 0.00088053398516194526 0 -9.3671147638305679e-05 0.0011779820889578679 0 -0.00012353412624147502 0.00087495614784818441 0 -0.00023232592747096935 0.0010387380877349029 0 -0.00012353412624147502 0.00087495614784818441 0 -0.00039398005757294857 0.00096162018368810785 0 -0.00012353412624147502 0.00087495614784818441 0 -0.00039398005757294857 0.00096162018368810785 0 -0.00037438770373363035 0.00074469673961219905 0 -0.00039398005757294857 0.00096162018368810785 0 -0.000535728805613143 0.0011260122817843784 0 -0.00071912243598652671 0.0008646662389688775 0 -0.00059592442775111888 0.00084492244662099085 0 -0.0017935048727284158 0.0002806468580592066 0 -0.00039398005757294857 0.00096162018368810785 0 -0.000535728805613143 0.0011260122817843784 0 -0.00032324658817917731 0.0011585148119070601 0 -0.00059592442775111888 0.00084492244662099085 0 -0.00012681742518813949 0.00042567182388243561 0 -0.000535728805613143 0.0011260122817843784 0 -0.00032324658817917731 0.0011585148119070601 0 -0.00035845001408304187 0.0013940505877546704 0 -0.00080157830567632881 0.00032001035262361842 0 -0.0007997489517859043 0.0003206242626444949 0 -0.00079457113775455862 0.00032148779488441818 0 -0.00079960115360460499 0.00032045385000479187 0 -0.0007997489517859043 0.0003206242626444949 0 -0.00079457113775455862 0.00032148779488441818 0 0.0004085484133211849 0.00021225416258831148 0 -0.00012681742518813949 0.00042567182388243561 0 -0.00079960115360460499 0.00032045385000479187 0 -0.0007997489517859043 0.0003206242626444949 0 -0.00080236351796458361 0.00032038297743155797 0 -0.00080157830567632881 0.00032001035262361842 0 -0.0007997489517859043 0.0003206242626444949 0 -0.00080236351796458361 0.00032038297743155797 0 -0.00080157830567632881 0.00032001035262361842 0 -0.00080236351796458361 0.00032038297743155797 0 -0.00081026093307707007 0.00031744717537542024 0 -0.0017749180385924774 -0.0001707615305487472 0 -0.0014530804643873537 0.000191263041014131 0 -0.0014046768346642616 -0.00027999993301448838 0 -0.0017749180385924774 -0.0001707615305487472 0 -0.0014046768346642616 -0.00027999993301448838 0 -0.0016392499955547759 -0.00038730290735946606 0 -0.0010611560826153177 0.00021557186313503845 0 -0.0017935048727284158 0.0002806468580592066 0 -0.0042502573813235356 0.00026359833696085151 0 -0.0044188970691620196 1.7818131255393708e-05 0 -0.0042015379249649319 -1.6467335968557641e-05 0 -0.0017935048727284158 0.0002806468580592066 0 -0.0051887892663214493 -0.00026009784602057791 0 -0.0017935048727284158 0.0002806468580592066 0 -0.0061031377199663051 0.00026193528850326975 0 -0.0014046768346642616 -0.00027999993301448838 0 -0.0016392499955547759 -0.00038730290735946606 0 -0.0016158436126676734 -0.00057212666166281585 0 -0.0017032977530712459 -0.00055836891129637783 0 -0.0016392499955547759 -0.00038730290735946606 0 -0.0016158436126676734 -0.00057212666166281585 0 -0.0035205544567719249 -0.00049108626569985172 0 -0.0051887892663214493 -0.00026009784602057791 0 -0.00039398005757294857 0.00096162018368810785 0 -0.00071912243598652671 0.0008646662389688775 0 -0.00037438770373363035 0.00074469673961219905 0 -0.00029169603110053917 0.00047008200887953229 0 -0.00037438770373363035 0.00074469673961219905 0 -0.00065630865630155366 0.00052049315044512101 0 -0.00071912243598652671 0.0008646662389688775 0 -0.00037438770373363035 0.00074469673961219905 0 -0.00065630865630155366 0.00052049315044512101 0 -0.010174518767406963 -0.00014957307935979704 0 -0.0085355882655481947 -0.00041354933329600482 0 -0.0098498135848036922 0.00080749875114340846 0 -0.0061031377199663051 0.00026193528850326975 0 -0.0095836191047223782 0.0011074722233112885 0 -0.0085355882655481947 -0.00041354933329600482 0 -0.0089552549213967672 0.0012085034796967256 0 -0.0098498135848036922 0.00080749875114340846 0 -0.0051023548402909565 0.0002491997606479631 0 -0.0061031377199663051 0.00026193528850326975 0 -0.01008149805565692 0.0010710858857277594 0 -0.010039193480022345 0.0011769436234024308 0 -0.010151977817813402 0.0012196316444506123 0 -0.0099764028730261051 0.0010595298765415622 0 -0.01008149805565692 0.0010710858857277594 0 -0.010039193480022345 0.0011769436234024308 0 -0.0051887892663214493 -0.00026009784602057791 0 -0.0061031377199663051 0.00026193528850326975 0 -0.00993178012340383 0.0012428670976283994 0 -0.010039193480022345 0.0011769436234024308 0 -0.010068960482219922 0.0012798169593793015 0 -0.010039193480022345 0.0011769436234024308 0 -0.010068960482219922 0.0012798169593793015 0 -0.010151977817813402 0.0012196316444506123 0 -0.0095836191047223782 0.0011074722233112885 0 -0.011948357780680423 0.0029289299657427048 0 -0.0089552549213967672 0.0012085034796967256 0 -0.00962375487454167 0.0018415892763860597 0 -0.0093717705390508714 0.002811794478456081 0 -0.010068960482219922 0.0012798169593793015 0 -0.010151977817813402 0.0012196316444506123 0 -0.010209798659131365 0.001368564184916663 0 -0.0089552549213967672 0.0012085034796967256 0 -0.00962375487454167 0.0018415892763860597 0 -0.0098498135848036922 0.00080749875114340846 0 -0.00962375487454167 0.0018415892763860597 0 -0.0094895867852594473 0.0027952478118711713 0 -0.0093717705390508714 0.002811794478456081 0 -0.00962375487454167 0.0018415892763860597 0 -0.0094895867852594473 0.0027952478118711713 0 -0.010264495796715338 0.0016529536297593473 0 -0.0094895867852594473 0.0027952478118711713 0 -0.0093729362588274179 0.0028120296811763737 0 -0.0094619099563790186 0.0031768905171889973 0 -0.011948357780680423 0.0029289299657427048 0 -0.01211004160364558 0.0031969147372609254 0 -0.011752895957490767 0.0029460716028264092 0 -0.011948357780680423 0.0029289299657427048 0 -0.015690028305792102 0.0047329753860041587 0 -0.015574285040008063 0.0042271867345838572 0 -0.017360499317090737 0.0036895037414640228 0 -0.010034994194863298 0.0013676834837476855 0 -0.010068960482219922 0.0012798169593793015 0 -0.010209798659131365 0.001368564184916663 0 -0.015319746210151544 0.0029586135861594518 0 -0.011948357780680423 0.0029289299657427048 0 -0.018779964388669981 0.0042819645465410981 0 -0.015690028305792102 0.0047329753860041587 0 -0.017360499317090737 0.0036895037414640228 0 -0.019442000381364451 0.0027013765178542739 0 -0.017360499317090737 0.0036895037414640228 0 -0.017265299603527802 0.0025883119954993187 0 -0.020341027424016313 0.0027791483276630564 0 -0.01792379095819209 0.002779399529727499 0 -0.020927675638646538 0.0028335977983429917 0 -0.020208156333080627 0.0028551509269769126 0 -0.020630902048547683 0.0025798705261159448 0 -0.018779964388669981 0.0042819645465410981 0 -0.019442000381364451 0.0027013765178542739 0 -0.017360499317090737 0.0036895037414640228 0 -0.019742217199498643 0.0024328447808290767 0 -0.018426992258254747 0.0020522688446570972 0 -0.01792379095819209 0.002779399529727499 0 -0.019742217199498643 0.0024328447808290767 0 -0.017690541827007834 0.0031921701671595447 0 -0.018261023557687907 0.0026291172378746105 0 -0.017177942900750028 0.0019818888083112554 0 -0.020208156333080627 0.0028551509269769126 0 -0.020630902048547683 0.0025798705261159448 0 -0.020542404304377794 0.0025266497220599875 0 -0.020042755942208276 0.0023885981590580493 0 -0.019586354572074968 0.0021118418493304616 0 -0.01987193448020013 0.0020249068902835361 0 -0.019919335973727161 0.0025136686785253689 0 -0.019742217199498643 0.0024328447808290767 0 -0.020301346043076783 0.0021333629997781919 0 -0.020042755942208276 0.0023885981590580493 0 -0.01987193448020013 0.0020249068902835361 0 -0.01652488152474588 0.0031738308200817467 0 -0.01611176550148612 0.0013395594924031197 0 -0.017177942900750028 0.0019818888083112554 0 -0.017690541827007834 0.0031921701671595447 0 -0.01652488152474588 0.0031738308200817467 0 -0.017177942900750028 0.0019818888083112554 0 -0.01792379095819209 0.002779399529727499 0 -0.013631168378685681 0.0029794936298961645 0 -0.01411934593921913 0.004243781000829186 0 -0.016065326042638453 0.0023141423731117311 0 -0.013667880273148851 0.0022797679691867749 0 -0.01211004160364558 0.0031969147372609254 0 -0.01792379095819209 0.002779399529727499 0 -0.015574285040008063 0.0042271867345838572 0 -0.017360499317090737 0.0036895037414640228 0 -0.017265299603527802 0.0025883119954993187 0 -0.01211004160364558 0.0031969147372609254 0 -0.013631168378685681 0.0029794936298961645 0 -0.010206717449317254 0.0024528555371479592 0 -0.010369995508990636 0.0030911725364737709 0 -0.01066947225437203 0.0026866951347961974 0 -0.010369995508990636 0.0030911725364737709 0 -0.01066947225437203 0.0026866951347961974 0 -0.011089549963176414 0.0031035548848802894 0 -0.013631168378685681 0.0029794936298961645 0 -0.011934756067989676 0.0032736058163062099 0 -0.01066947225437203 0.0026866951347961974 0 -0.011089549963176414 0.0031035548848802894 0 -0.011176156666095635 0.0027020535127749204 0 -0.01066947225437203 0.0026866951347961974 0 -0.011176156666095635 0.0027020535127749204 0 -0.010862214399854164 0.002305113505601703 0 -0.013631168378685681 0.0029794936298961645 0 -0.016578296687615166 0.0019787138373262669 0 -0.013949686694598638 0.0034794376632906183 0 -0.013167428071733198 0.0034708815646555284 0 -0.013653017164732209 0.0021437400734952172 0 -0.013167428071733198 0.0034708815646555284 0 -0.012858852990894136 0.0027062756964496507 0 -0.013653017164732209 0.0021437400734952172 0 -0.011331331740311288 0.0029632308188065012 0 -0.011606779773808347 0.0023671381553220143 0 -0.011657585323200863 0.0024648505484630139 0 -0.01190310729100142 0.0030392413165071788 0 -0.011824741245126334 0.0027646072679563607 0 -0.013167428071733198 0.0034708815646555284 0 -0.012858852990894136 0.0027062756964496507 0 -0.012372694503298122 0.0034705056034823856 0 -0.011331331740311288 0.0029632308188065012 0 -0.011710731266462453 0.0028336994595345006 0 -0.011749555833936488 0.0031473906487609784 0 -0.011331331740311288 0.0029632308188065012 0 -0.011657585323200863 0.0024648505484630139 0 -0.011710731266462453 0.0028336994595345006 0 -0.011934756067989676 0.0032736058163062099 0 -0.011824741245126334 0.0027646072679563607 0 -0.010878363362483304 0.0015471321467345801 0 -0.011636665324104411 0.0020922670196087318 0 -0.011423389816118616 0.002443179628063335 0 -0.011176156666095635 0.0027020535127749204 0 -0.01142496687850589 0.0022994684932425495 0 -0.011822862916639346 0.0031011719868800532 0 -0.011089549963176414 0.0031035548848802894 0 -0.011176156666095635 0.0027020535127749204 0 -0.011822862916639346 0.0031011719868800532 0 -0.011091030251067105 0.0018579294807820363 0 -0.011824741245126334 0.0027646072679563607 0 -0.01142496687850589 0.0022994684932425495 0 -0.010862214399854164 0.002305113505601703 0 -0.010993007812389407 0.0015516036864039312 0 -0.011091030251067105 0.0018579294807820363 0 -0.01101006950853972 0.0012161229750796592 0 -0.010878363362483304 0.0015471321467345801 0 -0.011143135950431681 0.00086986424990987711 0 -0.011485960183499401 0.0014323578155941419 0 -0.011176156666095635 0.0027020535127749204 0 -0.01142496687850589 0.0022994684932425495 0 -0.010862214399854164 0.002305113505601703 0 -0.010206717449317254 0.0024528555371479592 0 -0.010862214399854164 0.002305113505601703 0 -0.010993007812389407 0.0015516036864039312 0 -0.01211004160364558 0.0031969147372609254 0 -0.010213811171835646 0.0016965065505606966 0 -0.0094895867852594473 0.0027952478118711713 0 -0.0094619099563790186 0.0031768905171889973 0 -0.010993007812389407 0.0015516036864039312 0 -0.010206717449317254 0.0024528555371479592 0 -0.01066947225437203 0.0026866951347961974 0 -0.010862214399854164 0.002305113505601703 0 -0.0094895867852594473 0.0027952478118711713 0 -0.010993007812389407 0.0015516036864039312 0 -0.010264495796715338 0.0016529536297593473 0 -0.010993007812389407 0.0015516036864039312 0 -0.010264495796715338 0.0016529536297593473 0 -0.010964443035922497 0.0014208921556290415 0 -0.00962375487454167 0.0018415892763860597 0 -0.010264495796715338 0.0016529536297593473 0 -0.0098498135848036922 0.00080749875114340846 0 -0.010264495796715338 0.0016529536297593473 0 -0.0098498135848036922 0.00080749875114340846 0 -0.010964443035922497 0.0014208921556290415 0 -0.010878363362483304 0.0015471321467345801 0 -0.010324273332630904 0.00065581029724469083 0 -0.011143135950431681 0.00086986424990987711 0 -0.01142496687850589 0.0022994684932425495 0 -0.010993007812389407 0.0015516036864039312 0 -0.010964443035922497 0.0014208921556290415 0 -0.011029811205447146 -9.5935604647003346e-05 0 -0.010324273332630904 0.00065581029724469083 0 -0.011143135950431681 0.00086986424990987711 0 -0.011029811205447146 -9.5935604647003346e-05 0 -0.011520961876581118 0.00058023506045681861 0 -0.011846619223048208 0.0003499332114255352 0 -0.011029811205447146 -9.5935604647003346e-05 0 -0.011143135950431681 0.00086986424990987711 0 -0.011520961876581118 0.00058023506045681861 0 -0.011935333971130519 0.00081259120119300376 0 -0.011625999820749345 0.00096490058332075572 0 -0.011881111792641438 0.001260620059441209 0 -0.011935333971130519 0.00081259120119300376 0 -0.011625999820749345 0.00096490058332075572 0 -0.011520961876581118 0.00058023506045681861 0 -0.011143135950431681 0.00086986424990987711 0 -0.011625999820749345 0.00096490058332075572 0 -0.011520961876581118 0.00058023506045681861 0 -0.011935333971130519 0.00081259120119300376 0 -0.011520961876581118 0.00058023506045681861 0 -0.011846619223048208 0.0003499332114255352 0 -0.011935333971130519 0.00081259120119300376 0 -0.011846619223048208 0.0003499332114255352 0 -0.01217085552527737 0.00055886761967321118 0 -0.013005693724891496 0.00034408288871236775 0 -0.01217372701870696 0.0001680267620117503 0 -0.01217085552527737 0.00055886761967321118 0 -0.01217372701870696 0.0001680267620117503 0 -0.011846619223048208 0.0003499332114255352 0 -0.01217085552527737 0.00055886761967321118 0 -0.013005693724891496 0.00034408288871236775 0 -0.01217085552527737 0.00055886761967321118 0 -0.012471153459906278 0.00088854236912175148 0 -0.011935333971130519 0.00081259120119300376 0 -0.01217085552527737 0.00055886761967321118 0 -0.012471153459906278 0.00088854236912175148 0 -0.011935333971130519 0.00081259120119300376 0 -0.012471153459906278 0.00088854236912175148 0 -0.012154557199470241 0.0011126143301152867 0 -0.012154557199470241 0.0011126143301152867 0 -0.012639294674931242 0.0014754826016114642 0 -0.012205639626698591 0.0014713310754543342 0 -0.012154557199470241 0.0011126143301152867 0 -0.012205639626698591 0.0014713310754543342 0 -0.011881111792641438 0.001260620059441209 0 -0.012471153459906278 0.00088854236912175148 0 -0.012639294674931242 0.0014754826016114642 0 -0.012947100876332079 0.0011021584167272864 0 -0.012471153459906278 0.00088854236912175148 0 -0.012154557199470241 0.0011126143301152867 0 -0.012639294674931242 0.0014754826016114642 0 -0.012205639626698591 0.0014713310754543342 0 -0.011891064400508584 0.001713620374303037 0 -0.012411138225485402 0.0018205040306099559 0 -0.012639294674931242 0.0014754826016114642 0 -0.012205639626698591 0.0014713310754543342 0 -0.012411138225485402 0.0018205040306099559 0 -0.011891064400508584 0.001713620374303037 0 -0.011881111792641438 0.001260620059441209 0 -0.011485960183499401 0.0014323578155941419 0 -0.012205639626698591 0.0014713310754543342 0 -0.011891064400508584 0.001713620374303037 0 -0.011881111792641438 0.001260620059441209 0 -0.011935333971130519 0.00081259120119300376 0 -0.012154557199470241 0.0011126143301152867 0 -0.011881111792641438 0.001260620059441209 0 -0.011143135950431681 0.00086986424990987711 0 -0.011625999820749345 0.00096490058332075572 0 -0.011485960183499401 0.0014323578155941419 0 -0.011625999820749345 0.00096490058332075572 0 -0.011881111792641438 0.001260620059441209 0 -0.011485960183499401 0.0014323578155941419 0 -0.010878363362483304 0.0015471321467345801 0 -0.011485960183499401 0.0014323578155941419 0 -0.011636665324104411 0.0020922670196087318 0 -0.011891064400508584 0.001713620374303037 0 -0.011485960183499401 0.0014323578155941419 0 -0.011636665324104411 0.0020922670196087318 0 -0.011891064400508584 0.001713620374303037 0 -0.011904220056656317 0.0020198263070833945 0 -0.012153287118957931 0.0020583967274904092 0 -0.011891064400508584 0.001713620374303037 0 -0.011636665324104411 0.0020922670196087318 0 -0.011904220056656317 0.0020198263070833945 0 -0.011636665324104411 0.0020922670196087318 0 -0.011904220056656317 0.0020198263070833945 0 -0.011928840818622706 0.0022086779528835867 0 -0.011904220056656317 0.0020198263070833945 0 -0.011928840818622706 0.0022086779528835867 0 -0.012153287118957931 0.0020583967274904092 0 -0.011928840818622706 0.0022086779528835867 0 -0.012160212428848679 0.0023155081987849065 0 -0.012153287118957931 0.0020583967274904092 0 -0.011784412464471924 0.0023388453150596979 0 -0.011809234095157543 0.0024661938926340858 0 -0.011971775287827448 0.0024547169428423003 0 -0.011928840818622706 0.0022086779528835867 0 -0.011784412464471924 0.0023388453150596979 0 -0.011971775287827448 0.0024547169428423003 0 -0.011928840818622706 0.0022086779528835867 0 -0.011971775287827448 0.0024547169428423003 0 -0.012160212428848679 0.0023155081987849065 0 -0.011636665324104411 0.0020922670196087318 0 -0.011653911822800679 0.0023647433764302003 0 -0.011584494673345807 0.0023561929324308448 0 -0.011823595790501497 0.0023474002331672207 0 -0.011824741245126334 0.0027646072679563607 0 -0.011636665324104411 0.0020922670196087318 0 -0.011928840818622706 0.0022086779528835867 0 -0.011784412464471924 0.0023388453150596979 0 -0.011636665324104411 0.0020922670196087318 0 -0.011784412464471924 0.0023388453150596979 0 -0.011653911822800679 0.0023647433764302003 0 -0.011784412464471924 0.0023388453150596979 0 -0.011729906334428067 0.0024420138056493257 0 -0.011809234095157543 0.0024661938926340858 0 -0.011784412464471924 0.0023388453150596979 0 -0.011729906334428067 0.0024420138056493257 0 -0.011653911822800679 0.0023647433764302003 0 -0.011729906334428067 0.0024420138056493257 0 -0.011653911822800679 0.0023647433764302003 0 -0.011657585323200863 0.0024648505484630139 0 -0.011653911822800679 0.0023647433764302003 0 -0.011581337005783869 0.0023556536891898745 0 -0.011657585323200863 0.0024648505484630139 0 -0.011787415749077036 0.0027429918561083047 0 -0.011824741245126334 0.0027646072679563607 0 -0.011824741245126334 0.0027646072679563607 0 -0.011767114637434281 0.0026533215272454831 0 -0.011657585323200863 0.0024648505484630139 0 -0.011769679306682461 0.0025929772053690831 0 -0.011710731266462453 0.0028336994595345006 0 -0.011769679306682461 0.0025929772053690831 0 -0.011873647465179207 0.002593848529344106 0 -0.011850129313454215 0.002770705206497184 0 -0.011769679306682461 0.0025929772053690831 0 -0.011809234095157543 0.0024661938926340858 0 -0.011873647465179207 0.002593848529344106 0 -0.011729906334428067 0.0024420138056493257 0 -0.011769679306682461 0.0025929772053690831 0 -0.011809234095157543 0.0024661938926340858 0 -0.011729906334428067 0.0024420138056493257 0 -0.011657585323200863 0.0024648505484630139 0 -0.011769679306682461 0.0025929772053690831 0 -0.011809234095157543 0.0024661938926340858 0 -0.011971775287827448 0.0024547169428423003 0 -0.011873647465179207 0.002593848529344106 0 -0.011971775287827448 0.0024547169428423003 0 -0.012257547680522018 0.0025220545923613146 0 -0.012160212428848679 0.0023155081987849065 0 -0.011971775287827448 0.0024547169428423003 0 -0.012121123076868551 0.0027442186438719042 0 -0.012257547680522018 0.0025220545923613146 0 -0.011971775287827448 0.0024547169428423003 0 -0.011873647465179207 0.002593848529344106 0 -0.012121123076868551 0.0027442186438719042 0 -0.011873647465179207 0.002593848529344106 0 -0.012121123076868551 0.0027442186438719042 0 -0.011850129313454215 0.002770705206497184 0 -0.012121123076868551 0.0027442186438719042 0 -0.011850129313454215 0.002770705206497184 0 -0.011958953697344911 0.0030210666435433243 0 -0.012121123076868551 0.0027442186438719042 0 -0.012477930343913882 0.0031027093531244944 0 -0.011958953697344911 0.0030210666435433243 0 -0.011710731266462453 0.0028336994595345006 0 -0.011749555833936488 0.0031473906487609784 0 -0.011958953697344911 0.0030210666435433243 0 -0.011769679306682461 0.0025929772053690831 0 -0.011710731266462453 0.0028336994595345006 0 -0.011850129313454215 0.002770705206497184 0 -0.011710731266462453 0.0028336994595345006 0 -0.011850129313454215 0.002770705206497184 0 -0.011958953697344911 0.0030210666435433243 0 -0.012498820480969319 0.002701975883379434 0 -0.012958666293944279 0.0027058346833582331 0 -0.012477930343913882 0.0031027093531244944 0 -0.012121123076868551 0.0027442186438719042 0 -0.012498820480969319 0.002701975883379434 0 -0.012477930343913882 0.0031027093531244944 0 -0.012257547680522018 0.0025220545923613146 0 -0.012498820480969319 0.002701975883379434 0 -0.012495491963237753 0.0023120455060375552 0 -0.012121123076868551 0.0027442186438719042 0 -0.012257547680522018 0.0025220545923613146 0 -0.012498820480969319 0.002701975883379434 0 -0.012498820480969319 0.002701975883379434 0 -0.012495491963237753 0.0023120455060375552 0 -0.012958666293944279 0.0027058346833582331 0 -0.012495491963237753 0.0023120455060375552 0 -0.012832905561830929 0.0020603352749393091 0 -0.012958666293944279 0.0027058346833582331 0 -0.012257547680522018 0.0025220545923613146 0 -0.012495491963237753 0.0023120455060375552 0 -0.012160212428848679 0.0023155081987849065 0 -0.012495491963237753 0.0023120455060375552 0 -0.012160212428848679 0.0023155081987849065 0 -0.012153287118957931 0.0020583967274904092 0 -0.012495491963237753 0.0023120455060375552 0 -0.012411138225485402 0.0018205040306099559 0 -0.012153287118957931 0.0020583967274904092 0 -0.011891064400508584 0.001713620374303037 0 -0.012411138225485402 0.0018205040306099559 0 -0.012153287118957931 0.0020583967274904092 0 -0.012639294674931242 0.0014754826016114642 0 -0.012411138225485402 0.0018205040306099559 0 -0.012832905561830929 0.0020603352749393091 0 -0.012495491963237753 0.0023120455060375552 0 -0.012411138225485402 0.0018205040306099559 0 -0.012832905561830929 0.0020603352749393091 0 -0.012832905561830929 0.0020603352749393091 0 -0.013282637089069647 0.0023440937705372709 0 -0.013144545866036852 0.0017013648617884933 0 -0.012639294674931242 0.0014754826016114642 0 -0.012832905561830929 0.0020603352749393091 0 -0.013144545866036852 0.0017013648617884933 0 -0.012832905561830929 0.0020603352749393091 0 -0.013282637089069647 0.0023440937705372709 0 -0.012958666293944279 0.0027058346833582331 0 -0.013282637089069647 0.0023440937705372709 0 -0.013589863527966111 0.0019535012280710406 0 -0.013144545866036852 0.0017013648617884933 0 -0.013282637089069647 0.0023440937705372709 0 -0.012958666293944279 0.0027058346833582331 0 -0.01377014514184083 0.0027839070528806612 0 -0.012958666293944279 0.0027058346833582331 0 -0.01377014514184083 0.0027839070528806612 0 -0.013073157372439902 0.003277964206848455 0 -0.014197836072328955 0.0018415312992579029 0 -0.01377014514184083 0.0027839070528806612 0 -0.013589863527966111 0.0019535012280710406 0 -0.013282637089069647 0.0023440937705372709 0 -0.01377014514184083 0.0027839070528806612 0 -0.013589863527966111 0.0019535012280710406 0 -0.014282428049637591 0.0012212636866419612 0 -0.014197836072328955 0.0018415312992579029 0 -0.013562272020092954 0.0012346280428965073 0 -0.014197836072328955 0.0018415312992579029 0 -0.013589863527966111 0.0019535012280710406 0 -0.013562272020092954 0.0012346280428965073 0 -0.013589863527966111 0.0019535012280710406 0 -0.013562272020092954 0.0012346280428965073 0 -0.013144545866036852 0.0017013648617884933 0 -0.012639294674931242 0.0014754826016114642 0 -0.013144545866036852 0.0017013648617884933 0 -0.012947100876332079 0.0011021584167272864 0 -0.013562272020092954 0.0012346280428965073 0 -0.013144545866036852 0.0017013648617884933 0 -0.012947100876332079 0.0011021584167272864 0 -0.010512259737355256 0.00087235911919902106 0 -0.010489743238195371 0.0017097604235898573 0 -0.013005693724891496 0.00034408288871236775 0 -0.013562272020092954 0.0012346280428965073 0 -0.012947100876332079 0.0011021584167272864 0 -0.013005693724891496 0.00034408288871236775 0 -0.012471153459906278 0.00088854236912175148 0 -0.012947100876332079 0.0011021584167272864 0 -0.011819792746595994 0.0026680165624878172 0 -0.011061944268327796 0.0013982005627169876 0 -0.010898042085282559 0.0013722763877045965 0 -0.012455981840750504 0.0022789183449263371 0 -0.010489743238195371 0.0017097604235898573 0 -0.014282428049637591 0.0012212636866419612 0 -0.013562272020092954 0.0012346280428965073 0 -0.013787855170420206 0.00049480744127460095 0 -0.013005693724891496 0.00034408288871236775 0 -0.013562272020092954 0.0012346280428965073 0 -0.013787855170420206 0.00049480744127460095 0 -0.012455981840750504 0.0022789183449263371 0 -0.010313420351422808 0.0018646644719631047 0 -0.010313420351422808 0.0018646644719631047 0 -0.010489743238195371 0.0017097604235898573 0 -0.031743730771330685 -0.00095472350787323152 0 -0.030557521601435933 -0.001645230511483284 0 -0.031197647203917562 -0.00098095047609348925 0 -0.0265729041518151 0.0025325585491207145 0 -0.025717353566483216 0.00078334346428302331 0 -0.024475649130107816 0.0012535380240883745 0 -0.030300750865430725 -0.00026568558461150931 0 -0.026630453801594366 0.00059828435932952667 0 -0.025717353566483216 0.00078334346428302331 0 -0.024211708999206705 0.0014346843700720174 0 -0.025336590113612705 0.00013764855608532301 0 -0.024902969400337878 0.0011249326504926519 0 -0.026630453801594366 0.00059828435932952667 0 -0.030557521601435933 -0.001645230511483284 0 -0.030860943577619128 -0.001071416816388218 0 -0.031197647203917562 -0.00098095047609348925 0 -0.026630453801594366 0.00059828435932952667 0 -0.026939535517070071 0.00062628823323901872 0 -0.026630453801594366 0.00059828435932952667 0 -0.02949044613131686 0.00014475752312950019 0 -0.0302802086323758 -0.0012524166533221879 0 -0.030557521601435933 -0.001645230511483284 0 -0.029682036123947139 -0.0011151912495417301 0 -0.03057525098985155 -0.0011945862425629338 0 -0.0302802086323758 -0.0012524166533221879 0 -0.030557521601435933 -0.001645230511483284 0 -0.03057525098985155 -0.0011945862425629338 0 -0.030557521601435933 -0.001645230511483284 0 -0.030860943577619128 -0.001071416816388218 0 -0.03057525098985155 -0.0011945862425629338 0 -0.0302802086323758 -0.0012524166533221879 0 -0.030308021898512449 -0.0010687019860963693 0 -0.0302802086323758 -0.0012524166533221879 0 -0.029682036123947139 -0.0011151912495417301 0 -0.030308021898512449 -0.0010687019860963693 0 -0.026630453801594366 0.00059828435932952667 0 -0.021350455049841743 0.0011441699544426441 0 -0.020387565006131605 0.0031769740155804852 0 -0.020219360806569154 0.0026036927430510164 0 -0.019525760230235532 0.003002228630045982 0 -0.022948670260050066 0.0016587561553711389 0 -0.018189425093072264 0.0027106056582817308 0 -0.024211708999206705 0.0014346843700720174 0 -0.025336590113612705 0.00013764855608532301 0 -0.022232820709223756 -0.00051909558820220701 0 -0.02080896390568817 0.002722194273494375 0 -0.020387565006131605 0.0031769740155804852 0 -0.020219360806569154 0.0026036927430510164 0 -0.018005005414583521 0.0024879075391048581 0 -0.016366397547738044 0.0035488058650513005 0 -0.020813535858207086 0.0023488169106334411 0 -0.02080896390568817 0.002722194273494375 0 -0.020219360806569154 0.0026036927430510164 0 -0.014385301181938712 0.0034066570053122528 0 -0.01377014514184083 0.0027839070528806612 0 -0.013522819742049096 0.0038968400711995952 0 -0.01377014514184083 0.0027839070528806612 0 -0.013522819742049096 0.0038968400711995952 0 -0.013073157372439902 0.003277964206848455 0 -0.012958666293944279 0.0027058346833582331 0 -0.013073157372439902 0.003277964206848455 0 -0.012477930343913882 0.0031027093531244944 0 -0.013522819742049096 0.0038968400711995952 0 -0.013073157372439902 0.003277964206848455 0 -0.012615205944165804 0.0037066269143458388 0 -0.016366397547738044 0.0035488058650513005 0 -0.018189425093072264 0.0027106056582817308 0 -0.013522819742049096 0.0038968400711995952 0 -0.012615205944165804 0.0037066269143458388 0 -0.012716821648899571 0.0043640441122971569 0 -0.012400120428119043 0.0040303581394047043 0 -0.012615205944165804 0.0037066269143458388 0 -0.012716821648899571 0.0043640441122971569 0 -0.012400120428119043 0.0040303581394047043 0 -0.01202471522367465 0.0042110202719762482 0 -0.012716821648899571 0.0043640441122971569 0 -0.012615205944165804 0.0037066269143458388 0 -0.012081044150681414 0.003398139688810615 0 -0.012078617624124991 0.003807489491379721 0 -0.012400120428119043 0.0040303581394047043 0 -0.012615205944165804 0.0037066269143458388 0 -0.012078617624124991 0.003807489491379721 0 -0.013073157372439902 0.003277964206848455 0 -0.012615205944165804 0.0037066269143458388 0 -0.012477930343913882 0.0031027093531244944 0 -0.012615205944165804 0.0037066269143458388 0 -0.012477930343913882 0.0031027093531244944 0 -0.012081044150681414 0.003398139688810615 0 -0.012477930343913882 0.0031027093531244944 0 -0.011958953697344911 0.0030210666435433243 0 -0.012081044150681414 0.003398139688810615 0 -0.011749555833936488 0.0031473906487609784 0 -0.011958953697344911 0.0030210666435433243 0 -0.012081044150681414 0.003398139688810615 0 -0.011749555833936488 0.0031473906487609784 0 -0.012081044150681414 0.003398139688810615 0 -0.011701298872345098 0.0035300972777594819 0 -0.012081044150681414 0.003398139688810615 0 -0.011701298872345098 0.0035300972777594819 0 -0.012078617624124991 0.003807489491379721 0 -0.011701298872345098 0.0035300972777594819 0 -0.012078617624124991 0.003807489491379721 0 -0.011638369690646877 0.0039754287318462941 0 -0.012525271628070433 0.0040102693942965549 0 -0.014815843055496644 0.0031025778076699899 0 -0.012400120428119043 0.0040303581394047043 0 -0.012078617624124991 0.003807489491379721 0 -0.01202471522367465 0.0042110202719762482 0 -0.01610108816305509 0.0024224694559159274 0 -0.018220385827719312 0.0022314971387677449 0 -0.012078617624124991 0.003807489491379721 0 -0.01202471522367465 0.0042110202719762482 0 -0.011638369690646877 0.0039754287318462941 0 -0.01610108816305509 0.0024224694559159274 0 -0.014815843055496644 0.0031025778076699899 0 -0.01613810766118124 0.0029591150423172461 0 -0.015976522280516919 0.0029231132024862294 0 -0.015985198657861337 0.0028659899820361887 0 -0.020217794304622276 0.001515360837312255 0 -0.020269365636497717 0.0013981657286554902 0 -0.020467098072250649 0.0015113902908254347 0 -0.020217794304622276 0.001515360837312255 0 -0.020467098072250649 0.0015113902908254347 0 -0.020257724280190407 0.0016425341003112545 0 -0.020217794304622276 0.001515360837312255 0 -0.020269365636497717 0.0013981657286554902 0 -0.020104143214191787 0.0013640594760591254 0 -0.020217794304622276 0.001515360837312255 0 -0.020257724280190407 0.0016425341003112545 0 -0.020086545631577007 0.0015185374037080092 0 -0.023378047955865816 0.0011210447366927388 0 -0.021711070607377099 0.0013629214599021548 0 -0.021350455049841743 0.0011441699544426441 0 -0.023378047955865816 0.0011210447366927388 0 -0.01610108816305509 0.0024224694559159274 0 -0.021350455049841743 0.0011441699544426441 0 -0.024211708999206705 0.0014346843700720174 0 -0.021570683249172839 -0.00011058262525002417 0 -0.022232820709223756 -0.00051909558820220701 0 -0.016983612060171013 0.0018064120761452731 0 -0.018842518982919797 0.0029362850502708195 0 -0.019715141994818122 0.0024025327368573483 0 -0.01610108816305509 0.0024224694559159274 0 -0.018189425093072264 0.0027106056582817308 0 -0.021350455049841743 0.0011441699544426441 0 -0.018189425093072264 0.0027106056582817308 0 -0.024360083810164801 0.00012876019586721381 0 -0.024543968863454169 0.0015758749471953275 0 -0.023411773164959758 0.00071436134537696916 0 -0.025913853130039317 0.0010564644164466209 0 -0.024360083810164801 0.00012876019586721381 0 -0.024543968863454169 0.0015758749471953275 0 -0.026856860632860163 0.00092502015432429242 0 -0.028119952161439501 0.00016803899901401013 0 -0.028358082032488012 0.00035285600181443253 0 -0.02949044613131686 0.00014475752312950019 0 -0.026939535517070071 0.00062628823323901872 0 -0.026190391185269529 0.0014205315317071723 0 -0.026575935650087101 0.0011950061851833756 0 -0.026208523252472412 0.00089669587620200752 0 -0.026939535517070071 0.00062628823323901872 0 -0.023378047955865816 0.0011210447366927388 0 -0.025755802698671885 0.001067644634652742 0 -0.026190391185269529 0.0014205315317071723 0 -0.026208523252472412 0.00089669587620200752 0 -0.023378047955865816 0.0011210447366927388 0 -0.024486852053598147 0.0015928581645197372 0 -0.024486852053598147 0.0015928581645197372 0 -0.021711070607377099 0.0013629214599021548 0 -0.02197024311873147 0.0018815106708178467 0 -0.021921737926939813 0.0018767470326071919 0 -0.021972967985593186 0.0017677201855108003 0 -0.024486852053598147 0.0015928581645197372 0 -0.026007715251200159 0.0010813775665905209 0 -0.023138875160360509 0.0013625304057138926 0 -0.023239905069929734 0.0013043405722799374 0 -0.02320946182866538 0.0014205078441044195 0 -0.02197024311873147 0.0018815106708178467 0 -0.021936909056572629 0.0018866935392514398 0 -0.021936000131670942 0.0019176685157239407 0 -0.02197024311873147 0.0018815106708178467 0 -0.021936909056572629 0.0018866935392514398 0 -0.021921737926939813 0.0018767470326071919 0 -0.021632016662986621 0.0020948349035679122 0 -0.021625820885672702 0.002115514012746943 0 -0.021929095744291336 0.0019005670795581942 0 -0.021894606733520158 0.0019133721508418902 0 -0.021936000131670942 0.0019176685157239407 0 -0.021914347336034604 0.0018884102256950422 0 -0.021938790745114161 0.0018900525095997944 0 -0.021895924712322826 0.0018544415703564583 0 -0.021936909056572629 0.0018866935392514398 0 -0.021929095744291336 0.0019005670795581942 0 -0.021938790745114161 0.0018900525095997944 0 -0.021936909056572629 0.0018866935392514398 0 -0.021929095744291336 0.0019005670795581942 0 -0.021936000131670942 0.0019176685157239407 0 -0.021929095744291336 0.0019005670795581942 0 -0.021914347336034604 0.0018884102256950422 0 -0.021899679552546108 0.001891122359032245 0 -0.021929095744291336 0.0019005670795581942 0 -0.021914347336034604 0.0018884102256950422 0 -0.021938790745114161 0.0018900525095997944 0 -0.020845527691583422 0.0022618451725216881 0 -0.020650005506444077 0.001485613952883877 0 -0.020385763841239246 0.0017947688583936454 0 -0.021625820885672702 0.002115514012746943 0 -0.020793552819655229 0.0017010670499056366 0 -0.021625820885672702 0.002115514012746943 0 -0.019696094221023037 0.0015883893262900589 0 -0.021921737926939813 0.0018767470326071919 0 -0.021887614322497397 0.0017152585282564088 0 -0.021800742363336616 0.0016586735601502808 0 -0.021914347336034604 0.0018884102256950422 0 -0.021895924712322826 0.0018544415703564583 0 -0.021899679552546108 0.001891122359032245 0 -0.021989810728929644 0.0017236706537012475 0 -0.021711070607377099 0.0013629214599021548 0 -0.021921737926939813 0.0018767470326071919 0 -0.021887614322497397 0.0017152585282564088 0 -0.021972967985593186 0.0017677201855108003 0 -0.021887614322497397 0.0017152585282564088 0 -0.021933736528689338 0.0017515919946492881 0 -0.021945850220294563 0.0016973016431877958 0 -0.021711070607377099 0.0013629214599021548 0 -0.018220385827719312 0.0022314971387677449 0 -0.020217794304622276 0.001515360837312255 0 -0.020086545631577007 0.0015185374037080092 0 -0.020104143214191787 0.0013640594760591254 0 -0.014815843055496644 0.0031025778076699899 0 -0.014757291116798427 0.0025356158762391695 0 -0.021887614322497397 0.0017152585282564088 0 -0.021945850220294563 0.0016973016431877958 0 -0.021800742363336616 0.0016586735601502808 0 -0.011701298872345098 0.0035300972777594819 0 -0.011650279304691667 0.0038973317270034188 0 -0.011038663907364233 0.0035233707436782813 0 -0.018220385827719312 0.0022314971387677449 0 -0.019696094221023037 0.0015883893262900589 0 -0.016894994568918489 0.002200408846618531 0 -0.017066627385543244 0.0023031128598123688 0 -0.017109030130221095 0.002202695561799604 0 -0.016904465547358735 0.0021642536750838145 0 -0.016894994568918489 0.002200408846618531 0 -0.017109030130221095 0.002202695561799604 0 -0.018220385827719312 0.0022314971387677449 0 -0.014815843055496644 0.0031025778076699899 0 -0.011331331740311288 0.0029632308188065012 0 -0.011749555833936488 0.0031473906487609784 0 -0.011701298872345098 0.0035300972777594819 0 -0.01190310729100142 0.0030392413165071788 0 -0.014757291116798427 0.0025356158762391695 0 -0.011331331740311288 0.0029632308188065012 0 -0.011701298872345098 0.0035300972777594819 0 -0.011038663907364233 0.0035233707436782813 0 -0.012858852990894136 0.0027062756964496507 0 -0.013341100833498419 0.001955249157565868 0 -0.013653017164732209 0.0021437400734952172 0 -0.016982051548276353 0.0019947420523156625 0 -0.016956549078541671 0.0019782025571196634 0 -0.01697169239308639 0.0020197279423823634 0 -0.014757291116798427 0.0025356158762391695 0 -0.016578296687615166 0.0019787138373262669 0 -0.019125041904492723 0.0018400410252072893 0 -0.019264116474240676 0.0016391244193929774 0 -0.019054740657646868 0.0015387052818605783 0 -0.016578296687615166 0.0019787138373262669 0 -0.018416116936658695 0.0016816341517989694 0 -0.019264116474240676 0.0016391244193929774 0 -0.019054740657646868 0.0015387052818605783 0 -0.019106830304913482 0.001454244451852598 0 -0.018901998755504652 0.0014608930471033583 0 -0.01887466553359474 0.0013370392902727749 0 -0.018967061841881797 0.0013568232933225436 0 -0.018416116936658695 0.0016816341517989694 0 -0.019328985195117606 0.0014274868764910127 0 -0.017066627385543244 0.0023031128598123688 0 -0.01711449530196291 0.0022365527853702894 0 -0.017109030130221095 0.002202695561799604 0 -0.014757291116798427 0.0025356158762391695 0 -0.018416116936658695 0.0016816341517989694 0 -0.018416116936658695 0.0016816341517989694 0 -0.019696094221023037 0.0015883893262900589 0 -0.020650005506444077 0.001485613952883877 0 -0.020580860366719831 0.0014708250021930583 0 -0.020385763841239246 0.0017947688583936454 0 -0.019328985195117606 0.0014274868764910127 0 -0.020793552819655229 0.0017010670499056366 0 -0.019696094221023037 0.0015883893262900589 0 -0.019328985195117606 0.0014274868764910127 0 -0.020732644760148865 0.0016412042248914055 0 -0.020793552819655229 0.0017010670499056366 0 -0.019172084229803529 0.001472962213449016 0 -0.019512181136738107 0.001549362446901698 0 -0.019358237374322226 0.0011690145530219276 0 -0.019512181136738107 0.001549362446901698 0 -0.019808160219654834 0.0016298524722547498 0 -0.019358237374322226 0.0011690145530219276 0 -0.021761735995071127 0.0017766066398124804 0 -0.021793937553842121 0.0018321091748203101 0 -0.021880959886386192 0.0018398206762174608 0 -0.019512181136738107 0.001549362446901698 0 -0.019530761764617613 0.0017978765817510058 0 -0.019808160219654834 0.0016298524722547498 0 -0.019328985195117606 0.0014274868764910127 0 -0.019410002175680268 0.0015149701398412924 0 -0.019264116474240676 0.0016391244193929774 0 -0.019106830304913482 0.001454244451852598 0 -0.019512181136738107 0.001549362446901698 0 -0.019264116474240676 0.0016391244193929774 0 -0.019512181136738107 0.001549362446901698 0 -0.019530761764617613 0.0017978765817510058 0 -0.016578296687615166 0.0019787138373262669 0 -0.018426992258254747 0.0020522688446570972 0 -0.019125041904492723 0.0018400410252072893 0 -0.019530761764617613 0.0017978765817510058 0 -0.019586354572074968 0.0021118418493304616 0 -0.019125041904492723 0.0018400410252072893 0 -0.019264116474240676 0.0016391244193929774 0 -0.019530761764617613 0.0017978765817510058 0 -0.019530761764617613 0.0017978765817510058 0 -0.019586354572074968 0.0021118418493304616 0 -0.01987193448020013 0.0020249068902835361 0 -0.02163868527557606 0.001721446760623756 0 -0.021761735995071127 0.0017766066398124804 0 -0.021658747052168185 0.0018139031406404292 0 -0.02104157524480714 0.002059314596423765 0 -0.020732644760148865 0.0016412042248914055 0 -0.020301346043076783 0.0021333629997781919 0 -0.01987193448020013 0.0020249068902835361 0 -0.019808160219654834 0.0016298524722547498 0 -0.019530761764617613 0.0017978765817510058 0 -0.01987193448020013 0.0020249068902835361 0 -0.019808160219654834 0.0016298524722547498 0 -0.021761735995071127 0.0017766066398124804 0 -0.021793937553842121 0.0018321091748203101 0 -0.021658747052168185 0.0018139031406404292 0 -0.021793937553842121 0.0018321091748203101 0 -0.02187450381103417 0.0018789304436468571 0 -0.021724933467199708 0.0018548136942338794 0 -0.021793937553842121 0.0018321091748203101 0 -0.021658747052168185 0.0018139031406404292 0 -0.021724933467199708 0.0018548136942338794 0 -0.021793937553842121 0.0018321091748203101 0 -0.021880959886386192 0.0018398206762174608 0 -0.02187450381103417 0.0018789304436468571 0 -0.020793552819655229 0.0017010670499056366 0 -0.021638418242704321 0.0016453568261187732 0 -0.021895924712322826 0.0018544415703564583 0 -0.02187450381103417 0.0018789304436468571 0 -0.021899679552546108 0.001891122359032245 0 -0.026409126684264851 0.0015009697047969929 0 -0.026007715251200159 0.0010813775665905209 0 -0.021929095744291336 0.0019005670795581942 0 -0.021890831122002213 0.0019092460243247864 0 -0.021899679552546108 0.001891122359032245 0 -0.021929095744291336 0.0019005670795581942 0 -0.021890831122002213 0.0019092460243247864 0 -0.021894606733520158 0.0019133721508418902 0 -0.02187450381103417 0.0018789304436468571 0 -0.021890831122002213 0.0019092460243247864 0 -0.021899679552546108 0.001891122359032245 0 -0.02564712461571313 0.0020801468275808634 0 -0.026409126684264851 0.0015009697047969929 0 -0.026409126684264851 0.0015009697047969929 0 -0.027174213546349611 0.0014366046929344565 0 -0.03178330710296829 0.00073716209297733164 0 -0.032627810831235844 0.0011395366042987515 0 -0.032533598335406901 0.00041243602808141574 0 -0.02187450381103417 0.0018789304436468571 0 -0.021890831122002213 0.0019092460243247864 0 -0.021724933467199708 0.0018548136942338794 0 -0.021890831122002213 0.0019092460243247864 0 -0.021888732739512876 0.001927411551046522 0 -0.021724933467199708 0.0018548136942338794 0 -0.03178330710296829 0.00073716209297733164 0 -0.03201340608201439 0.00030974330460136412 0 -0.032533598335406901 0.00041243602808141574 0 -0.03201340608201439 0.00030974330460136412 0 -0.032237916860249606 -0.0001135300899072605 0 -0.032533598335406901 0.00041243602808141574 0 -0.029951493326152184 0.00022985051075927678 0 -0.028772017090613531 -0.00043389179706186231 0 -0.030918246979278738 -0.0017321988594903269 0 -0.031002120004288612 -2.8860689499878814e-05 0 -0.032198648433208195 -0.00049134261107088603 0 -0.028985495069427793 0.0021928807681718828 0 -0.028718775563527855 0.00082517541863238878 0 -0.026635186686852736 0.00087190240327211809 0 -0.028985495069427793 0.0021928807681718828 0 -0.029951493326152184 0.00022985051075927678 0 -0.028718775563527855 0.00082517541863238878 0 -0.026409126684264851 0.0015009697047969929 0 -0.031002120004288612 -2.8860689499878814e-05 0 -0.028718775563527855 0.00082517541863238878 0 -0.028772017090613531 -0.00043389179706186231 0 -0.026635186686852736 0.00087190240327211809 0 -0.030356668276994788 -0.0001973552020748611 0 -0.026007715251200159 0.0010813775665905209 0 -0.031366620113983383 0.00038306862849329926 0 -0.030909069958777201 -0.00020521668223354039 0 -0.02990638713230101 0.0012737747974656494 0 -0.029951493326152184 0.00022985051075927678 0 -0.028718775563527855 0.00082517541863238878 0 -0.028772017090613531 -0.00043389179706186231 0 -0.030356668276994788 -0.0001973552020748611 0 -0.032198648433208195 -0.00049134261107088603 0 -0.031366620113983383 0.00038306862849329926 0 -0.030909069958777201 -0.00020521668223354039 0 -0.032822801403921256 -0.00050380657196169663 0 -0.034900042340296034 0.00046946186623216869 0 -0.0349319191387416 0.00031307470244008406 0 -0.035164168744352936 0.00030069622288180409 0 -0.033254050161220662 6.5180451086395758e-05 0 -0.03363400814896924 -0.00039561274917333637 0 -0.034900042340296034 0.00046946186623216869 0 -0.0349319191387416 0.00031307470244008406 0 -0.034785635752578613 0.00029762849781643893 0 -0.032237916860249606 -0.0001135300899072605 0 -0.032533598335406901 0.00041243602808141574 0 -0.032656059186182161 -4.3797854761143993e-05 0 -0.030909069958777201 -0.00020521668223354039 0 -0.032822801403921256 -0.00050380657196169663 0 -0.0330750469518203 -0.0010204917987594602 0 -0.032965859057586415 -0.00011526618919671764 0 -0.033088842639883639 -0.00036479328107015725 0 -0.033786953642523973 -0.0006230834142197893 0 -0.032198648433208195 -0.00049134261107088603 0 -0.03363400814896924 -0.00039561274917333637 0 -0.03363400814896924 -0.00039561274917333637 0 -0.034827852689006122 5.9638499013470716e-05 0 -0.035164168744352936 0.00030069622288180409 0 -0.035014355289785165 0.00018226996171612751 0 -0.035212852000857699 0.00013702995397337034 0 -0.035032223320462491 8.2707768701062757e-05 0 -0.035014355289785165 0.00018226996171612751 0 -0.035212852000857699 0.00013702995397337034 0 -0.035000056621527234 -1.1380358804604554e-07 0 -0.035032223320462491 8.2707768701062757e-05 0 -0.035212852000857699 0.00013702995397337034 0 -0.034999998358025974 -8.017532553680073e-11 0 -0.03499880528601497 7.5913418044619479e-07 0 -0.034999998980680271 8.9819063008225556e-10 0 -0.035000356218368223 1.8656703905909046e-07 0 -0.034827852689006122 5.9638499013470716e-05 0 -0.035000056621527234 -1.1380358804604554e-07 0 -0.035032223320462491 8.2707768701062757e-05 0 -0.034926828911005403 1.0150322850248537e-05 0 -0.035014355289785165 0.00018226996171612751 0 -0.034926828911005403 1.0150322850248537e-05 0 -0.034785635752578613 0.00029762849781643893 0 -0.0349319191387416 0.00031307470244008406 0 -0.035014355289785165 0.00018226996171612751 0 -0.034785635752578613 0.00029762849781643893 0 -0.0349319191387416 0.00031307470244008406 0 -0.035164168744352936 0.00030069622288180409 0 -0.035014355289785165 0.00018226996171612751 0 -0.035032223320462491 8.2707768701062757e-05 0 -0.035014355289785165 0.00018226996171612751 0 -0.034926828911005403 1.0150322850248537e-05 0 -0.034620503986645755 0.0002143596243755622 0 -0.034926828911005403 1.0150322850248537e-05 0 -0.03443246891245131 1.2130733850224373e-05 0 -0.034620503986645755 0.0002143596243755622 0 -0.034926828911005403 1.0150322850248537e-05 0 -0.034785635752578613 0.00029762849781643893 0 -0.035000056621527234 -1.1380358804604554e-07 0 -0.034999862180302113 7.1816277753879213e-08 0 -0.034926828911005403 1.0150322850248537e-05 0 -0.034999862180302113 7.1816277753879213e-08 0 -0.034926828911005403 1.0150322850248537e-05 0 -0.034996102076065523 -4.8621584829518674e-06 0 -0.034919690734610084 -3.4431696516962205e-06 0 -0.034659943297514408 2.2929285932377686e-05 0 -0.034999862180302113 7.1816277753879213e-08 0 -0.034996102076065523 -4.8621584829518674e-06 0 -0.03500003162692817 -2.3653636378002506e-08 0 -0.03443246891245131 1.2130733850224373e-05 0 -0.034349304531060998 0.00026178714884027244 0 -0.033909793724218935 0.00010279876749534262 0 -0.034620503986645755 0.0002143596243755622 0 -0.034349304531060998 0.00026178714884027244 0 -0.034511099764333301 0.00042221607243064861 0 -0.034620503986645755 0.0002143596243755622 0 -0.03443246891245131 1.2130733850224373e-05 0 -0.034349304531060998 0.00026178714884027244 0 -0.034349304531060998 0.00026178714884027244 0 -0.034335501062122367 0.00045718722165191775 0 -0.034134799928062114 0.00039212397450770698 0 -0.034335501062122367 0.00045718722165191775 0 -0.034231144657210597 0.00069521794906873076 0 -0.034134799928062114 0.00039212397450770698 0 -0.034335501062122367 0.00045718722165191775 0 -0.034231144657210597 0.00069521794906873076 0 -0.034486826613098216 0.00054560150181132984 0 -0.031729779261755554 0.00059429679297415814 0 -0.03350740405516358 0.00018072134446346812 0 -0.031571159496750184 0.00061044608761357173 0 -0.0320845960321781 0.00031183118746325856 0 -0.031981110411681106 0.00084191340051732201 0 -0.03350740405516358 0.00018072134446346812 0 -0.030388643884278164 0.00069328157523443638 0 -0.034349304531060998 0.00026178714884027244 0 -0.034335501062122367 0.00045718722165191775 0 -0.034511099764333301 0.00042221607243064861 0 -0.03350740405516358 0.00018072134446346812 0 -0.033689010004268785 0.00026605404330958996 0 -0.034335501062122367 0.00045718722165191775 0 -0.034486826613098216 0.00054560150181132984 0 -0.034511099764333301 0.00042221607243064861 0 -0.034493831185275443 0.0005219583728488424 0 -0.034511099764333301 0.00042221607243064861 0 -0.034785635752578613 0.00029762849781643893 0 -0.03350740405516358 0.00018072134446346812 0 -0.034933861584982649 0.00019975329990107432 0 -0.034900042340296034 0.00046946186623216869 0 -0.034474619585913462 0.00043729537969085708 0 -0.034457760604930568 0.00065488356844284866 0 -0.034900042340296034 0.00046946186623216869 0 -0.034474619585913462 0.00043729537969085708 0 -0.034785635752578613 0.00029762849781643893 0 -0.034620503986645755 0.0002143596243755622 0 -0.034511099764333301 0.00042221607243064861 0 -0.034785635752578613 0.00029762849781643893 0 -0.030909069958777201 -0.00020521668223354039 0 -0.02990638713230101 0.0012737747974656494 0 -0.028746141502628348 0.000618060423505402 0 -0.033254050161220662 6.5180451086395758e-05 0 -0.030217393569897045 0.00066521542662419607 0 -0.026007715251200159 0.0010813775665905209 0 -0.030217393569897045 0.00066521542662419607 0 -0.02659238775120467 0.0015015131921627886 0 -0.027195505578209499 0.0011325438212273706 0 -0.026712873109994466 0.00093368313335028116 0 -0.029696458171008713 0.00011420636702493162 0 -0.030089397663641493 0.00045706117137876402 0 -0.029228101059003447 0.0007776570671552634 0 -0.026575935650087101 0.0011950061851833756 0 -0.026683926852310511 0.00071847623695427327 0 -0.026208523252472412 0.00089669587620200752 0 -0.024486852053598147 0.0015928581645197372 0 -0.029250354317507311 0.00082016904165780724 0 -0.029250354317507311 0.00082016904165780724 0 -0.027597828349677368 0.00088257736492009789 0 -0.031729779261755554 0.00059429679297415814 0 -0.030388643884278164 0.00069328157523443638 0 -0.029696458171008713 0.00011420636702493162 0 -0.030109993181541558 0.00034986616820024177 0 -0.030089397663641493 0.00045706117137876402 0 -0.034474619585913462 0.00043729537969085708 0 -0.034417874215409837 0.00063312381079068066 0 -0.034457760604930568 0.00065488356844284866 0 -0.027195505578209499 0.0011325438212273706 0 -0.026794714278320489 0.00090279843820109239 0 -0.026712873109994466 0.00093368313335028116 0 -0.03007791039881785 0.00048221631295656305 0 -0.029738919161874721 0.00029087447966147156 0 -0.030140131332114899 0.00013907521493410809 0 -0.030217393569897045 0.00066521542662419607 0 -0.029250354317507311 0.00082016904165780724 0 -0.030388643884278164 0.00069328157523443638 0 -0.030217393569897045 0.00066521542662419607 0 -0.030388643884278164 0.00069328157523443638 0 -0.029250354317507311 0.00082016904165780724 0 -0.026939535517070071 0.00062628823323901872 0 -0.027597828349677368 0.00088257736492009789 0 -0.028370783288963187 0.0010954289969537191 0 -0.028949491286411399 0.00054174677238805668 0 -0.029228101059003447 0.0007776570671552634 0 -0.029696458171008713 0.00011420636702493162 0 -0.028949491286411399 0.00054174677238805668 0 -0.029228101059003447 0.0007776570671552634 0 -0.031729779261755554 0.00059429679297415814 0 -0.029920610778411579 0.00048796202003207803 0 -0.028207470426785539 0.00096712343410187474 0 -0.028370783288963187 0.0010954289969537191 0 -0.028949491286411399 0.00054174677238805668 0 -0.031397983792783635 0.00010685423834987437 0 -0.031326953467097407 0.0002682685381978834 0 -0.031444339789026131 0.00040334895691519063 0 -0.02949044613131686 0.00014475752312950019 0 -0.029920610778411579 0.00048796202003207803 0 -0.031153022739030794 0.00026133230783677438 0 -0.031326953467097407 0.0002682685381978834 0 -0.031205055824317835 0.00057567497948496013 0 -0.031397983792783635 0.00010685423834987437 0 -0.031153022739030794 0.00026133230783677438 0 -0.031326953467097407 0.0002682685381978834 0 -0.031326953467097407 0.0002682685381978834 0 -0.031444339789026131 0.00040334895691519063 0 -0.031205055824317835 0.00057567497948496013 0 -0.032562252884630452 0.00054423545717909179 0 -0.032904595239735282 0.00046086025274923842 0 -0.031444339789026131 0.00040334895691519063 0 -0.031205055824317835 0.00057567497948496013 0 -0.031509481136104224 0.00075411230520154441 0 -0.034231144657210597 0.00069521794906873076 0 -0.033811581396421965 0.00046692438278434585 0 -0.034134799928062114 0.00039212397450770698 0 -0.030914205806557765 0.00040823969636039173 0 -0.031153022739030794 0.00026133230783677438 0 -0.031205055824317835 0.00057567497948496013 0 -0.031729779261755554 0.00059429679297415814 0 -0.032562252884630452 0.00054423545717909179 0 -0.034349304531060998 0.00026178714884027244 0 -0.034134799928062114 0.00039212397450770698 0 -0.033909793724218935 0.00010279876749534262 0 -0.034659943297514408 2.2929285932377686e-05 0 -0.034704347121711519 -8.8489511978491279e-06 0 -0.033811581396421965 0.00046692438278434585 0 -0.034134799928062114 0.00039212397450770698 0 -0.033909793724218935 0.00010279876749534262 0 -0.034996102076065523 -4.8621584829518674e-06 0 -0.034994205393653249 1.103001688404922e-06 0 -0.03500003162692817 -2.3653636378002506e-08 0 -0.034994205393653249 1.103001688404922e-06 0 -0.03500003162692817 -2.3653636378002506e-08 0 -0.034993854281561772 1.4886622271790178e-06 0 -0.03500003162692817 -2.3653636378002506e-08 0 -0.034999982709540876 1.2015188046586556e-08 0 -0.034993854281561772 1.4886622271790178e-06 0 -0.034999982709540876 1.2015188046586556e-08 0 -0.034993854281561772 1.4886622271790178e-06 0 -0.034993709964380955 4.0640101734739038e-06 0 -0.034994205393653249 1.103001688404922e-06 0 -0.034993854281561772 1.4886622271790178e-06 0 -0.034983652180589096 5.417469839654093e-06 0 -0.033811581396421965 0.00046692438278434585 0 -0.033909793724218935 0.00010279876749534262 0 -0.033371635487611968 0.00022631022634128279 0 -0.034704347121711519 -8.8489511978491279e-06 0 -0.032904595239735282 0.00046086025274923842 0 -0.032904595239735282 0.00046086025274923842 0 -0.033570002170654645 0.00059893119557536344 0 -0.034993854281561772 1.4886622271790178e-06 0 -0.034983652180589096 5.417469839654093e-06 0 -0.034993709964380955 4.0640101734739038e-06 0 -0.034983652180589096 5.417469839654093e-06 0 -0.034993709964380955 4.0640101734739038e-06 0 -0.034988705277897519 1.1598803274246688e-05 0 -0.032904595239735282 0.00046086025274923842 0 -0.031337735333447046 0.00079995754430009329 0 -0.034999982709540876 1.2015188046586556e-08 0 -0.034993709964380955 4.0640101734739038e-06 0 -0.034999971033908242 -9.8209237716760798e-09 0 -0.034993709964380955 4.0640101734739038e-06 0 -0.034999971033908242 -9.8209237716760798e-09 0 -0.034988705277897519 1.1598803274246688e-05 0 -0.034950873855988877 5.6018741672261892e-09 0 -0.034999971033908242 -9.8209237716760798e-09 0 -0.034988705277897519 1.1598803274246688e-05 0 -0.032266302949257565 0.00094460799107576364 0 -0.031947691925228353 0.0011146138560984705 0 -0.03207410711281429 0.00083273135555157556 0 -0.031947691925228353 0.0011146138560984705 0 -0.03207410711281429 0.00083273135555157556 0 -0.031942090393403233 0.0006626743960317363 0 -0.031439363423056435 0.00078780817331521665 0 -0.031947691925228353 0.0011146138560984705 0 -0.031942090393403233 0.0006626743960317363 0 -0.032140183627572004 0.00061741958566944829 0 -0.03207410711281429 0.00083273135555157556 0 -0.031942090393403233 0.0006626743960317363 0 -0.031899402776155536 0.00046032224152020194 0 -0.031344636486519577 -4.3703285123108261e-05 0 -0.032140183627572004 0.00061741958566944829 0 -0.031942090393403233 0.0006626743960317363 0 -0.031747923147737639 0.00035381043960227258 0 -0.031674220574837854 0.00030602294730051492 0 -0.031479480877984536 -0.00032069228258510725 0 -0.030676083929108932 -0.00038403423550830503 0 -0.031444339789026131 0.00040334895691519063 0 -0.031509481136104224 0.00075411230520154441 0 -0.031658919267357567 0.00054266330298826965 0 -0.031509481136104224 0.00075411230520154441 0 -0.031942090393403233 0.0006626743960317363 0 -0.031658919267357567 0.00054266330298826965 0 -0.031444339789026131 0.00040334895691519063 0 -0.031658919267357567 0.00054266330298826965 0 -0.031747923147737639 0.00035381043960227258 0 -0.031942090393403233 0.0006626743960317363 0 -0.031658919267357567 0.00054266330298826965 0 -0.031747923147737639 0.00035381043960227258 0 -0.029682036123947139 -0.0011151912495417301 0 -0.030676083929108932 -0.00038403423550830503 0 -0.030308021898512449 -0.0010687019860963693 0 -0.02949044613131686 0.00014475752312950019 0 -0.031344636486519577 -4.3703285123108261e-05 0 -0.031397983792783635 0.00010685423834987437 0 -0.031444339789026131 0.00040334895691519063 0 -0.031747923147737639 0.00035381043960227258 0 -0.030676083929108932 -0.00038403423550830503 0 -0.030308021898512449 -0.0010687019860963693 0 -0.030713368123453069 -0.00085516498513901458 0 -0.03057525098985155 -0.0011945862425629338 0 -0.030308021898512449 -0.0010687019860963693 0 -0.030713368123453069 -0.00085516498513901458 0 -0.03057525098985155 -0.0011945862425629338 0 -0.030713368123453069 -0.00085516498513901458 0 -0.030860943577619128 -0.001071416816388218 0 -0.030860943577619128 -0.001071416816388218 0 -0.031197647203917562 -0.00098095047609348925 0 -0.03109788775615923 -0.00065433817514350936 0 -0.030713368123453069 -0.00085516498513901458 0 -0.030860943577619128 -0.001071416816388218 0 -0.03109788775615923 -0.00065433817514350936 0 -0.031197647203917562 -0.00098095047609348925 0 -0.031586923331526851 -0.00073780570727163147 0 -0.03109788775615923 -0.00065433817514350936 0 -0.031743730771330685 -0.00095472350787323152 0 -0.031197647203917562 -0.00098095047609348925 0 -0.031586923331526851 -0.00073780570727163147 0 -0.031479480877984536 -0.00032069228258510725 0 -0.031586923331526851 -0.00073780570727163147 0 -0.03109788775615923 -0.00065433817514350936 0 -0.031479480877984536 -0.00032069228258510725 0 -0.030676083929108932 -0.00038403423550830503 0 -0.03109788775615923 -0.00065433817514350936 0 -0.030676083929108932 -0.00038403423550830503 0 -0.030713368123453069 -0.00085516498513901458 0 -0.03109788775615923 -0.00065433817514350936 0 -0.033961043331848351 0.00020458276875140265 0 -0.033647701591501475 0.00021638329392832461 0 -0.033751247686675215 -7.2711812211746714e-05 0 -0.033961043331848351 0.00020458276875140265 0 -0.033647701591501475 0.00021638329392832461 0 -0.034082444122430285 0.00063425534301979575 0 -0.034140404201406169 0.0010163512230683496 0 -0.034082444122430285 0.00063425534301979575 0 -0.034092902394666613 0.00067791016391171156 0 -0.035383455743622644 0.00018852786121472455 0 -0.033596167629170906 0.00092266034233688427 0 -0.033327459805488249 0.00057431414523801641 0 -0.033647701591501475 0.00021638329392832461 0 -0.034082444122430285 0.00063425534301979575 0 -0.033327459805488249 0.00057431414523801641 0 -0.033189691290557363 0.00020304125843366457 0 -0.032604330870622492 0.0003338214321175789 0 -0.033327459805488249 0.00057431414523801641 0 -0.033189691290557363 0.00020304125843366457 0 -0.033647701591501475 0.00021638329392832461 0 -0.033189691290557363 0.00020304125843366457 0 -0.033647701591501475 0.00021638329392832461 0 -0.033369059455382849 -0.00017252416463074243 0 -0.033189691290557363 0.00020304125843366457 0 -0.033369059455382849 -0.00017252416463074243 0 -0.032804607346336917 -8.5459712781453499e-05 0 -0.032917746467934175 -0.00048252486959138188 0 -0.033369059455382849 -0.00017252416463074243 0 -0.032804607346336917 -8.5459712781453499e-05 0 -0.03327600891527966 -0.00070723974187043934 0 -0.032917746467934175 -0.00048252486959138188 0 -0.033369059455382849 -0.00017252416463074243 0 -0.033369059455382849 -0.00017252416463074243 0 -0.033728964059574949 -0.00042516936313470187 0 -0.033751247686675215 -7.2711812211746714e-05 0 -0.03327600891527966 -0.00070723974187043934 0 -0.033369059455382849 -0.00017252416463074243 0 -0.033728964059574949 -0.00042516936313470187 0 -0.033647701591501475 0.00021638329392832461 0 -0.033369059455382849 -0.00017252416463074243 0 -0.033751247686675215 -7.2711812211746714e-05 0 -0.035383455743622644 0.00018852786121472455 0 -0.026276999336655525 0.0011592768146233957 0 -0.033961043331848351 0.00020458276875140265 0 -0.033751247686675215 -7.2711812211746714e-05 0 -0.034055997510316897 -0.00018094415471723197 0 -0.033728964059574949 -0.00042516936313470187 0 -0.033751247686675215 -7.2711812211746714e-05 0 -0.034055997510316897 -0.00018094415471723197 0 -0.02444991906169363 0.00018454622686876971 0 -0.026276999336655525 0.0011592768146233957 0 -0.015555672831222434 0.0013279117387122016 0 -0.015829466554584757 0.0011567626958438573 0 -0.015547423424637049 0.00095223597414566177 0 -0.018368058726682041 0.00224067034990215 0 -0.026276999336655525 0.0011592768146233957 0 -0.022069688907905331 0.0023678059017189839 0 -0.022309506761235939 0.0018656524995133727 0 -0.021835700107380795 0.0019683879544981631 0 -0.033815393510824354 0.0015557012829496698 0 -0.033326388033651844 0.0013611019662365148 0 -0.033757308082729587 0.00099376605825936271 0 -0.022309506761235939 0.0018656524995133727 0 -0.021835700107380795 0.0019683879544981631 0 -0.021727334354393779 0.0017153785656673843 0 -0.026276999336655525 0.0011592768146233957 0 -0.027910043398276768 0.0017006567613653606 0 -0.02163868527557606 0.001721446760623756 0 -0.021547350085985472 0.0018322625032735687 0 -0.021658747052168185 0.0018139031406404292 0 -0.02104157524480714 0.002059314596423765 0 -0.021546018001923982 0.0017899735934546943 0 -0.021224150227598156 0.0023027410577173362 0 -0.020897271583240846 0.0022154127457499691 0 -0.021547350085985472 0.0018322625032735687 0 -0.021559705133677821 0.0022655542568037024 0 -0.021835700107380795 0.0019683879544981631 0 -0.021547350085985472 0.0018322625032735687 0 -0.021559705133677821 0.0022655542568037024 0 -0.021224150227598156 0.0023027410577173362 0 -0.021547350085985472 0.0018322625032735687 0 -0.021835700107380795 0.0019683879544981631 0 -0.021547350085985472 0.0018322625032735687 0 -0.021727334354393779 0.0017153785656673843 0 -0.021547350085985472 0.0018322625032735687 0 -0.021727334354393779 0.0017153785656673843 0 -0.021658747052168185 0.0018139031406404292 0 -0.021727334354393779 0.0017153785656673843 0 -0.021658747052168185 0.0018139031406404292 0 -0.021724933467199708 0.0018548136942338794 0 -0.033326388033651844 0.0013611019662365148 0 -0.032627810831235844 0.0011395366042987515 0 -0.033172521214308706 0.00080827317523854251 0 -0.027910043398276768 0.0017006567613653606 0 -0.027174213546349611 0.0014366046929344565 0 -0.032627810831235844 0.0011395366042987515 0 -0.033172521214308706 0.00080827317523854251 0 -0.032533598335406901 0.00041243602808141574 0 -0.034140404201406169 0.0010163512230683496 0 -0.033815393510824354 0.0015557012829496698 0 -0.033757308082729587 0.00099376605825936271 0 -0.033326388033651844 0.0013611019662365148 0 -0.033172521214308706 0.00080827317523854251 0 -0.033757308082729587 0.00099376605825936271 0 -0.033172521214308706 0.00080827317523854251 0 -0.033757308082729587 0.00099376605825936271 0 -0.033687421838738588 0.00058048721932994871 0 -0.033757308082729587 0.00099376605825936271 0 -0.033687421838738588 0.00058048721932994871 0 -0.034092902394666613 0.00067791016391171156 0 -0.034140404201406169 0.0010163512230683496 0 -0.033757308082729587 0.00099376605825936271 0 -0.034092902394666613 0.00067791016391171156 0 -0.033687421838738588 0.00058048721932994871 0 -0.034111957522414894 0.00049844730605091503 0 -0.034092902394666613 0.00067791016391171156 0 -0.033687421838738588 0.00058048721932994871 0 -0.033931120622034752 0.00038669846733904397 0 -0.034111957522414894 0.00049844730605091503 0 -0.033687421838738588 0.00058048721932994871 0 -0.033746544308409974 0.00038344446036264361 0 -0.033931120622034752 0.00038669846733904397 0 -0.033746544308409974 0.00038344446036264361 0 -0.033685179832395225 0.0002785076830218962 0 -0.033836113299540442 0.00027501034648566184 0 -0.033746544308409974 0.00038344446036264361 0 -0.033931120622034752 0.00038669846733904397 0 -0.033836113299540442 0.00027501034648566184 0 -0.033931120622034752 0.00038669846733904397 0 -0.034111957522414894 0.00049844730605091503 0 -0.034298431950302702 0.00030788795135012933 0 -0.033172521214308706 0.00080827317523854251 0 -0.032533598335406901 0.00041243602808141574 0 -0.033232581453375952 4.3261261211278002e-05 0 -0.032533598335406901 0.00041243602808141574 0 -0.033232581453375952 4.3261261211278002e-05 0 -0.032656059186182161 -4.3797854761143993e-05 0 -0.033687421838738588 0.00058048721932994871 0 -0.033746544308409974 0.00038344446036264361 0 -0.033639000429900798 0.00045578662653806971 0 -0.033172521214308706 0.00080827317523854251 0 -0.033687421838738588 0.00058048721932994871 0 -0.033232581453375952 4.3261261211278002e-05 0 -0.033708467045153227 0.000576790914200487 0 -0.033318408136781281 0.00019880683509683979 0 -0.033639000429900798 0.00045578662653806971 0 -0.03342643483063952 0.00026838811906100595 0 -0.033685179832395225 0.0002785076830218962 0 -0.033746544308409974 0.00038344446036264361 0 -0.033639000429900798 0.00045578662653806971 0 -0.033685179832395225 0.0002785076830218962 0 -0.033318408136781281 0.00019880683509683979 0 -0.034032893425915894 -0.00016535974005862545 0 -0.033232581453375952 4.3261261211278002e-05 0 -0.032656059186182161 -4.3797854761143993e-05 0 -0.032788975292132851 -0.00044560352940292144 0 -0.032198648433208195 -0.00049134261107088603 0 -0.034032893425915894 -0.00016535974005862545 0 -0.032237916860249606 -0.0001135300899072605 0 -0.032656059186182161 -4.3797854761143993e-05 0 -0.032788975292132851 -0.00044560352940292144 0 -0.03363400814896924 -0.00039561274917333637 0 -0.034032893425915894 -0.00016535974005862545 0 -0.03412809838667244 -0.00015248980774370464 0 -0.034162427701929475 -0.00021499902159875309 0 -0.03419751443605578 -0.00017734394783427225 0 -0.034827852689006122 5.9638499013470716e-05 0 -0.034032893425915894 -0.00016535974005862545 0 -0.03498981756716843 1.6054400806952061e-06 0 -0.03499032790844709 3.7254301321125825e-06 0 -0.034991830601785422 2.3462953547802649e-06 0 -0.03498981756716843 1.6054400806952061e-06 0 -0.034991830601785422 2.3462953547802649e-06 0 -0.034996278027579118 4.1383549282082174e-07 0 -0.03499032790844709 3.7254301321125825e-06 0 -0.034991830601785422 2.3462953547802649e-06 0 -0.034996278027579118 4.1383549282082174e-07 0 -0.034032893425915894 -0.00016535974005862545 0 -0.034476416253048925 5.1573849133579615e-05 0 -0.034032893425915894 -0.00016535974005862545 0 -0.035186365840450318 -6.6939412902768512e-05 0 -0.03499032790844709 3.7254301321125825e-06 0 -0.034999528902749127 -9.0101768272985887e-07 0 -0.034996278027579118 4.1383549282082174e-07 0 -0.03342643483063952 0.00026838811906100595 0 -0.033685179832395225 0.0002785076830218962 0 -0.033835637074360395 5.6481187684891497e-05 0 -0.035011449844803338 -5.6059936260356305e-05 0 -0.035029639253029626 -6.0518836639645569e-05 0 -0.035028376282863601 -5.8676883590093499e-05 0 -0.034999528902749127 -9.0101768272985887e-07 0 -0.034999907822979938 -1.129866650577726e-08 0 -0.035000158864397862 1.1648649692913163e-08 0 -0.034999528902749127 -9.0101768272985887e-07 0 -0.034999907822979938 -1.129866650577726e-08 0 -0.034996278027579118 4.1383549282082174e-07 0 -0.03498981756716843 1.6054400806952061e-06 0 -0.034999907822979938 -1.129866650577726e-08 0 -0.034996278027579118 4.1383549282082174e-07 0 -0.034827852689006122 5.9638499013470716e-05 0 -0.035000105337959768 -1.2816258439390678e-07 0 -0.034310198509794221 0.00015270892404165454 0 -0.034298431950302702 0.00030788795135012933 0 -0.034536968940024879 0.00015222243374034676 0 -0.034310198509794221 0.00015270892404165454 0 -0.034298431950302702 0.00030788795135012933 0 -0.03403335111483434 0.00024140541833207103 0 -0.033931120622034752 0.00038669846733904397 0 -0.034298431950302702 0.00030788795135012933 0 -0.03403335111483434 0.00024140541833207103 0 -0.034310198509794221 0.00015270892404165454 0 -0.03403335111483434 0.00024140541833207103 0 -0.033835637074360395 5.6481187684891497e-05 0 -0.03403335111483434 0.00024140541833207103 0 -0.033836113299540442 0.00027501034648566184 0 -0.033835637074360395 5.6481187684891497e-05 0 -0.033931120622034752 0.00038669846733904397 0 -0.03403335111483434 0.00024140541833207103 0 -0.033836113299540442 0.00027501034648566184 0 -0.033685179832395225 0.0002785076830218962 0 -0.033836113299540442 0.00027501034648566184 0 -0.033835637074360395 5.6481187684891497e-05 0 -0.035186365840450318 -6.6939412902768512e-05 0 -0.034930571462828311 2.3419010937866468e-05 0 -0.035029639253029626 -6.0518836639645569e-05 0 -0.035028376282863601 -5.8676883590093499e-05 0 -0.034992176321880598 -5.330686709915141e-07 0 -0.034999528902749127 -9.0101768272985887e-07 0 -0.035000158864397862 1.1648649692913163e-08 0 -0.034992176321880598 -5.330686709915141e-07 0 -0.034476416253048925 5.1573849133579615e-05 0 -0.034788374415324709 -3.7944408415798788e-05 0 -0.035000158864397862 1.1648649692913163e-08 0 -0.034992176321880598 -5.330686709915141e-07 0 -0.034999357258550787 -2.4086106257907492e-08 0 -0.034992176321880598 -5.330686709915141e-07 0 -0.034999357258550787 -2.4086106257907492e-08 0 -0.03484302322382949 -1.9151220357975577e-05 0 -0.034310198509794221 0.00015270892404165454 0 -0.033835637074360395 5.6481187684891497e-05 0 -0.03484302322382949 -1.9151220357975577e-05 0 -0.035028376282863601 -5.8676883590093499e-05 0 -0.034992176321880598 -5.330686709915141e-07 0 -0.03484302322382949 -1.9151220357975577e-05 0 -0.034310198509794221 0.00015270892404165454 0 -0.03484302322382949 -1.9151220357975577e-05 0 -0.034536968940024879 0.00015222243374034676 0 -0.034999357258550787 -2.4086106257907492e-08 0 -0.03484302322382949 -1.9151220357975577e-05 0 -0.0348375499344203 3.5835687470651734e-05 0 -0.03484302322382949 -1.9151220357975577e-05 0 -0.034715840744951328 8.6263157135769278e-05 0 -0.0348375499344203 3.5835687470651734e-05 0 -0.03484302322382949 -1.9151220357975577e-05 0 -0.034715840744951328 8.6263157135769278e-05 0 -0.034536968940024879 0.00015222243374034676 0 -0.034999357258550787 -2.4086106257907492e-08 0 -0.034999753510973314 4.2104423709997201e-08 0 -0.0348375499344203 3.5835687470651734e-05 0 -0.034999753510973314 4.2104423709997201e-08 0 -0.0348375499344203 3.5835687470651734e-05 0 -0.034866550894596643 0.00015628684308225611 0 -0.034620275132042369 0.00020645162355088486 0 -0.034452637881690694 0.0005152634329856448 0 -0.034866550894596643 0.00015628684308225611 0 -0.0348375499344203 3.5835687470651734e-05 0 -0.034620275132042369 0.00020645162355088486 0 -0.034866550894596643 0.00015628684308225611 0 -0.034298431950302702 0.00030788795135012933 0 -0.034620275132042369 0.00020645162355088486 0 -0.034452637881690694 0.0005152634329856448 0 -0.034298431950302702 0.00030788795135012933 0 -0.034536968940024879 0.00015222243374034676 0 -0.034620275132042369 0.00020645162355088486 0 -0.034715840744951328 8.6263157135769278e-05 0 -0.034536968940024879 0.00015222243374034676 0 -0.034620275132042369 0.00020645162355088486 0 -0.034715840744951328 8.6263157135769278e-05 0 -0.0348375499344203 3.5835687470651734e-05 0 -0.034620275132042369 0.00020645162355088486 0 -0.034111957522414894 0.00049844730605091503 0 -0.034298431950302702 0.00030788795135012933 0 -0.034452637881690694 0.0005152634329856448 0 -0.034392582879619674 0.0005291213813432826 0 -0.034237660023379059 0.00061431067513097258 0 -0.034452637881690694 0.0005152634329856448 0 -0.034082444122430285 0.00063425534301979575 0 -0.033630045455276751 0.0008815989622553862 0 -0.034111957522414894 0.00049844730605091503 0 -0.034452637881690694 0.0005152634329856448 0 -0.034092902394666613 0.00067791016391171156 0 -0.034452637881690694 0.0005152634329856448 0 -0.034082444122430285 0.00063425534301979575 0 -0.034092902394666613 0.00067791016391171156 0 -0.034237660023379059 0.00061431067513097258 0 -0.033839170613886298 0.00055029817276276683 0 -0.033327459805488249 0.00057431414523801641 0 -0.033630045455276751 0.0008815989622553862 0 -0.032800581188929374 0.00078243941151362559 0 -0.034931355070013791 0.00033380380568464793 0 -0.034894495757787684 0.00042534379248964347 0 -0.034933560970583671 0.00023590631494514882 0 -0.033327459805488249 0.00057431414523801641 0 -0.034082444122430285 0.00063425534301979575 0 -0.033630045455276751 0.0008815989622553862 0 -0.034452637881690694 0.0005152634329856448 0 -0.034894495757787684 0.00042534379248964347 0 -0.034866550894596643 0.00015628684308225611 0 -0.034894495757787684 0.00042534379248964347 0 -0.034943998163190514 0.00021255313981529301 0 -0.034866550894596643 0.00015628684308225611 0 -0.034931355070013791 0.00033380380568464793 0 -0.034894495757787684 0.00042534379248964347 0 -0.034943998163190514 0.00021255313981529301 0 -0.034943998163190514 0.00021255313981529301 0 -0.034866550894596643 0.00015628684308225611 0 -0.034999960745677704 7.9419857351021931e-08 0 -0.034999753510973314 4.2104423709997201e-08 0 -0.034866550894596643 0.00015628684308225611 0 -0.034999960745677704 7.9419857351021931e-08 0 -0.034943998163190514 0.00021255313981529301 0 -0.034999960745677704 7.9419857351021931e-08 0 -0.034974937249179452 0.00010033488518827151 0 -0.034999960745677704 7.9419857351021931e-08 0 -0.034974937249179452 0.00010033488518827151 0 -0.03499995309501814 1.0599012147304995e-07 0 -0.034974937249179452 0.00010033488518827151 0 -0.03499995309501814 1.0599012147304995e-07 0 -0.034961679441772968 0.00017334058366481073 0 -0.03499995309501814 1.0599012147304995e-07 0 -0.034961679441772968 0.00017334058366481073 0 -0.034999938353321436 1.1099466758760742e-07 0 -0.034943998163190514 0.00021255313981529301 0 -0.034974937249179452 0.00010033488518827151 0 -0.034961679441772968 0.00017334058366481073 0 -0.034999938353321436 1.1099466758760742e-07 0 -0.034960981615106294 0.00020821941740312752 0 -0.034974207544824824 0.00013658898598441002 0 -0.034999938353321436 1.1099466758760742e-07 0 -0.034974207544824824 0.00013658898598441002 0 -0.035000041677489838 7.9941524118005622e-08 0 -0.034961679441772968 0.00017334058366481073 0 -0.034960981615106294 0.00020821941740312752 0 -0.034971023866546193 0.00027797953975735359 0 -0.034961679441772968 0.00017334058366481073 0 -0.034999938353321436 1.1099466758760742e-07 0 -0.034960981615106294 0.00020821941740312752 0 -0.034960981615106294 0.00020821941740312752 0 -0.034974207544824824 0.00013658898598441002 0 -0.034916297257534923 0.00029651954023210517 0 -0.034916297257534923 0.00029651954023210517 0 -0.034950746718820189 0.00037527825271660724 0 -0.034762634392863506 0.00050928772818954466 0 -0.034960981615106294 0.00020821941740312752 0 -0.034916297257534923 0.00029651954023210517 0 -0.034950746718820189 0.00037527825271660724 0 -0.034960981615106294 0.00020821941740312752 0 -0.034950746718820189 0.00037527825271660724 0 -0.034971023866546193 0.00027797953975735359 0 -0.034950746718820189 0.00037527825271660724 0 -0.034971023866546193 0.00027797953975735359 0 -0.035015119253760982 0.00029709821344857157 0 -0.034411501712539788 0.00049531062730995875 0 -0.033830664573705253 0.00049615859936929076 0 -0.034188145077685785 0.00022544772371554627 0 -0.034411501712539788 0.00049531062730995875 0 -0.034624420011028501 0.00025396154213881862 0 -0.034188145077685785 0.00022544772371554627 0 -0.034646755156668936 0.00036917561187378429 0 -0.034575497275815777 0.0001012386945427446 0 -0.034950746718820189 0.00037527825271660724 0 -0.035015119253760982 0.00029709821344857157 0 -0.0349001009451856 -3.3563057386383816e-05 0 -0.033830664573705253 0.00049615859936929076 0 -0.034188145077685785 0.00022544772371554627 0 -0.033887908594615351 0.0002180274106973916 0 -0.033830664573705253 0.00049615859936929076 0 -0.033887908594615351 0.0002180274106973916 0 -0.033632277966435198 0.0003207880963017138 0 -0.034950746718820189 0.00037527825271660724 0 -0.034762634392863506 0.00050928772818954466 0 -0.0349001009451856 -3.3563057386383816e-05 0 -0.034762634392863506 0.00050928772818954466 0 -0.0349001009451856 -3.3563057386383816e-05 0 -0.032739985308629004 0.00028246580044855382 0 -0.034943998163190514 0.00021255313981529301 0 -0.034961679441772968 0.00017334058366481073 0 -0.034886517397955459 0.0003596246416438308 0 -0.034931355070013791 0.00033380380568464793 0 -0.034943998163190514 0.00021255313981529301 0 -0.034886517397955459 0.0003596246416438308 0 -0.034971023866546193 0.00027797953975735359 0 -0.035015119253760982 0.00029709821344857157 0 -0.034886517397955459 0.0003596246416438308 0 -0.034961679441772968 0.00017334058366481073 0 -0.034971023866546193 0.00027797953975735359 0 -0.034886517397955459 0.0003596246416438308 0 -0.034411501712539788 0.00049531062730995875 0 -0.034886517397955459 0.0003596246416438308 0 -0.034624420011028501 0.00025396154213881862 0 -0.034886517397955459 0.0003596246416438308 0 -0.034624420011028501 0.00025396154213881862 0 -0.034933560970583671 0.00023590631494514882 0 -0.034646755156668936 0.00036917561187378429 0 -0.034869427171184117 0.00037660945928216734 0 -0.034931355070013791 0.00033380380568464793 0 -0.034886517397955459 0.0003596246416438308 0 -0.034933560970583671 0.00023590631494514882 0 -0.033327459805488249 0.00057431414523801641 0 -0.032800581188929374 0.00078243941151362559 0 -0.032604330870622492 0.0003338214321175789 0 -0.033189691290557363 0.00020304125843366457 0 -0.032604330870622492 0.0003338214321175789 0 -0.032804607346336917 -8.5459712781453499e-05 0 -0.032604330870622492 0.0003338214321175789 0 -0.031955508020232094 0.00031401919435350764 0 -0.032260895411644099 -3.99747179953073e-05 0 -0.032604330870622492 0.0003338214321175789 0 -0.032109262120277628 0.00058164889522306033 0 -0.031955508020232094 0.00031401919435350764 0 -0.032800581188929374 0.00078243941151362559 0 -0.032604330870622492 0.0003338214321175789 0 -0.032109262120277628 0.00058164889522306033 0 -0.033839170613886298 0.00055029817276276683 0 -0.03341689580838958 -9.6610293760213012e-05 0 -0.034624420011028501 0.00025396154213881862 0 -0.034933560970583671 0.00023590631494514882 0 -0.034493403663586185 -8.6190332583016899e-05 0 -0.034624420011028501 0.00025396154213881862 0 -0.034493403663586185 -8.6190332583016899e-05 0 -0.034188145077685785 0.00022544772371554627 0 -0.034493403663586185 -8.6190332583016899e-05 0 -0.034188145077685785 0.00022544772371554627 0 -0.033919524131291089 -2.1780462080621584e-05 0 -0.033887908594615351 0.0002180274106973916 0 -0.033919524131291089 -2.1780462080621584e-05 0 -0.033590795515030421 0.00016040260778519229 0 -0.033887908594615351 0.0002180274106973916 0 -0.033590795515030421 0.00016040260778519229 0 -0.033632277966435198 0.0003207880963017138 0 -0.034188145077685785 0.00022544772371554627 0 -0.033887908594615351 0.0002180274106973916 0 -0.033919524131291089 -2.1780462080621584e-05 0 -0.033919524131291089 -2.1780462080621584e-05 0 -0.033558380355911716 -0.00023941153404108146 0 -0.033590795515030421 0.00016040260778519229 0 -0.034493403663586185 -8.6190332583016899e-05 0 -0.033919524131291089 -2.1780462080621584e-05 0 -0.033762098689325427 -0.00041169493325642818 0 -0.031496368246790835 0.00036068483121100254 0 -0.031955508020232094 0.00031401919435350764 0 -0.031652777694791821 0.00022087454052005317 0 -0.033919524131291089 -2.1780462080621584e-05 0 -0.033762098689325427 -0.00041169493325642818 0 -0.033558380355911716 -0.00023941153404108146 0 -0.031624801619860053 0.0024428858965270632 0 -0.028765667932813009 0.0060553030215977615 0 -0.029487924287799023 0.0036959205761181316 0 -0.030141702952660894 0.0040095141357557595 0 -0.028722809552919813 0.0052454988031163576 0 -0.031400956307020021 0.00035016361046258084 0 -0.031481291089816676 0.00038852031304421897 0 -0.031652777694791821 0.00022087454052005317 0 -0.031624801619860053 0.0024428858965270632 0 -0.03213490815510496 0.00076578092536206419 0 -0.029289560815478694 0.0052419883062183748 0 -0.031624801619860053 0.0024428858965270632 0 -0.032109262120277628 0.00058164889522306033 0 -0.031496368246790835 0.00036068483121100254 0 -0.031955508020232094 0.00031401919435350764 0 -0.03341689580838958 -9.6610293760213012e-05 0 -0.031624801619860053 0.0024428858965270632 0 -0.031955508020232094 0.00031401919435350764 0 -0.03189268123099883 1.8474884418115827e-05 0 -0.032260895411644099 -3.99747179953073e-05 0 -0.03189268123099883 1.8474884418115827e-05 0 -0.031966948409526248 -0.0002462184956450585 0 -0.032260895411644099 -3.99747179953073e-05 0 -0.031955508020232094 0.00031401919435350764 0 -0.03189268123099883 1.8474884418115827e-05 0 -0.031652777694791821 0.00022087454052005317 0 -0.029289560815478694 0.0052419883062183748 0 -0.030674148959569329 0.0017787039947131571 0 -0.031400956307020021 0.00035016361046258084 0 -0.031652777694791821 0.00022087454052005317 0 -0.031630854313836297 -0.00011985301348611279 0 -0.028156669454321701 0.0070172749494019169 0 -0.029473214600594551 0.0042819321661448136 0 -0.027915663297924234 0.0050067591201790424 0 -0.03189268123099883 1.8474884418115827e-05 0 -0.031652777694791821 0.00022087454052005317 0 -0.031630854313836297 -0.00011985301348611279 0 -0.030674148959569329 0.0017787039947131571 0 -0.031184614313482382 0.00059733027664280597 0 -0.029473214600594551 0.0042819321661448136 0 -0.02778861935606871 0.0026298397776017483 0 -0.027915663297924234 0.0050067591201790424 0 -0.029473214600594551 0.0042819321661448136 0 -0.02778861935606871 0.0026298397776017483 0 -0.030700920320460859 0.0016250217671172614 0 -0.03189268123099883 1.8474884418115827e-05 0 -0.031630854313836297 -0.00011985301348611279 0 -0.031966948409526248 -0.0002462184956450585 0 -0.031630854313836297 -0.00011985301348611279 0 -0.031966948409526248 -0.0002462184956450585 0 -0.031754065250377432 -0.00051481516157948152 0 -0.031966948409526248 -0.0002462184956450585 0 -0.032260895411644099 -3.99747179953073e-05 0 -0.032315689331876223 -0.00050341025124879741 0 -0.032804607346336917 -8.5459712781453499e-05 0 -0.032260895411644099 -3.99747179953073e-05 0 -0.032315689331876223 -0.00050341025124879741 0 -0.032917746467934175 -0.00048252486959138188 0 -0.032804607346336917 -8.5459712781453499e-05 0 -0.032315689331876223 -0.00050341025124879741 0 -0.032604330870622492 0.0003338214321175789 0 -0.032804607346336917 -8.5459712781453499e-05 0 -0.032260895411644099 -3.99747179953073e-05 0 -0.015017055802725322 0.012770677533830627 0 -0.018484642406816704 0.012712962848159846 0 -0.016654763352467777 0.014004131348783658 0 -0.017424147648410861 0.011748697027067543 0 -0.015251863440678644 0.012587795413269152 0 -0.018484642406816704 0.012712962848159846 0 -0.015180473631005408 0.012684399011222329 0 -0.018307877788697212 0.012715798917567515 0 -0.018484642406816704 0.012712962848159846 0 -0.016654763352467777 0.014004131348783658 0 -0.017914540529139135 0.014446877014095489 0 -0.015017055802725322 0.012770677533830627 0 -0.016654763352467777 0.014004131348783658 0 -0.015120843344458125 0.015188490661924764 0 -0.017424147648410861 0.011748697027067543 0 -0.015251863440678644 0.012587795413269152 0 -0.015993679694294115 0.010815666615042251 0 -0.015251863440678644 0.012587795413269152 0 -0.014918105595824745 0.01145554059796113 0 -0.015993679694294115 0.010815666615042251 0 -0.014918105595824745 0.01145554059796113 0 -0.015993679694294115 0.010815666615042251 0 -0.01446974574504151 0.010441403579838113 0 -0.015993679694294115 0.010815666615042251 0 -0.017284968522217378 0.010613376576127058 0 -0.017096918017009556 0.009616717727955474 0 -0.017424147648410861 0.011748697027067543 0 -0.015993679694294115 0.010815666615042251 0 -0.017284968522217378 0.010613376576127058 0 -0.017424147648410861 0.011748697027067543 0 -0.017284968522217378 0.010613376576127058 0 -0.017994843032737982 0.010984241236395336 0 -0.017284968522217378 0.010613376576127058 0 -0.017994843032737982 0.010984241236395336 0 -0.018515826693235728 0.010087237736819113 0 -0.01871129051790307 0.01136394966135683 0 -0.017994843032737982 0.010984241236395336 0 -0.018515826693235728 0.010087237736819113 0 -0.01871129051790307 0.01136394966135683 0 -0.020359174570321634 0.010236888817745997 0 -0.018515826693235728 0.010087237736819113 0 -0.017424147648410861 0.011748697027067543 0 -0.01871129051790307 0.01136394966135683 0 -0.017994843032737982 0.010984241236395336 0 -0.024230431712605444 0.0061659384900461375 0 -0.021775565852523909 0.010739692528623513 0 -0.01871129051790307 0.01136394966135683 0 -0.020359174570321634 0.010236888817745997 0 -0.019475490241402545 0.012535570848497588 0 -0.02778861935606871 0.0026298397776017483 0 -0.027915663297924234 0.0050067591201790424 0 -0.026243976761402849 0.0061227856054672019 0 -0.029289560815478694 0.0052419883062183748 0 -0.021775565852523909 0.010739692528623513 0 -0.028156669454321701 0.0070172749494019169 0 -0.027915663297924234 0.0050067591201790424 0 -0.026243976761402849 0.0061227856054672019 0 -0.017424147648410861 0.011748697027067543 0 -0.01871129051790307 0.01136394966135683 0 -0.019475490241402545 0.012535570848497588 0 -0.017424147648410861 0.011748697027067543 0 -0.020917092969579706 0.013396940765409131 0 -0.018484642406816704 0.012712962848159846 0 -0.020917092969579706 0.013396940765409131 0 -0.018484642406816704 0.012712962848159846 0 -0.019191368914909031 0.014611281275253124 0 -0.01707379621164443 0.0123256061331734 0 -0.021775565852523909 0.010739692528623513 0 -0.019191368914909031 0.014611281275253124 0 -0.019646233819299024 0.016893586375116516 0 -0.018380312702350927 0.015638710733936884 0 -0.020917092969579706 0.013396940765409131 0 -0.019191368914909031 0.014611281275253124 0 -0.019646233819299024 0.016893586375116516 0 -0.021775565852523909 0.010739692528623513 0 -0.019564088110941364 0.01720046178436677 0 -0.022130685202383964 0.010616850818140065 0 -0.021631596840209478 0.016662483182271259 0 -0.019646233819299024 0.016893586375116516 0 -0.018484642406816704 0.012712962848159846 0 -0.019191368914909031 0.014611281275253124 0 -0.017914540529139135 0.014446877014095489 0 -0.022130685202383964 0.010616850818140065 0 -0.024584016143889997 0.014095596354709137 0 -0.021631596840209478 0.016662483182271259 0 -0.029289560815478694 0.0052419883062183748 0 -0.028765667932813009 0.0060553030215977615 0 -0.025521969676691 0.012194257024508597 0 -0.022130685202383964 0.010616850818140065 0 -0.024584016143889997 0.014095596354709137 0 -0.027898403431392497 0.0062178906696974089 0 -0.02677559184232834 0.007175167912125034 0 -0.026810600417063304 0.0083744462195297353 0 -0.033558380355911716 -0.00023941153404108146 0 -0.033590795515030421 0.00016040260778519229 0 -0.033216719082982668 0.00040930973938791906 0 -0.028765667932813009 0.0060553030215977615 0 -0.030212053521341528 0.0019645602876354764 0 -0.028765667932813009 0.0060553030215977615 0 -0.023396442167226323 0.01249737692263877 0 -0.033590795515030421 0.00016040260778519229 0 -0.033632277966435198 0.0003207880963017138 0 -0.033216719082982668 0.00040930973938791906 0 -0.02677559184232834 0.007175167912125034 0 -0.026810600417063304 0.0083744462195297353 0 -0.025647928669890276 0.0081391551033166646 0 -0.021631596840209478 0.016662483182271259 0 -0.019646233819299024 0.016893586375116516 0 -0.019091280300318755 0.018518065578451853 0 -0.023396442167226323 0.01249737692263877 0 -0.023165803801299484 0.011113087451308257 0 -0.019646233819299024 0.016893586375116516 0 -0.017796331858744373 0.017002563756144964 0 -0.019091280300318755 0.018518065578451853 0 -0.015013691943839192 0.018356601533814257 0 -0.023165803801299484 0.011113087451308257 0 -0.017796331858744373 0.017002563756144964 0 -0.016026045064135717 0.01772337062042309 0 -0.019091280300318755 0.018518065578451853 0 -0.017796331858744373 0.017002563756144964 0 -0.017008904985376102 0.015644691882586763 0 -0.016026045064135717 0.01772337062042309 0 -0.017796331858744373 0.017002563756144964 0 -0.018380312702350927 0.015638710733936884 0 -0.017008904985376102 0.015644691882586763 0 -0.019646233819299024 0.016893586375116516 0 -0.017796331858744373 0.017002563756144964 0 -0.018380312702350927 0.015638710733936884 0 -0.018380312702350927 0.015638710733936884 0 -0.017008904985376102 0.015644691882586763 0 -0.017914540529139135 0.014446877014095489 0 -0.017008904985376102 0.015644691882586763 0 -0.016654763352467777 0.014004131348783658 0 -0.017914540529139135 0.014446877014095489 0 -0.019191368914909031 0.014611281275253124 0 -0.018380312702350927 0.015638710733936884 0 -0.017914540529139135 0.014446877014095489 0 -0.015017055802725322 0.012770677533830627 0 -0.015120843344458125 0.015188490661924764 0 -0.01303264482662812 0.014196831896634938 0 -0.017008904985376102 0.015644691882586763 0 -0.016654763352467777 0.014004131348783658 0 -0.015120843344458125 0.015188490661924764 0 -0.017008904985376102 0.015644691882586763 0 -0.015120843344458125 0.015188490661924764 0 -0.016026045064135717 0.01772337062042309 0 -0.015120843344458125 0.015188490661924764 0 -0.016026045064135717 0.01772337062042309 0 -0.012984402097697814 0.017302378729995828 0 -0.015013691943839192 0.018356601533814257 0 -0.013408344599874033 0.017264920209020689 0 -0.015469478033831908 0.017931772161189838 0 -0.01589666336654803 0.020693341952369677 0 -0.01262908434507384 0.020252092549160713 0 -0.015469478033831908 0.017931772161189838 0 -0.01589666336654803 0.020693341952369677 0 -0.018507217510312968 0.018495474337456373 0 -0.02036634323844673 0.01063925204257057 0 -0.023165803801299484 0.011113087451308257 0 -0.024653052625326775 0.0013509133874554421 0 -0.028526132149249948 -0.0019570903591493382 0 -0.028880142451310081 0.0024068679932558673 0 -0.024653052625326775 0.0013509133874554421 0 -0.028880142451310081 0.0024068679932558673 0 -0.026498449896860673 0.0047783088736813159 0 -0.024653052625326775 0.0013509133874554421 0 -0.023659693808515653 0.0063366666173631419 0 -0.026498449896860673 0.0047783088736813159 0 -0.024653052625326775 0.0013509133874554421 0 -0.023659693808515653 0.0063366666173631419 0 -0.020722028425214815 0.0047368316850225668 0 -0.02036634323844673 0.01063925204257057 0 -0.017446232742476656 0.013523460510115624 0 -0.01589666336654803 0.020693341952369677 0 -0.012872190852284509 0.022712543825874402 0 -0.01262908434507384 0.020252092549160713 0 -0.033830664573705253 0.00049615859936929076 0 -0.033632277966435198 0.0003207880963017138 0 -0.033216719082982668 0.00040930973938791906 0 -0.034575497275815777 0.0001012386945427446 0 -0.030212053521341528 0.0019645602876354764 0 -0.0349001009451856 -3.3563057386383816e-05 0 -0.032739985308629004 0.00028246580044855382 0 -0.031263854390868422 -0.0013154303565831179 0 -0.032739985308629004 0.00028246580044855382 0 -0.031263854390868422 -0.0013154303565831179 0 -0.030431433133907677 0.00011077335506098902 0 -0.032739985308629004 0.00028246580044855382 0 -0.030431433133907677 0.00011077335506098902 0 -0.03160524982799745 0.0018981445889149436 0 -0.030431433133907677 0.00011077335506098902 0 -0.028526132149249948 -0.0019570903591493382 0 -0.028880142451310081 0.0024068679932558673 0 -0.031155909588534411 -0.0013855846755042394 0 -0.030431433133907677 0.00011077335506098902 0 -0.028526132149249948 -0.0019570903591493382 0 -0.030212053521341528 0.0019645602876354764 0 -0.023165803801299484 0.011113087451308257 0 -0.030212053521341528 0.0019645602876354764 0 -0.030932203013907162 -0.00012884062744691714 0 -0.028880142451310081 0.0024068679932558673 0 -0.028576446602484481 0.0054877103426095447 0 -0.026498449896860673 0.0047783088736813159 0 -0.028880142451310081 0.0024068679932558673 0 -0.03160524982799745 0.0018981445889149436 0 -0.031866379944012833 0.004639572801325916 0 -0.028880142451310081 0.0024068679932558673 0 -0.031866379944012833 0.004639572801325916 0 -0.028576446602484481 0.0054877103426095447 0 -0.030431433133907677 0.00011077335506098902 0 -0.028880142451310081 0.0024068679932558673 0 -0.03160524982799745 0.0018981445889149436 0 -0.034791539205595509 0.00056469340549166196 0 -0.033204393169110766 0.0027443628937478641 0 -0.034762634392863506 0.00050928772818954466 0 -0.03160524982799745 0.0018981445889149436 0 -0.031866379944012833 0.004639572801325916 0 -0.034916297257534923 0.00029651954023210517 0 -0.034762634392863506 0.00050928772818954466 0 -0.035044154917046599 0.00023772515629617294 0 -0.034762634392863506 0.00050928772818954466 0 -0.032739985308629004 0.00028246580044855382 0 -0.03160524982799745 0.0018981445889149436 0 -0.034974207544824824 0.00013658898598441002 0 -0.035044154917046599 0.00023772515629617294 0 -0.03501281062966019 0.00010955623133163414 0 -0.034974207544824824 0.00013658898598441002 0 -0.034916297257534923 0.00029651954023210517 0 -0.035044154917046599 0.00023772515629617294 0 -0.035044154917046599 0.00023772515629617294 0 -0.035027133381390373 7.4494093033412349e-05 0 -0.03501281062966019 0.00010955623133163414 0 -0.035044154917046599 0.00023772515629617294 0 -0.035034073106740241 6.6583346120005686e-05 0 -0.035027133381390373 7.4494093033412349e-05 0 -0.033204393169110766 0.0027443628937478641 0 -0.032606462000010231 0.0025825631101818384 0 -0.031866379944012833 0.004639572801325916 0 -0.028576446602484481 0.0054877103426095447 0 -0.028599139063494837 0.0085320346897621649 0 -0.028576446602484481 0.0054877103426095447 0 -0.028599139063494837 0.0085320346897621649 0 -0.026777089028948691 0.0070360687875638357 0 -0.035025834211600687 6.5927955297921721e-05 0 -0.035000041677489838 7.9941524118005622e-08 0 -0.035000070662623652 3.3035039072865546e-08 0 -0.035025834211600687 6.5927955297921721e-05 0 -0.035027133381390373 7.4494093033412349e-05 0 -0.035000041677489838 7.9941524118005622e-08 0 -0.032606462000010231 0.0025825631101818384 0 -0.033617255431885013 0.0021711997845578765 0 -0.034974207544824824 0.00013658898598441002 0 -0.03501281062966019 0.00010955623133163414 0 -0.035000041677489838 7.9941524118005622e-08 0 -0.035027133381390373 7.4494093033412349e-05 0 -0.03501281062966019 0.00010955623133163414 0 -0.035000041677489838 7.9941524118005622e-08 0 -0.023659693808515653 0.0063366666173631419 0 -0.020861970417195556 0.0098966908595407646 0 -0.020722028425214815 0.0047368316850225668 0 -0.023659693808515653 0.0063366666173631419 0 -0.026498449896860673 0.0047783088736813159 0 -0.026777089028948691 0.0070360687875638357 0 -0.028576446602484481 0.0054877103426095447 0 -0.026498449896860673 0.0047783088736813159 0 -0.026777089028948691 0.0070360687875638357 0 -0.023659693808515653 0.0063366666173631419 0 -0.026777089028948691 0.0070360687875638357 0 -0.024754062296825943 0.0092117304295744901 0 -0.032606462000010231 0.0025825631101818384 0 -0.029448566700998886 0.0047168467469992119 0 -0.028599139063494837 0.0085320346897621649 0 -0.026777089028948691 0.0070360687875638357 0 -0.024754062296825943 0.0092117304295744901 0 -0.034901212053660757 8.9251066905490957e-05 0 -0.03499499544854269 1.666501218631355e-05 0 -0.034999908427988391 -9.2320377963896376e-08 0 -0.032606462000010231 0.0025825631101818384 0 -0.035001626884509876 -1.8586407752870589e-06 0 -0.03499499544854269 1.666501218631355e-05 0 -0.034999908427988391 -9.2320377963896376e-08 0 -0.034999912223354558 1.9242558919529064e-07 0 -0.03499499544854269 1.666501218631355e-05 0 -0.034999912223354558 1.9242558919529064e-07 0 -0.034860244602844523 1.6690576297342463e-05 0 -0.029448566700998886 0.0047168467469992119 0 -0.029065411807303859 0.0042131148941693588 0 -0.023659693808515653 0.0063366666173631419 0 -0.024754062296825943 0.0092117304295744901 0 -0.020861970417195556 0.0098966908595407646 0 -0.034999984274307103 6.154674500903622e-09 0 -0.034989801336485077 8.5223867927465531e-06 0 -0.034999933846111948 2.7984157878568075e-08 0 -0.035001995843240798 1.8101010435210535e-06 0 -0.029065411807303859 0.0042131148941693588 0 -0.029065411807303859 0.0042131148941693588 0 -0.0083517852094581405 0.014848585154395253 0 -0.034989801336485077 8.5223867927465531e-06 0 -0.034999933846111948 2.7984157878568075e-08 0 -0.034976389374305437 4.0942278899772325e-06 0 -0.029065411807303859 0.0042131148941693588 0 -0.029373171484479908 0.0037856627000400771 0 -0.025563063643914273 0.0072998527016740989 0 -0.019751867115981571 0.008212143506109059 0 -0.019202699667696079 0.0045794345167639861 0 -0.020861970417195556 0.0098966908595407646 0 -0.020722028425214815 0.0047368316850225668 0 -0.016720485996544548 0.0081965998393899314 0 -0.012872190852284509 0.022712543825874402 0 -0.0090280481465634249 0.023140852860833356 0 -0.010057216832261654 0.022604953147146476 0 -0.017446232742476656 0.013523460510115624 0 -0.0083517852094581405 0.014848585154395253 0 -0.0083517852094581405 0.014848585154395253 0 -0.0040853890599625289 0.024537318474234088 0 -0.0090280481465634249 0.023140852860833356 0 -0.0088205730665436612 0.023284616355560495 0 -0.010057216832261654 0.022604953147146476 0 0.013227859268352746 0.024129516553920663 0 0.013866075378323312 0.0035761869146442794 0 -0.010866770325851276 0.012817723048473936 0 -0.029373171484479908 0.0037856627000400771 0 -0.013556246334390462 0.0055423521214911335 0 -0.019751867115981571 0.008212143506109059 0 -0.019202699667696079 0.0045794345167639861 0 -0.013982514964717413 0.0090875307420816703 0 -0.034999933846111948 2.7984157878568075e-08 0 -0.034976389374305437 4.0942278899772325e-06 0 -0.034947994395336239 6.5749259263495183e-08 0 -0.0083517852094581405 0.014848585154395253 0 -0.013556246334390462 0.0055423521214911335 0 0.013227859268352746 0.024129516553920663 0 -0.010866770325851276 0.012817723048473936 0 -0.0088205730665436612 0.023284616355560495 0 -0.013556246334390462 0.0055423521214911335 0 -0.034971774962984724 8.4977879833338584e-06 0 0.013866075378323312 0.0035761869146442794 0 -0.010866770325851276 0.012817723048473936 0 -0.034688733806524583 1.6155238915931994e-05 0 -0.010866770325851276 0.012817723048473936 0 -0.034688733806524583 1.6155238915931994e-05 0 -0.031021154732507911 0.0061648900566882679 0 -0.031021154732507911 0.0061648900566882679 0 -0.035079100041701436 1.2327024143575918e-06 0 -0.033565808772169192 0.0055178817790338987 0 -0.034688733806524583 1.6155238915931994e-05 0 -0.031021154732507911 0.0061648900566882679 0 -0.035079100041701436 1.2327024143575918e-06 0 -0.010866770325851276 0.012817723048473936 0 -0.031021154732507911 0.0061648900566882679 0 -0.033221373117175837 0.0076307558525826715 0 -0.031021154732507911 0.0061648900566882679 0 -0.033221373117175837 0.0076307558525826715 0 -0.033565808772169192 0.0055178817790338987 0 -0.010866770325851276 0.012817723048473936 0 -0.0097350201799080594 0.025268429875156165 0 -0.0088205730665436612 0.023284616355560495 0 -0.01168549384362258 0.011093278308124212 0 -0.020148819197803192 0.016499948987522779 0 -0.0097350201799080594 0.025268429875156165 0 -0.0088205730665436612 0.023284616355560495 0 -0.0095985082980253947 0.023010887128057402 0 -0.0097350201799080594 0.025268429875156165 0 -0.0095985082980253947 0.023010887128057402 0 -0.0088545563365032449 0.020647837175464624 0 -0.0088205730665436612 0.023284616355560495 0 -0.0095985082980253947 0.023010887128057402 0 -0.010057216832261654 0.022604953147146476 0 -0.033221373117175837 0.0076307558525826715 0 -0.033565808772169192 0.0055178817790338987 0 -0.033376467235338603 0.0062782262620991033 0 -0.020148819197803192 0.016499948987522779 0 -0.021279762908005234 0.010263200792194376 0 -0.0097350201799080594 0.025268429875156165 0 -0.0088545563365032449 0.020647837175464624 0 -0.0055475149374894141 0.019882449236677258 0 -0.0095985082980253947 0.023010887128057402 0 -0.0088545563365032449 0.020647837175464624 0 -0.010426695673373728 0.020863966568278446 0 -0.0088545563365032449 0.020647837175464624 0 -0.010426695673373728 0.020863966568278446 0 -0.010473553276589578 0.017781051837561405 0 -0.011667653792198739 0.01902646355159188 0 -0.010426695673373728 0.020863966568278446 0 -0.010473553276589578 0.017781051837561405 0 -0.011667653792198739 0.01902646355159188 0 -0.010426695673373728 0.020863966568278446 0 -0.01262908434507384 0.020252092549160713 0 -0.011667653792198739 0.01902646355159188 0 -0.01262908434507384 0.020252092549160713 0 -0.012984402097697814 0.017302378729995828 0 -0.012872190852284509 0.022712543825874402 0 -0.01262908434507384 0.020252092549160713 0 -0.010057216832261654 0.022604953147146476 0 -0.0095985082980253947 0.023010887128057402 0 -0.010426695673373728 0.020863966568278446 0 -0.010057216832261654 0.022604953147146476 0 -0.010426695673373728 0.020863966568278446 0 -0.01262908434507384 0.020252092549160713 0 -0.010057216832261654 0.022604953147146476 0 -0.034809454315368867 0.0018692178969506236 0 -0.035005761560519745 4.8142181365887346e-07 0 -0.034673801520323205 0.0023666451672026273 0 -0.035005761560519745 4.8142181365887346e-07 0 -0.034673801520323205 0.0023666451672026273 0 -0.034978654821316617 2.3357215821095973e-06 0 -0.034673801520323205 0.0023666451672026273 0 -0.034692323379135255 0.0024533658644165829 0 -0.033905789876711744 0.0043188642751936122 0 -0.034692323379135255 0.0024533658644165829 0 -0.034978654821316617 2.3357215821095973e-06 0 -0.035079100041701436 1.2327024143575918e-06 0 -0.034673801520323205 0.0023666451672026273 0 -0.034692323379135255 0.0024533658644165829 0 -0.034978654821316617 2.3357215821095973e-06 0 -0.034692323379135255 0.0024533658644165829 0 -0.035079100041701436 1.2327024143575918e-06 0 -0.033565808772169192 0.0055178817790338987 0 -0.034692323379135255 0.0024533658644165829 0 -0.033565808772169192 0.0055178817790338987 0 -0.033905789876711744 0.0043188642751936122 0 -0.033565808772169192 0.0055178817790338987 0 -0.033376467235338603 0.0062782262620991033 0 -0.033905789876711744 0.0043188642751936122 0 -0.021279762908005234 0.010263200792194376 0 -0.038163821443491203 0.0015120754471125825 0 -0.033335366800892739 0.0038451920528201214 0 -0.033406767108556557 0.0037427691087514839 0 -0.033905789876711744 0.0043188642751936122 0 -0.033406767108556557 0.0037427691087514839 0 -0.033905789876711744 0.0043188642751936122 0 -0.033818717276629995 0.0033417895736259956 0 -0.033406767108556557 0.0037427691087514839 0 -0.033818717276629995 0.0033417895736259956 0 -0.033447324725509271 0.0039250940152242052 0 -0.034673801520323205 0.0023666451672026273 0 -0.033818717276629995 0.0033417895736259956 0 -0.034601144665438961 0.0025371470892418323 0 -0.034673801520323205 0.0023666451672026273 0 -0.033905789876711744 0.0043188642751936122 0 -0.033818717276629995 0.0033417895736259956 0 -0.033818717276629995 0.0033417895736259956 0 -0.034601144665438961 0.0025371470892418323 0 -0.03474424547415244 0.0029464222745300187 0 -0.034809454315368867 0.0018692178969506236 0 -0.034601144665438961 0.0025371470892418323 0 -0.034895878613125431 0.001858612794956231 0 -0.034809454315368867 0.0018692178969506236 0 -0.034673801520323205 0.0023666451672026273 0 -0.034601144665438961 0.0025371470892418323 0 -0.034348936853410873 0.0049275813491373938 0 -0.03474424547415244 0.0029464222745300187 0 -0.033447324725509271 0.0039250940152242052 0 -0.033818717276629995 0.0033417895736259956 0 -0.03474424547415244 0.0029464222745300187 0 -0.033447324725509271 0.0039250940152242052 0 -0.033447324725509271 0.0039250940152242052 0 -0.033248634394358156 0.0050870200943148773 0 -0.032778668629316929 0.0047866905894999789 0 -0.034348936853410873 0.0049275813491373938 0 -0.033248634394358156 0.0050870200943148773 0 -0.033392085214287576 0.0060713778811731633 0 -0.034348936853410873 0.0049275813491373938 0 -0.033447324725509271 0.0039250940152242052 0 -0.033248634394358156 0.0050870200943148773 0 -0.032778668629316929 0.0047866905894999789 0 -0.032117735965112172 0.0047068472708346543 0 -0.032028659777413572 0.0065427245545283631 0 -0.032370765499792252 0.0028411594674738814 0 -0.027121657098377928 0.0073314500888748422 0 -0.032778668629316929 0.0047866905894999789 0 -0.032949177499531468 0.0040284333502487776 0 -0.032117735965112172 0.0047068472708346543 0 -0.033447324725509271 0.0039250940152242052 0 -0.032778668629316929 0.0047866905894999789 0 -0.032949177499531468 0.0040284333502487776 0 -0.033406767108556557 0.0037427691087514839 0 -0.033447324725509271 0.0039250940152242052 0 -0.032949177499531468 0.0040284333502487776 0 -0.033335366800892739 0.0038451920528201214 0 -0.032949177499531468 0.0040284333502487776 0 -0.032903465054004516 0.0040331931975277676 0 -0.033335366800892739 0.0038451920528201214 0 -0.033406767108556557 0.0037427691087514839 0 -0.032949177499531468 0.0040284333502487776 0 -0.021279762908005234 0.010263200792194376 0 -0.027121657098377928 0.0073314500888748422 0 -0.01236747104428221 0.010304987047566064 0 -0.012970052840238486 0.011419952679341825 0 -0.012117439984156849 0.011693856290960414 0 -0.012970052840238486 0.011419952679341825 0 -0.012247995633593857 0.012182282831364069 0 -0.012117439984156849 0.011693856290960414 0 -0.027121657098377928 0.0073314500888748422 0 -0.019882132984183166 0.011708823999182539 0 -0.029564802935516749 0.0091272933489817722 0 -0.029428950738516913 0.0093086726891703653 0 -0.030206477804529133 0.0091127827023128813 0 -0.029428950738516913 0.0093086726891703653 0 -0.029573065197217394 0.0096088561620364214 0 -0.030206477804529133 0.0091127827023128813 0 -0.029428950738516913 0.0093086726891703653 0 -0.029573065197217394 0.0096088561620364214 0 -0.028821693263843453 0.010074966916792032 0 -0.029573065197217394 0.0096088561620364214 0 -0.028855576543078958 0.0097264731390196459 0 -0.029665521952135076 0.0099096535736994951 0 -0.030993516916218097 0.0086962788985952486 0 -0.021917425810454923 0.010392131683685166 0 -0.029573065197217394 0.0096088561620364214 0 -0.030424781123134053 0.0095265660331286944 0 -0.029665521952135076 0.0099096535736994951 0 -0.030424781123134053 0.0095265660331286944 0 -0.030206477804529133 0.0091127827023128813 0 -0.031976806012122549 0.009374924271518606 0 -0.029573065197217394 0.0096088561620364214 0 -0.030424781123134053 0.0095265660331286944 0 -0.030206477804529133 0.0091127827023128813 0 -0.027121657098377928 0.0073314500888748422 0 -0.031700032585216809 0.008047829568049919 0 -0.033248634394358156 0.0050870200943148773 0 -0.032778668629316929 0.0047866905894999789 0 -0.032028659777413572 0.0065427245545283631 0 -0.033248634394358156 0.0050870200943148773 0 -0.032028659777413572 0.0065427245545283631 0 -0.033392085214287576 0.0060713778811731633 0 -0.032028659777413572 0.0065427245545283631 0 -0.033392085214287576 0.0060713778811731633 0 -0.033096793454907895 0.0072805703713998745 0 -0.031700032585216809 0.008047829568049919 0 -0.031835518481302658 0.0093392270877381573 0 -0.032028659777413572 0.0065427245545283631 0 -0.033096793454907895 0.0072805703713998745 0 -0.031976806012122549 0.009374924271518606 0 -0.033096793454907895 0.0072805703713998745 0 -0.033716860174266665 0.0083269326043546466 0 -0.031976806012122549 0.009374924271518606 0 -0.033716860174266665 0.0083269326043546466 0 -0.034253721412307675 0.0066633504838405954 0 -0.034983673847939385 0.007853058965930141 0 -0.033096793454907895 0.0072805703713998745 0 -0.033716860174266665 0.0083269326043546466 0 -0.034253721412307675 0.0066633504838405954 0 -0.033716860174266665 0.0083269326043546466 0 -0.034470582330029156 0.0088159050767711925 0 -0.034983673847939385 0.007853058965930141 0 -0.034348936853410873 0.0049275813491373938 0 -0.033392085214287576 0.0060713778811731633 0 -0.034253721412307675 0.0066633504838405954 0 -0.034348936853410873 0.0049275813491373938 0 -0.034253721412307675 0.0066633504838405954 0 -0.035712304810881175 0.0062159561761632688 0 -0.033392085214287576 0.0060713778811731633 0 -0.033096793454907895 0.0072805703713998745 0 -0.034253721412307675 0.0066633504838405954 0 -0.011740984917052416 0.015534193999789041 0 -0.010473553276589578 0.017781051837561405 0 -0.01042941213433695 0.015402391773030866 0 -0.011740984917052416 0.015534193999789041 0 -0.011440857416427117 0.013832649821563204 0 -0.01042941213433695 0.015402391773030866 0 -0.011440857416427117 0.013832649821563204 0 -0.01042941213433695 0.015402391773030866 0 -0.010857472071548838 0.012910723395884803 0 -0.011740984917052416 0.015534193999789041 0 -0.011440857416427117 0.013832649821563204 0 -0.01303264482662812 0.014196831896634938 0 -0.015120843344458125 0.015188490661924764 0 -0.01303264482662812 0.014196831896634938 0 -0.012984402097697814 0.017302378729995828 0 -0.011740984917052416 0.015534193999789041 0 -0.01303264482662812 0.014196831896634938 0 -0.012984402097697814 0.017302378729995828 0 -0.015469478033831908 0.017931772161189838 0 -0.01262908434507384 0.020252092549160713 0 -0.012984402097697814 0.017302378729995828 0 -0.011667653792198739 0.01902646355159188 0 -0.012984402097697814 0.017302378729995828 0 -0.010473553276589578 0.017781051837561405 0 -0.011740984917052416 0.015534193999789041 0 -0.012984402097697814 0.017302378729995828 0 -0.010473553276589578 0.017781051837561405 0 -0.0088545563365032449 0.020647837175464624 0 -0.010473553276589578 0.017781051837561405 0 -0.0078024678438397711 0.016528718151361692 0 -0.010473553276589578 0.017781051837561405 0 -0.0078024678438397711 0.016528718151361692 0 -0.01042941213433695 0.015402391773030866 0 -0.021279762908005234 0.010263200792194376 0 -0.0076799330639319568 0.01551642514322448 0 -0.01236747104428221 0.010304987047566064 0 -0.011566194027029733 0.011294555713091875 0 -0.012117439984156849 0.011693856290960414 0 -0.0088545563365032449 0.020647837175464624 0 -0.0055475149374894141 0.019882449236677258 0 -0.0078024678438397711 0.016528718151361692 0 -0.011566194027029733 0.011294555713091875 0 -0.012117439984156849 0.011693856290960414 0 -0.011405779178283055 0.012573450952248603 0 -0.0076799330639319568 0.01551642514322448 0 -0.01146986876197645 0.012193598558696513 0 -0.011566194027029733 0.011294555713091875 0 -0.010857472071548838 0.012910723395884803 0 -0.011405779178283055 0.012573450952248603 0 -0.0078024678438397711 0.016528718151361692 0 -0.01042941213433695 0.015402391773030866 0 -0.010857472071548838 0.012910723395884803 0 -0.011392680609175226 0.012594057436940807 0 -0.012094989971132336 0.012666345899325034 0 -0.010857472071548838 0.012910723395884803 0 -0.011405779178283055 0.012573450952248603 0 -0.011430869845898596 0.01285199160871303 0 -0.011405779178283055 0.012573450952248603 0 -0.011991822909242797 0.012102719229579411 0 -0.012661274927745585 0.0125144678193818 0 -0.012247995633593857 0.012182282831364069 0 -0.011405779178283055 0.012573450952248603 0 -0.011716976237752834 0.012257649949610375 0 -0.012247995633593857 0.012182282831364069 0 -0.012117439984156849 0.011693856290960414 0 -0.011405779178283055 0.012573450952248603 0 -0.019882132984183166 0.011708823999182539 0 -0.021917425810454923 0.010392131683685166 0 -0.012247995633593857 0.012182282831364069 0 -0.011716976237752834 0.012257649949610375 0 -0.011699311751527436 0.012097273415570532 0 -0.011405779178283055 0.012573450952248603 0 -0.011716976237752834 0.012257649949610375 0 -0.011717879032059167 0.01209659528507573 0 -0.011716976237752834 0.012257649949610375 0 -0.011717879032059167 0.01209659528507573 0 -0.011699311751527436 0.012097273415570532 0 -0.011717879032059167 0.01209659528507573 0 -0.011699311751527436 0.012097273415570532 0 -0.011762826397325912 0.011846212283762191 0 -0.011991822909242797 0.012102719229579411 0 -0.012580165779570185 0.011953214613672217 0 -0.011762826397325912 0.011846212283762191 0 -0.011809470394537138 0.012064076951070524 0 -0.013229701508015607 0.0099053656316339424 0 -0.011717879032059167 0.01209659528507573 0 -0.011991822909242797 0.012102719229579411 0 -0.011762826397325912 0.011846212283762191 0 -0.011405779178283055 0.012573450952248603 0 -0.011717879032059167 0.01209659528507573 0 -0.011991822909242797 0.012102719229579411 0 -0.012360647246273655 0.010683009371279957 0 -0.012580165779570185 0.011953214613672217 0 -0.010272045996427816 0.009819733341995809 0 -0.012360647246273655 0.010683009371279957 0 -0.012580165779570185 0.011953214613672217 0 -0.013285200090167981 0.011056058454515922 0 -0.012360647246273655 0.010683009371279957 0 -0.013285200090167981 0.011056058454515922 0 -0.013282696423583049 0.010043692517386554 0 -0.013113795749222735 0.011912856250552922 0 -0.012580165779570185 0.011953214613672217 0 -0.013285200090167981 0.011056058454515922 0 -0.011991822909242797 0.012102719229579411 0 -0.012580165779570185 0.011953214613672217 0 -0.012661274927745585 0.0125144678193818 0 -0.013113795749222735 0.011912856250552922 0 -0.012580165779570185 0.011953214613672217 0 -0.012661274927745585 0.0125144678193818 0 -0.011440857416427117 0.013832649821563204 0 -0.01303264482662812 0.014196831896634938 0 -0.011430869845898596 0.01285199160871303 0 -0.011440857416427117 0.013832649821563204 0 -0.010857472071548838 0.012910723395884803 0 -0.011430869845898596 0.01285199160871303 0 -0.015251863440678644 0.012587795413269152 0 -0.012661274927745585 0.0125144678193818 0 -0.013975378690362762 0.011978754473974449 0 -0.015180473631005408 0.012684399011222329 0 -0.012094989971132336 0.012666345899325034 0 -0.015017055802725322 0.012770677533830627 0 -0.01303264482662812 0.014196831896634938 0 -0.011430869845898596 0.01285199160871303 0 -0.013113795749222735 0.011912856250552922 0 -0.012661274927745585 0.0125144678193818 0 -0.013975378690362762 0.011978754473974449 0 -0.015251863440678644 0.012587795413269152 0 -0.014918105595824745 0.01145554059796113 0 -0.013975378690362762 0.011978754473974449 0 -0.014918105595824745 0.01145554059796113 0 -0.013975378690362762 0.011978754473974449 0 -0.01446974574504151 0.010441403579838113 0 -0.013113795749222735 0.011912856250552922 0 -0.013975378690362762 0.011978754473974449 0 -0.013285200090167981 0.011056058454515922 0 -0.013285200090167981 0.011056058454515922 0 -0.01446974574504151 0.010441403579838113 0 -0.013282696423583049 0.010043692517386554 0 -0.013975378690362762 0.011978754473974449 0 -0.013285200090167981 0.011056058454515922 0 -0.01446974574504151 0.010441403579838113 0 -0.01446974574504151 0.010441403579838113 0 -0.014304822622990411 0.0092068687722626844 0 -0.015727408252823802 0.0093395562575474701 0 -0.01446974574504151 0.010441403579838113 0 -0.014304822622990411 0.0092068687722626844 0 -0.013282696423583049 0.010043692517386554 0 -0.014304822622990411 0.0092068687722626844 0 -0.012987024207730012 0.0086910077558155358 0 -0.013282696423583049 0.010043692517386554 0 -0.014304822622990411 0.0092068687722626844 0 -0.012987024207730012 0.0086910077558155358 0 -0.015540151547115287 0.0076415965375325155 0 -0.013999745730521398 0.0080211100115291888 0 -0.015900314305874675 0.0074990464035008383 0 -0.015325263236185235 0.0073579716886457893 0 -0.015073754002723826 0.0076788845762815524 0 -0.016197478897525461 0.0073274601102581039 0 -0.015325263236185235 0.0073579716886457893 0 -0.015716084697494966 0.006676269646311208 0 -0.016197478897525461 0.0073274601102581039 0 -0.015325263236185235 0.0073579716886457893 0 -0.014116945744838788 0.0074025090244144096 0 -0.014950998437079347 0.006636488438495753 0 -0.015325263236185235 0.0073579716886457893 0 -0.015073754002723826 0.0076788845762815524 0 -0.015042497763123901 0.0076130905354718217 0 -0.015115697280890503 0.0074417530957004074 0 -0.015017551912873068 0.0070375069994976702 0 -0.015073754002723826 0.0076788845762815524 0 -0.015161397336431593 0.0076429629638808411 0 -0.015042497763123901 0.0076130905354718217 0 -0.013999745730521398 0.0080211100115291888 0 -0.013229701508015607 0.0099053656316339424 0 -0.012987024207730012 0.0086910077558155358 0 -0.012126126001801669 0.0099023357531548388 0 -0.010272045996427816 0.009819733341995809 0 -0.012987024207730012 0.0086910077558155358 0 -0.013282696423583049 0.010043692517386554 0 -0.012126126001801669 0.0099023357531548388 0 -0.012360647246273655 0.010683009371279957 0 -0.013282696423583049 0.010043692517386554 0 -0.012126126001801669 0.0099023357531548388 0 -0.015073754002723826 0.0076788845762815524 0 -0.015339435890367332 0.0074926531511073681 0 -0.015161397336431593 0.0076429629638808411 0 -0.012360647246273655 0.010683009371279957 0 -0.012126126001801669 0.0099023357531548388 0 -0.010272045996427816 0.009819733341995809 0 -0.015339435890367332 0.0074926531511073681 0 -0.015450774624649411 0.0076132657221632946 0 -0.015338548863910154 0.0076391807226915435 0 -0.015339435890367332 0.0074926531511073681 0 -0.015450774624649411 0.0076132657221632946 0 -0.015567629992948522 0.0075967400195050151 0 -0.015450774624649411 0.0076132657221632946 0 -0.015338548863910154 0.0076391807226915435 0 -0.01555296698771526 0.0077209522998096768 0 -0.015339435890367332 0.0074926531511073681 0 -0.015338548863910154 0.0076391807226915435 0 -0.015161397336431593 0.0076429629638808411 0 -0.028855576543078958 0.0097264731390196459 0 -0.028440959516318032 0.010331348016895676 0 -0.029144717017937433 0.010239102114017951 0 -0.021917425810454923 0.010392131683685166 0 -0.013229701508015607 0.0099053656316339424 0 -0.019746425482286799 0.0089712280364933807 0 -0.017052022617373271 0.010116139262730963 0 -0.018497482887855809 0.011377283925330427 0 -0.021917425810454923 0.010392131683685166 0 -0.019299584642361627 0.0096444985397171768 0 -0.013229701508015607 0.0099053656316339424 0 -0.019299584642361627 0.0096444985397171768 0 -0.015450774624649411 0.0076132657221632946 0 -0.015567629992948522 0.0075967400195050151 0 -0.01555296698771526 0.0077209522998096768 0 -0.019299584642361627 0.0096444985397171768 0 -0.017799649683885345 0.0087812494976367179 0 -0.028440959516318032 0.010331348016895676 0 -0.029144717017937433 0.010239102114017951 0 -0.029124700903065751 0.010977898919886842 0 -0.015786706057031565 0.0072985790746283481 0 -0.01555296698771526 0.0077209522998096768 0 -0.016625420339625073 0.0079989749107508556 0 -0.016051960219893992 0.0045614685280081328 0 -0.017151483115348944 0.0050217941987009216 0 -0.017715027693750308 0.0044836101013096263 0 -0.01555296698771526 0.0077209522998096768 0 -0.015578479487772461 0.0079856287153283623 0 -0.016625420339625073 0.0079989749107508556 0 -0.015037055407155702 0.0063717813060246934 0 -0.022261770519150764 0.008185676042963181 0 -0.019299584642361627 0.0096444985397171768 0 -0.022261770519150764 0.008185676042963181 0 -0.016051960219893992 0.0045614685280081328 0 -0.017151483115348944 0.0050217941987009216 0 -0.01638888831196627 0.005914937187493619 0 -0.016051960219893992 0.0045614685280081328 0 -0.014446886648353474 0.0046412315715679119 0 -0.015281580908503364 0.0054695929543625947 0 -0.015037055407155702 0.0063717813060246934 0 -0.015017551912873068 0.0070375069994976702 0 -0.015578479487772461 0.0079856287153283623 0 -0.015328421686822101 0.0077655044609372687 0 -0.015101209014155735 0.0078826267794727071 0 -0.015338548863910154 0.0076391807226915435 0 -0.015161397336431593 0.0076429629638808411 0 -0.015328421686822101 0.0077655044609372687 0 -0.015067888613695854 0.0076665772063408341 0 -0.015017551912873068 0.0070375069994976702 0 -0.015161397336431593 0.0076429629638808411 0 -0.015328421686822101 0.0077655044609372687 0 -0.015101209014155735 0.0078826267794727071 0 -0.01555296698771526 0.0077209522998096768 0 -0.015578479487772461 0.0079856287153283623 0 -0.015328421686822101 0.0077655044609372687 0 -0.015338548863910154 0.0076391807226915435 0 -0.01555296698771526 0.0077209522998096768 0 -0.015328421686822101 0.0077655044609372687 0 -0.015017551912873068 0.0070375069994976702 0 -0.013232390468607965 0.0042619309807292258 0 -0.014446886648353474 0.0046412315715679119 0 -0.015281580908503364 0.0054695929543625947 0 -0.014393507495960411 0.0066746473004836663 0 -0.015281580908503364 0.0054695929543625947 0 -0.01638888831196627 0.005914937187493619 0 -0.014393507495960411 0.0066746473004836663 0 -0.014072344144366214 0.0027240436143375212 0 -0.013232390468607965 0.0042619309807292258 0 -0.012506802785460208 -0.00026412164200304337 0 -0.012098977546053198 0.00095653691832940191 0 -0.011094258671163404 0.00029219681692324898 0 -0.016051960219893992 0.0045614685280081328 0 -0.015281580908503364 0.0054695929543625947 0 -0.01638888831196627 0.005914937187493619 0 -0.012506802785460208 -0.00026412164200304337 0 -0.013294200465745996 0.0010551566332366094 0 -0.013890051796676959 0.0002001159241662949 0 -0.017151483115348944 0.0050217941987009216 0 -0.01638888831196627 0.005914937187493619 0 -0.01845223936010228 0.0051282186067904099 0 -0.014072344144366214 0.0027240436143375212 0 -0.018531943385974581 0.0041028952505961207 0 -0.012506802785460208 -0.00026412164200304337 0 -0.013294200465745996 0.0010551566332366094 0 -0.012098977546053198 0.00095653691832940191 0 -0.013294200465745996 0.0010551566332366094 0 -0.012098977546053198 0.00095653691832940191 0 -0.012592592879308433 0.0020192963926025406 0 -0.012098977546053198 0.00095653691832940191 0 -0.011094258671163404 0.00029219681692324898 0 -0.01102102761693372 0.0016767165039787862 0 -0.012063903858016428 0.0041677334756366532 0 -0.012141597631515113 0.0041300439114771896 0 -0.012127440744466776 0.0041897043704383638 0 -0.013695343542465058 0.0050231931684050022 0 -0.013232390468607965 0.0042619309807292258 0 -0.013232390468607965 0.0042619309807292258 0 -0.011517451111381558 0.0026220323488274295 0 -0.015455423621885291 0.005647499695270685 0 -0.015716084697494966 0.006676269646311208 0 -0.014950998437079347 0.006636488438495753 0 -0.015325263236185235 0.0073579716886457893 0 -0.015716084697494966 0.006676269646311208 0 -0.014950998437079347 0.006636488438495753 0 -0.014116945744838788 0.0074025090244144096 0 -0.014137303659266007 0.0062014043274080614 0 -0.014950998437079347 0.006636488438495753 0 -0.015455423621885291 0.005647499695270685 0 -0.014137303659266007 0.0062014043274080614 0 -0.014950998437079347 0.006636488438495753 0 -0.03453988803413964 0.010026554949407263 0 -0.034153289936089896 0.0096668382285417225 0 -0.034599775772199019 0.010186267778306413 0 -0.033339266991792856 0.010814304591129019 0 -0.034145964550915626 0.010147237568840995 0 -0.033479961437477022 0.010180245841537996 0 -0.033339266991792856 0.010814304591129019 0 -0.033479961437477022 0.010180245841537996 0 -0.032703604163332393 0.010411094106884712 0 -0.034293128027712616 0.010252038618707549 0 -0.034298271383679912 0.010250064762943666 0 -0.03453988803413964 0.010026554949407263 0 -0.034460095906673656 0.0099226191597119786 0 -0.034599775772199019 0.010186267778306413 0 -0.033339266991792856 0.010814304591129019 0 -0.034145964550915626 0.010147237568840995 0 -0.034599775772199019 0.010186267778306413 0 -0.034145964550915626 0.010147237568840995 0 -0.034599775772199019 0.010186267778306413 0 -0.034621651647415777 0.0098341887625724919 0 -0.034023777228094396 0.0096647788728928558 0 -0.034470582330029156 0.0088159050767711925 0 -0.034621651647415777 0.0098341887625724919 0 -0.034145964550915626 0.010147237568840995 0 -0.034023777228094396 0.0096647788728928558 0 -0.034621651647415777 0.0098341887625724919 0 -0.033716860174266665 0.0083269326043546466 0 -0.034023777228094396 0.0096647788728928558 0 -0.034470582330029156 0.0088159050767711925 0 -0.033716860174266665 0.0083269326043546466 0 -0.034023777228094396 0.0096647788728928558 0 -0.033046061824627597 0.0097474914329811133 0 -0.034023777228094396 0.0096647788728928558 0 -0.033479961437477022 0.010180245841537996 0 -0.033046061824627597 0.0097474914329811133 0 -0.034145964550915626 0.010147237568840995 0 -0.034023777228094396 0.0096647788728928558 0 -0.033479961437477022 0.010180245841537996 0 -0.033046061824627597 0.0097474914329811133 0 -0.031976806012122549 0.009374924271518606 0 -0.03206781174442272 0.010210361196579053 0 -0.033046061824627597 0.0097474914329811133 0 -0.03206781174442272 0.010210361196579053 0 -0.032703604163332393 0.010411094106884712 0 -0.033479961437477022 0.010180245841537996 0 -0.033046061824627597 0.0097474914329811133 0 -0.032703604163332393 0.010411094106884712 0 -0.033716860174266665 0.0083269326043546466 0 -0.033046061824627597 0.0097474914329811133 0 -0.031976806012122549 0.009374924271518606 0 -0.031976806012122549 0.009374924271518606 0 -0.031074632623064081 0.010300506794413859 0 -0.030916526940038248 0.0098007881485213388 0 -0.031976806012122549 0.009374924271518606 0 -0.03206781174442272 0.010210361196579053 0 -0.031074632623064081 0.010300506794413859 0 -0.03206781174442272 0.010210361196579053 0 -0.031550429007641483 0.011113065210911337 0 -0.031074632623064081 0.010300506794413859 0 -0.03453988803413964 0.010026554949407263 0 -0.034460095906673656 0.0099226191597119786 0 -0.034050727114681573 0.009900989980627781 0 -0.03206781174442272 0.010210361196579053 0 -0.031550429007641483 0.011113065210911337 0 -0.032703604163332393 0.010411094106884712 0 -0.03453988803413964 0.010026554949407263 0 -0.034050727114681573 0.009900989980627781 0 -0.034257938680146642 0.010369081078540062 0 -0.02968699357897488 0.0086531426021747241 0 -0.030986849370619081 0.010710320008075732 0 -0.034293128027712616 0.010252038618707549 0 -0.02968699357897488 0.0086531426021747241 0 -0.033339266991792856 0.010814304591129019 0 -0.031550429007641483 0.011113065210911337 0 -0.032703604163332393 0.010411094106884712 0 -0.023035655499973131 0.0047241066252746182 0 -0.022898173621682564 0.0047185427002507212 0 -0.023007291798840361 0.0049769611773737808 0 -0.030477250022831342 0.010537891574660518 0 -0.03083498681777104 0.010933754657521805 0 -0.029124700903065751 0.010977898919886842 0 -0.022898173621682564 0.0047185427002507212 0 -0.022435951704240294 0.004858688217309985 0 -0.022780231525067324 0.0049191063699396747 0 -0.02778131163953227 0.0079247213712495736 0 -0.018531943385974581 0.0041028952505961207 0 -0.022898173621682564 0.0047185427002507212 0 -0.022780231525067324 0.0049191063699396747 0 -0.023007291798840361 0.0049769611773737808 0 -0.031305746559953357 0.010908723826659481 0 -0.03083498681777104 0.010933754657521805 0 -0.031074632623064081 0.010300506794413859 0 -0.030477250022831342 0.010537891574660518 0 -0.03083498681777104 0.010933754657521805 0 -0.031074632623064081 0.010300506794413859 0 -0.02968699357897488 0.0086531426021747241 0 -0.02778131163953227 0.0079247213712495736 0 -0.030477250022831342 0.010537891574660518 0 -0.031074632623064081 0.010300506794413859 0 -0.030340393161997405 0.010023186974814607 0 -0.031074632623064081 0.010300506794413859 0 -0.030916526940038248 0.0098007881485213388 0 -0.030340393161997405 0.010023186974814607 0 -0.030424781123134053 0.0095265660331286944 0 -0.030916526940038248 0.0098007881485213388 0 -0.030340393161997405 0.010023186974814607 0 -0.030424781123134053 0.0095265660331286944 0 -0.031976806012122549 0.009374924271518606 0 -0.030916526940038248 0.0098007881485213388 0 -0.030424781123134053 0.0095265660331286944 0 -0.030340393161997405 0.010023186974814607 0 -0.029665521952135076 0.0099096535736994951 0 -0.030477250022831342 0.010537891574660518 0 -0.030340393161997405 0.010023186974814607 0 -0.029737806250612623 0.010328856046716165 0 -0.030340393161997405 0.010023186974814607 0 -0.029737806250612623 0.010328856046716165 0 -0.029665521952135076 0.0099096535736994951 0 -0.028855576543078958 0.0097264731390196459 0 -0.029665521952135076 0.0099096535736994951 0 -0.029144717017937433 0.010239102114017951 0 -0.029737806250612623 0.010328856046716165 0 -0.029144717017937433 0.010239102114017951 0 -0.029124700903065751 0.010977898919886842 0 -0.029737806250612623 0.010328856046716165 0 -0.029665521952135076 0.0099096535736994951 0 -0.029144717017937433 0.010239102114017951 0 -0.030477250022831342 0.010537891574660518 0 -0.029737806250612623 0.010328856046716165 0 -0.029124700903065751 0.010977898919886842 0 -0.02778131163953227 0.0079247213712495736 0 -0.022261770519150764 0.008185676042963181 0 -0.026425421456687598 0.0065715172905630916 0 -0.020432129374282123 0.0068299290188727985 0 -0.022083339773906495 0.00827719727424653 0 -0.017151483115348944 0.0050217941987009216 0 -0.017715027693750308 0.0044836101013096263 0 -0.01845223936010228 0.0051282186067904099 0 -0.022261770519150764 0.008185676042963181 0 -0.018531943385974581 0.0041028952505961207 0 -0.012506802785460208 -0.00026412164200304337 0 -0.013947034499435206 -0.00079950937002335506 0 -0.013890051796676959 0.0002001159241662949 0 -0.013947034499435206 -0.00079950937002335506 0 -0.013890051796676959 0.0002001159241662949 0 -0.014935090353167953 6.1021070554254751e-05 0 -0.013294200465745996 0.0010551566332366094 0 -0.013890051796676959 0.0002001159241662949 0 -0.014469952476265133 0.0011708232182771397 0 -0.013294200465745996 0.0010551566332366094 0 -0.014469952476265133 0.0011708232182771397 0 -0.013718782149826485 0.0020833634130653566 0 -0.013890051796676959 0.0002001159241662949 0 -0.014469952476265133 0.0011708232182771397 0 -0.014935090353167953 6.1021070554254751e-05 0 -0.014469952476265133 0.0011708232182771397 0 -0.014935090353167953 6.1021070554254751e-05 0 -0.015926794798007852 0.00092113527873699161 0 -0.018769655910654409 0.0024924751489273176 0 -0.019197512444234746 0.0020488128387876215 0 -0.022766311508880425 0.0051181498828103593 0 -0.023007291798840361 0.0049769611773737808 0 -0.023051976201751034 0.0053513821395915978 0 -0.018531943385974581 0.0041028952505961207 0 -0.018769655910654409 0.0024924751489273176 0 -0.022435951704240294 0.004858688217309985 0 -0.022766311508880425 0.0051181498828103593 0 -0.022780231525067324 0.0049191063699396747 0 -0.022766311508880425 0.0051181498828103593 0 -0.022780231525067324 0.0049191063699396747 0 -0.023007291798840361 0.0049769611773737808 0 -0.023035655499973131 0.0047241066252746182 0 -0.023007291798840361 0.0049769611773737808 0 -0.023205476071322974 0.0051367325140437344 0 -0.023007291798840361 0.0049769611773737808 0 -0.023205476071322974 0.0051367325140437344 0 -0.023051976201751034 0.0053513821395915978 0 -0.02968699357897488 0.0086531426021747241 0 -0.027015257132601698 0.0059393811213396038 0 -0.017188909353890676 -0.00019241956194165216 0 -0.017184590687402534 0.0010341229890474973 0 -0.016663712563458898 0.00061828393340310444 0 -0.027015257132601698 0.0059393811213396038 0 -0.019197512444234746 0.0020488128387876215 0 -0.034307880178178332 0.0077761018346530599 0 -0.033778662733686959 0.0048232255742796572 0 -0.032764306461800806 0.0069574176187179393 0 -0.035532135173910746 0.0086405142560056734 0 -0.034307880178178332 0.0077761018346530599 0 -0.033778662733686959 0.0048232255742796572 0 -0.027015257132601698 0.0059393811213396038 0 -0.025995269328110145 0.0028720370964875784 0 -0.017188909353890676 -0.00019241956194165216 0 -0.017184590687402534 0.0010341229890474973 0 -0.018053104985244605 0.0016672439526720562 0 -0.034307880178178332 0.0077761018346530599 0 -0.032948859524020269 0.0083044628457023678 0 -0.032764306461800806 0.0069574176187179393 0 -0.035052902494661684 0.0099209301828473758 0 -0.027015257132601698 0.0059393811213396038 0 -0.03453988803413964 0.010026554949407263 0 -0.035532135173910746 0.0086405142560056734 0 -0.034614640352339535 0.0090316884294621824 0 -0.034307880178178332 0.0077761018346530599 0 -0.034614640352339535 0.0090316884294621824 0 -0.034153289936089896 0.0096668382285417225 0 -0.034307880178178332 0.0077761018346530599 0 -0.032948859524020269 0.0083044628457023678 0 -0.033065703267808375 0.0097730332476251291 0 -0.034373673853309722 0.0078703542005976544 0 -0.033489180316279663 0.0099690067094131887 0 -0.035532135173910746 0.0086405142560056734 0 -0.034307880178178332 0.0077761018346530599 0 -0.034614640352339535 0.0090316884294621824 0 -0.03453988803413964 0.010026554949407263 0 -0.034614640352339535 0.0090316884294621824 0 -0.034153289936089896 0.0096668382285417225 0 -0.017803239027629539 0.0028148964600177074 0 -0.018412899119478597 0.0041123034628433117 0 -0.019048001962795217 0.0036892046682251716 0 -0.025995269328110145 0.0028720370964875784 0 -0.023817732185806399 0.0026060133764034925 0 -0.017803239027629539 0.0028148964600177074 0 -0.016820302340370623 0.0034728433617739205 0 -0.018367965685302072 0.0041240270507402078 0 -0.017803239027629539 0.0028148964600177074 0 -0.018053104985244605 0.0016672439526720562 0 -0.019048001962795217 0.0036892046682251716 0 -0.018026806017368967 0.0032988622734959482 0 -0.017729942444199752 0.00317538854461213 0 -0.017803239027629539 0.0028148964600177074 0 -0.018053104985244605 0.0016672439526720562 0 -0.016713480991550511 0.001985959435725371 0 -0.017184590687402534 0.0010341229890474973 0 -0.018053104985244605 0.0016672439526720562 0 -0.016713480991550511 0.001985959435725371 0 -0.016663712563458898 0.00061828393340310444 0 -0.016713480991550511 0.001985959435725371 0 -0.015371344564324128 0.0024713507135454235 0 -0.017184590687402534 0.0010341229890474973 0 -0.016663712563458898 0.00061828393340310444 0 -0.016713480991550511 0.001985959435725371 0 -0.017803239027629539 0.0028148964600177074 0 -0.016713480991550511 0.001985959435725371 0 -0.016820302340370623 0.0034728433617739205 0 -0.016713480991550511 0.001985959435725371 0 -0.016820302340370623 0.0034728433617739205 0 -0.015371344564324128 0.0024713507135454235 0 -0.014709092332557664 0.002442446042565727 0 -0.014169945413332273 0.0044431342181895555 0 -0.016820302340370623 0.0034728433617739205 0 -0.015371344564324128 0.0024713507135454235 0 -0.015711411351242169 0.0044340992242317143 0 -0.014469952476265133 0.0011708232182771397 0 -0.015926794798007852 0.00092113527873699161 0 -0.014927069962661289 0.0026525011562172039 0 -0.019197512444234746 0.0020488128387876215 0 -0.014709092332557664 0.002442446042565727 0 -0.014469952476265133 0.0011708232182771397 0 -0.014927069962661289 0.0026525011562172039 0 -0.013718782149826485 0.0020833634130653566 0 -0.014927069962661289 0.0026525011562172039 0 -0.013994386832536272 0.004489184672679003 0 -0.01318991205747622 0.0033076005463457806 0 -0.014927069962661289 0.0026525011562172039 0 -0.013718782149826485 0.0020833634130653566 0 -0.01318991205747622 0.0033076005463457806 0 -0.013994386832536272 0.004489184672679003 0 -0.01318991205747622 0.0033076005463457806 0 -0.012777111051667917 0.0048022303630707855 0 -0.013994386832536272 0.004489184672679003 0 -0.015417686117350152 0.0060473912692551547 0 -0.012996864709940584 0.0059204037925322623 0 -0.010984221796324833 0.0046715896746400195 0 -0.010551608984858091 0.0055258603118705299 0 -0.013994386832536272 0.004489184672679003 0 -0.015417686117350152 0.0060473912692551547 0 -0.015711411351242169 0.0044340992242317143 0 -0.010984221796324833 0.0046715896746400195 0 -0.010620012897371084 0.0036561776637739217 0 -0.015371344564324128 0.0024713507135454235 0 -0.013994386832536272 0.004489184672679003 0 -0.015711411351242169 0.0044340992242317143 0 -0.016820302340370623 0.0034728433617739205 0 -0.015711411351242169 0.0044340992242317143 0 -0.016934526475133108 0.005074632965956458 0 -0.010620012897371084 0.0036561776637739217 0 -0.012195714541910355 0.0028904633757491937 0 -0.011333023929290387 0.0040434128399340023 0 -0.012647575279727779 0.0033091873044648269 0 -0.013456609251246431 0.0026231809490052716 0 -0.012647575279727779 0.0033091873044648269 0 -0.012240495198467463 0.0040470173393448326 0 -0.014452435893263201 0.0040631139020508786 0 -0.010984221796324833 0.0046715896746400195 0 -0.01544049846237017 0.003738171720085288 0 -0.015417686117350152 0.0060473912692551547 0 -0.015711411351242169 0.0044340992242317143 0 -0.016934526475133108 0.005074632965956458 0 -0.011537650837453291 0.0032036133084729986 0 -0.010620012897371084 0.0036561776637739217 0 -0.011333023929290387 0.0040434128399340023 0 -0.012647575279727779 0.0033091873044648269 0 -0.012236956431667291 0.0040578658466012786 0 -0.012647575279727779 0.0033091873044648269 0 -0.013456609251246431 0.0026231809490052716 0 -0.014452435893263201 0.0040631139020508786 0 -0.015020367988162538 0.0028619176637746904 0 -0.015538205096941895 0.0012480418629668524 0 -0.016696104426023109 0.0038642766758781692 0 -0.013456609251246431 0.0026231809490052716 0 -0.014452435893263201 0.0040631139020508786 0 -0.015020367988162538 0.0028619176637746904 0 -0.014452435893263201 0.0040631139020508786 0 -0.015020367988162538 0.0028619176637746904 0 -0.016696104426023109 0.0038642766758781692 0 -0.012195714541910355 0.0028904633757491937 0 -0.016538080917081276 0.0019882990913840659 0 -0.01544049846237017 0.003738171720085288 0 -0.017729942444199752 0.00317538854461213 0 -0.016820302340370623 0.0034728433617739205 0 -0.016934526475133108 0.005074632965956458 0 -0.018367965685302072 0.0041240270507402078 0 -0.013456609251246431 0.0026231809490052716 0 -0.015020367988162538 0.0028619176637746904 0 -0.015538205096941895 0.0012480418629668524 0 -0.012114747807278375 0.0042544254034462955 0 -0.012047508071957071 0.0042337145249201139 0 -0.012035884679534627 0.0043196823474732854 0 -0.012063903858016428 0.0041677334756366532 0 -0.012047508071957071 0.0042337145249201139 0 -0.012127440744466776 0.0041897043704383638 0 -0.012114747807278375 0.0042544254034462955 0 -0.012047508071957071 0.0042337145249201139 0 -0.012127440744466776 0.0041897043704383638 0 -0.011065421789632686 0.0033085950894840405 0 -0.011517451111381558 0.0026220323488274295 0 -0.012098977546053198 0.00095653691832940191 0 -0.01102102761693372 0.0016767165039787862 0 -0.012592592879308433 0.0020192963926025406 0 -0.01102102761693372 0.0016767165039787862 0 -0.012592592879308433 0.0020192963926025406 0 -0.01179009365407766 0.002946813130051434 0 -0.013718782149826485 0.0020833634130653566 0 -0.012592592879308433 0.0020192963926025406 0 -0.01318991205747622 0.0033076005463457806 0 -0.013294200465745996 0.0010551566332366094 0 -0.013718782149826485 0.0020833634130653566 0 -0.012592592879308433 0.0020192963926025406 0 -0.012592592879308433 0.0020192963926025406 0 -0.01318991205747622 0.0033076005463457806 0 -0.01179009365407766 0.002946813130051434 0 -0.01318991205747622 0.0033076005463457806 0 -0.01179009365407766 0.002946813130051434 0 -0.01206415864044667 0.0040891370372714625 0 -0.010905214236030822 0.0030611880710132754 0 -0.01102102761693372 0.0016767165039787862 0 -0.01179009365407766 0.002946813130051434 0 -0.010905214236030822 0.0030611880710132754 0 -0.01179009365407766 0.002946813130051434 0 -0.011238887202737991 0.0032100159874984967 0 -0.01179009365407766 0.002946813130051434 0 -0.011238887202737991 0.0032100159874984967 0 -0.011343649004863541 0.0037789223201917569 0 -0.010905214236030822 0.0030611880710132754 0 -0.011238887202737991 0.0032100159874984967 0 -0.011343649004863541 0.0037789223201917569 0 -0.011378002060843408 0.0045718741393047917 0 -0.01206415864044667 0.0040891370372714625 0 -0.011810669716107456 0.0053099092048287709 0 -0.01179009365407766 0.002946813130051434 0 -0.011343649004863541 0.0037789223201917569 0 -0.01206415864044667 0.0040891370372714625 0 -0.011343649004863541 0.0037789223201917569 0 -0.011378002060843408 0.0045718741393047917 0 -0.010536494536712722 0.0048971572634341496 0 -0.010905214236030822 0.0030611880710132754 0 -0.011343649004863541 0.0037789223201917569 0 -0.010536494536712722 0.0048971572634341496 0 -0.011343649004863541 0.0037789223201917569 0 -0.011378002060843408 0.0045718741393047917 0 -0.01206415864044667 0.0040891370372714625 0 -0.01206415864044667 0.0040891370372714625 0 -0.012777111051667917 0.0048022303630707855 0 -0.011810669716107456 0.0053099092048287709 0 -0.01318991205747622 0.0033076005463457806 0 -0.01206415864044667 0.0040891370372714625 0 -0.012777111051667917 0.0048022303630707855 0 -0.013994386832536272 0.004489184672679003 0 -0.012777111051667917 0.0048022303630707855 0 -0.012996864709940584 0.0059204037925322623 0 -0.012777111051667917 0.0048022303630707855 0 -0.012996864709940584 0.0059204037925322623 0 -0.011810669716107456 0.0053099092048287709 0 -0.012996864709940584 0.0059204037925322623 0 -0.011810669716107456 0.0053099092048287709 0 -0.010560816293924817 0.0057477345973594744 0 -0.010551608984858091 0.0055258603118705299 0 -0.0091561876072115793 0.0053379549499605744 0 -0.011076238741029525 0.0051242589176500684 0 -0.010560816293924817 0.0057477345973594744 0 -0.010536494536712722 0.0048971572634341496 0 -0.011378002060843408 0.0045718741393047917 0 -0.011076238741029525 0.0051242589176500684 0 -0.010536494536712722 0.0048971572634341496 0 -0.011378002060843408 0.0045718741393047917 0 -0.011076238741029525 0.0051242589176500684 0 -0.011810669716107456 0.0053099092048287709 0 -0.011076238741029525 0.0051242589176500684 0 -0.011810669716107456 0.0053099092048287709 0 -0.010560816293924817 0.0057477345973594744 0 -0.0091561876072115793 0.0053379549499605744 0 -0.0081993895637688316 0.0051236370822641325 0 -0.010560816293924817 0.0057477345973594744 0 -0.0094113874010727204 0.0047841765799833029 0 -0.0080992619451328712 0.0050630415084575251 0 -0.0094113874010727204 0.0047841765799833029 0 -0.010536494536712722 0.0048971572634341496 0 -0.0097222700101273329 0.0040804974750561123 0 -0.010560816293924817 0.0057477345973594744 0 -0.0094113874010727204 0.0047841765799833029 0 -0.010536494536712722 0.0048971572634341496 0 -0.011065421789632686 0.0033085950894840405 0 -0.010161048172706817 0.0042515131215334415 0 -0.011065421789632686 0.0033085950894840405 0 -0.010483706688097552 0.0045776269899855219 0 -0.010545524889044394 0.0024321872952244492 0 -0.0097222700101273329 0.0040804974750561123 0 -0.0084640396819947363 0.0041576669132697931 0 -0.010545524889044394 0.0024321872952244492 0 -0.010536494536712722 0.0048971572634341496 0 -0.0097222700101273329 0.0040804974750561123 0 -0.0094113874010727204 0.0047841765799833029 0 -0.0097222700101273329 0.0040804974750561123 0 -0.0084640396819947363 0.0041576669132697931 0 -0.0094113874010727204 0.0047841765799833029 0 -0.0084640396819947363 0.0041576669132697931 0 -0.0080992619451328712 0.0050630415084575251 0 -0.0084640396819947363 0.0041576669132697931 0 -0.0080992619451328712 0.0050630415084575251 0 -0.0076938185679481267 0.005011064627169581 0 -0.010161048172706817 0.0042515131215334415 0 -0.010669207292606793 0.0047323199304397856 0 -0.012035884679534627 0.0043196823474732854 0 -0.011948076759853144 0.0044047048136510343 0 -0.011942262288128376 0.0043138583466022732 0 -0.011948076759853144 0.0044047048136510343 0 -0.011942262288128376 0.0043138583466022732 0 -0.011847196776335481 0.0043601191875891031 0 -0.011948076759853144 0.0044047048136510343 0 -0.011847196776335481 0.0043601191875891031 0 -0.011812184346430821 0.0044432379285565052 0 -0.011942262288128376 0.0043138583466022732 0 -0.011962661941016551 0.0042647406037637737 0 -0.011912845111183094 0.0042483828420753853 0 -0.012035884679534627 0.0043196823474732854 0 -0.011942262288128376 0.0043138583466022732 0 -0.011962661941016551 0.0042647406037637737 0 -0.012047508071957071 0.0042337145249201139 0 -0.012035884679534627 0.0043196823474732854 0 -0.011962661941016551 0.0042647406037637737 0 -0.016895891995922584 0.0049507041294156963 0 -0.018568763801073966 0.0042229709746078939 0 -0.017904276649571144 0.0055195807094274296 0 -0.0145529816936744 0.0045654131500905033 0 -0.014837132189108659 0.0041510572061742492 0 -0.011962661941016551 0.0042647406037637737 0 -0.011991291950623309 0.0042165555314409072 0 -0.011955294916713051 0.0042895619141817059 0 -0.012063903858016428 0.0041677334756366532 0 -0.012047508071957071 0.0042337145249201139 0 -0.011991291950623309 0.0042165555314409072 0 -0.012047508071957071 0.0042337145249201139 0 -0.011962661941016551 0.0042647406037637737 0 -0.011991291950623309 0.0042165555314409072 0 -0.019645991157305576 0.0046896017877163252 0 -0.018568763801073966 0.0042229709746078939 0 -0.02025091815974495 0.0035805500037966627 0 -0.019645991157305576 0.0046896017877163252 0 -0.018568763801073966 0.0042229709746078939 0 -0.019041742893499983 0.005502868273456675 0 -0.019645991157305576 0.0046896017877163252 0 -0.02025091815974495 0.0035805500037966627 0 -0.020433001151742552 0.0047100684937187789 0 -0.019645991157305576 0.0046896017877163252 0 -0.020433001151742552 0.0047100684937187789 0 -0.01991959518657848 0.005428761013161058 0 -0.011962661941016551 0.0042647406037637737 0 -0.011955294916713051 0.0042895619141817059 0 -0.011912845111183094 0.0042483828420753853 0 -0.014837132189108659 0.0041510572061742492 0 -0.018567690008470087 0.0054933610661421634 0 -0.011955294916713051 0.0042895619141817059 0 -0.011912845111183094 0.0042483828420753853 0 -0.012147441886707024 0.0043192633899563227 0 -0.011912845111183094 0.0042483828420753853 0 -0.012122018001299615 0.0040952840970829175 0 -0.012147441886707024 0.0043192633899563227 0 -0.011345202629104699 0.004188156144145137 0 -0.013804509324598533 0.0050082393433393936 0 -0.011942262288128376 0.0043138583466022732 0 -0.011912845111183094 0.0042483828420753853 0 -0.011847196776335481 0.0043601191875891031 0 -0.011912845111183094 0.0042483828420753853 0 -0.011847196776335481 0.0043601191875891031 0 -0.01169158020183694 0.0043479574118573065 0 -0.011847196776335481 0.0043601191875891031 0 -0.011750732342711923 0.004428544607824751 0 -0.011812184346430821 0.0044432379285565052 0 -0.01169158020183694 0.0043479574118573065 0 -0.011750732342711923 0.004428544607824751 0 -0.011668382472341997 0.0044796630570583841 0 -0.013804509324598533 0.0050082393433393936 0 -0.012169471440523855 0.0047877937023131679 0 -0.011847196776335481 0.0043601191875891031 0 -0.01169158020183694 0.0043479574118573065 0 -0.011750732342711923 0.004428544607824751 0 -0.012272966045163203 0.0054468551453553411 0 -0.012219772555246564 0.0047407914266549668 0 -0.012144261008326803 0.0047126235486765261 0 -0.012272966045163203 0.0054468551453553411 0 -0.012727894164701258 0.0050544884257797441 0 -0.012219772555246564 0.0047407914266549668 0 -0.021230632149163788 0.0072269748827377958 0 -0.020680038665097121 0.007712486109423493 0 -0.020555317239593227 0.0067720100406828731 0 -0.013804509324598533 0.0050082393433393936 0 -0.015321670919895447 0.0052465366336261468 0 -0.013208936777910324 0.0043034848228667216 0 -0.013401080436978288 0.0044442905937653113 0 -0.013342619901813083 0.0041422036708144922 0 -0.015321670919895447 0.0052465366336261468 0 -0.016915323710973255 0.0060179715731681306 0 -0.020680038665097121 0.007712486109423493 0 -0.01979834729706971 0.0072089510418186726 0 -0.020555317239593227 0.0067720100406828731 0 -0.01979834729706971 0.0072089510418186726 0 -0.020555317239593227 0.0067720100406828731 0 -0.019837540939870942 0.0063577694813474438 0 -0.013804509324598533 0.0050082393433393936 0 -0.018567690008470087 0.0054933610661421634 0 -0.021230632149163788 0.0072269748827377958 0 -0.020555317239593227 0.0067720100406828731 0 -0.021111828466010962 0.0059504804186947379 0 -0.013943100583641068 0.004411772697725652 0 -0.013644805278095326 0.0044111148326738238 0 -0.013683222870044538 0.0042514084834795593 0 -0.013644805278095326 0.0044111148326738238 0 -0.013486927265655755 0.004259275507697175 0 -0.013683222870044538 0.0042514084834795593 0 -0.013401080436978288 0.0044442905937653113 0 -0.013644805278095326 0.0044111148326738238 0 -0.013486927265655755 0.004259275507697175 0 -0.013401080436978288 0.0044442905937653113 0 -0.013486927265655755 0.004259275507697175 0 -0.013342619901813083 0.0041422036708144922 0 -0.016915323710973255 0.0060179715731681306 0 -0.015987707736803407 0.0055903805851462811 0 -0.01979834729706971 0.0072089510418186726 0 -0.018460201771380316 0.00666778715665512 0 -0.019837540939870942 0.0063577694813474438 0 -0.013401080436978288 0.0044442905937653113 0 -0.013644805278095326 0.0044111148326738238 0 -0.013675424209746632 0.0046313185279017758 0 -0.013908242157588114 0.004544728228750866 0 -0.013644805278095326 0.0044111148326738238 0 -0.013675424209746632 0.0046313185279017758 0 -0.016762813129826502 0.0058000096481215166 0 -0.018460201771380316 0.00666778715665512 0 -0.018448096894251313 0.0051589911393890202 0 -0.01543649360207601 0.0052307744749249142 0 -0.015987707736803407 0.0055903805851462811 0 -0.018448096894251313 0.0051589911393890202 0 -0.019837540939870942 0.0063577694813474438 0 -0.020139427189463436 0.0053884285837470644 0 -0.018460201771380316 0.00666778715665512 0 -0.018448096894251313 0.0051589911393890202 0 -0.019837540939870942 0.0063577694813474438 0 -0.018448096894251313 0.0051589911393890202 0 -0.020139427189463436 0.0053884285837470644 0 -0.019426876266257786 0.0038736406247064266 0 -0.020555317239593227 0.0067720100406828731 0 -0.021111828466010962 0.0059504804186947379 0 -0.020608825676808135 0.0061500634180556533 0 -0.020939817643349963 0.005888714759210466 0 -0.020608825676808135 0.0061500634180556533 0 -0.020645791854571969 0.0056221649583843361 0 -0.018567690008470087 0.0054933610661421634 0 -0.020976678280823294 0.0056484449706810701 0 -0.020608825676808135 0.0061500634180556533 0 -0.020139427189463436 0.0053884285837470644 0 -0.020645791854571969 0.0056221649583843361 0 -0.020555317239593227 0.0067720100406828731 0 -0.020608825676808135 0.0061500634180556533 0 -0.019837540939870942 0.0063577694813474438 0 -0.020608825676808135 0.0061500634180556533 0 -0.019837540939870942 0.0063577694813474438 0 -0.020139427189463436 0.0053884285837470644 0 -0.020139427189463436 0.0053884285837470644 0 -0.020699016006563292 0.0055108649360384194 0 -0.020645791854571969 0.0056221649583843361 0 -0.020939817643349963 0.005888714759210466 0 -0.020645791854571969 0.0056221649583843361 0 -0.020704293392813915 0.0054699918493371054 0 -0.020699016006563292 0.0055108649360384194 0 -0.020645791854571969 0.0056221649583843361 0 -0.020704293392813915 0.0054699918493371054 0 -0.018567690008470087 0.0054933610661421634 0 -0.020541437654753837 0.0050688680006928501 0 -0.020704293392813915 0.0054699918493371054 0 -0.020623042403375823 0.0057884130901380247 0 -0.020959556303749738 0.0056485895787515674 0 -0.020433001151742552 0.0047100684937187789 0 -0.020623042403375823 0.0057884130901380247 0 -0.01991959518657848 0.005428761013161058 0 -0.020541437654753837 0.0050688680006928501 0 -0.020630628417421713 0.0057266866791546031 0 -0.020623042403375823 0.0057884130901380247 0 -0.020959556303749738 0.0056485895787515674 0 -0.021164970424766932 0.0057481668174425866 0 -0.020699016006563292 0.0055108649360384194 0 -0.020704293392813915 0.0054699918493371054 0 -0.020959556303749738 0.0056485895787515674 0 -0.019194165473621919 0.0064283392079504615 0 -0.024577446479779368 0.0025229085157299378 0 -0.020699016006563292 0.0055108649360384194 0 -0.020959556303749738 0.0056485895787515674 0 -0.020967385248282542 0.0056190356664254587 0 -0.020139427189463436 0.0053884285837470644 0 -0.021064376737292789 0.0033505362056449762 0 -0.019426876266257786 0.0038736406247064266 0 -0.020139427189463436 0.0053884285837470644 0 -0.020699016006563292 0.0055108649360384194 0 -0.020967385248282542 0.0056190356664254587 0 -0.023899910571657863 0.0026533237351364968 0 -0.024577446479779368 0.0025229085157299378 0 -0.030571447042325763 -0.0027777134470505531 0 -0.03223950459166789 -0.0015581829582906413 0 -0.03166801576706877 -0.00083775242555188018 0 -0.024577446479779368 0.0025229085157299378 0 -0.02581055207344134 0.00011564926771704736 0 -0.030571447042325763 -0.0027777134470505531 0 -0.029344015985251132 -0.00056706128643692929 0 -0.03166801576706877 -0.00083775242555188018 0 -0.020623042403375823 0.0057884130901380247 0 -0.021164970424766932 0.0057481668174425866 0 -0.02100184460166939 0.0077686668842406673 0 -0.024577446479779368 0.0025229085157299378 0 -0.025326575218288017 0.0034668933052798751 0 -0.020623042403375823 0.0057884130901380247 0 -0.02100184460166939 0.0077686668842406673 0 -0.019725311413226795 0.0068461568383203341 0 -0.017504189365713768 0.0031189710738602607 0 -0.019426876266257786 0.0038736406247064266 0 -0.01914886339515463 0.002320598227615169 0 -0.01659815132574256 0.0043355814689511642 0 -0.018448096894251313 0.0051589911393890202 0 -0.017504189365713768 0.0031189710738602607 0 -0.018448096894251313 0.0051589911393890202 0 -0.017504189365713768 0.0031189710738602607 0 -0.019426876266257786 0.0038736406247064266 0 -0.021064376737292789 0.0033505362056449762 0 -0.019426876266257786 0.0038736406247064266 0 -0.01914886339515463 0.002320598227615169 0 -0.017295555907713894 0.0014597356107493439 0 -0.017504189365713768 0.0031189710738602607 0 -0.01914886339515463 0.002320598227615169 0 -0.032784596751349607 -0.00099231023339631328 0 -0.03223950459166789 -0.0015581829582906413 0 -0.032299049201551328 -0.00090353398328658907 0 -0.025026701921087142 0.00026596946601992899 0 -0.02581055207344134 0.00011564926771704736 0 -0.032784596751349607 -0.00099231023339631328 0 -0.032299049201551328 -0.00090353398328658907 0 -0.032315689331876223 -0.00050341025124879741 0 -0.032299049201551328 -0.00090353398328658907 0 -0.032315689331876223 -0.00050341025124879741 0 -0.03166801576706877 -0.00083775242555188018 0 -0.03223950459166789 -0.0015581829582906413 0 -0.032299049201551328 -0.00090353398328658907 0 -0.03166801576706877 -0.00083775242555188018 0 -0.032315689331876223 -0.00050341025124879741 0 -0.03166801576706877 -0.00083775242555188018 0 -0.031754065250377432 -0.00051481516157948152 0 -0.032917746467934175 -0.00048252486959138188 0 -0.032784596751349607 -0.00099231023339631328 0 -0.032315689331876223 -0.00050341025124879741 0 -0.031681627036365956 -0.00074387048224626364 0 -0.031184614313482382 0.00059733027664280597 0 -0.029344015985251132 -0.00056706128643692929 0 -0.03166801576706877 -0.00083775242555188018 0 -0.030700920320460859 0.0016250217671172614 0 -0.031966948409526248 -0.0002462184956450585 0 -0.032315689331876223 -0.00050341025124879741 0 -0.031754065250377432 -0.00051481516157948152 0 -0.02778861935606871 0.0026298397776017483 0 -0.029344015985251132 -0.00056706128643692929 0 -0.030700920320460859 0.0016250217671172614 0 -0.024230431712605444 0.0061659384900461375 0 -0.025326575218288017 0.0034668933052798751 0 -0.020359174570321634 0.010236888817745997 0 -0.019639985278908392 0.0084542802676750798 0 -0.018515826693235728 0.010087237736819113 0 -0.020359174570321634 0.010236888817745997 0 -0.02100184460166939 0.0077686668842406673 0 -0.019639985278908392 0.0084542802676750798 0 -0.02100184460166939 0.0077686668842406673 0 -0.019639985278908392 0.0084542802676750798 0 -0.019725311413226795 0.0068461568383203341 0 -0.019639985278908392 0.0084542802676750798 0 -0.018169762806129634 0.0084168564685062133 0 -0.019725311413226795 0.0068461568383203341 0 -0.018169762806129634 0.0084168564685062133 0 -0.017868369683670827 0.0067477920375668679 0 -0.019725311413226795 0.0068461568383203341 0 -0.019639985278908392 0.0084542802676750798 0 -0.018169762806129634 0.0084168564685062133 0 -0.018515826693235728 0.010087237736819113 0 -0.018169762806129634 0.0084168564685062133 0 -0.018515826693235728 0.010087237736819113 0 -0.017096918017009556 0.009616717727955474 0 -0.017284968522217378 0.010613376576127058 0 -0.018515826693235728 0.010087237736819113 0 -0.017096918017009556 0.009616717727955474 0 -0.017096918017009556 0.009616717727955474 0 -0.015727408252823802 0.0093395562575474701 0 -0.016865418669904386 0.0083768890086195757 0 -0.018169762806129634 0.0084168564685062133 0 -0.017096918017009556 0.009616717727955474 0 -0.016865418669904386 0.0083768890086195757 0 -0.015993679694294115 0.010815666615042251 0 -0.01446974574504151 0.010441403579838113 0 -0.015727408252823802 0.0093395562575474701 0 -0.015993679694294115 0.010815666615042251 0 -0.017096918017009556 0.009616717727955474 0 -0.015727408252823802 0.0093395562575474701 0 -0.014304822622990411 0.0092068687722626844 0 -0.015727408252823802 0.0093395562575474701 0 -0.015540151547115287 0.0076415965375325155 0 -0.015727408252823802 0.0093395562575474701 0 -0.015540151547115287 0.0076415965375325155 0 -0.016865418669904386 0.0083768890086195757 0 -0.018169762806129634 0.0084168564685062133 0 -0.016865418669904386 0.0083768890086195757 0 -0.017868369683670827 0.0067477920375668679 0 -0.015540151547115287 0.0076415965375325155 0 -0.016865418669904386 0.0083768890086195757 0 -0.017868369683670827 0.0067477920375668679 0 -0.017868369683670827 0.0067477920375668679 0 -0.016683030397428383 0.0062408528373801026 0 -0.017904276649571144 0.0055195807094274296 0 -0.015900314305874675 0.0074990464035008383 0 -0.017756266611530742 0.0067680117634607946 0 -0.016197478897525461 0.0073274601102581039 0 -0.017868369683670827 0.0067477920375668679 0 -0.016683030397428383 0.0062408528373801026 0 -0.015455423621885291 0.005647499695270685 0 -0.015716084697494966 0.006676269646311208 0 -0.016683030397428383 0.0062408528373801026 0 -0.015716084697494966 0.006676269646311208 0 -0.016197478897525461 0.0073274601102581039 0 -0.016683030397428383 0.0062408528373801026 0 -0.015455423621885291 0.005647499695270685 0 -0.016895891995922584 0.0049507041294156963 0 -0.016683030397428383 0.0062408528373801026 0 -0.013695343542465058 0.0050231931684050022 0 -0.0145529816936744 0.0045654131500905033 0 -0.016895891995922584 0.0049507041294156963 0 -0.016683030397428383 0.0062408528373801026 0 -0.017904276649571144 0.0055195807094274296 0 -0.017868369683670827 0.0067477920375668679 0 -0.017904276649571144 0.0055195807094274296 0 -0.019041742893499983 0.005502868273456675 0 -0.018568763801073966 0.0042229709746078939 0 -0.017904276649571144 0.0055195807094274296 0 -0.019041742893499983 0.005502868273456675 0 -0.020623042403375823 0.0057884130901380247 0 -0.01991959518657848 0.005428761013161058 0 -0.019725311413226795 0.0068461568383203341 0 -0.019645991157305576 0.0046896017877163252 0 -0.019041742893499983 0.005502868273456675 0 -0.01991959518657848 0.005428761013161058 0 -0.019041742893499983 0.005502868273456675 0 -0.01991959518657848 0.005428761013161058 0 -0.019725311413226795 0.0068461568383203341 0 -0.017868369683670827 0.0067477920375668679 0 -0.019041742893499983 0.005502868273456675 0 -0.019725311413226795 0.0068461568383203341 0 -0.026652605263655805 0.00014902084175133796 0 -0.026296487723954095 0.00018460225975146618 0 -0.02782226474251125 3.6719867917650359e-05 0 -0.026652605263655805 0.00014902084175133796 0 -0.027069277506294721 -0.00024940813059643179 0 -0.02782226474251125 3.6719867917650359e-05 0 -0.027487058620028936 3.9811436715351749e-07 0 -0.026296487723954095 0.00018460225975146618 0 -0.02782226474251125 3.6719867917650359e-05 0 -0.027487058620028936 3.9811436715351749e-07 0 -0.026296487723954095 0.00018460225975146618 0 -0.025425816878506181 6.445645535759284e-07 0 -0.026652605263655805 0.00014902084175133796 0 -0.026296487723954095 0.00018460225975146618 0 -0.025939321521254811 0.0003090290813100938 0 -0.025939321521254811 0.0003090290813100938 0 -0.025697014388330018 0.00032902390749264875 0 -0.025927998091813665 0.0001301113362703036 0 -0.025939321521254811 0.0003090290813100938 0 -0.025697014388330018 0.00032902390749264875 0 -0.02552627729178442 0.00035536149175781936 0 -0.026652605263655805 0.00014902084175133796 0 -0.025939321521254811 0.0003090290813100938 0 -0.025927998091813665 0.0001301113362703036 0 -0.025697014388330018 0.00032902390749264875 0 -0.02559443083911328 0.000328099799539011 0 -0.025927998091813665 0.0001301113362703036 0 -0.025551900536148361 0.00027184007014019029 0 -0.025550123806615064 0.00039714475551222249 0 -0.025552800870946305 0.00044548836270388018 0 -0.03018924801945376 0.00016992239755770757 0 -0.029490251462001925 4.0018003158608285e-05 0 -0.025551900536148361 0.00027184007014019029 0 -0.025522028165198357 0.00046478021815315508 0 -0.025552800870946305 0.00044548836270388018 0 -0.025551900536148361 0.00027184007014019029 0 -0.02559443083911328 0.000328099799539011 0 -0.025550123806615064 0.00039714475551222249 0 -0.025697014388330018 0.00032902390749264875 0 -0.02559443083911328 0.000328099799539011 0 -0.025561971923915145 0.0003723344401297865 0 -0.02559443083911328 0.000328099799539011 0 -0.025561971923915145 0.0003723344401297865 0 -0.025550123806615064 0.00039714475551222249 0 -0.025551900536148361 0.00027184007014019029 0 -0.02559443083911328 0.000328099799539011 0 -0.025888034664003582 -4.0961473776795258e-05 0 -0.03018924801945376 0.00016992239755770757 0 -0.029789044112551493 -8.3266233545121283e-05 0 -0.025521811682731613 0.00086950040131795667 0 -0.029789044112551493 -8.3266233545121283e-05 0 -0.034787029223579388 0.00022214501246585209 0 -0.034807269639765749 0.00022044198323727037 0 -0.034812867856943625 0.00021750076794225907 0 -0.034807269639765749 0.00022044198323727037 0 -0.034827258504386387 0.00020207139306798317 0 -0.034812867856943625 0.00021750076794225907 0 -0.034827258504386387 0.00020207139306798317 0 -0.034833386917159447 0.00020508974378625667 0 -0.034812867856943625 0.00021750076794225907 0 -0.029789044112551493 -8.3266233545121283e-05 0 -0.029457073401009132 -0.00022338667134578509 0 -0.026652605263655805 0.00014902084175133796 0 -0.025927998091813665 0.0001301113362703036 0 -0.027069277506294721 -0.00024940813059643179 0 -0.034807269639765749 0.00022044198323727037 0 -0.034857102508355595 0.00017816099149317699 0 -0.034827258504386387 0.00020207139306798317 0 -0.034857102508355595 0.00017816099149317699 0 -0.034827258504386387 0.00020207139306798317 0 -0.034842500785852742 0.00017903887078961477 0 -0.031949325680938577 -0.00030672001562743182 0 -0.032107972172558584 -0.00041503840084759167 0 -0.032099615043090758 -0.00040527024779844442 0 -0.029789044112551493 -8.3266233545121283e-05 0 -0.033989595188539078 -0.00023578096506158053 0 -0.034827258504386387 0.00020207139306798317 0 -0.034842500785852742 0.00017903887078961477 0 -0.034833386917159447 0.00020508974378625667 0 -0.034842500785852742 0.00017903887078961477 0 -0.034858762552860884 0.00013828608943149752 0 -0.034861088755341878 0.00017194630383037852 0 -0.034857102508355595 0.00017816099149317699 0 -0.034860659661067502 9.3186283425700863e-05 0 -0.034858762552860884 0.00013828608943149752 0 -0.034857102508355595 0.00017816099149317699 0 -0.034842500785852742 0.00017903887078961477 0 -0.034858762552860884 0.00013828608943149752 0 -0.032107972172558584 -0.00041503840084759167 0 -0.032008187098883242 -0.00034323613762211804 0 -0.032146506926821763 -0.00018543278168390933 0 -0.032107972172558584 -0.00041503840084759167 0 -0.032099615043090758 -0.00040527024779844442 0 -0.032008187098883242 -0.00034323613762211804 0 -0.029457073401009132 -0.00022338667134578509 0 -0.030465803697115691 -0.00023655985609620799 0 -0.033989595188539078 -0.00023578096506158053 0 -0.033423848155848888 2.9887691710769252e-06 0 -0.027069277506294721 -0.00024940813059643179 0 -0.02782226474251125 3.6719867917650359e-05 0 -0.028996398416091532 -0.00035411350796427202 0 -0.02782226474251125 3.6719867917650359e-05 0 -0.028996398416091532 -0.00035411350796427202 0 -0.029548281614553553 -1.4612509499236862e-07 0 -0.027487058620028936 3.9811436715351749e-07 0 -0.02782226474251125 3.6719867917650359e-05 0 -0.029548281614553553 -1.4612509499236862e-07 0 -0.028996398416091532 -0.00035411350796427202 0 -0.029548281614553553 -1.4612509499236862e-07 0 -0.031608793824437591 -1.2602322498369145e-06 0 -0.034995543522076067 4.4649582044725236e-07 0 -0.034961074593062455 4.4003870316832415e-05 0 -0.035001052930482363 -9.6284293587486863e-09 0 -0.032008187098883242 -0.00034323613762211804 0 -0.031613261633585854 -3.1687739729892428e-07 0 -0.032146506926821763 -0.00018543278168390933 0 -0.030465803697115691 -0.00023655985609620799 0 -0.03160997046723138 1.1254660200498796e-07 0 -0.033423848155848888 2.9887691710769252e-06 0 -0.033648376218966151 0.00012580358098747248 0 -0.034860659661067502 9.3186283425700863e-05 0 -0.034769479246553665 1.1556232368482817e-05 0 -0.034853808638227783 2.6270156868445324e-05 0 -0.031613261633585854 -3.1687739729892428e-07 0 -0.032146506926821763 -0.00018543278168390933 0 -0.032453300029820178 8.3677832883952391e-05 0 -0.031613261633585854 -3.1687739729892428e-07 0 -0.033085272795915388 4.4503166824115327e-07 0 -0.032453300029820178 8.3677832883952391e-05 0 -0.034995543522076067 4.4649582044725236e-07 0 -0.034569223425200003 -5.6135103725933045e-07 0 -0.034961074593062455 4.4003870316832415e-05 0 -0.033648376218966151 0.00012580358098747248 0 -0.034561419020526694 3.1295977499406161e-07 0 -0.034853808638227783 2.6270156868445324e-05 0 -0.034569223425200003 -5.6135103725933045e-07 0 -0.034961074593062455 4.4003870316832415e-05 0 -0.033085272795915388 4.4503166824115327e-07 0 -0.032453300029820178 8.3677832883952391e-05 0 -0.034561343370804472 -5.4487784163666368e-07 0 -0.034769479246553665 1.1556232368482817e-05 0 -0.034853808638227783 2.6270156868445324e-05 0 -0.034569223425200003 -5.6135103725933045e-07 0 -0.034961074593062455 4.4003870316832415e-05 0 -0.035010008337286902 3.4173562198977326e-05 0 -0.035001052930482363 -9.6284293587486863e-09 0 -0.034853808638227783 2.6270156868445324e-05 0 -0.034961074593062455 4.4003870316832415e-05 0 -0.034878793495425865 0.0001055825923509885 0 -0.034961074593062455 4.4003870316832415e-05 0 -0.034878793495425865 0.0001055825923509885 0 -0.034881517924576229 0.00012130621400657912 0 -0.034962659400967218 4.7953679127472154e-05 0 -0.034949605918235108 8.0061964892794887e-05 0 -0.034860659661067502 9.3186283425700863e-05 0 -0.034853808638227783 2.6270156868445324e-05 0 -0.034878793495425865 0.0001055825923509885 0 -0.034860659661067502 9.3186283425700863e-05 0 -0.034878793495425865 0.0001055825923509885 0 -0.034858762552860884 0.00013828608943149752 0 -0.034878793495425865 0.0001055825923509885 0 -0.034858762552860884 0.00013828608943149752 0 -0.034861088755341878 0.00017194630383037852 0 -0.034861088755341878 0.00017194630383037852 0 -0.034880326333398881 0.00016844026305318384 0 -0.034906088530965301 0.00022571016870101361 0 -0.034880326333398881 0.00016844026305318384 0 -0.034905559779600179 0.00019878171274237183 0 -0.034906088530965301 0.00022571016870101361 0 -0.034878793495425865 0.0001055825923509885 0 -0.034880326333398881 0.00016844026305318384 0 -0.034881517924576229 0.00012130621400657912 0 -0.034878793495425865 0.0001055825923509885 0 -0.034861088755341878 0.00017194630383037852 0 -0.034880326333398881 0.00016844026305318384 0 -0.035010008337286902 3.4173562198977326e-05 0 -0.035033021358026314 9.1642548315591879e-05 0 -0.035001052930482363 -9.6284293587486863e-09 0 -0.035033021358026314 9.1642548315591879e-05 0 -0.035001052930482363 -9.6284293587486863e-09 0 -0.034999864531895152 1.4843852560059757e-07 0 -0.034880326333398881 0.00016844026305318384 0 -0.034881517924576229 0.00012130621400657912 0 -0.034905559779600179 0.00019878171274237183 0 -0.034949605918235108 8.0061964892794887e-05 0 -0.034969305250902874 0.00014751866882877374 0 -0.035033021358026314 9.1642548315591879e-05 0 -0.034999864531895152 1.4843852560059757e-07 0 -0.035006960191436842 0.00021748284373439535 0 -0.034905559779600179 0.00019878171274237183 0 -0.035006960191436842 0.00021748284373439535 0 -0.034906088530965301 0.00022571016870101361 0 -0.034969305250902874 0.00014751866882877374 0 -0.034997660444745747 0.00020427580474414111 0 -0.035006960191436842 0.00021748284373439535 0 -0.034961025804537596 0.00029134130253519473 0 -0.035049187423491883 0.00039670433675403151 0 -0.035006960191436842 0.00021748284373439535 0 -0.034906088530965301 0.00022571016870101361 0 -0.034961025804537596 0.00029134130253519473 0 -0.034961025804537596 0.00029134130253519473 0 -0.034914444442974424 0.00025746812863455994 0 -0.035001296579711717 0.00031311336493655662 0 -0.034914444442974424 0.00025746812863455994 0 -0.034894457092187213 0.00024050903561818887 0 -0.034951112214950439 0.00026756420032994011 0 -0.034914444442974424 0.00025746812863455994 0 -0.034873030877086209 0.00022734263545827531 0 -0.034861246469584176 0.00022781873212876364 0 -0.034914444442974424 0.00025746812863455994 0 -0.034894457092187213 0.00024050903561818887 0 -0.034861246469584176 0.00022781873212876364 0 -0.034906088530965301 0.00022571016870101361 0 -0.034914444442974424 0.00025746812863455994 0 -0.034873030877086209 0.00022734263545827531 0 -0.034906088530965301 0.00022571016870101361 0 -0.034961025804537596 0.00029134130253519473 0 -0.034914444442974424 0.00025746812863455994 0 -0.034906088530965301 0.00022571016870101361 0 -0.034857563808871651 0.00020468401976758054 0 -0.034873030877086209 0.00022734263545827531 0 -0.034861088755341878 0.00017194630383037852 0 -0.034906088530965301 0.00022571016870101361 0 -0.034857563808871651 0.00020468401976758054 0 -0.034842500785852742 0.00017903887078961477 0 -0.034861088755341878 0.00017194630383037852 0 -0.034857563808871651 0.00020468401976758054 0 -0.034857563808871651 0.00020468401976758054 0 -0.034833386917159447 0.00020508974378625667 0 -0.034841877241685124 0.00021788132372306421 0 -0.034842500785852742 0.00017903887078961477 0 -0.034857563808871651 0.00020468401976758054 0 -0.034833386917159447 0.00020508974378625667 0 -0.034857563808871651 0.00020468401976758054 0 -0.034841877241685124 0.00021788132372306421 0 -0.034873030877086209 0.00022734263545827531 0 -0.034841877241685124 0.00021788132372306421 0 -0.034873030877086209 0.00022734263545827531 0 -0.034861246469584176 0.00022781873212876364 0 -0.034841877241685124 0.00021788132372306421 0 -0.034827979808101844 0.00022052795299131115 0 -0.034861246469584176 0.00022781873212876364 0 -0.034827979808101844 0.00022052795299131115 0 -0.034843532393926666 0.00021995998391126275 0 -0.034861246469584176 0.00022781873212876364 0 -0.034833386917159447 0.00020508974378625667 0 -0.034841877241685124 0.00021788132372306421 0 -0.034812867856943625 0.00021750076794225907 0 -0.034827979808101844 0.00022052795299131115 0 -0.034812867856943625 0.00021750076794225907 0 -0.03480389826242241 0.00021903448760327024 0 -0.034841877241685124 0.00021788132372306421 0 -0.034827979808101844 0.00022052795299131115 0 -0.034812867856943625 0.00021750076794225907 0 -0.03480389826242241 0.00021903448760327024 0 -0.034823735675161976 0.00021622212719077545 0 -0.034776499610533251 0.00021014217610503398 0 -0.034787029223579388 0.00022214501246585209 0 -0.034812867856943625 0.00021750076794225907 0 -0.03480389826242241 0.00021903448760327024 0 -0.034787029223579388 0.00022214501246585209 0 -0.03480389826242241 0.00021903448760327024 0 -0.034776499610533251 0.00021014217610503398 0 -0.034827979808101844 0.00022052795299131115 0 -0.034823735675161976 0.00021622212719077545 0 -0.034843532393926666 0.00021995998391126275 0 -0.034827979808101844 0.00022052795299131115 0 -0.03480389826242241 0.00021903448760327024 0 -0.034823735675161976 0.00021622212719077545 0 -0.034823735675161976 0.00021622212719077545 0 -0.034843532393926666 0.00021995998391126275 0 -0.034838637689709524 0.00021334127860144121 0 -0.034843532393926666 0.00021995998391126275 0 -0.034861925057860184 0.00022307021375344451 0 -0.034838637689709524 0.00021334127860144121 0 -0.034843532393926666 0.00021995998391126275 0 -0.034861925057860184 0.00022307021375344451 0 -0.034861246469584176 0.00022781873212876364 0 -0.034861925057860184 0.00022307021375344451 0 -0.034840258867179674 0.00020885835284842192 0 -0.034838637689709524 0.00021334127860144121 0 -0.034861925057860184 0.00022307021375344451 0 -0.034880852175410162 0.00022170718170435143 0 -0.034840258867179674 0.00020885835284842192 0 -0.034861925057860184 0.00022307021375344451 0 -0.034880852175410162 0.00022170718170435143 0 -0.034903670358716117 0.00023480231220314747 0 -0.034894457092187213 0.00024050903561818887 0 -0.034903670358716117 0.00023480231220314747 0 -0.034951112214950439 0.00026756420032994011 0 -0.034861925057860184 0.00022307021375344451 0 -0.034894457092187213 0.00024050903561818887 0 -0.034903670358716117 0.00023480231220314747 0 -0.034861925057860184 0.00022307021375344451 0 -0.034894457092187213 0.00024050903561818887 0 -0.034861246469584176 0.00022781873212876364 0 -0.034990000577801279 0.00027418889448427758 0 -0.034944451534851213 0.00025061682637731727 0 -0.034951112214950439 0.00026756420032994011 0 -0.034990000577801279 0.00027418889448427758 0 -0.034944451534851213 0.00025061682637731727 0 -0.034971494855795884 0.00023694424048818647 0 -0.034903670358716117 0.00023480231220314747 0 -0.034944451534851213 0.00025061682637731727 0 -0.034951112214950439 0.00026756420032994011 0 -0.034903670358716117 0.00023480231220314747 0 -0.034944451534851213 0.00025061682637731727 0 -0.034900643172075377 0.0002201476533847175 0 -0.034880852175410162 0.00022170718170435143 0 -0.034903670358716117 0.00023480231220314747 0 -0.034900643172075377 0.0002201476533847175 0 -0.034944451534851213 0.00025061682637731727 0 -0.034900643172075377 0.0002201476533847175 0 -0.034971494855795884 0.00023694424048818647 0 -0.034900643172075377 0.0002201476533847175 0 -0.034971494855795884 0.00023694424048818647 0 -0.034977053814680366 0.00018666096652124136 0 -0.034739834225658794 0.0014336907469943156 0 -0.034171208999167701 0.0017282787778103953 0 -0.034971494855795884 0.00023694424048818647 0 -0.035023131544978166 0.00025401848558585105 0 -0.034977053814680366 0.00018666096652124136 0 -0.034375626006066612 0.0026750394412284064 0 -0.034413144976295863 0.0026914120536953049 0 -0.034374019179509434 0.0027185370997207842 0 -0.034375626006066612 0.0026750394412284064 0 -0.034413144976295863 0.0026914120536953049 0 -0.034525080710873408 0.002701122119800808 0 -0.034739834225658794 0.0014336907469943156 0 -0.035036855355229803 0.001589088535689882 0 -0.034375626006066612 0.0026750394412284064 0 -0.034482052101325281 0.0028808038072579444 0 -0.034525080710873408 0.002701122119800808 0 -0.034990000577801279 0.00027418889448427758 0 -0.035023131544978166 0.00025401848558585105 0 -0.035020005610924852 0.00029499756161366749 0 -0.034990000577801279 0.00027418889448427758 0 -0.034971494855795884 0.00023694424048818647 0 -0.035023131544978166 0.00025401848558585105 0 -0.035023131544978166 0.00025401848558585105 0 -0.035020005610924852 0.00029499756161366749 0 -0.035049319229351318 0.00030516261789166919 0 -0.035228212415975797 0.0012704640916155049 0 -0.034996605647937343 0.0011581890862075949 0 -0.035009982248954644 0.0012150865087430086 0 -0.035020005610924852 0.00029499756161366749 0 -0.035049319229351318 0.00030516261789166919 0 -0.035021050793109604 0.0003153612289315868 0 -0.035036855355229803 0.001589088535689882 0 -0.035049011347231755 0.00059011733073363994 0 -0.035020005610924852 0.00029499756161366749 0 -0.035021050793109604 0.0003153612289315868 0 -0.035002072040515878 0.00029885391519960064 0 -0.035228212415975797 0.0012704640916155049 0 -0.035216712162112945 0.0014147449875428013 0 -0.035273995778486403 0.0017409010712514069 0 -0.035228212415975797 0.0012704640916155049 0 -0.035216712162112945 0.0014147449875428013 0 -0.035009982248954644 0.0012150865087430086 0 -0.035216712162112945 0.0014147449875428013 0 -0.035273308852320717 0.0014864589956377818 0 -0.035273995778486403 0.0017409010712514069 0 -0.035216712162112945 0.0014147449875428013 0 -0.035273308852320717 0.0014864589956377818 0 -0.035009982248954644 0.0012150865087430086 0 -0.035273308852320717 0.0014864589956377818 0 -0.035009982248954644 0.0012150865087430086 0 -0.035401859599269038 0.0014609899063700925 0 -0.034996605647937343 0.0011581890862075949 0 -0.035009982248954644 0.0012150865087430086 0 -0.034977116276908436 0.00064997222103373566 0 -0.035021050793109604 0.0003153612289315868 0 -0.035001296579711717 0.00031311336493655662 0 -0.035049187423491883 0.00039670433675403151 0 -0.035021050793109604 0.0003153612289315868 0 -0.035002072040515878 0.00029885391519960064 0 -0.035001296579711717 0.00031311336493655662 0 -0.035049011347231755 0.00059011733073363994 0 -0.035000658325989739 0.00051044910308914535 0 -0.034996605647937343 0.0011581890862075949 0 -0.035049187423491883 0.00039670433675403151 0 -0.034977116276908436 0.00064997222103373566 0 -0.034990000577801279 0.00027418889448427758 0 -0.035002072040515878 0.00029885391519960064 0 -0.034951112214950439 0.00026756420032994011 0 -0.035002072040515878 0.00029885391519960064 0 -0.034951112214950439 0.00026756420032994011 0 -0.035001296579711717 0.00031311336493655662 0 -0.034990000577801279 0.00027418889448427758 0 -0.035020005610924852 0.00029499756161366749 0 -0.035002072040515878 0.00029885391519960064 0 -0.034914444442974424 0.00025746812863455994 0 -0.034951112214950439 0.00026756420032994011 0 -0.035001296579711717 0.00031311336493655662 0 -0.034961025804537596 0.00029134130253519473 0 -0.035001296579711717 0.00031311336493655662 0 -0.035049187423491883 0.00039670433675403151 0 -0.035006960191436842 0.00021748284373439535 0 -0.035049187423491883 0.00039670433675403151 0 -0.034991337865151378 0.00030421910626091684 0 -0.035006960191436842 0.00021748284373439535 0 -0.034991337865151378 0.00030421910626091684 0 -0.034988497491385856 0.00010313763127562254 0 -0.034999864531895152 1.4843852560059757e-07 0 -0.034988497491385856 0.00010313763127562254 0 -0.034999693614216808 1.2515836914590352e-07 0 -0.035049187423491883 0.00039670433675403151 0 -0.034977116276908436 0.00064997222103373566 0 -0.034991337865151378 0.00030421910626091684 0 -0.034999864531895152 1.4843852560059757e-07 0 -0.035006960191436842 0.00021748284373439535 0 -0.034988497491385856 0.00010313763127562254 0 -0.034991337865151378 0.00030421910626091684 0 -0.034988497491385856 0.00010313763127562254 0 -0.03486471045532151 0.00014177977037709125 0 -0.035001324498994332 3.5980438217917743e-07 0 -0.035442353060658328 0.00085861747376733872 0 -0.03512567461780422 0.00082495176914573352 0 -0.034988497491385856 0.00010313763127562254 0 -0.034999693614216808 1.2515836914590352e-07 0 -0.03486471045532151 0.00014177977037709125 0 -0.035000068479988919 1.8285778554848964e-07 0 -0.035135472513343674 0.00052064349392141776 0 -0.035442353060658328 0.00085861747376733872 0 -0.035401859599269038 0.0014609899063700925 0 -0.035238484344226502 0.0013491082990908529 0 -0.034991337865151378 0.00030421910626091684 0 -0.03486471045532151 0.00014177977037709125 0 -0.034756694326907825 0.00043447698528679745 0 -0.035135472513343674 0.00052064349392141776 0 -0.035079935078668356 0.00093130250782324391 0 -0.035024303446325712 0.0011715883932026736 0 -0.035079935078668356 0.00093130250782324391 0 -0.035009982248954644 0.0012150865087430086 0 -0.034977116276908436 0.00064997222103373566 0 -0.034756694326907825 0.00043447698528679745 0 -0.034977116276908436 0.00064997222103373566 0 -0.034991337865151378 0.00030421910626091684 0 -0.034756694326907825 0.00043447698528679745 0 -0.035401859599269038 0.0014609899063700925 0 -0.035289148088007219 0.0015676523381436189 0 -0.035238484344226502 0.0013491082990908529 0 -0.035273308852320717 0.0014864589956377818 0 -0.035401859599269038 0.0014609899063700925 0 -0.035289148088007219 0.0015676523381436189 0 -0.035289148088007219 0.0015676523381436189 0 -0.035095125688845888 0.001827304629713725 0 -0.035273995778486403 0.0017409010712514069 0 -0.035289148088007219 0.0015676523381436189 0 -0.035095125688845888 0.001827304629713725 0 -0.035238484344226502 0.0013491082990908529 0 -0.035095125688845888 0.001827304629713725 0 -0.035238484344226502 0.0013491082990908529 0 -0.035062564082815051 0.0015407197867903636 0 -0.035238484344226502 0.0013491082990908529 0 -0.03512567461780422 0.00082495176914573352 0 -0.035062564082815051 0.0015407197867903636 0 -0.035442353060658328 0.00085861747376733872 0 -0.035238484344226502 0.0013491082990908529 0 -0.03512567461780422 0.00082495176914573352 0 -0.03512567461780422 0.00082495176914573352 0 -0.0350002194639207 4.583428127159583e-07 0 -0.034998666330084437 6.5745501118544412e-07 0 -0.035001324498994332 3.5980438217917743e-07 0 -0.03512567461780422 0.00082495176914573352 0 -0.0350002194639207 4.583428127159583e-07 0 -0.035005761560519745 4.8142181365887346e-07 0 -0.034998666330084437 6.5745501118544412e-07 0 -0.035019391309602028 0.0010363470602811052 0 -0.03512567461780422 0.00082495176914573352 0 -0.034998666330084437 6.5745501118544412e-07 0 -0.035019391309602028 0.0010363470602811052 0 -0.03512567461780422 0.00082495176914573352 0 -0.035019391309602028 0.0010363470602811052 0 -0.035062564082815051 0.0015407197867903636 0 -0.034809454315368867 0.0018692178969506236 0 -0.035005761560519745 4.8142181365887346e-07 0 -0.035019391309602028 0.0010363470602811052 0 -0.034809454315368867 0.0018692178969506236 0 -0.035019391309602028 0.0010363470602811052 0 -0.034895878613125431 0.001858612794956231 0 -0.035019391309602028 0.0010363470602811052 0 -0.034895878613125431 0.001858612794956231 0 -0.035062564082815051 0.0015407197867903636 0 -0.034895878613125431 0.001858612794956231 0 -0.035062564082815051 0.0015407197867903636 0 -0.034915761283404061 0.0022957376805998737 0 -0.035095125688845888 0.001827304629713725 0 -0.035062564082815051 0.0015407197867903636 0 -0.034915761283404061 0.0022957376805998737 0 -0.034601144665438961 0.0025371470892418323 0 -0.034895878613125431 0.001858612794956231 0 -0.034915761283404061 0.0022957376805998737 0 -0.034601144665438961 0.0025371470892418323 0 -0.03474424547415244 0.0029464222745300187 0 -0.034915761283404061 0.0022957376805998737 0 -0.03469714192743778 0.0028203142816653325 0 -0.035807029240683921 0.0035794370186343224 0 -0.03474424547415244 0.0029464222745300187 0 -0.034915761283404061 0.0022957376805998737 0 -0.034876752802896316 0.002346701127047838 0 -0.034348936853410873 0.0049275813491373938 0 -0.03474424547415244 0.0029464222745300187 0 -0.036202307266707819 0.0043539000474948405 0 -0.034348936853410873 0.0049275813491373938 0 -0.036202307266707819 0.0043539000474948405 0 -0.035712304810881175 0.0062159561761632688 0 -0.034876752802896316 0.002346701127047838 0 -0.034923804437677008 0.0021962899259678403 0 -0.034928985725391194 0.0023061833200813415 0 -0.035807029240683921 0.0035794370186343224 0 -0.034672513990491378 0.0033328717476131713 0 -0.035095125688845888 0.001827304629713725 0 -0.034915761283404061 0.0022957376805998737 0 -0.034923804437677008 0.0021962899259678403 0 -0.034915761283404061 0.0022957376805998737 0 -0.034876752802896316 0.002346701127047838 0 -0.034923804437677008 0.0021962899259678403 0 -0.035095125688845888 0.001827304629713725 0 -0.035273995778486403 0.0017409010712514069 0 -0.034947092518553616 0.0021495815065106796 0 -0.035095125688845888 0.001827304629713725 0 -0.034923804437677008 0.0021962899259678403 0 -0.034947092518553616 0.0021495815065106796 0 -0.035273308852320717 0.0014864589956377818 0 -0.035289148088007219 0.0015676523381436189 0 -0.035273995778486403 0.0017409010712514069 0 -0.035526462145585407 0.0023376781091584801 0 -0.034947092518553616 0.0021495815065106796 0 -0.034922237901609962 0.0024342196169155703 0 -0.035036855355229803 0.001589088535689882 0 -0.035381388084001188 0.001828333479348721 0 -0.035526462145585407 0.0023376781091584801 0 -0.035273995778486403 0.0017409010712514069 0 -0.034947092518553616 0.0021495815065106796 0 -0.034947092518553616 0.0021495815065106796 0 -0.034922237901609962 0.0024342196169155703 0 -0.034807023266003462 0.0025880477495311819 0 -0.035085683652763544 0.0018761106780989831 0 -0.034672513990491378 0.0033328717476131713 0 -0.034923804437677008 0.0021962899259678403 0 -0.034947092518553616 0.0021495815065106796 0 -0.034928985725391194 0.0023061833200813415 0 -0.034922237901609962 0.0024342196169155703 0 -0.034770556925837907 0.0026441183122697244 0 -0.034807023266003462 0.0025880477495311819 0 -0.033682061494249266 0.0021030903787055519 0 -0.034672513990491378 0.0033328717476131713 0 -0.032759710108981238 0.0020248786409513787 0 -0.032521748514969133 0.001970981267556684 0 -0.032515988185506134 0.0014930246567588837 0 -0.034770556925837907 0.0026441183122697244 0 -0.034651872614392856 0.0026520419661365288 0 -0.034807023266003462 0.0025880477495311819 0 -0.034482052101325281 0.0028808038072579444 0 -0.034770556925837907 0.0026441183122697244 0 -0.034525080710873408 0.002701122119800808 0 -0.035036855355229803 0.001589088535689882 0 -0.034704750966129835 0.0029828724891191737 0 -0.035526462145585407 0.0023376781091584801 0 -0.034922237901609962 0.0024342196169155703 0 -0.034770556925837907 0.0026441183122697244 0 -0.034770556925837907 0.0026441183122697244 0 -0.034525080710873408 0.002701122119800808 0 -0.034651872614392856 0.0026520419661365288 0 -0.034413144976295863 0.0026914120536953049 0 -0.034525080710873408 0.002701122119800808 0 -0.034651872614392856 0.0026520419661365288 0 -0.033201546158229935 0.0021120569543312657 0 -0.032759710108981238 0.0020248786409513787 0 -0.032515988185506134 0.0014930246567588837 0 -0.033201546158229935 0.0021120569543312657 0 -0.032759710108981238 0.0020248786409513787 0 -0.032666328658427717 0.0024093735547965223 0 -0.032759710108981238 0.0020248786409513787 0 -0.032521748514969133 0.001970981267556684 0 -0.032666328658427717 0.0024093735547965223 0 -0.03208189707204135 0.0022463620944743992 0 -0.032521748514969133 0.001970981267556684 0 -0.032515988185506134 0.0014930246567588837 0 -0.03208189707204135 0.0022463620944743992 0 -0.032521748514969133 0.001970981267556684 0 -0.032666328658427717 0.0024093735547965223 0 -0.034439386678755159 0.0049167692533363004 0 -0.034672513990491378 0.0033328717476131713 0 -0.036611003512107033 0.0080107002822017298 0 -0.034983673847939385 0.007853058965930141 0 -0.035712304810881175 0.0062159561761632688 0 -0.036611003512107033 0.0080107002822017298 0 -0.034983673847939385 0.007853058965930141 0 -0.03517089700969659 0.0092883495384748858 0 -0.034253721412307675 0.0066633504838405954 0 -0.034983673847939385 0.007853058965930141 0 -0.035712304810881175 0.0062159561761632688 0 -0.036202307266707819 0.0043539000474948405 0 -0.035712304810881175 0.0062159561761632688 0 -0.037709709230776205 0.0058163293928420907 0 -0.036611003512107033 0.0080107002822017298 0 -0.035712304810881175 0.0062159561761632688 0 -0.037709709230776205 0.0058163293928420907 0 -0.032261876287053903 0.003125625554699423 0 -0.031983933547315928 0.003241913950407245 0 -0.032133277486436247 0.0028556269029049218 0 -0.032261876287053903 0.003125625554699423 0 -0.03248701383865376 0.0027618086206027469 0 -0.032654422213203492 0.0031137934389375323 0 -0.032261876287053903 0.003125625554699423 0 -0.032492863523486397 0.0036006151660316994 0 -0.032124208234817764 0.0035008664975792808 0 -0.032261876287053903 0.003125625554699423 0 -0.031983933547315928 0.003241913950407245 0 -0.032124208234817764 0.0035008664975792808 0 -0.031983933547315928 0.003241913950407245 0 -0.031666486362962196 0.0030779408350752732 0 -0.03179682165760387 0.0038058206327990511 0 -0.033502865313720792 0.0081601207119059264 0 -0.031565596872119121 0.0059523047053179233 0 -0.034153289936089896 0.0096668382285417225 0 -0.034599775772199019 0.010186267778306413 0 -0.034744609439105623 0.010235191165194646 0 -0.033489180316279663 0.0099690067094131887 0 -0.033502865313720792 0.0081601207119059264 0 -0.034599775772199019 0.010186267778306413 0 -0.034744609439105623 0.010235191165194646 0 -0.034621651647415777 0.0098341887625724919 0 -0.031983933547315928 0.003241913950407245 0 -0.031666486362962196 0.0030779408350752732 0 -0.032133277486436247 0.0028556269029049218 0 -0.03208189707204135 0.0022463620944743992 0 -0.031666486362962196 0.0030779408350752732 0 -0.032133277486436247 0.0028556269029049218 0 -0.036611003512107033 0.0080107002822017298 0 -0.035268727463626359 0.010469406136970311 0 -0.03517089700969659 0.0092883495384748858 0 -0.034439386678755159 0.0049167692533363004 0 -0.033502865313720792 0.0081601207119059264 0 -0.034744609439105623 0.010235191165194646 0 -0.034621651647415777 0.0098341887625724919 0 -0.03517089700969659 0.0092883495384748858 0 -0.034470582330029156 0.0088159050767711925 0 -0.034621651647415777 0.0098341887625724919 0 -0.03517089700969659 0.0092883495384748858 0 -0.033502865313720792 0.0081601207119059264 0 -0.034665470608058919 0.0098696605158132712 0 -0.034470582330029156 0.0088159050767711925 0 -0.034983673847939385 0.007853058965930141 0 -0.03517089700969659 0.0092883495384748858 0 -0.03208189707204135 0.0022463620944743992 0 -0.032133277486436247 0.0028556269029049218 0 -0.03248701383865376 0.0027618086206027469 0 -0.03208189707204135 0.0022463620944743992 0 -0.03248701383865376 0.0027618086206027469 0 -0.032666328658427717 0.0024093735547965223 0 -0.032261876287053903 0.003125625554699423 0 -0.032133277486436247 0.0028556269029049218 0 -0.03248701383865376 0.0027618086206027469 0 -0.033201546158229935 0.0021120569543312657 0 -0.032666328658427717 0.0024093735547965223 0 -0.032894006459252244 0.0027286183158638957 0 -0.03248701383865376 0.0027618086206027469 0 -0.032666328658427717 0.0024093735547965223 0 -0.032894006459252244 0.0027286183158638957 0 -0.03248701383865376 0.0027618086206027469 0 -0.032894006459252244 0.0027286183158638957 0 -0.032654422213203492 0.0031137934389375323 0 -0.033201546158229935 0.0021120569543312657 0 -0.033230948042978131 0.0027542637201784948 0 -0.03362714594577474 0.0028542920522031186 0 -0.033201546158229935 0.0021120569543312657 0 -0.032894006459252244 0.0027286183158638957 0 -0.033230948042978131 0.0027542637201784948 0 -0.033201546158229935 0.0021120569543312657 0 -0.03362714594577474 0.0028542920522031186 0 -0.034191434705803242 0.0027845286243644396 0 -0.033682061494249266 0.0021030903787055519 0 -0.034325289722162908 0.0029087108765188871 0 -0.03362714594577474 0.0028542920522031186 0 -0.033133624365599856 0.0032143310032782917 0 -0.033857083119542747 0.0032269089275137291 0 -0.033133624365599856 0.0032143310032782917 0 -0.033581337392786098 0.0036946747600375067 0 -0.033857083119542747 0.0032269089275137291 0 -0.032894006459252244 0.0027286183158638957 0 -0.033230948042978131 0.0027542637201784948 0 -0.033133624365599856 0.0032143310032782917 0 -0.033230948042978131 0.0027542637201784948 0 -0.03362714594577474 0.0028542920522031186 0 -0.033133624365599856 0.0032143310032782917 0 -0.033133624365599856 0.0032143310032782917 0 -0.032654422213203492 0.0031137934389375323 0 -0.032492863523486397 0.0036006151660316994 0 -0.032894006459252244 0.0027286183158638957 0 -0.033133624365599856 0.0032143310032782917 0 -0.032654422213203492 0.0031137934389375323 0 -0.032261876287053903 0.003125625554699423 0 -0.032654422213203492 0.0031137934389375323 0 -0.032492863523486397 0.0036006151660316994 0 -0.033133624365599856 0.0032143310032782917 0 -0.032492863523486397 0.0036006151660316994 0 -0.032944371758444876 0.0036505048836760635 0 -0.032492863523486397 0.0036006151660316994 0 -0.03265441656921414 0.0040923075999144739 0 -0.032299370335214808 0.0039769643478553066 0 -0.032492863523486397 0.0036006151660316994 0 -0.032944371758444876 0.0036505048836760635 0 -0.03265441656921414 0.0040923075999144739 0 -0.033581337392786098 0.0036946747600375067 0 -0.032944371758444876 0.0036505048836760635 0 -0.03265441656921414 0.0040923075999144739 0 -0.033068807603619209 0.0038846870901856328 0 -0.032691868543712428 0.0041023494043844781 0 -0.033133624365599856 0.0032143310032782917 0 -0.033581337392786098 0.0036946747600375067 0 -0.032944371758444876 0.0036505048836760635 0 -0.027479434328176244 0.002721964126496322 0 -0.027317971433194716 0.0025348541432857097 0 -0.032485168425480347 0.0041953335470534744 0 -0.03265441656921414 0.0040923075999144739 0 -0.032470067877186377 0.0040520578703735531 0 -0.03265441656921414 0.0040923075999144739 0 -0.032575762720963145 0.0042353537399100732 0 -0.032470067877186377 0.0040520578703735531 0 -0.03265441656921414 0.0040923075999144739 0 -0.032429787576499815 0.0041424666491024168 0 -0.032575762720963145 0.0042353537399100732 0 -0.03265441656921414 0.0040923075999144739 0 -0.032429787576499815 0.0041424666491024168 0 -0.032299370335214808 0.0039769643478553066 0 -0.032183550839866598 0.0041221479569706482 0 -0.031902291794499674 0.0042066888189082764 0 -0.032242863094727479 0.0042775884572761663 0 -0.032429787576499815 0.0041424666491024168 0 -0.032183550839866598 0.0041221479569706482 0 -0.032299370335214808 0.0039769643478553066 0 -0.032429787576499815 0.0041424666491024168 0 -0.032183550839866598 0.0041221479569706482 0 -0.032242863094727479 0.0042775884572761663 0 -0.032183550839866598 0.0041221479569706482 0 -0.032039117496611251 0.0039900651233231938 0 -0.031902291794499674 0.0042066888189082764 0 -0.032039117496611251 0.0039900651233231938 0 -0.032299370335214808 0.0039769643478553066 0 -0.032147239523387924 0.0037797936182559617 0 -0.032183550839866598 0.0041221479569706482 0 -0.032039117496611251 0.0039900651233231938 0 -0.032299370335214808 0.0039769643478553066 0 -0.032492863523486397 0.0036006151660316994 0 -0.032299370335214808 0.0039769643478553066 0 -0.032147239523387924 0.0037797936182559617 0 -0.032147239523387924 0.0037797936182559617 0 -0.032124208234817764 0.0035008664975792808 0 -0.03179682165760387 0.0038058206327990511 0 -0.032492863523486397 0.0036006151660316994 0 -0.032147239523387924 0.0037797936182559617 0 -0.032124208234817764 0.0035008664975792808 0 -0.031983933547315928 0.003241913950407245 0 -0.032124208234817764 0.0035008664975792808 0 -0.03179682165760387 0.0038058206327990511 0 -0.033065703267808375 0.0097730332476251291 0 -0.03204503749610204 0.011680010688735148 0 -0.031675295664859625 0.0086519074295549128 0 -0.032039117496611251 0.0039900651233231938 0 -0.032147239523387924 0.0037797936182559617 0 -0.03179682165760387 0.0038058206327990511 0 -0.032948859524020269 0.0083044628457023678 0 -0.033065703267808375 0.0097730332476251291 0 -0.031675295664859625 0.0086519074295549128 0 -0.031675295664859625 0.0086519074295549128 0 -0.032764306461800806 0.0069574176187179393 0 -0.031280206848422455 0.0059940210674593935 0 -0.032948859524020269 0.0083044628457023678 0 -0.031675295664859625 0.0086519074295549128 0 -0.032764306461800806 0.0069574176187179393 0 -0.032039117496611251 0.0039900651233231938 0 -0.03179682165760387 0.0038058206327990511 0 -0.031902291794499674 0.0042066888189082764 0 -0.031565596872119121 0.0059523047053179233 0 -0.030987417309469231 0.0055233579930944699 0 -0.032764306461800806 0.0069574176187179393 0 -0.031280206848422455 0.0059940210674593935 0 -0.031177762415904385 0.0052381647831334236 0 -0.028663596757676348 0.005746846365813049 0 -0.02858488835160641 0.0049847719916757786 0 -0.026620026405033307 0.0025460114545534187 0 -0.033778662733686959 0.0048232255742796572 0 -0.032764306461800806 0.0069574176187179393 0 -0.031177762415904385 0.0052381647831334236 0 -0.030638971457193003 0.0051255031155570258 0 -0.025744877443859372 0.0014715114108111845 0 -0.033778662733686959 0.0048232255742796572 0 -0.031177762415904385 0.0052381647831334236 0 -0.030730490330952192 0.001678766048325253 0 -0.030987417309469231 0.0055233579930944699 0 -0.030638971457193003 0.0051255031155570258 0 -0.031902291794499674 0.0042066888189082764 0 -0.032242863094727479 0.0042775884572761663 0 -0.032158675196511013 0.0045779104241842833 0 -0.030987417309469231 0.0055233579930944699 0 -0.026034017181099628 0.0023182773468449639 0 -0.02858488835160641 0.0049847719916757786 0 -0.026620026405033307 0.0025460114545534187 0 -0.028218939059807765 0.0014637214802212968 0 -0.021714892566548041 0.0010558614169402776 0 -0.021650267704187313 0.0010939930359033609 0 -0.021636498862956984 0.0011423231754802419 0 -0.026034017181099628 0.0023182773468449639 0 -0.025744877443859372 0.0014715114108111845 0 -0.033778662733686959 0.0048232255742796572 0 -0.030730490330952192 0.001678766048325253 0 -0.031845371611793703 0.00091191238862073376 0 -0.025744877443859372 0.0014715114108111845 0 -0.023817732185806399 0.0026060133764034925 0 -0.017729942444199752 0.00317538854461213 0 -0.023817732185806399 0.0026060133764034925 0 -0.020188959898156451 0.0026206586923321158 0 -0.019918570928249196 0.0028098898572267287 0 -0.019905655609737009 0.0024050736769607724 0 -0.019918570928249196 0.0028098898572267287 0 -0.019905655609737009 0.0024050736769607724 0 -0.01970023773418637 0.0023702298873696098 0 -0.0215965852930869 0.0011770235019233279 0 -0.021636498862956984 0.0011423231754802419 0 -0.021658118487392315 0.0011466812513391635 0 -0.023817732185806399 0.0026060133764034925 0 -0.020903695935629716 0.0013782123089379902 0 -0.025744877443859372 0.0014715114108111845 0 -0.023430301422705836 0.00092428117632198273 0 -0.021630655984938647 0.0011370756400800441 0 -0.0215965852930869 0.0011770235019233279 0 -0.021636498862956984 0.0011423231754802419 0 -0.021654254877997672 0.0011302419742230247 0 -0.021630655984938647 0.0011370756400800441 0 -0.021636498862956984 0.0011423231754802419 0 -0.026034017181099628 0.0023182773468449639 0 -0.021196891543258288 0.00076786253986042027 0 -0.021714892566548041 0.0010558614169402776 0 -0.021636498862956984 0.0011423231754802419 0 -0.021658118487392315 0.0011466812513391635 0 -0.021714892566548041 0.0010558614169402776 0 -0.021688436246434597 0.0011736163231185692 0 -0.021766288990460406 0.0011591115611573166 0 -0.021714892566548041 0.0010558614169402776 0 -0.021658118487392315 0.0011466812513391635 0 -0.021688436246434597 0.0011736163231185692 0 -0.021658118487392315 0.0011466812513391635 0 -0.021688436246434597 0.0011736163231185692 0 -0.021634791454152431 0.0011951639806065581 0 -0.0215965852930869 0.0011770235019233279 0 -0.021658118487392315 0.0011466812513391635 0 -0.021634791454152431 0.0011951639806065581 0 -0.021688436246434597 0.0011736163231185692 0 -0.021634791454152431 0.0011951639806065581 0 -0.021646527138459173 0.0012570528628998759 0 -0.021634791454152431 0.0011951639806065581 0 -0.021646527138459173 0.0012570528628998759 0 -0.02159346256055375 0.0012382594430081556 0 -0.021688436246434597 0.0011736163231185692 0 -0.021646527138459173 0.0012570528628998759 0 -0.021740558770683656 0.0012772045737957378 0 -0.021646527138459173 0.0012570528628998759 0 -0.021740558770683656 0.0012772045737957378 0 -0.021672839138677017 0.0013834974616892305 0 -0.021646527138459173 0.0012570528628998759 0 -0.021576962070277626 0.001302602462227584 0 -0.02159346256055375 0.0012382594430081556 0 -0.021646527138459173 0.0012570528628998759 0 -0.021576962070277626 0.001302602462227584 0 -0.021672839138677017 0.0013834974616892305 0 -0.020188959898156451 0.0026206586923321158 0 -0.019905655609737009 0.0024050736769607724 0 -0.019816081796470975 0.0018196044080008545 0 -0.021576962070277626 0.001302602462227584 0 -0.0215028911495578 0.0012992453458967376 0 -0.021509231882616022 0.0012875729602302688 0 -0.021576962070277626 0.001302602462227584 0 -0.021509231882616022 0.0012875729602302688 0 -0.02159346256055375 0.0012382594430081556 0 -0.022120822540127146 0.0015897486753648398 0 -0.016538080917081276 0.0019882990913840659 0 -0.017729942444199752 0.00317538854461213 0 -0.017909889253392867 0.0019733476881143882 0 -0.014452435893263201 0.0040631139020508786 0 -0.016631488197810958 0.0040797856794612258 0 -0.016696104426023109 0.0038642766758781692 0 -0.019905655609737009 0.0024050736769607724 0 -0.01970023773418637 0.0023702298873696098 0 -0.019816081796470975 0.0018196044080008545 0 -0.016538080917081276 0.0019882990913840659 0 -0.017909889253392867 0.0019733476881143882 0 -0.0215965852930869 0.0011770235019233279 0 -0.021634791454152431 0.0011951639806065581 0 -0.02159346256055375 0.0012382594430081556 0 -0.020903695935629716 0.0013782123089379902 0 -0.017909889253392867 0.0019733476881143882 0 -0.0215965852930869 0.0011770235019233279 0 -0.021509231882616022 0.0012875729602302688 0 -0.02159346256055375 0.0012382594430081556 0 -0.02205829918427708 0.0012368620434301148 0 -0.022102966090458032 0.0012696753055881312 0 -0.021927726696850919 0.0013510096025326672 0 -0.02201448374402621 0.0012501468488149265 0 -0.02205829918427708 0.0012368620434301148 0 -0.021927726696850919 0.0013510096025326672 0 -0.021740558770683656 0.0012772045737957378 0 -0.021766288990460406 0.0011591115611573166 0 -0.021927726696850919 0.0013510096025326672 0 -0.021196891543258288 0.00076786253986042027 0 -0.022173706152930215 0.0015713595786457364 0 -0.021688436246434597 0.0011736163231185692 0 -0.021740558770683656 0.0012772045737957378 0 -0.021766288990460406 0.0011591115611573166 0 -0.02201448374402621 0.0012501468488149265 0 -0.02205829918427708 0.0012368620434301148 0 -0.02206346379557626 0.001201289365155882 0 -0.02205829918427708 0.0012368620434301148 0 -0.02206346379557626 0.001201289365155882 0 -0.022128285970210743 0.0012002277487513223 0 -0.02206346379557626 0.001201289365155882 0 -0.022139876370754142 0.0011426336293156162 0 -0.022128285970210743 0.0012002277487513223 0 -0.022053380343161722 0.001199562749278406 0 -0.02206346379557626 0.001201289365155882 0 -0.022094010871794308 0.001146238499093361 0 -0.022053380343161722 0.001199562749278406 0 -0.02201448374402621 0.0012501468488149265 0 -0.02206346379557626 0.001201289365155882 0 -0.032242863094727479 0.0042775884572761663 0 -0.032158675196511013 0.0045779104241842833 0 -0.032575762720963145 0.0042353537399100732 0 -0.032429787576499815 0.0041424666491024168 0 -0.032242863094727479 0.0042775884572761663 0 -0.032575762720963145 0.0042353537399100732 0 -0.026034017181099628 0.0023182773468449639 0 -0.027479434328176244 0.002721964126496322 0 -0.02206346379557626 0.001201289365155882 0 -0.022094010871794308 0.001146238499093361 0 -0.022139876370754142 0.0011426336293156162 0 -0.022094010871794308 0.001146238499093361 0 -0.022139876370754142 0.0011426336293156162 0 -0.022165844141262096 0.0010547736394553374 0 -0.022139876370754142 0.0011426336293156162 0 -0.0222364766752602 0.0011319638580767936 0 -0.022165844141262096 0.0010547736394553374 0 -0.022139876370754142 0.0011426336293156162 0 -0.0222364766752602 0.0011319638580767936 0 -0.022128285970210743 0.0012002277487513223 0 -0.0222364766752602 0.0011319638580767936 0 -0.022263504354740248 0.0011498223569611681 0 -0.022373656031497203 0.00096725133713072451 0 -0.0222364766752602 0.0011319638580767936 0 -0.022204338134089254 0.0012029738365692227 0 -0.022263504354740248 0.0011498223569611681 0 -0.0222364766752602 0.0011319638580767936 0 -0.022204338134089254 0.0012029738365692227 0 -0.022128285970210743 0.0012002277487513223 0 -0.02205829918427708 0.0012368620434301148 0 -0.022128285970210743 0.0012002277487513223 0 -0.022102966090458032 0.0012696753055881312 0 -0.022204338134089254 0.0012029738365692227 0 -0.022128285970210743 0.0012002277487513223 0 -0.022102966090458032 0.0012696753055881312 0 -0.022204338134089254 0.0012029738365692227 0 -0.022102966090458032 0.0012696753055881312 0 -0.022193158914983951 0.001282019067635168 0 -0.022102966090458032 0.0012696753055881312 0 -0.022193158914983951 0.001282019067635168 0 -0.022079655485507825 0.0014082592363399012 0 -0.022102966090458032 0.0012696753055881312 0 -0.022079655485507825 0.0014082592363399012 0 -0.021927726696850919 0.0013510096025326672 0 -0.013993375620452839 -0.00091933591189103693 0 -0.014025612132926761 -0.0008109989905153291 0 -0.013870843073968721 -0.00077353841618937663 0 -0.0140777803439684 -0.0009619762657190696 0 -0.014025612132926761 -0.0008109989905153291 0 -0.014148822328843682 -0.00090872795168930908 0 -0.013993375620452839 -0.00091933591189103693 0 -0.0140777803439684 -0.0009619762657190696 0 -0.014025612132926761 -0.0008109989905153291 0 -0.014025612132926761 -0.0008109989905153291 0 -0.014205238018037298 -0.00076248097136193333 0 -0.014058888736136418 -0.00064260642753138854 0 -0.014025612132926761 -0.0008109989905153291 0 -0.013870843073968721 -0.00077353841618937663 0 -0.013941655807991117 -0.00065932313047951127 0 -0.013870843073968721 -0.00077353841618937663 0 -0.013728969801045774 -0.00081808889436254975 0 -0.013804273960205889 -0.00059710973281270133 0 -0.013870843073968721 -0.00077353841618937663 0 -0.013874156789514284 -0.00092467323323878992 0 -0.013728969801045774 -0.00081808889436254975 0 -0.013993375620452839 -0.00091933591189103693 0 -0.013870843073968721 -0.00077353841618937663 0 -0.013874156789514284 -0.00092467323323878992 0 -0.013874156789514284 -0.00092467323323878992 0 -0.013728969801045774 -0.00081808889436254975 0 -0.014511097413197255 -0.0016430011046425844 0 -0.017671843411093811 0.00013493608726010561 0 -0.019772823500640191 0.00071397336359123819 0 -0.022204338134089254 0.0012029738365692227 0 -0.022193158914983951 0.001282019067635168 0 -0.022253225234896132 0.0012021540369551737 0 -0.013264574941977135 -0.00085428621072601281 0 -0.016152289688161976 -0.0010829517457483769 0 -0.013993375620452839 -0.00091933591189103693 0 -0.013874156789514284 -0.00092467323323878992 0 -0.014112052914484426 -0.0010821135585910406 0 -0.013874156789514284 -0.00092467323323878992 0 -0.014511097413197255 -0.0016430011046425844 0 -0.014902709098912956 -0.0012261925884259428 0 -0.013993375620452839 -0.00091933591189103693 0 -0.0140777803439684 -0.0009619762657190696 0 -0.014112052914484426 -0.0010821135585910406 0 -0.020123635988744396 -0.00050501529612032828 0 -0.019956478097312606 -0.00050341960293664772 0 -0.019963739313453646 -0.00067982343468019546 0 -0.019772823500640191 0.00071397336359123819 0 -0.016152289688161976 -0.0010829517457483769 0 -0.019772823500640191 0.00071397336359123819 0 -0.025201565809163926 4.734071254348141e-05 0 -0.022204338134089254 0.0012029738365692227 0 -0.022253225234896132 0.0012021540369551737 0 -0.022263504354740248 0.0011498223569611681 0 -0.019772823500640191 0.00071397336359123819 0 -0.02312834348102254 0.0015952983085564484 0 -0.023239605910555267 0.0018804426564402448 0 -0.022836211292661619 0.001444785528826371 0 -0.023243874381308899 0.0013319134780673072 0 -0.023239605910555267 0.0018804426564402448 0 -0.023243874381308899 0.0013319134780673072 0 -0.023675561511431686 0.001383636489918822 0 -0.023243874381308899 0.0013319134780673072 0 -0.023398797291639486 0.00092523876432345977 0 -0.022923687723389024 0.00098965702196686703 0 -0.023243874381308899 0.0013319134780673072 0 -0.023398797291639486 0.00092523876432345977 0 -0.023675561511431686 0.001383636489918822 0 -0.02897614750281631 0.00021506715306423554 0 -0.029001952381702167 1.0344201892414892e-05 0 -0.028826588011227842 -3.9088395282474534e-05 0 -0.026100345770003162 0.000519494563715042 0 -0.027783603394842565 0.0011948494226365464 0 -0.023398797291639486 0.00092523876432345977 0 -0.022923687723389024 0.00098965702196686703 0 -0.023120595755771526 0.00043231870617866226 0 -0.032153870196315146 0.0041047804650413957 0 -0.032054746669948807 0.0042567086931008108 0 -0.031790895732440719 0.0042704754144530397 0 -0.022923687723389024 0.00098965702196686703 0 -0.022561526661055407 0.00078198606576201869 0 -0.023120595755771526 0.00043231870617866226 0 -0.027241527930218886 0.0026281062579842081 0 -0.027783603394842565 0.0011948494226365464 0 -0.022836211292661619 0.001444785528826371 0 -0.023243874381308899 0.0013319134780673072 0 -0.022923687723389024 0.00098965702196686703 0 -0.02312834348102254 0.0015952983085564484 0 -0.022143808952423485 0.00082420213294097974 0 -0.022836211292661619 0.001444785528826371 0 -0.022923687723389024 0.00098965702196686703 0 -0.022373656031497203 0.00096725133713072451 0 -0.027317971433194716 0.0025348541432857097 0 -0.027241527930218886 0.0026281062579842081 0 -0.022165844141262096 0.0010547736394553374 0 -0.022373656031497203 0.00096725133713072451 0 -0.022561526661055407 0.00078198606576201869 0 -0.0222364766752602 0.0011319638580767936 0 -0.022165844141262096 0.0010547736394553374 0 -0.022373656031497203 0.00096725133713072451 0 -0.032485168425480347 0.0041953335470534744 0 -0.032335993514121947 0.0041800628957152329 0 -0.032276623568602093 0.0042980880358563789 0 -0.032470067877186377 0.0040520578703735531 0 -0.032335993514121947 0.0041800628957152329 0 -0.032153870196315146 0.0041047804650413957 0 -0.032485168425480347 0.0041953335470534744 0 -0.032470067877186377 0.0040520578703735531 0 -0.032335993514121947 0.0041800628957152329 0 -0.022923687723389024 0.00098965702196686703 0 -0.022373656031497203 0.00096725133713072451 0 -0.022561526661055407 0.00078198606576201869 0 -0.032335993514121947 0.0041800628957152329 0 -0.032153870196315146 0.0041047804650413957 0 -0.032210010241946321 0.0042086181798532719 0 -0.032335993514121947 0.0041800628957152329 0 -0.032210010241946321 0.0042086181798532719 0 -0.032276623568602093 0.0042980880358563789 0 -0.032153870196315146 0.0041047804650413957 0 -0.032210010241946321 0.0042086181798532719 0 -0.032054746669948807 0.0042567086931008108 0 -0.032276623568602093 0.0042980880358563789 0 -0.032272359824393394 0.0042835863188308981 0 -0.03289516882147598 0.0041647256874124813 0 -0.03312654131946869 0.0039009295576108369 0 -0.034171208999167701 0.0017282787778103953 0 -0.032054746669948807 0.0042567086931008108 0 -0.032276623568602093 0.0042980880358563789 0 -0.031861991679242738 0.0043809499561035421 0 -0.032272359824393394 0.0042835863188308981 0 -0.032725157607973843 0.0038830756479793734 0 -0.03289516882147598 0.0041647256874124813 0 -0.032236299909071023 0.0045930428020720619 0 -0.032352345842792542 0.0028726795558457674 0 -0.032210010241946321 0.0042086181798532719 0 -0.032054746669948807 0.0042567086931008108 0 -0.032276623568602093 0.0042980880358563789 0 -0.034358992967829988 0.0030588118887335419 0 -0.0342745352146413 0.0029196102309745051 0 -0.034402917461627706 0.0028100769228420744 0 -0.033581337392786098 0.0036946747600375067 0 -0.034358992967829988 0.0030588118887335419 0 -0.033857083119542747 0.0032269089275137291 0 -0.033068807603619209 0.0038846870901856328 0 -0.03312654131946869 0.0039009295576108369 0 -0.032485168425480347 0.0041953335470534744 0 -0.032276623568602093 0.0042980880358563789 0 -0.032272359824393394 0.0042835863188308981 0 -0.034358992967829988 0.0030588118887335419 0 -0.033857083119542747 0.0032269089275137291 0 -0.034099069576779571 0.003020839591383015 0 -0.034358992967829988 0.0030588118887335419 0 -0.0342745352146413 0.0029196102309745051 0 -0.034099069576779571 0.003020839591383015 0 -0.0342745352146413 0.0029196102309745051 0 -0.034099069576779571 0.003020839591383015 0 -0.034191434705803242 0.0027845286243644396 0 -0.03362714594577474 0.0028542920522031186 0 -0.034099069576779571 0.003020839591383015 0 -0.034191434705803242 0.0027845286243644396 0 -0.03362714594577474 0.0028542920522031186 0 -0.033857083119542747 0.0032269089275137291 0 -0.034099069576779571 0.003020839591383015 0 -0.034413144976295863 0.0026914120536953049 0 -0.034191434705803242 0.0027845286243644396 0 -0.034374019179509434 0.0027185370997207842 0 -0.034413144976295863 0.0026914120536953049 0 -0.034651872614392856 0.0026520419661365288 0 -0.034191434705803242 0.0027845286243644396 0 -0.0342745352146413 0.0029196102309745051 0 -0.034191434705803242 0.0027845286243644396 0 -0.034402917461627706 0.0028100769228420744 0 -0.034402917461627706 0.0028100769228420744 0 -0.034374019179509434 0.0027185370997207842 0 -0.034522072527840023 0.0027343204212002563 0 -0.034375626006066612 0.0026750394412284064 0 -0.034374019179509434 0.0027185370997207842 0 -0.034522072527840023 0.0027343204212002563 0 -0.034358992967829988 0.0030588118887335419 0 -0.034402917461627706 0.0028100769228420744 0 -0.034522072527840023 0.0027343204212002563 0 -0.034191434705803242 0.0027845286243644396 0 -0.034402917461627706 0.0028100769228420744 0 -0.034374019179509434 0.0027185370997207842 0 -0.034900643172075377 0.0002201476533847175 0 -0.034805751876689307 0.00025167208191594352 0 -0.034862171038903399 0.00024329347240914512 0 -0.035289567035535138 -0.00029038427722054641 0 -0.034171208999167701 0.0017282787778103953 0 -0.034171208999167701 0.0017282787778103953 0 -0.032352345842792542 0.0028726795558457674 0 -0.034805751876689307 0.00025167208191594352 0 -0.034862171038903399 0.00024329347240914512 0 -0.034825736377511886 0.00028789440788684655 0 -0.034862171038903399 0.00024329347240914512 0 -0.034871077829415786 0.0002472624239840306 0 -0.034825736377511886 0.00028789440788684655 0 -0.034880852175410162 0.00022170718170435143 0 -0.034862171038903399 0.00024329347240914512 0 -0.034871077829415786 0.0002472624239840306 0 -0.034880852175410162 0.00022170718170435143 0 -0.034900643172075377 0.0002201476533847175 0 -0.034862171038903399 0.00024329347240914512 0 -0.032802463624335566 0.00026135723503334444 0 -0.032352345842792542 0.0028726795558457674 0 -0.032362441920375171 0.00069564403574540906 0 -0.03031209312795562 0.0020827550465735579 0 -0.029765538342102452 0.001226607321612986 0 -0.032802463624335566 0.00026135723503334444 0 -0.027783603394842565 0.0011948494226365464 0 -0.029020098292899817 -0.00016664689552412426 0 -0.029001952381702167 1.0344201892414892e-05 0 -0.028826588011227842 -3.9088395282474534e-05 0 -0.027783603394842565 0.0011948494226365464 0 -0.032352345842792542 0.0028726795558457674 0 -0.032054746669948807 0.0042567086931008108 0 -0.031790895732440719 0.0042704754144530397 0 -0.031861991679242738 0.0043809499561035421 0 -0.029398624881105322 -3.8660275264409139e-05 0 -0.029300866316458996 -0.00022225025976146454 0 -0.029575856508496416 -0.00027189659495176254 0 -0.029398624881105322 -3.8660275264409139e-05 0 -0.029300866316458996 -0.00022225025976146454 0 -0.02918547736775487 2.8530486668777387e-05 0 -0.029020098292899817 -0.00016664689552412426 0 -0.029300866316458996 -0.00022225025976146454 0 -0.02918547736775487 2.8530486668777387e-05 0 -0.029020098292899817 -0.00016664689552412426 0 -0.029001952381702167 1.0344201892414892e-05 0 -0.02918547736775487 2.8530486668777387e-05 0 -0.034618211017861202 0.00029833762614980944 0 -0.034840258867179674 0.00020885835284842192 0 -0.034833936132120463 0.00025135070685894796 0 -0.032802463624335566 0.00026135723503334444 0 -0.035472682048557358 1.5561418143641662e-05 0 -0.034880852175410162 0.00022170718170435143 0 -0.034871077829415786 0.0002472624239840306 0 -0.034840258867179674 0.00020885835284842192 0 -0.032802463624335566 0.00026135723503334444 0 -0.031763049779964574 4.2747943756744299e-05 0 -0.031763049779964574 4.2747943756744299e-05 0 -0.032791195696144797 -0.00011472362657960936 0 -0.034833936132120463 0.00025135070685894796 0 -0.034838637689709524 0.00021334127860144121 0 -0.034818888597495004 0.0002043066371853446 0 -0.034840258867179674 0.00020885835284842192 0 -0.034833936132120463 0.00025135070685894796 0 -0.034838637689709524 0.00021334127860144121 0 -0.034823735675161976 0.00021622212719077545 0 -0.034838637689709524 0.00021334127860144121 0 -0.034818888597495004 0.0002043066371853446 0 -0.034823735675161976 0.00021622212719077545 0 -0.034818888597495004 0.0002043066371853446 0 -0.034776499610533251 0.00021014217610503398 0 -0.029490251462001925 4.0018003158608285e-05 0 -0.027544812910916556 0.00014455676060644765 0 -0.032791195696144797 -0.00011472362657960936 0 -0.029490251462001925 4.0018003158608285e-05 0 -0.029575856508496416 -0.00027189659495176254 0 -0.029833315077462716 -0.000321456381640403 0 -0.029615102585977906 -5.7897924299612466e-05 0 -0.029490251462001925 4.0018003158608285e-05 0 -0.027339674409810218 0.00039828058727283099 0 -0.025578543269426518 0.00010010415403441664 0 -0.026252662299090221 4.0658889904629088e-05 0 -0.026053664936790968 -0.00055428447902151619 0 -0.025640633467175579 0.00049260311531045757 0 -0.025578543269426518 0.00010010415403441664 0 -0.026252662299090221 4.0658889904629088e-05 0 -0.029398624881105322 -3.8660275264409139e-05 0 -0.029575856508496416 -0.00027189659495176254 0 -0.029615102585977906 -5.7897924299612466e-05 0 -0.026252662299090221 4.0658889904629088e-05 0 -0.026053664936790968 -0.00055428447902151619 0 -0.027049227059519801 -0.0008610716717123493 0 -0.029398624881105322 -3.8660275264409139e-05 0 -0.029615102585977906 -5.7897924299612466e-05 0 -0.029374799048840886 0.00020918262506376789 0 -0.027544812910916556 0.00014455676060644765 0 -0.028821928014640254 -0.00064248346077936617 0 -0.026053664936790968 -0.00055428447902151619 0 -0.025816955892568525 -0.0011951925718519008 0 -0.025392583290799894 -0.00042715750265816217 0 -0.025578543269426518 0.00010010415403441664 0 -0.026053664936790968 -0.00055428447902151619 0 -0.025392583290799894 -0.00042715750265816217 0 -0.026053664936790968 -0.00055428447902151619 0 -0.025816955892568525 -0.0011951925718519008 0 -0.02638462737629239 -0.00119974824750304 0 -0.025816955892568525 -0.0011951925718519008 0 -0.02638462737629239 -0.00119974824750304 0 -0.026206617801854463 -0.0017668973374775391 0 -0.02638462737629239 -0.00119974824750304 0 -0.027049227059519801 -0.0008610716717123493 0 -0.026741334839772455 -0.0016819871514724368 0 -0.026053664936790968 -0.00055428447902151619 0 -0.02638462737629239 -0.00119974824750304 0 -0.027049227059519801 -0.0008610716717123493 0 -0.02638462737629239 -0.00119974824750304 0 -0.026206617801854463 -0.0017668973374775391 0 -0.026741334839772455 -0.0016819871514724368 0 -0.028821928014640254 -0.00064248346077936617 0 -0.025201565809163926 4.734071254348141e-05 0 -0.027049227059519801 -0.0008610716717123493 0 -0.027723116662123383 -0.0018004928155044536 0 -0.027162535834088591 -0.0018432357290331753 0 -0.027049227059519801 -0.0008610716717123493 0 -0.027162535834088591 -0.0018432357290331753 0 -0.026741334839772455 -0.0016819871514724368 0 -0.029398624881105322 -3.8660275264409139e-05 0 -0.029374799048840886 0.00020918262506376789 0 -0.02918547736775487 2.8530486668777387e-05 0 -0.02897614750281631 0.00021506715306423554 0 -0.029001952381702167 1.0344201892414892e-05 0 -0.02918547736775487 2.8530486668777387e-05 0 -0.02897614750281631 0.00021506715306423554 0 -0.029374799048840886 0.00020918262506376789 0 -0.02918547736775487 2.8530486668777387e-05 0 -0.02897614750281631 0.00021506715306423554 0 -0.029374799048840886 0.00020918262506376789 0 -0.029119098928799311 0.00047524839833056363 0 -0.026100345770003162 0.000519494563715042 0 -0.025201565809163926 4.734071254348141e-05 0 -0.025201565809163926 4.734071254348141e-05 0 -0.021075811387236552 -0.001012948948293716 0 -0.027723116662123383 -0.0018004928155044536 0 -0.027162535834088591 -0.0018432357290331753 0 -0.027252864248660923 -0.0024786744637581076 0 -0.027162535834088591 -0.0018432357290331753 0 -0.026847000914304402 -0.0022127721856141369 0 -0.027252864248660923 -0.0024786744637581076 0 -0.027162535834088591 -0.0018432357290331753 0 -0.026847000914304402 -0.0022127721856141369 0 -0.026741334839772455 -0.0016819871514724368 0 -0.015725131053816111 -0.0024368945385382754 0 -0.015663969985018508 -0.0025008485174565246 0 -0.015511983280471309 -0.0024911065950466989 0 -0.019668162930330937 -0.00041151670991941341 0 -0.019571831445571643 -0.00055205775652034854 0 -0.019808122100974358 -0.00042606223975775548 0 -0.021075811387236552 -0.001012948948293716 0 -0.01617749940255199 -0.0018399298304322498 0 -0.020123635988744396 -0.00050501529612032828 0 -0.019882959924333837 -0.00016308563193342048 0 -0.019956478097312606 -0.00050341960293664772 0 -0.019882959924333837 -0.00016308563193342048 0 -0.019703617516699572 -0.00041398533684319994 0 -0.019808122100974358 -0.00042606223975775548 0 -0.019571831445571643 -0.00055205775652034854 0 -0.019808122100974358 -0.00042606223975775548 0 -0.019963739313453646 -0.00067982343468019546 0 -0.019882959924333837 -0.00016308563193342048 0 -0.019808122100974358 -0.00042606223975775548 0 -0.019956478097312606 -0.00050341960293664772 0 -0.019808122100974358 -0.00042606223975775548 0 -0.019956478097312606 -0.00050341960293664772 0 -0.019963739313453646 -0.00067982343468019546 0 -0.021075811387236552 -0.001012948948293716 0 -0.019834257177180851 -0.00067835601527737764 0 -0.01617749940255199 -0.0018399298304322498 0 -0.016152289688161976 -0.0010829517457483769 0 -0.014599778463706763 -0.0014335046705342043 0 -0.014084261939637781 -0.0011752882131777556 0 -0.014355881825180224 -0.0011445373018150846 0 -0.0140777803439684 -0.0009619762657190696 0 -0.014112052914484426 -0.0010821135585910406 0 -0.014170919259359 -0.0010632838936522227 0 -0.014084261939637781 -0.0011752882131777556 0 -0.014170919259359 -0.0010632838936522227 0 -0.014355881825180224 -0.0011445373018150846 0 -0.016152289688161976 -0.0010829517457483769 0 -0.015141181095504865 -0.0015293282049079664 0 -0.014170919259359 -0.0010632838936522227 0 -0.014355881825180224 -0.0011445373018150846 0 -0.014286357076956486 -0.0009507528884239643 0 -0.014355881825180224 -0.0011445373018150846 0 -0.014501727089322413 -0.0010306664889120924 0 -0.014286357076956486 -0.0009507528884239643 0 -0.014599778463706763 -0.0014335046705342043 0 -0.014355881825180224 -0.0011445373018150846 0 -0.014558920666262503 -0.0012219373409517759 0 -0.01617749940255199 -0.0018399298304322498 0 -0.014753537727291972 -0.0015643728170833867 0 -0.014599778463706763 -0.0014335046705342043 0 -0.014558920666262503 -0.0012219373409517759 0 -0.014769698072621251 -0.0012259175309132096 0 -0.014558920666262503 -0.0012219373409517759 0 -0.014501727089322413 -0.0010306664889120924 0 -0.014769698072621251 -0.0012259175309132096 0 -0.014355881825180224 -0.0011445373018150846 0 -0.014558920666262503 -0.0012219373409517759 0 -0.014501727089322413 -0.0010306664889120924 0 -0.014501727089322413 -0.0010306664889120924 0 -0.014395300002501764 -0.0008166263283414663 0 -0.014286357076956486 -0.0009507528884239643 0 -0.014501727089322413 -0.0010306664889120924 0 -0.014712435108531303 -0.00076270100014869449 0 -0.014395300002501764 -0.0008166263283414663 0 -0.014501727089322413 -0.0010306664889120924 0 -0.014712435108531303 -0.00076270100014869449 0 -0.014769698072621251 -0.0012259175309132096 0 -0.014712435108531303 -0.00076270100014869449 0 -0.014395300002501764 -0.0008166263283414663 0 -0.014424393906604124 -0.00062159557797266448 0 -0.014395300002501764 -0.0008166263283414663 0 -0.014205238018037298 -0.00076248097136193333 0 -0.014424393906604124 -0.00062159557797266448 0 -0.014395300002501764 -0.0008166263283414663 0 -0.014205238018037298 -0.00076248097136193333 0 -0.014286357076956486 -0.0009507528884239643 0 -0.014025612132926761 -0.0008109989905153291 0 -0.014205238018037298 -0.00076248097136193333 0 -0.014148822328843682 -0.00090872795168930908 0 -0.014170919259359 -0.0010632838936522227 0 -0.014148822328843682 -0.00090872795168930908 0 -0.014286357076956486 -0.0009507528884239643 0 -0.0140777803439684 -0.0009619762657190696 0 -0.014170919259359 -0.0010632838936522227 0 -0.014148822328843682 -0.00090872795168930908 0 -0.014205238018037298 -0.00076248097136193333 0 -0.014148822328843682 -0.00090872795168930908 0 -0.014286357076956486 -0.0009507528884239643 0 -0.01578723901225261 -0.00084565105790623178 0 -0.015199036329842959 -0.00054456218707623423 0 -0.015883638009151244 -0.00036785327475417022 0 -0.01578723901225261 -0.00084565105790623178 0 -0.015180355923652822 -0.0010028239723120652 0 -0.015199036329842959 -0.00054456218707623423 0 -0.014712435108531303 -0.00076270100014869449 0 -0.015180355923652822 -0.0010028239723120652 0 -0.014769698072621251 -0.0012259175309132096 0 -0.014712435108531303 -0.00076270100014869449 0 -0.015180355923652822 -0.0010028239723120652 0 -0.015199036329842959 -0.00054456218707623423 0 -0.015180355923652822 -0.0010028239723120652 0 -0.015228499761303547 -0.0014377683507163228 0 -0.015631941336854256 -0.0013960146624328467 0 -0.015180355923652822 -0.0010028239723120652 0 -0.014769698072621251 -0.0012259175309132096 0 -0.015228499761303547 -0.0014377683507163228 0 -0.014311167302797915 -0.0018762633273804743 0 -0.014769698072621251 -0.0012259175309132096 0 -0.015077401962928467 -0.0017669678064727143 0 -0.014769698072621251 -0.0012259175309132096 0 -0.015228499761303547 -0.0014377683507163228 0 -0.015077401962928467 -0.0017669678064727143 0 -0.015228499761303547 -0.0014377683507163228 0 -0.015077401962928467 -0.0017669678064727143 0 -0.015519244522359104 -0.0018758935661864909 0 -0.015631941336854256 -0.0013960146624328467 0 -0.015883427660933234 -0.0018426722804949773 0 -0.015519244522359104 -0.0018758935661864909 0 -0.015228499761303547 -0.0014377683507163228 0 -0.015631941336854256 -0.0013960146624328467 0 -0.015519244522359104 -0.0018758935661864909 0 -0.01578723901225261 -0.00084565105790623178 0 -0.015180355923652822 -0.0010028239723120652 0 -0.015631941336854256 -0.0013960146624328467 0 -0.01578723901225261 -0.00084565105790623178 0 -0.015631941336854256 -0.0013960146624328467 0 -0.016348243391970836 -0.0013170373224345893 0 -0.015883427660933234 -0.0018426722804949773 0 -0.016382666490819792 -0.0021550800004356933 0 -0.016348243391970836 -0.0013170373224345893 0 -0.015631941336854256 -0.0013960146624328467 0 -0.015883427660933234 -0.0018426722804949773 0 -0.016348243391970836 -0.0013170373224345893 0 -0.015584509612626371 -0.0024391519895820531 0 -0.015511983280471309 -0.0024911065950466989 0 -0.017163494528597625 -0.0030579944623309206 0 -0.020975228758576797 -0.0026859002667459818 0 -0.020994820525619053 -0.002804281327731866 0 -0.015584509612626371 -0.0024391519895820531 0 -0.017163494528597625 -0.0030579944623309206 0 -0.016382666490819792 -0.0021550800004356933 0 -0.015883427660933234 -0.0018426722804949773 0 -0.015584509612626371 -0.0024391519895820531 0 -0.016382666490819792 -0.0021550800004356933 0 -0.015883427660933234 -0.0018426722804949773 0 -0.015519244522359104 -0.0018758935661864909 0 -0.015584509612626371 -0.0024391519895820531 0 -0.014311167302797915 -0.0018762633273804743 0 -0.015077401962928467 -0.0017669678064727143 0 -0.015584509612626371 -0.0024391519895820531 0 -0.021075811387236552 -0.001012948948293716 0 -0.020975228758576797 -0.0026859002667459818 0 -0.01617749940255199 -0.0018399298304322498 0 -0.015107817148580741 -0.0024415477465352582 0 -0.026847000914304402 -0.0022127721856141369 0 -0.026176606754150337 -0.0024240813275072603 0 -0.026419339362085473 -0.0021927550347210301 0 -0.015663969985018508 -0.0025008485174565246 0 -0.015584509612626371 -0.0024391519895820531 0 -0.015511983280471309 -0.0024911065950466989 0 -0.026847000914304402 -0.0022127721856141369 0 -0.027252864248660923 -0.0024786744637581076 0 -0.026176606754150337 -0.0024240813275072603 0 -0.015077401962928467 -0.0017669678064727143 0 -0.015519244522359104 -0.0018758935661864909 0 -0.015584509612626371 -0.0024391519895820531 0 -0.026847000914304402 -0.0022127721856141369 0 -0.026472694616327428 -0.0020152611458717586 0 -0.026419339362085473 -0.0021927550347210301 0 -0.026847000914304402 -0.0022127721856141369 0 -0.026472694616327428 -0.0020152611458717586 0 -0.026741334839772455 -0.0016819871514724368 0 -0.026472694616327428 -0.0020152611458717586 0 -0.026419339362085473 -0.0021927550347210301 0 -0.026179883255534758 -0.0021202199115569753 0 -0.026176606754150337 -0.0024240813275072603 0 -0.026419339362085473 -0.0021927550347210301 0 -0.026179883255534758 -0.0021202199115569753 0 -0.026472694616327428 -0.0020152611458717586 0 -0.026179883255534758 -0.0021202199115569753 0 -0.026206617801854463 -0.0017668973374775391 0 -0.026472694616327428 -0.0020152611458717586 0 -0.026206617801854463 -0.0017668973374775391 0 -0.026741334839772455 -0.0016819871514724368 0 -0.025816955892568525 -0.0011951925718519008 0 -0.026206617801854463 -0.0017668973374775391 0 -0.025662608157596696 -0.0021303068605773466 0 -0.026176606754150337 -0.0024240813275072603 0 -0.025662608157596696 -0.0021303068605773466 0 -0.024929442417147608 -0.0027075533446556635 0 -0.026176606754150337 -0.0024240813275072603 0 -0.026179883255534758 -0.0021202199115569753 0 -0.025662608157596696 -0.0021303068605773466 0 -0.026179883255534758 -0.0021202199115569753 0 -0.026206617801854463 -0.0017668973374775391 0 -0.025662608157596696 -0.0021303068605773466 0 -0.025662608157596696 -0.0021303068605773466 0 -0.024929442417147608 -0.0027075533446556635 0 -0.024763934198710251 -0.0011256827439233748 0 -0.023436576004772624 -0.001740419635015708 0 -0.024929442417147608 -0.0027075533446556635 0 -0.024763934198710251 -0.0011256827439233748 0 -0.020994820525619053 -0.002804281327731866 0 -0.021258491904779041 -0.0028431552906164025 0 -0.023436576004772624 -0.001740419635015708 0 -0.024929442417147608 -0.0027075533446556635 0 -0.021328955330126683 -0.002816676576301181 0 -0.017163494528597625 -0.0030579944623309206 0 -0.017725288277515017 -0.0013820049036413877 0 -0.019721219271837967 -0.002031631493761012 0 -0.017163494528597625 -0.0030579944623309206 0 -0.019721219271837967 -0.002031631493761012 0 -0.021328955330126683 -0.002816676576301181 0 -0.017163494528597625 -0.0030579944623309206 0 -0.016382666490819792 -0.0021550800004356933 0 -0.017725288277515017 -0.0013820049036413877 0 -0.016382666490819792 -0.0021550800004356933 0 -0.016348243391970836 -0.0013170373224345893 0 -0.017725288277515017 -0.0013820049036413877 0 -0.016348243391970836 -0.0013170373224345893 0 -0.017725288277515017 -0.0013820049036413877 0 -0.016666387375773375 -0.00069947878067459801 0 -0.017725288277515017 -0.0013820049036413877 0 -0.017573338732339256 -0.00058238795812746568 0 -0.019710999724903457 -0.0011856111320081035 0 -0.017725288277515017 -0.0013820049036413877 0 -0.017573338732339256 -0.00058238795812746568 0 -0.016666387375773375 -0.00069947878067459801 0 -0.017573338732339256 -0.00058238795812746568 0 -0.017372522821353164 -1.0488244492133589e-05 0 -0.016653493026341042 -0.0001926397394358327 0 -0.017573338732339256 -0.00058238795812746568 0 -0.016666387375773375 -0.00069947878067459801 0 -0.016653493026341042 -0.0001926397394358327 0 -0.01578723901225261 -0.00084565105790623178 0 -0.016666387375773375 -0.00069947878067459801 0 -0.015883638009151244 -0.00036785327475417022 0 -0.016666387375773375 -0.00069947878067459801 0 -0.016653493026341042 -0.0001926397394358327 0 -0.015883638009151244 -0.00036785327475417022 0 -0.01578723901225261 -0.00084565105790623178 0 -0.016348243391970836 -0.0013170373224345893 0 -0.016666387375773375 -0.00069947878067459801 0 -0.01812954948191297 3.8808940735015892e-05 0 -0.019240939123265847 1.5218156674565956e-07 0 -0.017179667913141131 9.2660931765520756e-08 0 -0.01812954948191297 3.8808940735015892e-05 0 -0.017372522821353164 -1.0488244492133589e-05 0 -0.017179667913141131 9.2660931765520756e-08 0 -0.019206765547630535 -0.00061260151754428938 0 -0.017694762224380736 -2.8975949101806258e-05 0 -0.017573338732339256 -0.00058238795812746568 0 -0.019710999724903457 -0.0011856111320081035 0 -0.017372522821353164 -1.0488244492133589e-05 0 -0.01812954948191297 3.8808940735015892e-05 0 -0.018787503828793562 2.3429973047386869e-05 0 -0.017372522821353164 -1.0488244492133589e-05 0 -0.017725288277515017 -0.0013820049036413877 0 -0.019710999724903457 -0.0011856111320081035 0 -0.019721219271837967 -0.002031631493761012 0 -0.01812954948191297 3.8808940735015892e-05 0 -0.018787503828793562 2.3429973047386869e-05 0 -0.019240939123265847 1.5218156674565956e-07 0 -0.018787503828793562 2.3429973047386869e-05 0 -0.019240939123265847 1.5218156674565956e-07 0 -0.019768490948239598 5.7042046537702234e-06 0 -0.019240939123265847 1.5218156674565956e-07 0 -0.019768490948239598 5.7042046537702234e-06 0 -0.02130247053116963 -1.8323574086904992e-07 0 -0.018787503828793562 2.3429973047386869e-05 0 -0.019768490948239598 5.7042046537702234e-06 0 -0.020608485875946037 -3.2753029590776189e-05 0 -0.019768490948239598 5.7042046537702234e-06 0 -0.02130247053116963 -1.8323574086904992e-07 0 -0.020608485875946037 -3.2753029590776189e-05 0 -0.019710999724903457 -0.0011856111320081035 0 -0.019721219271837967 -0.002031631493761012 0 -0.021639888967184582 -0.0027329701999047207 0 -0.019721219271837967 -0.002031631493761012 0 -0.021328955330126683 -0.002816676576301181 0 -0.021639888967184582 -0.0027329701999047207 0 -0.019206765547630535 -0.00061260151754428938 0 -0.021160372335031315 -0.0012884357440854084 0 -0.021328955330126683 -0.002816676576301181 0 -0.021953929189690625 -0.0022415871225485206 0 -0.021639888967184582 -0.0027329701999047207 0 -0.021328955330126683 -0.002816676576301181 0 -0.021953929189690625 -0.0022415871225485206 0 -0.022520860273040948 -0.0017959181442809425 0 -0.021953929189690625 -0.0022415871225485206 0 -0.021639888967184582 -0.0027329701999047207 0 -0.022457507552933614 -0.0014627994230823401 0 -0.021953929189690625 -0.0022415871225485206 0 -0.022520860273040948 -0.0017959181442809425 0 -0.022457507552933614 -0.0014627994230823401 0 -0.023436576004772624 -0.001740419635015708 0 -0.021328955330126683 -0.002816676576301181 0 -0.022520860273040948 -0.0017959181442809425 0 -0.02130247053116963 -1.8323574086904992e-07 0 -0.020608485875946037 -3.2753029590776189e-05 0 -0.022722229001304658 -0.00024560434651723831 0 -0.021160372335031315 -0.0012884357440854084 0 -0.022412592229781019 -0.00035294650710438326 0 -0.02130247053116963 -1.8323574086904992e-07 0 -0.022722229001304658 -0.00024560434651723831 0 -0.023364219301037249 -7.7073789632819797e-07 0 -0.021639888967184582 -0.0027329701999047207 0 -0.022722229001304658 -0.00024560434651723831 0 -0.022457507552933614 -0.0014627994230823401 0 -0.022722229001304658 -0.00024560434651723831 0 -0.023036150751669697 -0.00065524884675605111 0 -0.022457507552933614 -0.0014627994230823401 0 -0.022722229001304658 -0.00024560434651723831 0 -0.023364219301037249 -7.7073789632819797e-07 0 -0.023863095709855588 1.0831663937555874e-05 0 -0.022722229001304658 -0.00024560434651723831 0 -0.023863095709855588 1.0831663937555874e-05 0 -0.023678203932904627 -0.00024217321534253231 0 -0.023678203932904627 -0.00024217321534253231 0 -0.024633048417291057 6.7869842884407693e-05 0 -0.024438590657299329 0.00010475699464107741 0 -0.023678203932904627 -0.00024217321534253231 0 -0.024204012560280437 -0.00045655341180331498 0 -0.024633048417291057 6.7869842884407693e-05 0 -0.023863095709855588 1.0831663937555874e-05 0 -0.023678203932904627 -0.00024217321534253231 0 -0.024438590657299329 0.00010475699464107741 0 -0.023678203932904627 -0.00024217321534253231 0 -0.023358036030977327 -0.0010221082869722778 0 -0.024204012560280437 -0.00045655341180331498 0 -0.023678203932904627 -0.00024217321534253231 0 -0.023036150751669697 -0.00065524884675605111 0 -0.023358036030977327 -0.0010221082869722778 0 -0.022722229001304658 -0.00024560434651723831 0 -0.023678203932904627 -0.00024217321534253231 0 -0.023036150751669697 -0.00065524884675605111 0 -0.023036150751669697 -0.00065524884675605111 0 -0.022457507552933614 -0.0014627994230823401 0 -0.023358036030977327 -0.0010221082869722778 0 -0.023436576004772624 -0.001740419635015708 0 -0.022520860273040948 -0.0017959181442809425 0 -0.023358036030977327 -0.0010221082869722778 0 -0.022520860273040948 -0.0017959181442809425 0 -0.022457507552933614 -0.0014627994230823401 0 -0.023358036030977327 -0.0010221082869722778 0 -0.023358036030977327 -0.0010221082869722778 0 -0.024763934198710251 -0.0011256827439233748 0 -0.024204012560280437 -0.00045655341180331498 0 -0.023436576004772624 -0.001740419635015708 0 -0.023358036030977327 -0.0010221082869722778 0 -0.024763934198710251 -0.0011256827439233748 0 -0.025816955892568525 -0.0011951925718519008 0 -0.025662608157596696 -0.0021303068605773466 0 -0.024763934198710251 -0.0011256827439233748 0 -0.025816955892568525 -0.0011951925718519008 0 -0.024763934198710251 -0.0011256827439233748 0 -0.025392583290799894 -0.00042715750265816217 0 -0.024763934198710251 -0.0011256827439233748 0 -0.025392583290799894 -0.00042715750265816217 0 -0.024826066648155364 -0.00032220980677695465 0 -0.025392583290799894 -0.00042715750265816217 0 -0.024826066648155364 -0.00032220980677695465 0 -0.025104567233807291 6.2254573045124486e-05 0 -0.024763934198710251 -0.0011256827439233748 0 -0.024204012560280437 -0.00045655341180331498 0 -0.024826066648155364 -0.00032220980677695465 0 -0.024826066648155364 -0.00032220980677695465 0 -0.024633048417291057 6.7869842884407693e-05 0 -0.025104567233807291 6.2254573045124486e-05 0 -0.024204012560280437 -0.00045655341180331498 0 -0.024826066648155364 -0.00032220980677695465 0 -0.024633048417291057 6.7869842884407693e-05 0 -0.024633048417291057 6.7869842884407693e-05 0 -0.025195350735847909 0.00027678502560144586 0 -0.025281273072923011 0.00027290141166911723 0 -0.024633048417291057 6.7869842884407693e-05 0 -0.025195350735847909 0.00027678502560144586 0 -0.025104567233807291 6.2254573045124486e-05 0 -0.025195350735847909 0.00027678502560144586 0 -0.025104567233807291 6.2254573045124486e-05 0 -0.025305524958329915 0.00027652203485654909 0 -0.025578543269426518 0.00010010415403441664 0 -0.025392583290799894 -0.00042715750265816217 0 -0.025104567233807291 6.2254573045124486e-05 0 -0.025578543269426518 0.00010010415403441664 0 -0.025104567233807291 6.2254573045124486e-05 0 -0.025305524958329915 0.00027652203485654909 0 -0.025578543269426518 0.00010010415403441664 0 -0.025305524958329915 0.00027652203485654909 0 -0.025493479765934916 0.00034853872217932775 0 -0.025640633467175579 0.00049260311531045757 0 -0.025578543269426518 0.00010010415403441664 0 -0.025493479765934916 0.00034853872217932775 0 -0.025493479765934916 0.00034853872217932775 0 -0.025447902349195608 0.000369900376737512 0 -0.025509682301156092 0.00039171422273401383 0 -0.025305524958329915 0.00027652203485654909 0 -0.025493479765934916 0.00034853872217932775 0 -0.025447902349195608 0.000369900376737512 0 -0.025447902349195608 0.000369900376737512 0 -0.025561971923915145 0.0003723344401297865 0 -0.025550123806615064 0.00039714475551222249 0 -0.025447902349195608 0.000369900376737512 0 -0.025550123806615064 0.00039714475551222249 0 -0.025509682301156092 0.00039171422273401383 0 -0.025640633467175579 0.00049260311531045757 0 -0.025493479765934916 0.00034853872217932775 0 -0.025552800870946305 0.00044548836270388018 0 -0.025493479765934916 0.00034853872217932775 0 -0.025509682301156092 0.00039171422273401383 0 -0.025552800870946305 0.00044548836270388018 0 -0.025550123806615064 0.00039714475551222249 0 -0.025509682301156092 0.00039171422273401383 0 -0.025552800870946305 0.00044548836270388018 0 -0.025939321521254811 0.0003090290813100938 0 -0.02552627729178442 0.00035536149175781936 0 -0.025281273072923011 0.00027290141166911723 0 -0.025195350735847909 0.00027678502560144586 0 -0.02552627729178442 0.00035536149175781936 0 -0.025281273072923011 0.00027290141166911723 0 -0.025195350735847909 0.00027678502560144586 0 -0.025447902349195608 0.000369900376737512 0 -0.02552627729178442 0.00035536149175781936 0 -0.025195350735847909 0.00027678502560144586 0 -0.025305524958329915 0.00027652203485654909 0 -0.025447902349195608 0.000369900376737512 0 -0.025697014388330018 0.00032902390749264875 0 -0.025561971923915145 0.0003723344401297865 0 -0.02552627729178442 0.00035536149175781936 0 -0.025447902349195608 0.000369900376737512 0 -0.025561971923915145 0.0003723344401297865 0 -0.02552627729178442 0.00035536149175781936 0 -0.026296487723954095 0.00018460225975146618 0 -0.025939321521254811 0.0003090290813100938 0 -0.025281273072923011 0.00027290141166911723 0 -0.026296487723954095 0.00018460225975146618 0 -0.025281273072923011 0.00027290141166911723 0 -0.025425816878506181 6.445645535759284e-07 0 -0.023863095709855588 1.0831663937555874e-05 0 -0.025425816878506181 6.445645535759284e-07 0 -0.024438590657299329 0.00010475699464107741 0 -0.025281273072923011 0.00027290141166911723 0 -0.025425816878506181 6.445645535759284e-07 0 -0.024438590657299329 0.00010475699464107741 0 -0.023364219301037249 -7.7073789632819797e-07 0 -0.023863095709855588 1.0831663937555874e-05 0 -0.025425816878506181 6.445645535759284e-07 0 -0.024633048417291057 6.7869842884407693e-05 0 -0.025281273072923011 0.00027290141166911723 0 -0.024438590657299329 0.00010475699464107741 0 -0.014239740348633911 -0.00035338655845166791 0 -0.014283060188818281 -0.00031841445137039147 0 -0.014427562613668229 -0.00023756495275425738 0 -0.014239740348633911 -0.00035338655845166791 0 -0.014427562613668229 -0.00023756495275425738 0 -0.014227463835867092 -0.00035238631923176792 0 -0.014239740348633911 -0.00035338655845166791 0 -0.014178934444469105 -0.00039856689814787182 0 -0.014227463835867092 -0.00035238631923176792 0 -0.012351036371782143 -0.00011559899966294247 0 -0.011566190103841332 -9.6207922535479848e-05 0 -0.010745893214057988 -1.5305740114839898e-05 0 -0.0089330701835402468 -5.9802976459965971e-08 0 -0.010994353758039367 -2.6293843089428491e-07 0 -0.014067308198215075 -0.0004889404720888231 0 -0.014178934444469105 -0.00039856689814787182 0 -0.014227463835867092 -0.00035238631923176792 0 -0.014067308198215075 -0.0004889404720888231 0 -0.014178934444469105 -0.00039856689814787182 0 -0.014225626691114563 -0.00033203735460063605 0 -0.014239740348633911 -0.00035338655845166791 0 -0.014178934444469105 -0.00039856689814787182 0 -0.014225626691114563 -0.00033203735460063605 0 -0.010745893214057988 -1.5305740114839898e-05 0 -0.0089330701835402468 -5.9802976459965971e-08 0 -0.0089482649317644651 -2.702713202309551e-05 0 -0.014225626691114563 -0.00033203735460063605 0 -0.014283060188818281 -0.00031841445137039147 0 -0.014247109202783178 -0.00034535641400036091 0 -0.014239740348633911 -0.00035338655845166791 0 -0.014225626691114563 -0.00033203735460063605 0 -0.014283060188818281 -0.00031841445137039147 0 -0.014283060188818281 -0.00031841445137039147 0 -0.014314777478297755 -0.00031792677114941364 0 -0.014247109202783178 -0.00034535641400036091 0 -0.014437144060649778 -0.00023013850988085291 0 -0.01442598761136242 -0.00027911294423883814 0 -0.014314777478297755 -0.00031792677114941364 0 -0.014283060188818281 -0.00031841445137039147 0 -0.014437144060649778 -0.00023013850988085291 0 -0.014427562613668229 -0.00023756495275425738 0 -0.014283060188818281 -0.00031841445137039147 0 -0.014437144060649778 -0.00023013850988085291 0 -0.014314777478297755 -0.00031792677114941364 0 -0.014437144060649778 -0.00023013850988085291 0 -0.014566233925940029 -0.00012539810518421277 0 -0.01442598761136242 -0.00027911294423883814 0 -0.014437144060649778 -0.00023013850988085291 0 -0.014566233925940029 -0.00012539810518421277 0 -0.014639531955652096 -4.8206804146627215e-05 0 -0.014566233925940029 -0.00012539810518421277 0 -0.014639531955652096 -4.8206804146627215e-05 0 -0.014696016271165842 0.00012532526704106189 0 -0.014437144060649778 -0.00023013850988085291 0 -0.014639531955652096 -4.8206804146627215e-05 0 -0.014427562613668229 -0.00023756495275425738 0 -0.014639531955652096 -4.8206804146627215e-05 0 -0.014427562613668229 -0.00023756495275425738 0 -0.014537404786600625 -0.00016042549509427724 0 -0.014639531955652096 -4.8206804146627215e-05 0 -0.014537404786600625 -0.00016042549509427724 0 -0.014843723656725484 5.7090984289683996e-05 0 -0.014639531955652096 -4.8206804146627215e-05 0 -0.014843723656725484 5.7090984289683996e-05 0 -0.014890038049166474 0.00020594347365739322 0 -0.014639531955652096 -4.8206804146627215e-05 0 -0.014890038049166474 0.00020594347365739322 0 -0.014696016271165842 0.00012532526704106189 0 -0.014843723656725484 5.7090984289683996e-05 0 -0.015187708446961542 0.00016495285585706578 0 -0.014890038049166474 0.00020594347365739322 0 -0.014537404786600625 -0.00016042549509427724 0 -0.014843723656725484 5.7090984289683996e-05 0 -0.014795709218749837 6.2474341416284782e-05 0 -0.014843723656725484 5.7090984289683996e-05 0 -0.014795709218749837 6.2474341416284782e-05 0 -0.015187708446961542 0.00016495285585706578 0 -0.014537404786600625 -0.00016042549509427724 0 -0.014795709218749837 6.2474341416284782e-05 0 -0.014287836889155471 -0.00017498062839514086 0 -0.014795709218749837 6.2474341416284782e-05 0 -0.0143718985491484 6.0104406090763066e-05 0 -0.014287836889155471 -0.00017498062839514086 0 -0.0143718985491484 6.0104406090763066e-05 0 -0.014287836889155471 -0.00017498062839514086 0 -0.013896370770882231 -8.7013921165545225e-05 0 -0.014537404786600625 -0.00016042549509427724 0 -0.014287836889155471 -0.00017498062839514086 0 -0.014227463835867092 -0.00035238631923176792 0 -0.014287836889155471 -0.00017498062839514086 0 -0.014227463835867092 -0.00035238631923176792 0 -0.013929403458317476 -0.00030122631489534616 0 -0.014427562613668229 -0.00023756495275425738 0 -0.014537404786600625 -0.00016042549509427724 0 -0.014227463835867092 -0.00035238631923176792 0 -0.012351036371782143 -0.00011559899966294247 0 -0.012682331479603782 0.0001106177454343189 0 -0.010745893214057988 -1.5305740114839898e-05 0 -0.010994353758039367 -2.6293843089428491e-07 0 -0.012787354938401007 -3.2729065429979358e-05 0 -0.014067308198215075 -0.0004889404720888231 0 -0.013929403458317476 -0.00030122631489534616 0 -0.012787354938401007 -3.2729065429979358e-05 0 -0.014067308198215075 -0.0004889404720888231 0 -0.014227463835867092 -0.00035238631923176792 0 -0.013929403458317476 -0.00030122631489534616 0 -0.010994353758039367 -2.6293843089428491e-07 0 -0.013058477472912571 -7.0840419158398512e-09 0 -0.012787354938401007 -3.2729065429979358e-05 0 -0.013929403458317476 -0.00030122631489534616 0 -0.013896370770882231 -8.7013921165545225e-05 0 -0.012787354938401007 -3.2729065429979358e-05 0 -0.014287836889155471 -0.00017498062839514086 0 -0.013929403458317476 -0.00030122631489534616 0 -0.013896370770882231 -8.7013921165545225e-05 0 -0.0143718985491484 6.0104406090763066e-05 0 -0.013896370770882231 -8.7013921165545225e-05 0 -0.01374945797242544 4.7012783494480587e-05 0 -0.01374945797242544 4.7012783494480587e-05 0 -0.013058477472912571 -7.0840419158398512e-09 0 -0.012787354938401007 -3.2729065429979358e-05 0 -0.013896370770882231 -8.7013921165545225e-05 0 -0.01374945797242544 4.7012783494480587e-05 0 -0.012787354938401007 -3.2729065429979358e-05 0 -0.01374945797242544 4.7012783494480587e-05 0 -0.013058477472912571 -7.0840419158398512e-09 0 -0.014471400224150352 0.00014365718754366758 0 -0.013058477472912571 -7.0840419158398512e-09 0 -0.014471400224150352 0.00014365718754366758 0 -0.015118389194707246 5.3749831183884537e-07 0 -0.0143718985491484 6.0104406090763066e-05 0 -0.01374945797242544 4.7012783494480587e-05 0 -0.014471400224150352 0.00014365718754366758 0 -0.0143718985491484 6.0104406090763066e-05 0 -0.014471400224150352 0.00014365718754366758 0 -0.015096636064092357 0.00018032722900722338 0 -0.014795709218749837 6.2474341416284782e-05 0 -0.0143718985491484 6.0104406090763066e-05 0 -0.015096636064092357 0.00018032722900722338 0 -0.014471400224150352 0.00014365718754366758 0 -0.015096636064092357 0.00018032722900722338 0 -0.01582700784038156 0.00015889393416377914 0 -0.014471400224150352 0.00014365718754366758 0 -0.015118389194707246 5.3749831183884537e-07 0 -0.01582700784038156 0.00015889393416377914 0 -0.015118389194707246 5.3749831183884537e-07 0 -0.01582700784038156 0.00015889393416377914 0 -0.017179667913141131 9.2660931765520756e-08 0 -0.01582700784038156 0.00015889393416377914 0 -0.017372522821353164 -1.0488244492133589e-05 0 -0.016294879085940687 8.5648075908889543e-05 0 -0.01582700784038156 0.00015889393416377914 0 -0.017372522821353164 -1.0488244492133589e-05 0 -0.017179667913141131 9.2660931765520756e-08 0 -0.016653493026341042 -0.0001926397394358327 0 -0.015849906839008096 -2.8560341354644354e-05 0 -0.015883638009151244 -0.00036785327475417022 0 -0.016653493026341042 -0.0001926397394358327 0 -0.016294879085940687 8.5648075908889543e-05 0 -0.015849906839008096 -2.8560341354644354e-05 0 -0.017372522821353164 -1.0488244492133589e-05 0 -0.016653493026341042 -0.0001926397394358327 0 -0.016294879085940687 8.5648075908889543e-05 0 -0.01582700784038156 0.00015889393416377914 0 -0.016294879085940687 8.5648075908889543e-05 0 -0.015623199477141449 0.0001609857865887366 0 -0.016294879085940687 8.5648075908889543e-05 0 -0.015849906839008096 -2.8560341354644354e-05 0 -0.015623199477141449 0.0001609857865887366 0 -0.015849906839008096 -2.8560341354644354e-05 0 -0.015623199477141449 0.0001609857865887366 0 -0.015367818311084662 6.8773725663444997e-05 0 -0.015623199477141449 0.0001609857865887366 0 -0.015187708446961542 0.00016495285585706578 0 -0.015367818311084662 6.8773725663444997e-05 0 -0.015096636064092357 0.00018032722900722338 0 -0.01582700784038156 0.00015889393416377914 0 -0.015623199477141449 0.0001609857865887366 0 -0.015096636064092357 0.00018032722900722338 0 -0.015623199477141449 0.0001609857865887366 0 -0.015187708446961542 0.00016495285585706578 0 -0.014795709218749837 6.2474341416284782e-05 0 -0.015096636064092357 0.00018032722900722338 0 -0.015187708446961542 0.00016495285585706578 0 -0.015187708446961542 0.00016495285585706578 0 -0.015039983463489164 0.00012925820561872795 0 -0.014890038049166474 0.00020594347365739322 0 -0.015187708446961542 0.00016495285585706578 0 -0.015039983463489164 0.00012925820561872795 0 -0.015367818311084662 6.8773725663444997e-05 0 -0.015039983463489164 0.00012925820561872795 0 -0.014853871807905759 1.2342417514026114e-05 0 -0.014734434796101759 0.00013964633693585462 0 -0.014853871807905759 1.2342417514026114e-05 0 -0.01429942255527332 -6.6759779193467875e-05 0 -0.014734434796101759 0.00013964633693585462 0 -0.014853871807905759 1.2342417514026114e-05 0 -0.01495412817057514 -0.00011017981472894357 0 -0.014516891363575611 -0.00013794281644127255 0 -0.014853871807905759 1.2342417514026114e-05 0 -0.014516891363575611 -0.00013794281644127255 0 -0.01429942255527332 -6.6759779193467875e-05 0 -0.014853871807905759 1.2342417514026114e-05 0 -0.015367818311084662 6.8773725663444997e-05 0 -0.01495412817057514 -0.00011017981472894357 0 -0.015039983463489164 0.00012925820561872795 0 -0.014853871807905759 1.2342417514026114e-05 0 -0.015367818311084662 6.8773725663444997e-05 0 -0.015849906839008096 -2.8560341354644354e-05 0 -0.015367818311084662 6.8773725663444997e-05 0 -0.015311785737793312 -0.00018806497305741209 0 -0.015367818311084662 6.8773725663444997e-05 0 -0.015311785737793312 -0.00018806497305741209 0 -0.01495412817057514 -0.00011017981472894357 0 -0.015311785737793312 -0.00018806497305741209 0 -0.01495412817057514 -0.00011017981472894357 0 -0.014706830929636597 -0.00034741967315141706 0 -0.01495412817057514 -0.00011017981472894357 0 -0.014706830929636597 -0.00034741967315141706 0 -0.014516891363575611 -0.00013794281644127255 0 -0.014712435108531303 -0.00076270100014869449 0 -0.014706830929636597 -0.00034741967315141706 0 -0.015199036329842959 -0.00054456218707623423 0 -0.015311785737793312 -0.00018806497305741209 0 -0.014706830929636597 -0.00034741967315141706 0 -0.015199036329842959 -0.00054456218707623423 0 -0.015311785737793312 -0.00018806497305741209 0 -0.015199036329842959 -0.00054456218707623423 0 -0.015883638009151244 -0.00036785327475417022 0 -0.015849906839008096 -2.8560341354644354e-05 0 -0.015311785737793312 -0.00018806497305741209 0 -0.015883638009151244 -0.00036785327475417022 0 -0.014181513566137482 -0.00054643204646964249 0 -0.014316257517660115 -0.0004231419737484756 0 -0.014120570943628343 -0.00038564696146839244 0 -0.014181513566137482 -0.00054643204646964249 0 -0.014424393906604124 -0.00062159557797266448 0 -0.014316257517660115 -0.0004231419737484756 0 -0.014181513566137482 -0.00054643204646964249 0 -0.014120570943628343 -0.00038564696146839244 0 -0.013964402833890962 -0.00047459420708660497 0 -0.014205238018037298 -0.00076248097136193333 0 -0.014181513566137482 -0.00054643204646964249 0 -0.014058888736136418 -0.00064260642753138854 0 -0.014205238018037298 -0.00076248097136193333 0 -0.014181513566137482 -0.00054643204646964249 0 -0.014424393906604124 -0.00062159557797266448 0 -0.014712435108531303 -0.00076270100014869449 0 -0.014706830929636597 -0.00034741967315141706 0 -0.014424393906604124 -0.00062159557797266448 0 -0.014706830929636597 -0.00034741967315141706 0 -0.014424393906604124 -0.00062159557797266448 0 -0.014316257517660115 -0.0004231419737484756 0 -0.014706830929636597 -0.00034741967315141706 0 -0.014239263323772811 -0.00025933122399902757 0 -0.014316257517660115 -0.0004231419737484756 0 -0.014706830929636597 -0.00034741967315141706 0 -0.014239263323772811 -0.00025933122399902757 0 -0.014516891363575611 -0.00013794281644127255 0 -0.014239263323772811 -0.00025933122399902757 0 -0.014120570943628343 -0.00038564696146839244 0 -0.01394542695758574 -0.00025870097579798598 0 -0.014239263323772811 -0.00025933122399902757 0 -0.014316257517660115 -0.0004231419737484756 0 -0.014120570943628343 -0.00038564696146839244 0 -0.01429942255527332 -6.6759779193467875e-05 0 -0.013474435300766627 -9.7629754197485046e-05 0 -0.014734434796101759 0.00013964633693585462 0 -0.014239263323772811 -0.00025933122399902757 0 -0.013919278267645555 -0.00012895794853875375 0 -0.01394542695758574 -0.00025870097579798598 0 -0.014239263323772811 -0.00025933122399902757 0 -0.013919278267645555 -0.00012895794853875375 0 -0.014516891363575611 -0.00013794281644127255 0 -0.013919278267645555 -0.00012895794853875375 0 -0.014516891363575611 -0.00013794281644127255 0 -0.01429942255527332 -6.6759779193467875e-05 0 -0.013919278267645555 -0.00012895794853875375 0 -0.013474435300766627 -9.7629754197485046e-05 0 -0.013792897109119283 -0.00010107372954773955 0 -0.013919278267645555 -0.00012895794853875375 0 -0.01429942255527332 -6.6759779193467875e-05 0 -0.013474435300766627 -9.7629754197485046e-05 0 -0.013474435300766627 -9.7629754197485046e-05 0 -0.014734434796101759 0.00013964633693585462 0 -0.014732946370915264 0.00049345218616626547 0 -0.013474435300766627 -9.7629754197485046e-05 0 -0.012449641678553253 0.0014695703631715457 0 -0.013686347386981745 0.0013323540723011781 0 -0.013474435300766627 -9.7629754197485046e-05 0 -0.014732946370915264 0.00049345218616626547 0 -0.013686347386981745 0.0013323540723011781 0 -0.014734434796101759 0.00013964633693585462 0 -0.014890038049166474 0.00020594347365739322 0 -0.014732946370915264 0.00049345218616626547 0 -0.015039983463489164 0.00012925820561872795 0 -0.014734434796101759 0.00013964633693585462 0 -0.014890038049166474 0.00020594347365739322 0 -0.014890038049166474 0.00020594347365739322 0 -0.014732946370915264 0.00049345218616626547 0 -0.014696016271165842 0.00012532526704106189 0 -0.014761107171583623 0.00052052922769680069 0 -0.014740415874095024 0.001234959247094586 0 -0.014732946370915264 0.00049345218616626547 0 -0.014696016271165842 0.00012532526704106189 0 -0.014816478552648726 -7.3691594684371106e-05 0 -0.014732946370915264 0.00049345218616626547 0 -0.014795876289394575 0.0025444408200232626 0 -0.013686347386981745 0.0013323540723011781 0 -0.014566233925940029 -0.00012539810518421277 0 -0.014696016271165842 0.00012532526704106189 0 -0.014816478552648726 -7.3691594684371106e-05 0 -0.014566233925940029 -0.00012539810518421277 0 -0.014816478552648726 -7.3691594684371106e-05 0 -0.014550090765921895 -0.00026948512426534489 0 -0.014795876289394575 0.0025444408200232626 0 -0.013169258652691316 0.0027041728762133847 0 -0.013652800074757681 0.0037196092358667446 0 -0.013169258652691316 0.0027041728762133847 0 -0.011631543502071996 0.0027292330339327986 0 -0.012111001369638672 0.0037588954915166277 0 -0.013169258652691316 0.0027041728762133847 0 -0.012449641678553253 0.0014695703631715457 0 -0.013686347386981745 0.0013323540723011781 0 -0.013169258652691316 0.0027041728762133847 0 -0.012449641678553253 0.0014695703631715457 0 -0.011631543502071996 0.0027292330339327986 0 -0.014795876289394575 0.0025444408200232626 0 -0.013169258652691316 0.0027041728762133847 0 -0.013686347386981745 0.0013323540723011781 0 -0.010061757529753674 0.0015430383297874693 0 -0.011155102356471233 0.0017995577614158122 0 -0.010243620472925383 0.0028127812698155339 0 -0.012449641678553253 0.0014695703631715457 0 -0.011155102356471233 0.0017995577614158122 0 -0.011631543502071996 0.0027292330339327986 0 -0.011631543502071996 0.0027292330339327986 0 -0.010243620472925383 0.0028127812698155339 0 -0.010718890889208174 0.0038609675534327791 0 -0.011155102356471233 0.0017995577614158122 0 -0.011631543502071996 0.0027292330339327986 0 -0.010243620472925383 0.0028127812698155339 0 -0.010243620472925383 0.0028127812698155339 0 -0.008762498137181619 0.0028033440158843569 0 -0.0093147869003218624 0.0042420102699266783 0 -0.0071281004626587352 0.0025580274783473045 0 -0.0078774572415076603 0.0041735829380634189 0 -0.008762498137181619 0.0028033440158843569 0 -0.0071811733523847497 0.0026534589095430199 0 -0.0079003545152542994 0.004268983926985815 0 -0.008762498137181619 0.0028033440158843569 0 -0.0081227087144989073 0.0012112406194849873 0 -0.0071811733523847497 0.0026534589095430199 0 -0.0099473920740050688 0.0015094806172725541 0 -0.008571509302749452 0.0012383391257103256 0 -0.010061757529753674 0.0015430383297874693 0 -0.010243620472925383 0.0028127812698155339 0 -0.008762498137181619 0.0028033440158843569 0 -0.010061757529753674 0.0015430383297874693 0 -0.008762498137181619 0.0028033440158843569 0 -0.0081227087144989073 0.0012112406194849873 0 -0.010061757529753674 0.0015430383297874693 0 -0.0088822362616062054 0.0012199868571257705 0 -0.009774898944917872 5.2922553075435357e-05 0 -0.0088822362616062054 0.0012199868571257705 0 -0.0085096212655532306 0.00010923132378118041 0 -0.009774898944917872 5.2922553075435357e-05 0 -0.0085096212655532306 0.00010923132378118041 0 -0.009774898944917872 5.2922553075435357e-05 0 -0.009030674538302589 -0.00059685704167218481 0 -0.0085096212655532306 0.00010923132378118041 0 -0.009030674538302589 -0.00059685704167218481 0 -0.0082808340070228796 -0.00061533035947210679 0 -0.009774898944917872 5.2922553075435357e-05 0 -0.011318599376217212 0.00066265072802269354 0 -0.011260189353661392 -0.0010426593250467745 0 -0.010061757529753674 0.0015430383297874693 0 -0.011155102356471233 0.0017995577614158122 0 -0.011318599376217212 0.00066265072802269354 0 -0.010061757529753674 0.0015430383297874693 0 -0.009774898944917872 5.2922553075435357e-05 0 -0.011318599376217212 0.00066265072802269354 0 -0.013474435300766627 -9.7629754197485046e-05 0 -0.012449641678553253 0.0014695703631715457 0 -0.011318599376217212 0.00066265072802269354 0 -0.012449641678553253 0.0014695703631715457 0 -0.011155102356471233 0.0017995577614158122 0 -0.011318599376217212 0.00066265072802269354 0 -0.013474435300766627 -9.7629754197485046e-05 0 -0.011318599376217212 0.00066265072802269354 0 -0.011260189353661392 -0.0010426593250467745 0 -0.0133524437928722 -0.00016276541542921977 0 -0.012732910444468754 -0.00047079583976017907 0 -0.012732910444468754 -0.00047079583976017907 0 -0.01083219007090856 -0.0012178280995850629 0 -0.013792897109119283 -0.00010107372954773955 0 -0.013742624814438298 -0.00033614673794775087 0 -0.013603297160401965 -0.00019983658620512166 0 -0.013919278267645555 -0.00012895794853875375 0 -0.013792897109119283 -0.00010107372954773955 0 -0.01394542695758574 -0.00025870097579798598 0 -0.013792897109119283 -0.00010107372954773955 0 -0.01394542695758574 -0.00025870097579798598 0 -0.013742624814438298 -0.00033614673794775087 0 -0.01394542695758574 -0.00025870097579798598 0 -0.013742624814438298 -0.00033614673794775087 0 -0.013964402833890962 -0.00047459420708660497 0 -0.014120570943628343 -0.00038564696146839244 0 -0.01394542695758574 -0.00025870097579798598 0 -0.013964402833890962 -0.00047459420708660497 0 -0.013742624814438298 -0.00033614673794775087 0 -0.013804273960205889 -0.00059710973281270133 0 -0.013964402833890962 -0.00047459420708660497 0 -0.013870843073968721 -0.00077353841618937663 0 -0.013804273960205889 -0.00059710973281270133 0 -0.013941655807991117 -0.00065932313047951127 0 -0.014025612132926761 -0.0008109989905153291 0 -0.013941655807991117 -0.00065932313047951127 0 -0.014058888736136418 -0.00064260642753138854 0 -0.013941655807991117 -0.00065932313047951127 0 -0.014058888736136418 -0.00064260642753138854 0 -0.013964402833890962 -0.00047459420708660497 0 -0.014181513566137482 -0.00054643204646964249 0 -0.014058888736136418 -0.00064260642753138854 0 -0.013964402833890962 -0.00047459420708660497 0 -0.013804273960205889 -0.00059710973281270133 0 -0.013941655807991117 -0.00065932313047951127 0 -0.013964402833890962 -0.00047459420708660497 0 -0.013728969801045774 -0.00081808889436254975 0 -0.013804273960205889 -0.00059710973281270133 0 -0.01356165084288632 -0.00051820291229041817 0 -0.013742624814438298 -0.00033614673794775087 0 -0.013804273960205889 -0.00059710973281270133 0 -0.01356165084288632 -0.00051820291229041817 0 -0.017671843411093811 0.00013493608726010561 0 -0.018379744329280284 0.00042088826863894232 0 -0.013742624814438298 -0.00033614673794775087 0 -0.01356165084288632 -0.00051820291229041817 0 -0.013568945167357072 -0.0003349788261948977 0 -0.018379744329280284 0.00042088826863894232 0 -0.014534087094133487 0.000147263806605916 0 -0.01356165084288632 -0.00051820291229041817 0 -0.013568945167357072 -0.0003349788261948977 0 -0.013405448161606038 -0.0002895695154180374 0 -0.022079655485507825 0.0014082592363399012 0 -0.021902899697089539 0.0015856985289706132 0 -0.021927726696850919 0.0013510096025326672 0 -0.0096730329824740047 -0.0015771359584259811 0 -0.0086783287998054969 -0.0012112273174534314 0 -0.008322545988140936 -0.0021040719182514708 0 -0.013568945167357072 -0.0003349788261948977 0 -0.013603297160401965 -0.00019983658620512166 0 -0.013405448161606038 -0.0002895695154180374 0 -0.01083219007090856 -0.0012178280995850629 0 -0.014534087094133487 0.000147263806605916 0 -0.013742624814438298 -0.00033614673794775087 0 -0.013568945167357072 -0.0003349788261948977 0 -0.013603297160401965 -0.00019983658620512166 0 -0.009774898944917872 5.2922553075435357e-05 0 -0.0096730329824740047 -0.0015771359584259811 0 -0.009030674538302589 -0.00059685704167218481 0 -0.009774898944917872 5.2922553075435357e-05 0 -0.011260189353661392 -0.0010426593250467745 0 -0.0096730329824740047 -0.0015771359584259811 0 -0.0096730329824740047 -0.0015771359584259811 0 -0.0086783287998054969 -0.0012112273174534314 0 -0.009030674538302589 -0.00059685704167218481 0 -0.0086783287998054969 -0.0012112273174534314 0 -0.009030674538302589 -0.00059685704167218481 0 -0.0082808340070228796 -0.00061533035947210679 0 -0.0082808340070228796 -0.00061533035947210679 0 -0.0076981100334239574 -0.00087659578185912614 0 -0.0081112089210865924 -0.0011458672682820774 0 -0.0086783287998054969 -0.0012112273174534314 0 -0.0082808340070228796 -0.00061533035947210679 0 -0.0081112089210865924 -0.0011458672682820774 0 -0.0076981100334239574 -0.00087659578185912614 0 -0.007657396707087186 -0.001297141105530958 0 -0.0081112089210865924 -0.0011458672682820774 0 -0.014199951120571047 0.0014288046658391981 0 -0.014738480665428478 0.0016781859252549059 0 -0.014252072564118139 0.00067037823117611786 0 -0.01383409196126297 0.0012112663924202561 0 -0.014199951120571047 0.0014288046658391981 0 -0.014252072564118139 0.00067037823117611786 0 -0.0076981100334239574 -0.00087659578185912614 0 -0.007657396707087186 -0.001297141105530958 0 -0.0070588965553558154 -0.00050821183057616888 0 -0.010539942300777332 8.6975045599261007e-05 0 -0.010606395498610673 0.0009895596272284108 0 -0.01383409196126297 0.0012112663924202561 0 -0.014199951120571047 0.0014288046658391981 0 -0.014017974868226269 0.0016756918374437569 0 -0.014199951120571047 0.0014288046658391981 0 -0.014017974868226269 0.0016756918374437569 0 -0.014389206353675072 0.0018131938542687929 0 -0.014199951120571047 0.0014288046658391981 0 -0.014389206353675072 0.0018131938542687929 0 -0.014738480665428478 0.0016781859252549059 0 -0.014389206353675072 0.0018131938542687929 0 -0.014285450298906226 0.0022014342894147347 0 -0.014834202007024171 0.0016526009064641971 0 -0.014017974868226269 0.0016756918374437569 0 -0.014389206353675072 0.0018131938542687929 0 -0.014285450298906226 0.0022014342894147347 0 -0.014017974868226269 0.0016756918374437569 0 -0.013390801155779708 0.001756556695106539 0 -0.014285450298906226 0.0022014342894147347 0 -0.0086783287998054969 -0.0012112273174534314 0 -0.0081112089210865924 -0.0011458672682820774 0 -0.008322545988140936 -0.0021040719182514708 0 -0.01383409196126297 0.0012112663924202561 0 -0.014017974868226269 0.0016756918374437569 0 -0.013390801155779708 0.001756556695106539 0 -0.007657396707087186 -0.001297141105530958 0 -0.0081112089210865924 -0.0011458672682820774 0 -0.008322545988140936 -0.0021040719182514708 0 -0.010539942300777332 8.6975045599261007e-05 0 -0.014534087094133487 0.000147263806605916 0 -0.021902899697089539 0.0015856985289706132 0 -0.021751214238680074 0.0015305960482619645 0 -0.021927726696850919 0.0013510096025326672 0 -0.014534087094133487 0.000147263806605916 0 -0.019000727071585049 0.0021864420347867944 0 -0.021740558770683656 0.0012772045737957378 0 -0.021927726696850919 0.0013510096025326672 0 -0.021672839138677017 0.0013834974616892305 0 -0.021751214238680074 0.0015305960482619645 0 -0.021927726696850919 0.0013510096025326672 0 -0.021672839138677017 0.0013834974616892305 0 -0.016538080917081276 0.0019882990913840659 0 -0.011837594130839126 0.0034823207092335106 0 -0.013243857423677424 0.0019452735307321982 0 -0.013463952361109869 0.0024877472502565557 0 -0.012916559598623938 0.0028771163964509548 0 -0.013243857423677424 0.0019452735307321982 0 -0.013463952361109869 0.0024877472502565557 0 -0.013524467259136287 0.0025155159266520392 0 -0.016252030734224935 0.0024319841784640707 0 -0.016567906879533849 0.0025320634835237334 0 -0.016538080917081276 0.0019882990913840659 0 -0.016567906879533849 0.0025320634835237334 0 -0.021576962070277626 0.001302602462227584 0 -0.021416127038373957 0.0013000999971231793 0 -0.021524660545143542 0.001463505919764686 0 -0.021576962070277626 0.001302602462227584 0 -0.021524660545143542 0.001463505919764686 0 -0.021672839138677017 0.0013834974616892305 0 -0.021751214238680074 0.0015305960482619645 0 -0.021524660545143542 0.001463505919764686 0 -0.021672839138677017 0.0013834974616892305 0 -0.019000727071585049 0.0021864420347867944 0 -0.016567906879533849 0.0025320634835237334 0 -0.016567906879533849 0.0025320634835237334 0 -0.012819383151244429 0.0020402049827722216 0 -0.013522419323970037 0.0025143451350270194 0 -0.013318654444128547 0.0028558720549319958 0 -0.013879141103657023 0.0033665841655549089 0 -0.014285450298906226 0.0022014342894147347 0 -0.015320189674179346 0.0026726741603720731 0 -0.014834202007024171 0.0016526009064641971 0 -0.013318654444128547 0.0028558720549319958 0 -0.013249063813000997 0.003599860604460505 0 -0.012916559598623938 0.0028771163964509548 0 -0.013463952361109869 0.0024877472502565557 0 -0.013522419323970037 0.0025143451350270194 0 -0.013318654444128547 0.0028558720549319958 0 -0.013463952361109869 0.0024877472502565557 0 -0.013318654444128547 0.0028558720549319958 0 -0.012916559598623938 0.0028771163964509548 0 -0.013249063813000997 0.003599860604460505 0 -0.012916559598623938 0.0028771163964509548 0 -0.012593760516737534 0.0038297724220531619 0 -0.013318654444128547 0.0028558720549319958 0 -0.013249063813000997 0.003599860604460505 0 -0.013879141103657023 0.0033665841655549089 0 -0.011322531264851814 0.002639537908205934 0 -0.010345695165248537 0.0032960810429110503 0 -0.0095111465053257949 0.0016390360049554744 0 -0.0095548038196602639 0.0016291742271445553 0 -0.0095257671733871389 0.0016549992997665524 0 -0.011322531264851814 0.002639537908205934 0 -0.012819383151244429 0.0020402049827722216 0 -0.014667063814656458 0.0015884008339410265 0 -0.012819383151244429 0.0020402049827722216 0 -0.0095548038196602639 0.0016291742271445553 0 -0.0095257671733871389 0.0016549992997665524 0 -0.0095492797615924479 0.0016689696166665954 0 -0.0095257671733871389 0.0016549992997665524 0 -0.009521340036877695 0.0016731858474564338 0 -0.0095492797615924479 0.0016689696166665954 0 -0.012819383151244429 0.0020402049827722216 0 -0.010606395498610673 0.0009895596272284108 0 -0.0095257671733871389 0.0016549992997665524 0 -0.0095101609673606362 0.0016679557200442673 0 -0.009521340036877695 0.0016731858474564338 0 -0.0095111465053257949 0.0016390360049554744 0 -0.0094931165445214898 0.0016660076494213116 0 -0.0094687487493545098 0.0016544594979601595 0 -0.0095111465053257949 0.0016390360049554744 0 -0.0095257671733871389 0.0016549992997665524 0 -0.0094931165445214898 0.0016660076494213116 0 -0.0095257671733871389 0.0016549992997665524 0 -0.0095101609673606362 0.0016679557200442673 0 -0.0094931165445214898 0.0016660076494213116 0 -0.0094931165445214898 0.0016660076494213116 0 -0.0094981107246043025 0.0016816794933586605 0 -0.0094742842149170975 0.0016856089986686958 0 -0.0095101609673606362 0.0016679557200442673 0 -0.0094931165445214898 0.0016660076494213116 0 -0.0094981107246043025 0.0016816794933586605 0 -0.0094981107246043025 0.0016816794933586605 0 -0.0094822736774367485 0.0016937110645680986 0 -0.0094742842149170975 0.0016856089986686958 0 -0.0069805638365411527 0.0019789108875066341 0 -0.008077306028913378 0.0020234809892177405 0 -0.0048418002012422029 0.0018533745361558238 0 -0.004811198220269204 0.0023314497862301003 0 -0.0053561944761022825 0.00236051481530377 0 -0.0048418002012422029 0.0018533745361558238 0 -0.004811198220269204 0.0023314497862301003 0 -0.0041657813066870832 0.0021678250516956681 0 -0.0069805638365411527 0.0019789108875066341 0 -0.0072154582817171402 0.0011524009918230317 0 -0.0094822736774367485 0.0016937110645680986 0 -0.0095029108245774218 0.0016956639905367906 0 -0.0095049647569612414 0.0016842793758996648 0 -0.0067064962422597541 0.0017063690533398116 0 -0.0062962818417433581 0.0016306870688233726 0 -0.0064322396918492656 0.0014364226589165289 0 -0.0072154582817171402 0.0011524009918230317 0 -0.0053187805425854093 0.0015375124613104887 0 -0.005247972495883272 0.0010392716510404128 0 -0.0050726802760883939 0.00057426201853018419 0 -0.0046842621213578585 0.0011177967316396127 0 -0.0069805638365411527 0.0019789108875066341 0 -0.0053187805425854093 0.0015375124613104887 0 -0.0095029108245774218 0.0016956639905367906 0 -0.0095049647569612414 0.0016842793758996648 0 -0.009532711638727152 0.0016556842308014037 0 -0.0092312779337653233 0.001994472626073929 0 -0.010606395498610673 0.0009895596272284108 0 -0.0094981107246043025 0.0016816794933586605 0 -0.0094822736774367485 0.0016937110645680986 0 -0.0095049647569612414 0.0016842793758996648 0 -0.0094981107246043025 0.0016816794933586605 0 -0.0095049647569612414 0.0016842793758996648 0 -0.009521340036877695 0.0016731858474564338 0 -0.0095101609673606362 0.0016679557200442673 0 -0.0094981107246043025 0.0016816794933586605 0 -0.009521340036877695 0.0016731858474564338 0 -0.0095049647569612414 0.0016842793758996648 0 -0.009521340036877695 0.0016731858474564338 0 -0.0095492797615924479 0.0016689696166665954 0 -0.0071374615998866017 -0.00011513298748815907 0 -0.0078450956485353295 -0.00010442469104897275 0 -0.0076016184773368368 0.00096503229406617701 0 -0.0072154582817171402 0.0011524009918230317 0 -0.0080337623821039334 0.00040187250444285181 0 -0.010606395498610673 0.0009895596272284108 0 -0.0080337623821039334 0.00040187250444285181 0 -0.0076505616309328686 -0.00074687273637801053 0 -0.0080337623821039334 0.00040187250444285181 0 -0.0076981100334239574 -0.00087659578185912614 0 -0.0070588965553558154 -0.00050821183057616888 0 -0.0072172438197861911 -0.00015392875041774528 0 -0.0095049647569612414 0.0016842793758996648 0 -0.0095283361703728392 0.0016374254433445888 0 -0.009532711638727152 0.0016556842308014037 0 -0.0085096212655532306 0.00010923132378118041 0 -0.0078450956485353295 -0.00010442469104897275 0 -0.0076016184773368368 0.00096503229406617701 0 -0.0085096212655532306 0.00010923132378118041 0 -0.0082808340070228796 -0.00061533035947210679 0 -0.0078450956485353295 -0.00010442469104897275 0 -0.0076981100334239574 -0.00087659578185912614 0 -0.0071374615998866017 -0.00011513298748815907 0 -0.0078450956485353295 -0.00010442469104897275 0 -0.0082808340070228796 -0.00061533035947210679 0 -0.0076981100334239574 -0.00087659578185912614 0 -0.0078450956485353295 -0.00010442469104897275 0 -0.0088822362616062054 0.0012199868571257705 0 -0.0085096212655532306 0.00010923132378118041 0 -0.0076016184773368368 0.00096503229406617701 0 -0.008571509302749452 0.0012383391257103256 0 -0.0068246145975525028 0.000856157568423266 0 -0.0072946877561576194 0.0008117423789683225 0 -0.0073556450973865303 0.00072753767380643241 0 -0.0073947462455533483 0.00082832031938573965 0 -0.005247972495883272 0.0010392716510404128 0 -0.0050726802760883939 0.00057426201853018419 0 -0.0064192378153809211 0.00079199131666189281 0 -0.005247972495883272 0.0010392716510404128 0 -0.0064192378153809211 0.00079199131666189281 0 -0.005588454827171299 0.001360079638279586 0 -0.0080337623821039334 0.00040187250444285181 0 -0.0068246145975525028 0.000856157568423266 0 -0.0072154582817171402 0.0011524009918230317 0 -0.0068246145975525028 0.000856157568423266 0 -0.0064192378153809211 0.00079199131666189281 0 -0.0058240494860999801 0.0022852265436089933 0 -0.0062425350450445814 0.002303823077799607 0 -0.0064192378153809211 0.00079199131666189281 0 -0.005588454827171299 0.001360079638279586 0 -0.0058240494860999801 0.0022852265436089933 0 -0.005588454827171299 0.001360079638279586 0 -0.0058240494860999801 0.0022852265436089933 0 -0.0046842621213578585 0.0011177967316396127 0 -0.0056929873835091602 0.002208101348504553 0 -0.0058240494860999801 0.0022852265436089933 0 -0.0046430503439182629 0.0011197116433390697 0 -0.0064192378153809211 0.00079199131666189281 0 -0.0071768185238183036 0.0024540577589982613 0 -0.0062425350450445814 0.002303823077799607 0 -0.0068246145975525028 0.000856157568423266 0 -0.0071281004626587352 0.0025580274783473045 0 -0.0081227087144989073 0.0012112406194849873 0 -0.0064136861699821855 0.00091814255026537487 0 -0.0071811733523847497 0.0026534589095430199 0 -0.0071768185238183036 0.0024540577589982613 0 -0.0063023187552790853 0.0029801381145087274 0 -0.0065509283019171338 0.0038247429627866554 0 -0.0071768185238183036 0.0024540577589982613 0 -0.0062425350450445814 0.002303823077799607 0 -0.0063023187552790853 0.0029801381145087274 0 -0.0053855767937295643 0.0022993403988598032 0 -0.0056929873835091602 0.002208101348504553 0 -0.0050477825340076148 0.0022621017636497397 0 -0.0055852222964974342 0.0025155329250740343 0 -0.005851077215039047 0.0028227451157703388 0 -0.0055173465580220489 0.0028213038392675377 0 -0.0055852222964974342 0.0025155329250740343 0 -0.0056931135878772864 0.0023579707717672669 0 -0.0058466296201066959 0.0024848727953558176 0 -0.0055852222964974342 0.0025155329250740343 0 -0.0052194553363812402 0.0025836054530098242 0 -0.0055173465580220489 0.0028213038392675377 0 -0.0055852222964974342 0.0025155329250740343 0 -0.0052194553363812402 0.0025836054530098242 0 -0.0053855767937295643 0.0022993403988598032 0 -0.0052194553363812402 0.0025836054530098242 0 -0.0053855767937295643 0.0022993403988598032 0 -0.0050477825340076148 0.0022621017636497397 0 -0.0055852222964974342 0.0025155329250740343 0 -0.0053855767937295643 0.0022993403988598032 0 -0.0056931135878772864 0.0023579707717672669 0 -0.0053855767937295643 0.0022993403988598032 0 -0.0056931135878772864 0.0023579707717672669 0 -0.0056929873835091602 0.002208101348504553 0 -0.0056931135878772864 0.0023579707717672669 0 -0.0056929873835091602 0.002208101348504553 0 -0.0058240494860999801 0.0022852265436089933 0 -0.0058240494860999801 0.0022852265436089933 0 -0.0062425350450445814 0.002303823077799607 0 -0.0058466296201066959 0.0024848727953558176 0 -0.0062425350450445814 0.002303823077799607 0 -0.005851077215039047 0.0028227451157703388 0 -0.0063023187552790853 0.0029801381145087274 0 -0.0056931135878772864 0.0023579707717672669 0 -0.0058240494860999801 0.0022852265436089933 0 -0.0058466296201066959 0.0024848727953558176 0 -0.0055852222964974342 0.0025155329250740343 0 -0.0058466296201066959 0.0024848727953558176 0 -0.005851077215039047 0.0028227451157703388 0 -0.0062425350450445814 0.002303823077799607 0 -0.0058466296201066959 0.0024848727953558176 0 -0.005851077215039047 0.0028227451157703388 0 -0.005851077215039047 0.0028227451157703388 0 -0.0063023187552790853 0.0029801381145087274 0 -0.0057167280196938879 0.0032702019271298442 0 -0.0057167280196938879 0.0032702019271298442 0 -0.0055173465580220489 0.0028213038392675377 0 -0.0052066494211413933 0.0029935284833495345 0 -0.005851077215039047 0.0028227451157703388 0 -0.0057167280196938879 0.0032702019271298442 0 -0.0055173465580220489 0.0028213038392675377 0 -0.0052194553363812402 0.0025836054530098242 0 -0.0055173465580220489 0.0028213038392675377 0 -0.0052066494211413933 0.0029935284833495345 0 -0.0057167280196938879 0.0032702019271298442 0 -0.0052066494211413933 0.0029935284833495345 0 -0.0051332016801813275 0.0033572340716862578 0 -0.0052066494211413933 0.0029935284833495345 0 -0.0047725460467152063 0.0031428914285381109 0 -0.0051332016801813275 0.0033572340716862578 0 -0.0047725460467152063 0.0031428914285381109 0 -0.0049224731269974032 0.0028053206041756397 0 -0.0044857304884785947 0.0027162785632841345 0 -0.0052194553363812402 0.0025836054530098242 0 -0.0052066494211413933 0.0029935284833495345 0 -0.0049224731269974032 0.0028053206041756397 0 -0.0052066494211413933 0.0029935284833495345 0 -0.0047725460467152063 0.0031428914285381109 0 -0.0049224731269974032 0.0028053206041756397 0 -0.0052194553363812402 0.0025836054530098242 0 -0.0049224731269974032 0.0028053206041756397 0 -0.0048670591472548324 0.0025162128195685743 0 -0.0052194553363812402 0.0025836054530098242 0 -0.0048670591472548324 0.0025162128195685743 0 -0.0050477825340076148 0.0022621017636497397 0 -0.0049224731269974032 0.0028053206041756397 0 -0.0048670591472548324 0.0025162128195685743 0 -0.0044857304884785947 0.0027162785632841345 0 -0.0048670591472548324 0.0025162128195685743 0 -0.0044937796345333415 0.0022827960292183327 0 -0.0044857304884785947 0.0027162785632841345 0 -0.0048670591472548324 0.0025162128195685743 0 -0.0050477825340076148 0.0022621017636497397 0 -0.0044937796345333415 0.0022827960292183327 0 -0.0042082772970303654 0.0023376033707651852 0 -0.0039449451853532189 0.0026054752412168641 0 -0.0039057677573204547 0.0017387781748514463 0 -0.0042082772970303654 0.0023376033707651852 0 -0.0044937796345333415 0.0022827960292183327 0 -0.0039057677573204547 0.0017387781748514463 0 -0.0042082772970303654 0.0023376033707651852 0 -0.0044937796345333415 0.0022827960292183327 0 -0.0044857304884785947 0.0027162785632841345 0 -0.0042082772970303654 0.0023376033707651852 0 -0.0044857304884785947 0.0027162785632841345 0 -0.0039449451853532189 0.0026054752412168641 0 -0.0044857304884785947 0.0027162785632841345 0 -0.0039449451853532189 0.0026054752412168641 0 -0.0042161126256607673 0.0033239469163139366 0 -0.0047725460467152063 0.0031428914285381109 0 -0.0044857304884785947 0.0027162785632841345 0 -0.0042161126256607673 0.0033239469163139366 0 -0.0029493306878164097 0.0030609870723997045 0 -0.0039449451853532189 0.0026054752412168641 0 -0.0039057677573204547 0.0017387781748514463 0 0.00062242165291894781 0.0028504507113821585 0 -0.0038431175570194788 0.0018205516997202721 0 -0.0029493306878164097 0.0030609870723997045 0 -0.0039449451853532189 0.0026054752412168641 0 -0.0042161126256607673 0.0033239469163139366 0 -0.001397419925929132 0.0033473726243597457 0 -0.0024107663673698294 0.0019472021713599524 0 -0.0014537954034099787 0.0017266770897456504 0 -0.0040555592000606671 0.0022165460344188109 0 -0.0032355204988498477 0.0020270406145614294 0 -0.0043892009246183777 0.0017495350858199163 0 -0.0038431175570194788 0.0018205516997202721 0 -0.0030876017903238386 0.0022042234325425725 0 -0.004811198220269204 0.0023314497862301003 0 -0.0044631360105426808 0.0027308983975360777 0 -0.0052245586223605119 0.0025444558837721216 0 -0.0030876017903238386 0.0022042234325425725 0 -0.0047210639930338576 0.0017551166782972792 0 -0.004811198220269204 0.0023314497862301003 0 -0.0044631360105426808 0.0027308983975360777 0 -0.0041657813066870832 0.0021678250516956681 0 -0.0056929873835091602 0.002208101348504553 0 -0.0046430503439182629 0.0011197116433390697 0 -0.0046217567367284476 0.0013494941901812702 0 -0.004811198220269204 0.0023314497862301003 0 -0.0052245586223605119 0.0025444558837721216 0 -0.0053561944761022825 0.00236051481530377 0 -0.0055134112735481687 0.0020187814220153249 0 -0.0053187805425854093 0.0015375124613104887 0 -0.0056929873835091602 0.002208101348504553 0 -0.0050477825340076148 0.0022621017636497397 0 -0.0039057677573204547 0.0017387781748514463 0 -0.0056929873835091602 0.002208101348504553 0 -0.0041286628970207294 0.0018413655092818114 0 -0.0046217567367284476 0.0013494941901812702 0 -0.0056509185383384489 0.0021797406988761925 0 -0.0038431175570194788 0.0018205516997202721 0 -0.0041286628970207294 0.0018413655092818114 0 -0.0044505646622476176 0.0013906679992593391 0 -0.0046217567367284476 0.0013494941901812702 0 -0.0038431175570194788 0.0018205516997202721 0 -0.0047210639930338576 0.0017551166782972792 0 -0.0047210639930338576 0.0017551166782972792 0 -0.0047014459137856126 0.0017324592447528818 0 -0.0047210639930338576 0.0017551166782972792 0 -0.0053187805425854093 0.0015375124613104887 0 -0.0044516694674701122 0.0013913386315679212 0 -0.0046430503439182629 0.0011197116433390697 0 -0.0046217567367284476 0.0013494941901812702 0 -0.005247972495883272 0.0010392716510404128 0 -0.005588454827171299 0.001360079638279586 0 -0.0046842621213578585 0.0011177967316396127 0 -0.0050477825340076148 0.0022621017636497397 0 -0.0044937796345333415 0.0022827960292183327 0 -0.0039057677573204547 0.0017387781748514463 0 0.0043835408592043769 0.0012556990476112523 0 0.0038250423890950156 0.0018090021412027766 0 0.0046132952448663805 0.0018774375747828637 0 0.0043835408592043769 0.0012556990476112523 0 0.0052129801507965366 0.00056083661337711223 0 0.0046132952448663805 0.0018774375747828637 0 0.0043835408592043769 0.0012556990476112523 0 0.0052129801507965366 0.00056083661337711223 0 0.0045254148836974912 0.00030783158276689583 0 0.0044285082800868394 0.0013047691213698134 0 0.0030548319661230128 -0.00014266835420917849 0 0.0043835408592043769 0.0012556990476112523 0 0.0036179023118825294 0.0012699944387857536 0 0.0035289197507865624 0.00050270046645557785 0 0.0036179023118825294 0.0012699944387857536 0 0.0035289197507865624 0.00050270046645557785 0 0.0028968134610140592 0.0012152757665557586 0 0.0036179023118825294 0.0012699944387857536 0 0.0033008372202881137 0.0017463882698043501 0 0.0028968134610140592 0.0012152757665557586 0 0.0036179023118825294 0.0012699944387857536 0 0.0038250423890950156 0.0018090021412027766 0 0.0033008372202881137 0.0017463882698043501 0 0.0043835408592043769 0.0012556990476112523 0 0.0036179023118825294 0.0012699944387857536 0 0.0038250423890950156 0.0018090021412027766 0 -0.0029493306878164097 0.0030609870723997045 0 -0.0042161126256607673 0.0033239469163139366 0 -0.0046711180779561885 0.0044058128381355153 0 0.00062242165291894781 0.0028504507113821585 0 -0.00010335744288449032 0.0031613093839116448 0 0.0032720023215918452 0.0028158946970813135 0 0.0038250423890950156 0.0018090021412027766 0 0.0033008372202881137 0.0017463882698043501 0 0.0032720023215918452 0.0028158946970813135 0 0.0038250423890950156 0.0018090021412027766 0 0.0046132952448663805 0.0018774375747828637 0 -0.0046711180779561885 0.0044058128381355153 0 -0.0048032295187066384 0.0036012956940932451 0 -0.0052559213638896729 0.0037517559540351446 0 -0.0042161126256607673 0.0033239469163139366 0 -0.0046711180779561885 0.0044058128381355153 0 -0.0048032295187066384 0.0036012956940932451 0 -0.0047725460467152063 0.0031428914285381109 0 -0.0042161126256607673 0.0033239469163139366 0 -0.0048032295187066384 0.0036012956940932451 0 -0.0047725460467152063 0.0031428914285381109 0 -0.0048032295187066384 0.0036012956940932451 0 -0.0051332016801813275 0.0033572340716862578 0 -0.0048032295187066384 0.0036012956940932451 0 -0.0051332016801813275 0.0033572340716862578 0 -0.0052559213638896729 0.0037517559540351446 0 -0.0057167280196938879 0.0032702019271298442 0 -0.0052559213638896729 0.0037517559540351446 0 -0.0056418930734466284 0.0041073826659452283 0 -0.0046711180779561885 0.0044058128381355153 0 -0.0056418930734466284 0.0041073826659452283 0 -0.0060832378735328711 0.004623088899437129 0 -0.0057167280196938879 0.0032702019271298442 0 -0.0051332016801813275 0.0033572340716862578 0 -0.0052559213638896729 0.0037517559540351446 0 -0.0063023187552790853 0.0029801381145087274 0 -0.0057167280196938879 0.0032702019271298442 0 -0.0065509283019171338 0.0038247429627866554 0 -0.0057167280196938879 0.0032702019271298442 0 -0.0056418930734466284 0.0041073826659452283 0 -0.0065509283019171338 0.0038247429627866554 0 -0.0056418930734466284 0.0041073826659452283 0 -0.0065509283019171338 0.0038247429627866554 0 -0.0060832378735328711 0.004623088899437129 0 -0.0046711180779561885 0.0044058128381355153 0 -0.0052559213638896729 0.0037517559540351446 0 -0.0056418930734466284 0.0041073826659452283 0 -0.0071768185238183036 0.0024540577589982613 0 -0.0065509283019171338 0.0038247429627866554 0 -0.0079003545152542994 0.004268983926985815 0 -0.0065509283019171338 0.0038247429627866554 0 -0.0070054645180340491 0.0047615036805645616 0 -0.0079003545152542994 0.004268983926985815 0 -0.0065509283019171338 0.0038247429627866554 0 -0.0070054645180340491 0.0047615036805645616 0 -0.0060832378735328711 0.004623088899437129 0 -0.0070054645180340491 0.0047615036805645616 0 -0.0063923039113240121 0.0056168048222635112 0 -0.0077521256849985547 0.0055138977175741366 0 -0.0070054645180340491 0.0047615036805645616 0 -0.0060832378735328711 0.004623088899437129 0 -0.0063923039113240121 0.0056168048222635112 0 0.0052129801507965366 0.00056083661337711223 0 0.0046132952448663805 0.0018774375747828637 0 0.0066795735350689851 0.00030941275070337773 0 -0.00010335744288449032 0.0031613093839116448 0 0.00015258762950844587 0.0029286286397965599 0 -0.0046711180779561885 0.0044058128381355153 0 -0.0060832378735328711 0.004623088899437129 0 -0.0063923039113240121 0.0056168048222635112 0 0.0052129801507965366 0.00056083661337711223 0 0.0057862707177945196 -0.00024266329313135581 0 0.0050561141175063402 -0.00042035871843026321 0 0.0052129801507965366 0.00056083661337711223 0 0.0057862707177945196 -0.00024266329313135581 0 0.0066795735350689851 0.00030941275070337773 0 0.0057862707177945196 -0.00024266329313135581 0 0.0066795735350689851 0.00030941275070337773 0 0.0063089297204119718 -0.00081981002754473833 0 0.0057862707177945196 -0.00024266329313135581 0 0.005497717552526705 -0.001143164118191754 0 0.0050561141175063402 -0.00042035871843026321 0 0.0057862707177945196 -0.00024266329313135581 0 0.0063089297204119718 -0.00081981002754473833 0 0.005497717552526705 -0.001143164118191754 0 0.00015258762950844587 0.0029286286397965599 0 3.6121668579628321e-05 0.0024391505287922458 0 0.0066795735350689851 0.00030941275070337773 0 0.0074099415270082302 -0.00073553840736274585 0 0.0083088661256844124 -0.0014773495873448349 0 -0.0063923039113240121 0.0056168048222635112 0 -0.0081779445527163444 0.0064250830802684627 0 -0.0077521256849985547 0.0055138977175741366 0 0.0066795735350689851 0.00030941275070337773 0 0.0063089297204119718 -0.00081981002754473833 0 0.0074099415270082302 -0.00073553840736274585 0 0.0074099415270082302 -0.00073553840736274585 0 0.0076828865048595282 -0.0013497222729743695 0 0.0067958234465724451 -0.0017599177200917342 0 0.0076828865048595282 -0.0013497222729743695 0 0.007534885448839867 -0.001759217458892519 0 0.0067958234465724451 -0.0017599177200917342 0 0.0074099415270082302 -0.00073553840736274585 0 0.0076828865048595282 -0.0013497222729743695 0 0.0083088661256844124 -0.0014773495873448349 0 0.0063089297204119718 -0.00081981002754473833 0 0.0074099415270082302 -0.00073553840736274585 0 0.0061958211629799349 -0.0019140334110306374 0 0.0073605095893873743 -0.00086936002907175955 0 0.0063753818834373721 -0.0015713270121120117 0 0.007534885448839867 -0.001759217458892519 0 0.0069835035146546594 -0.0017327653998610239 0 0.0073640501620036618 -0.0019854940377915494 0 0.0074950620726208375 -0.0017226125105653921 0 0.0063753818834373721 -0.0015713270121120117 0 0.007534885448839867 -0.001759217458892519 0 0.0080256533304715136 -0.0018310431664518773 0 0.008017295358410937 -0.002148312727664694 0 0.0076828865048595282 -0.0013497222729743695 0 0.007534885448839867 -0.001759217458892519 0 0.0080256533304715136 -0.0018310431664518773 0 0.0063089297204119718 -0.00081981002754473833 0 0.005497717552526705 -0.001143164118191754 0 0.0061958211629799349 -0.0019140334110306374 0 0.005497717552526705 -0.001143164118191754 0 0.0040819720212105478 -0.0018009589848915987 0 0.0050561141175063402 -0.00042035871843026321 0 0.0063753818834373721 -0.0015713270121120117 0 0.0053746855620840422 -0.0016097624737252412 0 0.005497717552526705 -0.001143164118191754 0 0.0061958211629799349 -0.0019140334110306374 0 0.0040819720212105478 -0.0018009589848915987 0 0.0040819720212105478 -0.0018009589848915987 0 0.0050561141175063402 -0.00042035871843026321 0 0.0032037786597739447 -0.00028008989292461318 0 0.0043835408592043769 0.0012556990476112523 0 0.0045254148836974912 0.00030783158276689583 0 0.0032037786597739447 -0.00028008989292461318 0 0.0050561141175063402 -0.00042035871843026321 0 0.0045254148836974912 0.00030783158276689583 0 0.0032037786597739447 -0.00028008989292461318 0 0.0052129801507965366 0.00056083661337711223 0 0.0050561141175063402 -0.00042035871843026321 0 0.0045254148836974912 0.00030783158276689583 0 0.0030548319661230128 -0.00014266835420917849 0 0.004549755281666846 -9.8271102672981236e-05 0 0.0053746855620840422 -0.0016097624737252412 0 0.004549755281666846 -9.8271102672981236e-05 0 0.0040819720212105478 -0.0018009589848915987 0 0.0032037786597739447 -0.00028008989292461318 0 0.0020480215588359373 -0.0016838907062010019 0 0.0066923397912593656 -0.0011614524297281191 0 0.0070369117644191771 -0.00054397649175702914 0 0.0073326784049041333 -0.0011814315941165274 0 0.0079291533377882067 -0.0020191897661280375 0 0.0085463867808303097 -0.001357979947192087 0 0.0060674307096399687 -0.0011433232449950313 0 0.0066923397912593656 -0.0011614524297281191 0 0.0064938735574681643 -0.00069779403300364448 0 0.0066923397912593656 -0.0011614524297281191 0 0.0064938735574681643 -0.00069779403300364448 0 0.0070369117644191771 -0.00054397649175702914 0 0.0092374320235153375 -0.0023926811648187973 0 0.0093449728207785215 -0.0020926728912864139 0 0.0090355321798280264 -0.0021655364583751413 0 0.0079291533377882067 -0.0020191897661280375 0 0.010023584219588291 -0.002007191589756447 0 0.0092374320235153375 -0.0023926811648187973 0 0.0093449728207785215 -0.0020926728912864139 0 0.0097405065787350975 -0.0021046057014328574 0 0.0093449728207785215 -0.0020926728912864139 0 0.0097405065787350975 -0.0021046057014328574 0 0.0094975379578339288 -0.0018566253980630944 0 0.0093449728207785215 -0.0020926728912864139 0 0.0091738916353558131 -0.001956832467520161 0 0.0090355321798280264 -0.0021655364583751413 0 0.009544085067130708 -0.0023789718458756218 0 0.010047373831801761 -0.0022507954615248117 0 0.0099294317894137469 -0.0020275036863181611 0 0.010047373831801761 -0.0022507954615248117 0 0.0099294317894137469 -0.0020275036863181611 0 0.010216682844498457 -0.0020240029597130759 0 0.0097405065787350975 -0.0021046057014328574 0 0.0098137456063971656 -0.0017737986073278124 0 0.01027066491352205 -0.0017781046677753085 0 0.0099294317894137469 -0.0020275036863181611 0 0.010216682844498457 -0.0020240029597130759 0 0.01027066491352205 -0.0017781046677753085 0 0.010023584219588291 -0.002007191589756447 0 0.010173204551218291 -0.0018210457113215564 0 0.0097405065787350975 -0.0021046057014328574 0 0.0098137456063971656 -0.0017737986073278124 0 0.0094975379578339288 -0.0018566253980630944 0 0.0093449728207785215 -0.0020926728912864139 0 0.0094975379578339288 -0.0018566253980630944 0 0.0091738916353558131 -0.001956832467520161 0 0.0094975379578339288 -0.0018566253980630944 0 0.0091738916353558131 -0.001956832467520161 0 0.0092067774148794999 -0.0017358966952800954 0 0.0092067774148794999 -0.0017358966952800954 0 0.0094696581856221988 -0.0016723814638513832 0 0.0092032475149363586 -0.0015557987466917769 0 0.0094975379578339288 -0.0018566253980630944 0 0.0092067774148794999 -0.0017358966952800954 0 0.0094696581856221988 -0.0016723814638513832 0 0.0098137456063971656 -0.0017737986073278124 0 0.0094975379578339288 -0.0018566253980630944 0 0.0094696581856221988 -0.0016723814638513832 0 0.0094696581856221988 -0.0016723814638513832 0 0.0094191700463919972 -0.0014849771120869148 0 0.0097034247022172032 -0.0015850400738596122 0 0.0094696581856221988 -0.0016723814638513832 0 0.0092032475149363586 -0.0015557987466917769 0 0.0094191700463919972 -0.0014849771120869148 0 0.0092032475149363586 -0.0015557987466917769 0 0.0094191700463919972 -0.0014849771120869148 0 0.0091721240448037877 -0.0014049172556127492 0 0.0094191700463919972 -0.0014849771120869148 0 0.0093414215522842452 -0.0013245855758449612 0 0.0091721240448037877 -0.0014049172556127492 0 0.0094191700463919972 -0.0014849771120869148 0 0.0093414215522842452 -0.0013245855758449612 0 0.0096553078804290544 -0.0013976104824158749 0 0.0094191700463919972 -0.0014849771120869148 0 0.0096553078804290544 -0.0013976104824158749 0 0.0097034247022172032 -0.0015850400738596122 0 0.0096553078804290544 -0.0013976104824158749 0 0.010028543510043394 -0.0015410320742265398 0 0.0097034247022172032 -0.0015850400738596122 0 0.0096553078804290544 -0.0013976104824158749 0 0.010028543510043394 -0.0015410320742265398 0 0.010065402605291396 -0.0013063646154379219 0 0.0098137456063971656 -0.0017737986073278124 0 0.010028543510043394 -0.0015410320742265398 0 0.01027066491352205 -0.0017781046677753085 0 0.0098137456063971656 -0.0017737986073278124 0 0.010028543510043394 -0.0015410320742265398 0 0.0097034247022172032 -0.0015850400738596122 0 0.0098137456063971656 -0.0017737986073278124 0 0.0094696581856221988 -0.0016723814638513832 0 0.0097034247022172032 -0.0015850400738596122 0 0.011943044055408556 -0.0020241501708788971 0 0.012493735671001484 -0.0027942853619850831 0 0.015799494710031628 -0.0028636341813724729 0 0.012493735671001484 -0.0027942853619850831 0 0.015226458945966543 -0.0028621676267193853 0 0.015512861580023463 -0.0028020726996603696 0 0.014130139478633844 -0.0033736134604046828 0 0.015716835357911074 -0.0029405684871978434 0 0.01490922840777047 -0.0036815916835978269 0 0.015179321446236826 -0.0029102590620538947 0 0.0086323088594772342 -0.0015034399028488611 0 0.008898362755687084 -0.0012534499390241453 0 0.0083073525480445044 -0.0014853726571192295 0 0.0086323088594772342 -0.0015034399028488611 0 0.008852257267436197 -0.0014908209958654959 0 0.0087559677047730784 -0.0016370266164806989 0 0.0086323088594772342 -0.0015034399028488611 0 0.0085026292505911514 -0.0016886858862332689 0 0.0083073525480445044 -0.0014853726571192295 0 0.008898362755687084 -0.0012534499390241453 0 0.00900793540430651 -0.0014478680597259531 0 0.008852257267436197 -0.0014908209958654959 0 0.0086323088594772342 -0.0015034399028488611 0 0.008898362755687084 -0.0012534499390241453 0 0.008852257267436197 -0.0014908209958654959 0 0.0093414215522842452 -0.0013245855758449612 0 0.008898362755687084 -0.0012534499390241453 0 0.0091721240448037877 -0.0014049172556127492 0 0.008898362755687084 -0.0012534499390241453 0 0.00900793540430651 -0.0014478680597259531 0 0.0091721240448037877 -0.0014049172556127492 0 0.0092067774148794999 -0.0017358966952800954 0 0.0092032475149363586 -0.0015557987466917769 0 0.0089766916043977508 -0.0015954676609371951 0 0.0092032475149363586 -0.0015557987466917769 0 0.00900793540430651 -0.0014478680597259531 0 0.0091721240448037877 -0.0014049172556127492 0 0.0092032475149363586 -0.0015557987466917769 0 0.00900793540430651 -0.0014478680597259531 0 0.0089766916043977508 -0.0015954676609371951 0 0.0089766916043977508 -0.0015954676609371951 0 0.008852257267436197 -0.0014908209958654959 0 0.0087559677047730784 -0.0016370266164806989 0 0.00900793540430651 -0.0014478680597259531 0 0.0089766916043977508 -0.0015954676609371951 0 0.008852257267436197 -0.0014908209958654959 0 0.0087559677047730784 -0.0016370266164806989 0 0.0089173724371880304 -0.0017935863345981647 0 0.0086966245841364632 -0.0018114441434374097 0 0.0089766916043977508 -0.0015954676609371951 0 0.0087559677047730784 -0.0016370266164806989 0 0.0089173724371880304 -0.0017935863345981647 0 0.0092067774148794999 -0.0017358966952800954 0 0.0089766916043977508 -0.0015954676609371951 0 0.0089173724371880304 -0.0017935863345981647 0 0.0091738916353558131 -0.001956832467520161 0 0.0089173724371880304 -0.0017935863345981647 0 0.0087196910096867444 -0.0020132125254187878 0 0.0091738916353558131 -0.001956832467520161 0 0.0092067774148794999 -0.0017358966952800954 0 0.0089173724371880304 -0.0017935863345981647 0 0.0089173724371880304 -0.0017935863345981647 0 0.0086966245841364632 -0.0018114441434374097 0 0.0087196910096867444 -0.0020132125254187878 0 0.0086966245841364632 -0.0018114441434374097 0 0.0085026292505911514 -0.0016886858862332689 0 0.0084920052773738534 -0.0018865287246371488 0 0.0087559677047730784 -0.0016370266164806989 0 0.0086966245841364632 -0.0018114441434374097 0 0.0085026292505911514 -0.0016886858862332689 0 0.0086323088594772342 -0.0015034399028488611 0 0.0087559677047730784 -0.0016370266164806989 0 0.0085026292505911514 -0.0016886858862332689 0 0.0085026292505911514 -0.0016886858862332689 0 0.0083720140920549753 -0.0018010063773804138 0 0.0082812257481677115 -0.0016758895804871218 0 0.0085026292505911514 -0.0016886858862332689 0 0.0083720140920549753 -0.0018010063773804138 0 0.0084920052773738534 -0.0018865287246371488 0 0.0084920052773738534 -0.0018865287246371488 0 0.0083946821457927829 -0.0020301163179965134 0 0.0082995674840134013 -0.0019318680977411325 0 0.0083720140920549753 -0.0018010063773804138 0 0.0084920052773738534 -0.0018865287246371488 0 0.0082995674840134013 -0.0019318680977411325 0 0.0084920052773738534 -0.0018865287246371488 0 0.0083946821457927829 -0.0020301163179965134 0 0.0087196910096867444 -0.0020132125254187878 0 0.0086966245841364632 -0.0018114441434374097 0 0.0084920052773738534 -0.0018865287246371488 0 0.0087196910096867444 -0.0020132125254187878 0 0.0083946821457927829 -0.0020301163179965134 0 0.0087196910096867444 -0.0020132125254187878 0 0.0083595410139516418 -0.002158549357316126 0 0.0083946821457927829 -0.0020301163179965134 0 0.0083595410139516418 -0.002158549357316126 0 0.0081857525222706097 -0.0020609924930768313 0 0.0083946821457927829 -0.0020301163179965134 0 0.0081857525222706097 -0.0020609924930768313 0 0.0082995674840134013 -0.0019318680977411325 0 0.0087196910096867444 -0.0020132125254187878 0 0.0090355321798280264 -0.0021655364583751413 0 0.0087075013654479474 -0.0023768075106528077 0 0.0091738916353558131 -0.001956832467520161 0 0.0087196910096867444 -0.0020132125254187878 0 0.0090355321798280264 -0.0021655364583751413 0 0.0063753818834373721 -0.0015713270121120117 0 0.0079291533377882067 -0.0020191897661280375 0 0.0079291533377882067 -0.0020191897661280375 0 0.0078101607499471365 -0.0023689763773149259 0 0.0087196910096867444 -0.0020132125254187878 0 0.0087075013654479474 -0.0023768075106528077 0 0.0083595410139516418 -0.002158549357316126 0 0.0092374320235153375 -0.0023926811648187973 0 0.0090355321798280264 -0.0021655364583751413 0 0.0087075013654479474 -0.0023768075106528077 0 0.0069835035146546594 -0.0017327653998610239 0 0.0061609893225216565 -0.0025903916535872026 0 0.0069801793820543695 -0.0023808203794402978 0 0.0069835035146546594 -0.0017327653998610239 0 0.0069801793820543695 -0.0023808203794402978 0 0.0073640501620036618 -0.0019854940377915494 0 0.0069801793820543695 -0.0023808203794402978 0 0.0073640501620036618 -0.0019854940377915494 0 0.008017295358410937 -0.002148312727664694 0 0.0078101607499471365 -0.0023689763773149259 0 0.0080574502417541487 -0.0022000047208543152 0 0.0087075013654479474 -0.0023768075106528077 0 0.0083595410139516418 -0.002158549357316126 0 0.008017295358410937 -0.002148312727664694 0 0.0083595410139516418 -0.002158549357316126 0 0.008017295358410937 -0.002148312727664694 0 0.0081857525222706097 -0.0020609924930768313 0 0.007534885448839867 -0.001759217458892519 0 0.0073640501620036618 -0.0019854940377915494 0 0.008017295358410937 -0.002148312727664694 0 0.0080256533304715136 -0.0018310431664518773 0 0.0081372986828642767 -0.0020512918775826873 0 0.0081985861742646313 -0.0018741577696251449 0 0.0080256533304715136 -0.0018310431664518773 0 0.008017295358410937 -0.002148312727664694 0 0.0081372986828642767 -0.0020512918775826873 0 0.0081372986828642767 -0.0020512918775826873 0 0.0081985861742646313 -0.0018741577696251449 0 0.0081772752976771012 -0.0019956450600569463 0 0.0081772752976771012 -0.0019956450600569463 0 0.0081290340775466916 -0.0019939541631878283 0 0.0081674763191920928 -0.0019827185353381337 0 0.0081772752976771012 -0.0019956450600569463 0 0.0081857525222706097 -0.0020609924930768313 0 0.0081674763191920928 -0.0019827185353381337 0 0.008017295358410937 -0.002148312727664694 0 0.0081372986828642767 -0.0020512918775826873 0 0.0081857525222706097 -0.0020609924930768313 0 0.0081372986828642767 -0.0020512918775826873 0 0.0081772752976771012 -0.0019956450600569463 0 0.0081857525222706097 -0.0020609924930768313 0 0.0081772752976771012 -0.0019956450600569463 0 0.0081010755272569544 -0.0020910296314010763 0 0.0081290340775466916 -0.0019939541631878283 0 0.0081985861742646313 -0.0018741577696251449 0 0.0081772752976771012 -0.0019956450600569463 0 0.0081010755272569544 -0.0020910296314010763 0 0.0081010755272569544 -0.0020910296314010763 0 0.0081290340775466916 -0.0019939541631878283 0 0.0079061409908265535 -0.0018324002105286523 0 0.0080988813684526074 -0.0019123430368116739 0 0.007989448601948921 -0.0018288631892391506 0 0.0079061409908265535 -0.0018324002105286523 0 0.0081290340775466916 -0.0019939541631878283 0 0.0080988813684526074 -0.0019123430368116739 0 0.0079061409908265535 -0.0018324002105286523 0 0.0081290340775466916 -0.0019939541631878283 0 0.0080988813684526074 -0.0019123430368116739 0 0.0081674763191920928 -0.0019827185353381337 0 0.0080988813684526074 -0.0019123430368116739 0 0.0081252233351438632 -0.0018308536384795361 0 0.0081879447191417626 -0.0019265818307290282 0 0.0080988813684526074 -0.0019123430368116739 0 0.0081252233351438632 -0.0018308536384795361 0 0.0080414557513902689 -0.0017935053004813114 0 0.0080988813684526074 -0.0019123430368116739 0 0.007989448601948921 -0.0018288631892391506 0 0.0080414557513902689 -0.0017935053004813114 0 0.007989448601948921 -0.0018288631892391506 0 0.0080414557513902689 -0.0017935053004813114 0 0.0079382202527541381 -0.0017922966232906045 0 0.0081857525222706097 -0.0020609924930768313 0 0.0081879447191417626 -0.0019265818307290282 0 0.0082995674840134013 -0.0019318680977411325 0 0.0080988813684526074 -0.0019123430368116739 0 0.0081674763191920928 -0.0019827185353381337 0 0.0081879447191417626 -0.0019265818307290282 0 0.0081857525222706097 -0.0020609924930768313 0 0.0081674763191920928 -0.0019827185353381337 0 0.0081879447191417626 -0.0019265818307290282 0 0.0081252233351438632 -0.0018308536384795361 0 0.0081879447191417626 -0.0019265818307290282 0 0.0082367470807465943 -0.001826712118396158 0 0.0083720140920549753 -0.0018010063773804138 0 0.0082995674840134013 -0.0019318680977411325 0 0.0082367470807465943 -0.001826712118396158 0 0.0081879447191417626 -0.0019265818307290282 0 0.0082995674840134013 -0.0019318680977411325 0 0.0082367470807465943 -0.001826712118396158 0 0.0083720140920549753 -0.0018010063773804138 0 0.0082367470807465943 -0.001826712118396158 0 0.0082812257481677115 -0.0016758895804871218 0 0.0085026292505911514 -0.0016886858862332689 0 0.0082812257481677115 -0.0016758895804871218 0 0.0083073525480445044 -0.0014853726571192295 0 0.0082812257481677115 -0.0016758895804871218 0 0.008153632519694998 -0.0017398494183987164 0 0.0080675053810565969 -0.001625172563224149 0 0.0082367470807465943 -0.001826712118396158 0 0.0082812257481677115 -0.0016758895804871218 0 0.008153632519694998 -0.0017398494183987164 0 0.0081252233351438632 -0.0018308536384795361 0 0.0082367470807465943 -0.001826712118396158 0 0.008153632519694998 -0.0017398494183987164 0 0.00797521355222661 -0.0017078489577738506 0 0.0080474672943942512 -0.001690176314307374 0 0.007937769501860082 -0.0017300740325080642 0 0.0081252233351438632 -0.0018308536384795361 0 0.008153632519694998 -0.0017398494183987164 0 0.0080448083511634339 -0.0017318893348421973 0 0.0099627333578443493 -0.0026100668575051184 0 0.007551620902999886 -0.0018945039692113419 0 0.0080448083511634339 -0.0017318893348421973 0 0.0080675053810565969 -0.001625172563224149 0 0.007937769501860082 -0.0017300740325080642 0 0.0081252233351438632 -0.0018308536384795361 0 0.0080414557513902689 -0.0017935053004813114 0 0.0080448083511634339 -0.0017318893348421973 0 0.0080414557513902689 -0.0017935053004813114 0 0.007972256401726982 -0.0017600401926150633 0 0.0079382202527541381 -0.0017922966232906045 0 0.0080448083511634339 -0.0017318893348421973 0 0.007937769501860082 -0.0017300740325080642 0 0.007972256401726982 -0.0017600401926150633 0 0.0080414557513902689 -0.0017935053004813114 0 0.0080448083511634339 -0.0017318893348421973 0 0.007972256401726982 -0.0017600401926150633 0 0.011278676179503585 -0.003313780561754865 0 0.0099627333578443493 -0.0026100668575051184 0 0.008153632519694998 -0.0017398494183987164 0 0.0080448083511634339 -0.0017318893348421973 0 0.0080675053810565969 -0.001625172563224149 0 0.014066039752962129 -0.0037356505902911468 0 0.013229802815968347 -0.0041965108822292971 0 0.013778222764118725 -0.0030548203524719971 0 0.013610052186653348 -0.0046904507744684491 0 0.014066039752962129 -0.0037356505902911468 0 0.013229802815968347 -0.0041965108822292971 0 0.014120307711391205 -0.0042889474848215852 0 0.014066039752962129 -0.0037356505902911468 0 0.01490922840777047 -0.0036815916835978269 0 0.013610052186653348 -0.0046904507744684491 0 0.014120307711391205 -0.0042889474848215852 0 0.014066039752962129 -0.0037356505902911468 0 0.014066039752962129 -0.0037356505902911468 0 0.01490922840777047 -0.0036815916835978269 0 0.014607226725464535 -0.0029720765261885673 0 0.0099627333578443493 -0.0026100668575051184 0 0.012493735671001484 -0.0027942853619850831 0 0.0082812257481677115 -0.0016758895804871218 0 0.0080675053810565969 -0.001625172563224149 0 0.0083073525480445044 -0.0014853726571192295 0 0.01490922840777047 -0.0036815916835978269 0 0.014607226725464535 -0.0029720765261885673 0 0.015179321446236826 -0.0029102590620538947 0 0.012703076887649531 -0.0054781760457166288 0 0.013909907602455146 -0.0051159943413247675 0 0.012312284993834528 -0.0048471566947214393 0 0.012708244767821725 -0.0035623392275102141 0 0.012734579416296537 -0.0048962444868306089 0 0.012244559761403737 -0.0059109999943452556 0 0.012703076887649531 -0.0054781760457166288 0 0.013909907602455146 -0.0051159943413247675 0 0.012244559761403737 -0.0059109999943452556 0 0.013332281440002966 -0.0043101022397562475 0 0.012349976458109525 -0.0057634553572093504 0 0.012708244767821725 -0.0035623392275102141 0 0.013229802815968347 -0.0041965108822292971 0 0.013778222764118725 -0.0030548203524719971 0 0.012708244767821725 -0.0035623392275102141 0 0.013229802815968347 -0.0041965108822292971 0 0.012734579416296537 -0.0048962444868306089 0 0.013229802815968347 -0.0041965108822292971 0 0.012967450046465974 -0.0049341333740512607 0 0.012734579416296537 -0.0048962444868306089 0 0.013610052186653348 -0.0046904507744684491 0 0.012967450046465974 -0.0049341333740512607 0 0.012305928551982608 -0.0059358687451241607 0 0.00797521355222661 -0.0017078489577738506 0 0.007937769501860082 -0.0017300740325080642 0 0.0078298523591179957 -0.0017736561900749098 0 0.007937769501860082 -0.0017300740325080642 0 0.0078889237849823889 -0.0017792104572454379 0 0.0078298523591179957 -0.0017736561900749098 0 0.011278676179503585 -0.003313780561754865 0 0.0078704255180164912 -0.0020166542064408125 0 0.013610052186653348 -0.0046904507744684491 0 0.013229802815968347 -0.0041965108822292971 0 0.012967450046465974 -0.0049341333740512607 0 0.0079275236886860011 -0.001766438699129228 0 0.0078889237849823889 -0.0017792104572454379 0 0.0079382202527541381 -0.0017922966232906045 0 0.007937769501860082 -0.0017300740325080642 0 0.0079275236886860011 -0.001766438699129228 0 0.007972256401726982 -0.0017600401926150633 0 0.0079275236886860011 -0.001766438699129228 0 0.007972256401726982 -0.0017600401926150633 0 0.0079382202527541381 -0.0017922966232906045 0 0.007937769501860082 -0.0017300740325080642 0 0.0079275236886860011 -0.001766438699129228 0 0.0078889237849823889 -0.0017792104572454379 0 0.012703076887649531 -0.0054781760457166288 0 0.012244559761403737 -0.0059109999943452556 0 0.01225279028823761 -0.0057610345042787897 0 0.012967450046465974 -0.0049341333740512607 0 0.012734579416296537 -0.0048962444868306089 0 0.012305928551982608 -0.0059358687451241607 0 0.012734579416296537 -0.0048962444868306089 0 0.012244559761403737 -0.0059109999943452556 0 0.012305928551982608 -0.0059358687451241607 0 0.0078704255180164912 -0.0020166542064408125 0 0.002689629892835832 -0.0011209387189006987 0 0.0069682794188411033 -0.0013838929676205161 0 0.0072633167613738395 -0.0016829121332572706 0 0.0079061409908265535 -0.0018324002105286523 0 0.0069682794188411033 -0.0013838929676205161 0 0.0068770227667735509 -0.0014248407609520582 0 0.0072633167613738395 -0.0016829121332572706 0 0.002689629892835832 -0.0011209387189006987 0 0.00024193112244047288 0.00052524654545934993 0 -0.0050990381712533095 0.0012231459154070912 0 -0.0066412624513683032 0.002431319273341147 0 -0.0042007883310231451 0.0018666804255943043 0 -0.0066412624513683032 0.002431319273341147 0 -0.0053149365727217651 0.0029849425624473599 0 -0.0042007883310231451 0.0018666804255943043 0 -0.0066412624513683032 0.002431319273341147 0 -0.0053149365727217651 0.0029849425624473599 0 -0.0063810930014672569 0.0041832703464086476 0 0.0078704255180164912 -0.0020166542064408125 0 0.0076718712014530932 -0.0016584215130658947 0 0.0078889237849823889 -0.0017792104572454379 0 0.0078298523591179957 -0.0017736561900749098 0 0.0079061409908265535 -0.0018324002105286523 0 0.0081010755272569544 -0.0020910296314010763 0 0.0072633167613738395 -0.0016829121332572706 0 0.0079061409908265535 -0.0018324002105286523 0 0.0078889237849823889 -0.0017792104572454379 0 0.0079382202527541381 -0.0017922966232906045 0 0.0079061409908265535 -0.0018324002105286523 0 0.007989448601948921 -0.0018288631892391506 0 0.0079382202527541381 -0.0017922966232906045 0 0.0079061409908265535 -0.0018324002105286523 0 -0.0089619268088981206 0.0053072364840120812 0 -0.0066412624513683032 0.002431319273341147 0 -0.0075756633479486905 0.0047806865506154128 0 -0.00033109450589587341 0.0015725205914248384 0 0.00024193112244047288 0.00052524654545934993 0 -0.0075756633479486905 0.0047806865506154128 0 -0.0073221413952046189 0.0056549709085563791 0 -0.0084571117183285943 0.0058725636034769749 0 -0.0089619268088981206 0.0053072364840120812 0 -0.0075756633479486905 0.0047806865506154128 0 -0.0084571117183285943 0.0058725636034769749 0 -0.0066412624513683032 0.002431319273341147 0 -0.0075756633479486905 0.0047806865506154128 0 -0.0063810930014672569 0.0041832703464086476 0 -0.0053149365727217651 0.0029849425624473599 0 -0.0052103080302086111 0.003894331265742546 0 -0.0063810930014672569 0.0041832703464086476 0 -0.0052103080302086111 0.003894331265742546 0 -0.0063810930014672569 0.0041832703464086476 0 -0.005687132025063932 0.0051540535808630439 0 -0.0052103080302086111 0.003894331265742546 0 -0.005687132025063932 0.0051540535808630439 0 -0.0041082571259550725 0.0045495710163399256 0 -0.0075756633479486905 0.0047806865506154128 0 -0.0063810930014672569 0.0041832703464086476 0 -0.0073221413952046189 0.0056549709085563791 0 -0.0063810930014672569 0.0041832703464086476 0 -0.005687132025063932 0.0051540535808630439 0 -0.0073221413952046189 0.0056549709085563791 0 -0.0060815713341733808 0.0061589905420915527 0 -0.0054606026954429517 0.0074624241565336103 0 -0.0045032839456629302 0.0058636417873218572 0 -0.005687132025063932 0.0051540535808630439 0 -0.0060815713341733808 0.0061589905420915527 0 -0.0045032839456629302 0.0058636417873218572 0 -0.0072652469324072256 0.0064754361289070987 0 -0.0054606026954429517 0.0074624241565336103 0 -0.0089729218356783842 0.0067249637591291237 0 -0.005687132025063932 0.0051540535808630439 0 -0.0060815713341733808 0.0061589905420915527 0 -0.0073221413952046189 0.0056549709085563791 0 -0.0060815713341733808 0.0061589905420915527 0 -0.0072652469324072256 0.0064754361289070987 0 -0.0073221413952046189 0.0056549709085563791 0 -0.0060815713341733808 0.0061589905420915527 0 -0.0072652469324072256 0.0064754361289070987 0 -0.0054606026954429517 0.0074624241565336103 0 -0.010277982426026924 0.0059128433972728987 0 -0.011284120254176589 0.006151762638589988 0 -0.0094060063460332573 0.0067033003941862996 0 -0.011284120254176589 0.006151762638589988 0 -0.0094060063460332573 0.0067033003941862996 0 -0.012563492976750837 0.0070584724800092169 0 -0.010206143060283909 0.0068489067501655444 0 -0.0094060063460332573 0.0067033003941862996 0 -0.01083143799081652 0.0067083090860481295 0 -0.0077664101305088785 0.0070423140108756615 0 -0.0087900280280688824 0.0068598620232712655 0 -0.0094076987119093829 0.0065720677250726695 0 -0.011936583184892486 0.0073881382066544347 0 -0.010206143060283909 0.0068489067501655444 0 -0.0094060063460332573 0.0067033003941862996 0 -0.0089729218356783842 0.0067249637591291237 0 -0.010277982426026924 0.0059128433972728987 0 -0.011284120254176589 0.006151762638589988 0 -0.011497944227537915 0.0054438658629818457 0 -0.010277982426026924 0.0059128433972728987 0 -0.0094638150014926849 0.0061834677914545198 0 -0.0097044914488445457 0.005613821468749741 0 -0.0090903882725144949 0.0059920225603425879 0 -0.0094638150014926849 0.0061834677914545198 0 -0.0097044914488445457 0.005613821468749741 0 -0.010277982426026924 0.0059128433972728987 0 -0.0094638150014926849 0.0061834677914545198 0 -0.0094060063460332573 0.0067033003941862996 0 -0.0094638150014926849 0.0061834677914545198 0 -0.0094060063460332573 0.0067033003941862996 0 -0.0089729218356783842 0.0067249637591291237 0 -0.0090903882725144949 0.0059920225603425879 0 -0.0094638150014926849 0.0061834677914545198 0 -0.0089729218356783842 0.0067249637591291237 0 -0.0089729218356783842 0.0067249637591291237 0 -0.008737997930880646 0.0063135161567208506 0 -0.0087721827614187162 0.0061683572172293449 0 -0.0090903882725144949 0.0059920225603425879 0 -0.0089729218356783842 0.0067249637591291237 0 -0.0087721827614187162 0.0061683572172293449 0 -0.008737997930880646 0.0063135161567208506 0 -0.0082712067521822606 0.0062483609154959261 0 -0.0084571117183285943 0.0058725636034769749 0 -0.0089729218356783842 0.0067249637591291237 0 -0.008737997930880646 0.0063135161567208506 0 -0.0082712067521822606 0.0062483609154959261 0 -0.0072652469324072256 0.0064754361289070987 0 -0.0089729218356783842 0.0067249637591291237 0 -0.0082712067521822606 0.0062483609154959261 0 -0.0082712067521822606 0.0062483609154959261 0 -0.0073221413952046189 0.0056549709085563791 0 -0.0084571117183285943 0.0058725636034769749 0 -0.0072652469324072256 0.0064754361289070987 0 -0.0082712067521822606 0.0062483609154959261 0 -0.0073221413952046189 0.0056549709085563791 0 -0.0089619268088981206 0.0053072364840120812 0 -0.0087279472514075994 0.0060115307087094194 0 -0.0081779445527163444 0.0064250830802684627 0 -0.0089619268088981206 0.0053072364840120812 0 -0.0084571117183285943 0.0058725636034769749 0 -0.0087279472514075994 0.0060115307087094194 0 -0.00033109450589587341 0.0015725205914248384 0 3.6121668579628321e-05 0.0024391505287922458 0 -0.008737997930880646 0.0063135161567208506 0 -0.0084571117183285943 0.0058725636034769749 0 -0.0087279472514075994 0.0060115307087094194 0 -0.0087279472514075994 0.0060115307087094194 0 -0.0086460019288961409 0.0061670663795585388 0 -0.0081779445527163444 0.0064250830802684627 0 -0.008737997930880646 0.0063135161567208506 0 -0.0086460019288961409 0.0061670663795585388 0 -0.0087721827614187162 0.0061683572172293449 0 -0.008737997930880646 0.0063135161567208506 0 -0.0087279472514075994 0.0060115307087094194 0 -0.0086460019288961409 0.0061670663795585388 0 0.0081985861742646313 -0.0018741577696251449 0 0.0081010755272569544 -0.0020910296314010763 0 0.0083088661256844124 -0.0014773495873448349 0 0.0080256533304715136 -0.0018310431664518773 0 0.0081985861742646313 -0.0018741577696251449 0 0.0083088661256844124 -0.0014773495873448349 0 0.0076828865048595282 -0.0013497222729743695 0 0.0080256533304715136 -0.0018310431664518773 0 0.0083088661256844124 -0.0014773495873448349 0 -0.0077521256849985547 0.0055138977175741366 0 -0.008444935706139297 0.0059842537326225895 0 -0.008659391885780526 0.0054195682729475218 0 -0.0081779445527163444 0.0064250830802684627 0 -0.0077521256849985547 0.0055138977175741366 0 -0.008444935706139297 0.0059842537326225895 0 -0.0086460019288961409 0.0061670663795585388 0 -0.0081779445527163444 0.0064250830802684627 0 -0.008444935706139297 0.0059842537326225895 0 -0.0086460019288961409 0.0061670663795585388 0 -0.0087721827614187162 0.0061683572172293449 0 -0.008444935706139297 0.0059842537326225895 0 -0.0087721827614187162 0.0061683572172293449 0 -0.008444935706139297 0.0059842537326225895 0 -0.008659391885780526 0.0054195682729475218 0 -0.0090903882725144949 0.0059920225603425879 0 -0.0087721827614187162 0.0061683572172293449 0 -0.008659391885780526 0.0054195682729475218 0 -0.008659391885780526 0.0054195682729475218 0 -0.0093147869003218624 0.0042420102699266783 0 -0.0092929234771225461 0.0052698354737836395 0 -0.008659391885780526 0.0054195682729475218 0 -0.0079003545152542994 0.004268983926985815 0 -0.0093147869003218624 0.0042420102699266783 0 -0.0090903882725144949 0.0059920225603425879 0 -0.008659391885780526 0.0054195682729475218 0 -0.0092929234771225461 0.0052698354737836395 0 -0.0070054645180340491 0.0047615036805645616 0 -0.0077521256849985547 0.0055138977175741366 0 -0.0079003545152542994 0.004268983926985815 0 -0.0077521256849985547 0.0055138977175741366 0 -0.008659391885780526 0.0054195682729475218 0 -0.0079003545152542994 0.004268983926985815 0 -0.008762498137181619 0.0028033440158843569 0 -0.0079003545152542994 0.004268983926985815 0 -0.0093147869003218624 0.0042420102699266783 0 -0.010243620472925383 0.0028127812698155339 0 -0.0093147869003218624 0.0042420102699266783 0 -0.010718890889208174 0.0038609675534327791 0 -0.0093147869003218624 0.0042420102699266783 0 -0.010718890889208174 0.0038609675534327791 0 -0.0099695896212327779 0.0048186962547102528 0 -0.011631543502071996 0.0027292330339327986 0 -0.010718890889208174 0.0038609675534327791 0 -0.012111001369638672 0.0037588954915166277 0 -0.010718890889208174 0.0038609675534327791 0 -0.011278902343306809 0.0046264820772401287 0 -0.012111001369638672 0.0037588954915166277 0 -0.010718890889208174 0.0038609675534327791 0 -0.011278902343306809 0.0046264820772401287 0 -0.0099695896212327779 0.0048186962547102528 0 -0.011278902343306809 0.0046264820772401287 0 -0.010494751419536446 0.0052556577863085881 0 -0.0099695896212327779 0.0048186962547102528 0 -0.011278902343306809 0.0046264820772401287 0 -0.011497944227537915 0.0054438658629818457 0 -0.010494751419536446 0.0052556577863085881 0 -0.010277982426026924 0.0059128433972728987 0 -0.011497944227537915 0.0054438658629818457 0 -0.010494751419536446 0.0052556577863085881 0 -0.010277982426026924 0.0059128433972728987 0 -0.010494751419536446 0.0052556577863085881 0 -0.0097044914488445457 0.005613821468749741 0 -0.010494751419536446 0.0052556577863085881 0 -0.0097044914488445457 0.005613821468749741 0 -0.0099695896212327779 0.0048186962547102528 0 -0.0097044914488445457 0.005613821468749741 0 -0.0092929234771225461 0.0052698354737836395 0 -0.0099695896212327779 0.0048186962547102528 0 -0.0090903882725144949 0.0059920225603425879 0 -0.0097044914488445457 0.005613821468749741 0 -0.0092929234771225461 0.0052698354737836395 0 -0.0093147869003218624 0.0042420102699266783 0 -0.0092929234771225461 0.0052698354737836395 0 -0.0099695896212327779 0.0048186962547102528 0 -0.012856554359812516 0.0048253568935916757 0 -0.01482335943801974 0.0047342899054667138 0 -0.01366084947437338 0.0057597415221647243 0 -0.012856554359812516 0.0048253568935916757 0 -0.01366084947437338 0.0057597415221647243 0 -0.012526088539064147 0.0059228470869737062 0 -0.011497944227537915 0.0054438658629818457 0 -0.012856554359812516 0.0048253568935916757 0 -0.012526088539064147 0.0059228470869737062 0 -0.011278902343306809 0.0046264820772401287 0 -0.011497944227537915 0.0054438658629818457 0 -0.012856554359812516 0.0048253568935916757 0 -0.013169258652691316 0.0027041728762133847 0 -0.012111001369638672 0.0037588954915166277 0 -0.013652800074757681 0.0037196092358667446 0 -0.012856554359812516 0.0048253568935916757 0 -0.012111001369638672 0.0037588954915166277 0 -0.013652800074757681 0.0037196092358667446 0 -0.011278902343306809 0.0046264820772401287 0 -0.012856554359812516 0.0048253568935916757 0 -0.012111001369638672 0.0037588954915166277 0 -0.012856554359812516 0.0048253568935916757 0 -0.013652800074757681 0.0037196092358667446 0 -0.01482335943801974 0.0047342899054667138 0 -0.014816478552648726 -7.3691594684371106e-05 0 -0.014550090765921895 -0.00026948512426534489 0 -0.014697337057054045 -0.0003282944578734447 0 -0.014740415874095024 0.001234959247094586 0 -0.015135201439201468 0.002205560432611677 0 -0.014795876289394575 0.0025444408200232626 0 -0.013652800074757681 0.0037196092358667446 0 -0.01482335943801974 0.0047342899054667138 0 -0.014550090765921895 -0.00026948512426534489 0 -0.014697337057054045 -0.0003282944578734447 0 -0.014464643602348918 -0.00038833217502553012 0 -0.014697337057054045 -0.0003282944578734447 0 -0.014549820479051106 -0.00044995391952582138 0 -0.014464643602348918 -0.00038833217502553012 0 -0.01482335943801974 0.0047342899054667138 0 -0.014859078358847397 0.0070856925503616644 0 -0.01366084947437338 0.0057597415221647243 0 -0.015135201439201468 0.002205560432611677 0 -0.012180859378803286 0.0032992185805711225 0 -0.014697337057054045 -0.0003282944578734447 0 -0.014549820479051106 -0.00044995391952582138 0 -0.01463867554872852 -0.00055479026128919329 0 -0.014446035506009593 -0.00048820320749705842 0 -0.014549820479051106 -0.00044995391952582138 0 -0.014464643602348918 -0.00038833217502553012 0 -0.014446035506009593 -0.00048820320749705842 0 -0.014549820479051106 -0.00044995391952582138 0 -0.014518806143590759 -0.00052699477814392617 0 -0.014549820479051106 -0.00044995391952582138 0 -0.014518806143590759 -0.00052699477814392617 0 -0.01463867554872852 -0.00055479026128919329 0 -0.014446035506009593 -0.00048820320749705842 0 -0.014518806143590759 -0.00052699477814392617 0 -0.014429660014956684 -0.00061259665046544938 0 -0.0046763069058323855 -0.00120243866897881 0 -0.0050004761341315256 0.0027322341466547969 0 -0.014518806143590759 -0.00052699477814392617 0 -0.01463867554872852 -0.00055479026128919329 0 -0.014429660014956684 -0.00061259665046544938 0 -0.012001706088178129 -0.000147572487668467 0 -0.010128481470877993 -0.00099546224839517608 0 -0.012249095963907268 -0.00086149949465398395 0 0.0019696127749569766 -0.0017535821689805275 0 0.0023289643103263299 -0.0017456127169251481 0 0.002208883116882332 -0.0015547294830059485 0 -0.012180859378803286 0.0032992185805711225 0 -0.013338170533549683 -0.001050806191599305 0 -0.012001706088178129 -0.000147572487668467 0 -0.010128481470877993 -0.00099546224839517608 0 -0.010123503020277272 -0.00038807811598624912 0 -0.011600746982935183 0.006701586234390689 0 -0.011584575830073884 0.0068576470611492139 0 -0.011064739908928249 0.0068415085969554413 0 -0.012180859378803286 0.0032992185805711225 0 -0.0050004761341315256 0.0027322341466547969 0 -0.0050004761341315256 0.0027322341466547969 0 -0.0068120686160630661 0.0072635341529532008 0 -0.012180859378803286 0.0032992185805711225 0 -0.011936583184892486 0.0073881382066544347 0 0.00074294924414904291 0.006579967692728045 0 -0.0022347074707268991 0.0071107546544548188 0 -0.00099172145458231026 0.0050397398460369277 0 -0.011600746982935183 0.006701586234390689 0 -0.011064739908928249 0.0068415085969554413 0 -0.01083143799081652 0.0067083090860481295 0 -0.0022347074707268991 0.0071107546544548188 0 -0.00099172145458231026 0.0050397398460369277 0 -0.0026971615283508774 0.0054977566599651289 0 -0.014859078358847397 0.0070856925503616644 0 -0.013416922953324738 0.0064698762986091706 0 -0.012563492976750837 0.0070584724800092169 0 -0.014859078358847397 0.0070856925503616644 0 -0.013416922953324738 0.0064698762986091706 0 -0.01366084947437338 0.0057597415221647243 0 -0.013416922953324738 0.0064698762986091706 0 -0.01366084947437338 0.0057597415221647243 0 -0.012526088539064147 0.0059228470869737062 0 -0.011284120254176589 0.006151762638589988 0 -0.011497944227537915 0.0054438658629818457 0 -0.012526088539064147 0.0059228470869737062 0 -0.013416922953324738 0.0064698762986091706 0 -0.012526088539064147 0.0059228470869737062 0 -0.012563492976750837 0.0070584724800092169 0 -0.011284120254176589 0.006151762638589988 0 -0.012526088539064147 0.0059228470869737062 0 -0.012563492976750837 0.0070584724800092169 0 -0.0054606026954429517 0.0074624241565336103 0 -0.0022347074707268991 0.0071107546544548188 0 -0.0037232191850109318 0.0064825186689161339 0 -0.0077664101305088785 0.0070423140108756615 0 -0.0068120686160630661 0.0072635341529532008 0 -0.010206143060283909 0.0068489067501655444 0 -0.011064739908928249 0.0068415085969554413 0 -0.01083143799081652 0.0067083090860481295 0 -0.0022347074707268991 0.0071107546544548188 0 -0.0037232191850109318 0.0064825186689161339 0 -0.0026971615283508774 0.0054977566599651289 0 -0.0037232191850109318 0.0064825186689161339 0 -0.0045032839456629302 0.0058636417873218572 0 -0.0026971615283508774 0.0054977566599651289 0 -0.0054606026954429517 0.0074624241565336103 0 -0.0037232191850109318 0.0064825186689161339 0 -0.0045032839456629302 0.0058636417873218572 0 -0.005687132025063932 0.0051540535808630439 0 -0.0045032839456629302 0.0058636417873218572 0 -0.0041082571259550725 0.0045495710163399256 0 -0.0045032839456629302 0.0058636417873218572 0 -0.0041082571259550725 0.0045495710163399256 0 -0.0026971615283508774 0.0054977566599651289 0 -0.0041082571259550725 0.0045495710163399256 0 -0.0026971615283508774 0.0054977566599651289 0 -0.0024296673812416211 0.0038093450622781197 0 -0.0041082571259550725 0.0045495710163399256 0 -0.0024296673812416211 0.0038093450622781197 0 -0.0039131747672662186 0.0031912153711944275 0 -0.0052103080302086111 0.003894331265742546 0 -0.0041082571259550725 0.0045495710163399256 0 -0.0039131747672662186 0.0031912153711944275 0 -0.00099172145458231026 0.0050397398460369277 0 -0.0026971615283508774 0.0054977566599651289 0 -0.0024296673812416211 0.0038093450622781197 0 -0.00099172145458231026 0.0050397398460369277 0 -0.0024296673812416211 0.0038093450622781197 0 -0.0010583099970041705 0.003200370478293268 0 -0.0024296673812416211 0.0038093450622781197 0 -0.0010583099970041705 0.003200370478293268 0 -0.002254025991003882 0.0020047811515348656 0 -0.0010583099970041705 0.003200370478293268 0 -0.002254025991003882 0.0020047811515348656 0 -0.00044029167004007311 0.0018863195607619085 0 -0.0053149365727217651 0.0029849425624473599 0 -0.0039131747672662186 0.0031912153711944275 0 -0.0042007883310231451 0.0018666804255943043 0 -0.0053149365727217651 0.0029849425624473599 0 -0.0052103080302086111 0.003894331265742546 0 -0.0039131747672662186 0.0031912153711944275 0 -0.0024296673812416211 0.0038093450622781197 0 -0.002254025991003882 0.0020047811515348656 0 -0.0039131747672662186 0.0031912153711944275 0 -0.002254025991003882 0.0020047811515348656 0 -0.0039131747672662186 0.0031912153711944275 0 -0.0042007883310231451 0.0018666804255943043 0 -0.0050990381712533095 0.0012231459154070912 0 -0.0042007883310231451 0.0018666804255943043 0 -0.0031325034142799498 -6.2022871749368964e-05 0 0.0043058335227590533 -0.0019428053912145821 0 0.0043292513031096842 -0.0019323684763034004 0 0.0044519267165739349 -0.0020786240688441355 0 0.0078704255180164912 -0.0020166542064408125 0 0.0039851889477357594 -0.0023513023009773216 0 0.012244559761403737 -0.0059109999943452556 0 0.012305928551982608 -0.0059358687451241607 0 0.011946403202867977 -0.0059802109035366089 0 0.002689629892835832 -0.0011209387189006987 0 0.0039851889477357594 -0.0023513023009773216 0 0.012244559761403737 -0.0059109999943452556 0 0.01225279028823761 -0.0057610345042787897 0 0.011946403202867977 -0.0059802109035366089 0 -0.002254025991003882 0.0020047811515348656 0 -0.0042007883310231451 0.0018666804255943043 0 -0.0031325034142799498 -6.2022871749368964e-05 0 -0.002254025991003882 0.0020047811515348656 0 -0.0031325034142799498 -6.2022871749368964e-05 0 -0.00069630816911483517 0.00057130359520315207 0 -0.0031325034142799498 -6.2022871749368964e-05 0 -0.00069630816911483517 0.00057130359520315207 0 -0.00077835369553712656 -0.00028123826468356755 0 -0.002254025991003882 0.0020047811515348656 0 -0.00044029167004007311 0.0018863195607619085 0 -0.00069630816911483517 0.00057130359520315207 0 -0.00069630816911483517 0.00057130359520315207 0 -0.00077835369553712656 -0.00028123826468356755 0 0.00038441291406163697 -0.00037158088050245452 0 0.0039851889477357594 -0.0023513023009773216 0 0.007195305866642715 -0.0039610147022809119 0 0.0039851889477357594 -0.0023513023009773216 0 0.00066193841872314106 -0.00090767968185606705 0 0.011946403202867977 -0.0059802109035366089 0 0.010328943616462284 -0.0056340484842115554 0 0.011571885348881964 -0.0053954932762428605 0 -0.0031325034142799498 -6.2022871749368964e-05 0 -0.00077835369553712656 -0.00028123826468356755 0 0.00027433652813503633 -0.0012689214241676284 0 0.0032184041693697355 -0.0018097124015637339 0 0.0028270552682560187 -0.001480268927215129 0 0.0027752292963198698 -0.0014945978189770366 0 -0.00077835369553712656 -0.00028123826468356755 0 0.00027433652813503633 -0.0012689214241676284 0 0.00038441291406163697 -0.00037158088050245452 0 0.010328943616462284 -0.0056340484842115554 0 0.011571885348881964 -0.0053954932762428605 0 0.011105198443529021 -0.0047147597628808824 0 0.011571885348881964 -0.0053954932762428605 0 0.012129255037044906 -0.0055428965077974554 0 0.012312284993834528 -0.0048471566947214393 0 0.012703076887649531 -0.0054781760457166288 0 0.012129255037044906 -0.0055428965077974554 0 0.012312284993834528 -0.0048471566947214393 0 0.01225279028823761 -0.0057610345042787897 0 0.011946403202867977 -0.0059802109035366089 0 0.012129255037044906 -0.0055428965077974554 0 0.012703076887649531 -0.0054781760457166288 0 0.01225279028823761 -0.0057610345042787897 0 0.012129255037044906 -0.0055428965077974554 0 0.011946403202867977 -0.0059802109035366089 0 0.011571885348881964 -0.0053954932762428605 0 0.012129255037044906 -0.0055428965077974554 0 0.0022932331634265769 -0.00084656707833838417 0 0.0024502713415445621 -0.00085156104561418618 0 0.0024919972869977473 -0.0010321685750506492 0 0.0024502713415445621 -0.00085156104561418618 0 0.0024919972869977473 -0.0010321685750506492 0 0.0028969416700808355 -0.001007180419973932 0 0.0022932331634265769 -0.00084656707833838417 0 0.0024919972869977473 -0.0010321685750506492 0 0.0015166790970201004 -0.0012134056746811515 0 0.0024919972869977473 -0.0010321685750506492 0 0.0015166790970201004 -0.0012134056746811515 0 0.0029222588205588557 -0.0014094124800575431 0 0.0028270552682560187 -0.001480268927215129 0 0.0027752292963198698 -0.0014945978189770366 0 0.0027720465995868539 -0.0014840482102990772 0 0.00027433652813503633 -0.0012689214241676284 0 0.0015166790970201004 -0.0012134056746811515 0 0.0029222588205588557 -0.0014094124800575431 0 0.0015613021338825768 -0.0012151505381449966 0 0.0015938518424586552 -9.8274630245024614e-05 0 0.0015166790970201004 -0.0012134056746811515 0 0.00038441291406163697 -0.00037158088050245452 0 0.0010051539930437572 0.00070063462312216357 0 0.0022932331634265769 -0.00084656707833838417 0 0.0015166790970201004 -0.0012134056746811515 0 0.0023030333128267284 -0.0008120407044487015 0 0.00027433652813503633 -0.0012689214241676284 0 0.0015166790970201004 -0.0012134056746811515 0 0.00038441291406163697 -0.00037158088050245452 0 -0.00069630816911483517 0.00057130359520315207 0 0.00038441291406163697 -0.00037158088050245452 0 0.0010051539930437572 0.00070063462312216357 0 -0.00044029167004007311 0.0018863195607619085 0 -0.00069630816911483517 0.00057130359520315207 0 0.0010051539930437572 0.00070063462312216357 0 0.0022932331634265769 -0.00084656707833838417 0 0.0023030333128267284 -0.0008120407044487015 0 0.0022270026710020075 -0.00094526786262139268 0 0.0022932331634265769 -0.00084656707833838417 0 0.0024502713415445621 -0.00085156104561418618 0 0.0022270026710020075 -0.00094526786262139268 0 0.0022270026710020075 -0.00094526786262139268 0 0.0023898177394841387 -0.0013004258391090266 0 0.0019703453447984828 -0.001275523535336194 0 0.0015938518424586552 -9.8274630245024614e-05 0 0.0021154145317607525 0.0010565130642387949 0 0.0023030333128267284 -0.0008120407044487015 0 0.0022270026710020075 -0.00094526786262139268 0 0.0023898177394841387 -0.0013004258391090266 0 -0.00044029167004007311 0.0018863195607619085 0 0.0010051539930437572 0.00070063462312216357 0 0.00085005740223588564 0.0035495091368744724 0 -0.0010583099970041705 0.003200370478293268 0 -0.00044029167004007311 0.0018863195607619085 0 0.00085005740223588564 0.0035495091368744724 0 -0.0050004761341315256 0.0027322341466547969 0 0.0021154145317607525 0.0010565130642387949 0 0.00074294924414904291 0.006579967692728045 0 -0.00099172145458231026 0.0050397398460369277 0 0.00085005740223588564 0.0035495091368744724 0 0.0023289643103263299 -0.0017456127169251481 0 0.0023898177394841387 -0.0013004258391090266 0 0.002208883116882332 -0.0015547294830059485 0 -0.00099172145458231026 0.0050397398460369277 0 -0.0010583099970041705 0.003200370478293268 0 0.00085005740223588564 0.0035495091368744724 0 0.0023898177394841387 -0.0013004258391090266 0 0.0020779198733520449 -0.0014945793599869302 0 0.0019703453447984828 -0.001275523535336194 0 0.0023898177394841387 -0.0013004258391090266 0 0.0020779198733520449 -0.0014945793599869302 0 0.002208883116882332 -0.0015547294830059485 0 0.0019696127749569766 -0.0017535821689805275 0 0.0020779198733520449 -0.0014945793599869302 0 0.0018063081393433717 -0.0015969372807133921 0 0.0019696127749569766 -0.0017535821689805275 0 0.0020779198733520449 -0.0014945793599869302 0 0.002208883116882332 -0.0015547294830059485 0 0.0019696127749569766 -0.0017535821689805275 0 0.0018063081393433717 -0.0015969372807133921 0 0.0014807341198815867 -0.0018199205043484764 0 0.0018063081393433717 -0.0015969372807133921 0 0.0016052357899941675 -0.0015069374328807816 0 0.0014807341198815867 -0.0018199205043484764 0 0.0018063081393433717 -0.0015969372807133921 0 0.0016052357899941675 -0.0015069374328807816 0 0.0019703453447984828 -0.001275523535336194 0 0.0020779198733520449 -0.0014945793599869302 0 0.0018063081393433717 -0.0015969372807133921 0 0.0019703453447984828 -0.001275523535336194 0 -0.0054622958264255658 -0.0013782618397115045 0 -0.0063649167795717327 -0.00086897545000953736 0 0.0012595438940048488 -0.0015725209840211291 0 0.00090482022108739229 -0.0017915610260360712 0 0.0014807341198815867 -0.0018199205043484764 0 0.0016052357899941675 -0.0015069374328807816 0 0.0012595438940048488 -0.0015725209840211291 0 0.0014807341198815867 -0.0018199205043484764 0 0.0015102545944870461 -0.0012811807649902016 0 0.0008709241240351253 -0.00062241017988627395 0 0.00099050334606507829 -0.0012811671050962366 0 0.0012595438940048488 -0.0015725209840211291 0 0.0015102545944870461 -0.0012811807649902016 0 0.00099050334606507829 -0.0012811671050962366 0 0.0016052357899941675 -0.0015069374328807816 0 0.0012595438940048488 -0.0015725209840211291 0 0.0015102545944870461 -0.0012811807649902016 0 0.0015102545944870461 -0.0012811807649902016 0 0.0019703453447984828 -0.001275523535336194 0 0.0020668696655642828 -0.00096375027004296768 0 0.0016052357899941675 -0.0015069374328807816 0 0.0015102545944870461 -0.0012811807649902016 0 0.0019703453447984828 -0.001275523535336194 0 0.0022270026710020075 -0.00094526786262139268 0 0.0019703453447984828 -0.001275523535336194 0 0.0020668696655642828 -0.00096375027004296768 0 0.0024502713415445621 -0.00085156104561418618 0 0.0022270026710020075 -0.00094526786262139268 0 0.0020668696655642828 -0.00096375027004296768 0 0.0024502713415445621 -0.00085156104561418618 0 0.0020668696655642828 -0.00096375027004296768 0 0.0023518094425759727 -0.00076785344681188966 0 0.0015102545944870461 -0.0012811807649902016 0 0.0020668696655642828 -0.00096375027004296768 0 0.0008709241240351253 -0.00062241017988627395 0 0.0020668696655642828 -0.00096375027004296768 0 0.0008709241240351253 -0.00062241017988627395 0 0.0023518094425759727 -0.00076785344681188966 0 0.0008709241240351253 -0.00062241017988627395 0 0.001797938305413543 -0.00060587787655584375 0 0.0023518094425759727 -0.00076785344681188966 0 0.001797938305413543 -0.00060587787655584375 0 0.0023518094425759727 -0.00076785344681188966 0 0.0026924933091874233 -0.0007888708650216923 0 0.0028969416700808355 -0.001007180419973932 0 0.0023518094425759727 -0.00076785344681188966 0 0.0026924933091874233 -0.0007888708650216923 0 0.0024502713415445621 -0.00085156104561418618 0 0.0028969416700808355 -0.001007180419973932 0 0.0023518094425759727 -0.00076785344681188966 0 -0.00068625005961860314 -4.3131264027157857e-07 0 -0.0010297075557295565 -0.00027205149109638566 0 0.0014263755584580605 -0.00030907020814078455 0 0.0008709241240351253 -0.00062241017988627395 0 0.001797938305413543 -0.00060587787655584375 0 0.0014263755584580605 -0.00030907020814078455 0 0.0008709241240351253 -0.00062241017988627395 0 -0.0010297075557295565 -0.00027205149109638566 0 0.0014263755584580605 -0.00030907020814078455 0 0.0008709241240351253 -0.00062241017988627395 0 -0.0010297075557295565 -0.00027205149109638566 0 -0.0013329375636468846 -0.00032152506731985045 0 0.00059245071763403413 -0.0005181566487568696 0 0.00017410529262159555 -0.00052318462560296721 0 -0.00068625005961860314 -4.3131264027157857e-07 0 -0.0010297075557295565 -0.00027205149109638566 0 -0.0027479428086752112 -6.7092990777366483e-07 0 -0.0010297075557295565 -0.00027205149109638566 0 -0.0027479428086752112 -6.7092990777366483e-07 0 -0.0023348054743115858 -0.00021178382266153536 0 -0.0010297075557295565 -0.00027205149109638566 0 -0.0023348054743115858 -0.00021178382266153536 0 -0.0013329375636468846 -0.00032152506731985045 0 0.0012595438940048488 -0.0015725209840211291 0 0.00099050334606507829 -0.0012811671050962366 0 0.00090482022108739229 -0.0017915610260360712 0 0.00017410529262159555 -0.00052318462560296721 0 -0.0054622958264255658 -0.0013782618397115045 0 -0.0023348054743115858 -0.00021178382266153536 0 -0.0013329375636468846 -0.00032152506731985045 0 -0.0026601720343488421 -0.00057619603622611733 0 -0.0023348054743115858 -0.00021178382266153536 0 -0.0026601720343488421 -0.00057619603622611733 0 -0.0035385394450073585 -0.00037468186060015784 0 -0.0054622958264255658 -0.0013782618397115045 0 -0.0034841693382753631 -0.00096854617110488225 0 -0.0027479428086752112 -6.7092990777366483e-07 0 -0.0023348054743115858 -0.00021178382266153536 0 -0.0035385394450073585 -0.00037468186060015784 0 -0.0027479428086752112 -6.7092990777366483e-07 0 -0.0035385394450073585 -0.00037468186060015784 0 -0.0048098241415427904 -3.6223536798405278e-07 0 -0.0035385394450073585 -0.00037468186060015784 0 -0.0048098241415427904 -3.6223536798405278e-07 0 -0.0046936698623657094 -3.0412741391388554e-05 0 -0.0048098241415427904 -3.6223536798405278e-07 0 -0.0046936698623657094 -3.0412741391388554e-05 0 -0.0068714906033228692 9.726021595887233e-08 0 -0.0046936698623657094 -3.0412741391388554e-05 0 -0.0053984663286719067 3.1101733212660541e-05 0 -0.0068714906033228692 9.726021595887233e-08 0 -0.014169577685493316 -0.00052703566867742812 0 -0.01419094106508371 -0.00047934823339270706 0 -0.014247950555349111 -0.0003943076145402763 0 -0.0041923374389841164 -0.00025101719444983983 0 -0.0046936698623657094 -3.0412741391388554e-05 0 -0.0053984663286719067 3.1101733212660541e-05 0 -0.0054622958264255658 -0.0013782618397115045 0 -0.010169257745754466 8.7940279054216368e-06 0 -0.014224317923260328 -0.00023966003547194173 0 -0.014169577685493316 -0.00052703566867742812 0 -0.014029618557109179 -0.00054623652221147303 0 -0.0041923374389841164 -0.00025101719444983983 0 -0.0035385394450073585 -0.00037468186060015784 0 -0.0046936698623657094 -3.0412741391388554e-05 0 -0.014224317923260328 -0.00023966003547194173 0 -0.014029618557109179 -0.00054623652221147303 0 -0.013681174895761865 -3.7718240373621385e-05 0 -0.012001706088178129 -0.000147572487668467 0 -0.013681174895761865 -3.7718240373621385e-05 0 -0.012249095963907268 -0.00086149949465398395 0 -0.014029618557109179 -0.00054623652221147303 0 -0.014429660014956684 -0.00061259665046544938 0 -0.014277813744928911 -0.00047380414403160802 0 -0.014029618557109179 -0.00054623652221147303 0 -0.013681174895761865 -3.7718240373621385e-05 0 -0.012249095963907268 -0.00086149949465398395 0 -0.013984335310565442 -0.00052993179732172468 0 -0.013338170533549683 -0.001050806191599305 0 -0.0046763069058323855 -0.00120243866897881 0 -0.0063649167795717327 -0.00086897545000953736 0 -0.014446035506009593 -0.00048820320749705842 0 -0.014429660014956684 -0.00061259665046544938 0 -0.014277813744928911 -0.00047380414403160802 0 -0.014446035506009593 -0.00048820320749705842 0 -0.014277813744928911 -0.00047380414403160802 0 -0.014464643602348918 -0.00038833217502553012 0 -0.014169577685493316 -0.00052703566867742812 0 -0.014029618557109179 -0.00054623652221147303 0 -0.01419094106508371 -0.00047934823339270706 0 -0.014029618557109179 -0.00054623652221147303 0 -0.014277813744928911 -0.00047380414403160802 0 -0.01419094106508371 -0.00047934823339270706 0 -0.01419094106508371 -0.00047934823339270706 0 -0.014247950555349111 -0.0003943076145402763 0 -0.01435247077063621 -0.00037755067949568676 0 -0.014277813744928911 -0.00047380414403160802 0 -0.01419094106508371 -0.00047934823339270706 0 -0.01435247077063621 -0.00037755067949568676 0 -0.014277813744928911 -0.00047380414403160802 0 -0.01435247077063621 -0.00037755067949568676 0 -0.014464643602348918 -0.00038833217502553012 0 -0.014550090765921895 -0.00026948512426534489 0 -0.01435247077063621 -0.00037755067949568676 0 -0.014464643602348918 -0.00038833217502553012 0 -0.014550090765921895 -0.00026948512426534489 0 -0.01435247077063621 -0.00037755067949568676 0 -0.01442598761136242 -0.00027911294423883814 0 -0.014566233925940029 -0.00012539810518421277 0 -0.014550090765921895 -0.00026948512426534489 0 -0.01442598761136242 -0.00027911294423883814 0 -0.014247950555349111 -0.0003943076145402763 0 -0.01442598761136242 -0.00027911294423883814 0 -0.014314777478297755 -0.00031792677114941364 0 -0.014247950555349111 -0.0003943076145402763 0 -0.01435247077063621 -0.00037755067949568676 0 -0.01442598761136242 -0.00027911294423883814 0 -0.014247950555349111 -0.0003943076145402763 0 -0.014247109202783178 -0.00034535641400036091 0 -0.014179144958932511 -0.00038959722368572553 0 -0.014225626691114563 -0.00033203735460063605 0 -0.014247109202783178 -0.00034535641400036091 0 -0.014179144958932511 -0.00038959722368572553 0 -0.014247950555349111 -0.0003943076145402763 0 -0.014314777478297755 -0.00031792677114941364 0 -0.014247109202783178 -0.00034535641400036091 0 -0.0089330701835402468 -5.9802976459965971e-08 0 -0.0068714906033228692 9.726021595887233e-08 0 -0.0071529784318195904 -3.3274164043039081e-05 0 -0.0089330701835402468 -5.9802976459965971e-08 0 -0.0089482649317644651 -2.702713202309551e-05 0 -0.0071529784318195904 -3.3274164043039081e-05 0 -0.011566190103841332 -9.6207922535479848e-05 0 -0.01061580219146953 -0.00015334171702042638 0 -0.0053984663286719067 3.1101733212660541e-05 0 -0.0068714906033228692 9.726021595887233e-08 0 -0.0071529784318195904 -3.3274164043039081e-05 0 -0.010169257745754466 8.7940279054216368e-06 0 -0.01061580219146953 -0.00015334171702042638 0 -0.014169577685493316 -0.00052703566867742812 0 -0.014247950555349111 -0.0003943076145402763 0 -0.014179144958932511 -0.00038959722368572553 0 0.0054922015296976281 0.0017095567981056836 0 0.0056326461277694927 0.0017109261942769051 0 0.0055031200871185999 0.0014773969956310238 0 0.0054922015296976281 0.0017095567981056836 0 0.0056326461277694927 0.0017109261942769051 0 0.0056154918876033487 0.0018820531249515938 0 0.006132149175308352 0.0015022094571923907 0 0.0060072631520744092 0.0012897808163961628 0 0.0062098273444162362 0.0013343441921006411 0 0.0058514337021471682 0.0014055844442687768 0 0.0061321543013382216 0.0017216075769757933 0 0.0056326461277694927 0.0017109261942769051 0 0.0057508251649196068 0.0015636512937784001 0 0.0057707834848762761 0.0018697829110629917 0 0.006132149175308352 0.0015022094571923907 0 0.0060072631520744092 0.0012897808163961628 0 0.0061090687152225648 0.0015795105316717261 0 0.0057508251649196068 0.0015636512937784001 0 0.0055031200871185999 0.0014773969956310238 0 0.0056458671190117932 0.001180196511425831 0 0.0058514337021471682 0.0014055844442687768 0 0.0057814042864576297 0.00099734427488956342 0 0.0060072631520744092 0.0012897808163961628 0 0.0062098273444162362 0.0013343441921006411 0 0.0060629704019208898 0.0011272106933804804 0 0.0060072631520744092 0.0012897808163961628 0 0.0060629704019208898 0.0011272106933804804 0 0.0057556955052719188 0.0009821102265555545 0 0.0056326461277694927 0.0017109261942769051 0 0.0057508251649196068 0.0015636512937784001 0 0.0055031200871185999 0.0014773969956310238 0 0.0055031200871185999 0.0014773969956310238 0 0.0053103613934163754 0.0013483434982798398 0 0.0054435923213700726 0.0012237543346195995 0 0.0055031200871185999 0.0014773969956310238 0 0.0053103613934163754 0.0013483434982798398 0 0.005236919830522966 0.0015955953924367619 0 0.0053103613934163754 0.0013483434982798398 0 0.005236919830522966 0.0015955953924367619 0 0.0050497966035868667 0.0013240270621142287 0 0.005236919830522966 0.0015955953924367619 0 0.0050497966035868667 0.0013240270621142287 0 0.0048361324779253633 0.0016448542330053087 0 0.005236919830522966 0.0015955953924367619 0 0.0050657832100753451 0.0018973102804482089 0 0.0048361324779253633 0.0016448542330053087 0 0.005236919830522966 0.0015955953924367619 0 0.0053548320290929072 0.0018126770138878223 0 0.0050657832100753451 0.0018973102804482089 0 0.0054922015296976281 0.0017095567981056836 0 0.005236919830522966 0.0015955953924367619 0 0.0053548320290929072 0.0018126770138878223 0 0.0054922015296976281 0.0017095567981056836 0 0.0055031200871185999 0.0014773969956310238 0 0.005236919830522966 0.0015955953924367619 0 0.0053548320290929072 0.0018126770138878223 0 0.0055332205725887491 0.0019975687283710652 0 0.0056154918876033487 0.0018820531249515938 0 0.0053548320290929072 0.0018126770138878223 0 0.0053446611342961511 0.0021529423463913472 0 0.0055332205725887491 0.0019975687283710652 0 0.0053548320290929072 0.0018126770138878223 0 0.0050657832100753451 0.0018973102804482089 0 0.0053446611342961511 0.0021529423463913472 0 0.0059727900964944326 0.0022475149554534398 0 0.0055392956421656224 0.002189370826980399 0 0.0058159569158505444 0.0023387272595041344 0 0.0058613946401525271 0.0023654540080926792 0 0.0058373435059910972 0.0023518935615221368 0 0.0058613946401525271 0.0023654540080926792 0 0.0058373435059910972 0.0023518935615221368 0 0.0058679740011888127 0.0023486686591736518 0 0.0053446611342961511 0.0021529423463913472 0 0.0055332205725887491 0.0019975687283710652 0 0.005628370718008242 0.0022173618800931643 0 0.0055332205725887491 0.0019975687283710652 0 0.005628370718008242 0.0022173618800931643 0 0.0057046338037264558 0.0021566852366131906 0 0.0057046338037264558 0.0021566852366131906 0 0.0059256657678097985 0.0020428746839141866 0 0.0057637119686360589 0.0023201154041586603 0 0.0063819107128218026 0.0015598147410553326 0 0.0064393993340379442 0.0016558386783923956 0 0.0055332205725887491 0.0019975687283710652 0 0.0057046338037264558 0.0021566852366131906 0 0.0059256657678097985 0.0020428746839141866 0 0.007341775644015682 0.00055497022604823266 0 0.0074309048577598513 0.00074105933614537355 0 0.0070331714769708365 0.0011202789945900342 0 0.0053583694994924491 0.0020307118666138082 0 0.0063819107128218026 0.0015598147410553326 0 0.0054922015296976281 0.0017095567981056836 0 0.0053548320290929072 0.0018126770138878223 0 0.0056154918876033487 0.0018820531249515938 0 0.0055332205725887491 0.0019975687283710652 0 0.0056154918876033487 0.0018820531249515938 0 0.0056951467363661893 0.0020012821892736107 0 0.006132149175308352 0.0015022094571923907 0 0.0061015360849062759 0.001580019932633962 0 0.0062330268272484833 0.0015760786351842874 0 0.0061015360849062759 0.001580019932633962 0 0.0062330268272484833 0.0015760786351842874 0 0.0062369082618750089 0.0016806728288351026 0 0.0061651504571000014 0.001577194289500721 0 0.0061321543013382216 0.0017216075769757933 0 0.0056326461277694927 0.0017109261942769051 0 0.0056154918876033487 0.0018820531249515938 0 0.0057707834848762761 0.0018697829110629917 0 0.0056154918876033487 0.0018820531249515938 0 0.0057707834848762761 0.0018697829110629917 0 0.0056951467363661893 0.0020012821892736107 0 0.0064405813819570328 0.0016837098558179246 0 0.0064282619685304436 0.0014463690746446285 0 0.0065526227238158676 0.0014652292722134781 0 0.0061321543013382216 0.0017216075769757933 0 0.0063819107128218026 0.0015598147410553326 0 0.0061015360849062759 0.001580019932633962 0 0.0061183586093559589 0.0017999668904642046 0 0.0062369082618750089 0.0016806728288351026 0 0.0061321543013382216 0.0017216075769757933 0 0.0069357949066520038 0.0013811598494063435 0 0.0069357949066520038 0.0013811598494063435 0 0.0063819107128218026 0.0015598147410553326 0 0.0075731369468516182 0.00057809282592042536 0 0.007341775644015682 0.00055497022604823266 0 0.0074309048577598513 0.00074105933614537355 0 0.0075731369468516182 0.00057809282592042536 0 0.0074309048577598513 0.00074105933614537355 0 0.0074101580588841701 0.00094830787506284609 0 0.0061183586093559589 0.0017999668904642046 0 0.0065361682233348924 0.001823595014856806 0 0.0062369082618750089 0.0016806728288351026 0 0.0077618266146069117 0.0015351002686552781 0 0.0076198936352868032 0.001619329551248945 0 0.0076879060711698317 0.001455925027902348 0 0.0069357949066520038 0.0013811598494063435 0 0.0070665000895430178 0.0017461257108845299 0 0.0070665000895430178 0.0017461257108845299 0 0.0070609008427619481 0.0017142964973851727 0 0.0076198936352868032 0.001619329551248945 0 0.0070828668134944334 0.0017231261950976897 0 0.0074478805298936737 0.0015315890555207545 0 0.0065361682233348924 0.001823595014856806 0 0.006699857526137153 0.0015322132765421648 0 0.0070828668134944334 0.0017231261950976897 0 0.006699857526137153 0.0015322132765421648 0 0.0063666454014044537 0.0016326795104821062 0 0.0063380790223385858 0.0014879154631712913 0 0.0065361682233348924 0.001823595014856806 0 0.006699857526137153 0.0015322132765421648 0 0.0063666454014044537 0.0016326795104821062 0 0.0065361682233348924 0.001823595014856806 0 0.0062369082618750089 0.0016806728288351026 0 0.0063666454014044537 0.0016326795104821062 0 0.0062330268272484833 0.0015760786351842874 0 0.0063666454014044537 0.0016326795104821062 0 0.0063380790223385858 0.0014879154631712913 0 0.006132149175308352 0.0015022094571923907 0 0.0062330268272484833 0.0015760786351842874 0 0.0063380790223385858 0.0014879154631712913 0 0.0062330268272484833 0.0015760786351842874 0 0.0062369082618750089 0.0016806728288351026 0 0.0063666454014044537 0.0016326795104821062 0 0.0069974833399523862 0.0016963615813351913 0 0.0070828668134944334 0.0017231261950976897 0 0.0070015842221023755 0.001617633078024311 0 0.0071440156763583123 0.001604394145997866 0 0.0069974833399523862 0.0016963615813351913 0 0.0070015842221023755 0.001617633078024311 0 0.006699857526137153 0.0015322132765421648 0 0.0070828668134944334 0.0017231261950976897 0 0.0070015842221023755 0.001617633078024311 0 0.006699857526137153 0.0015322132765421648 0 0.0070015842221023755 0.001617633078024311 0 0.0069945426115790186 0.0014311973374794037 0 0.0071440156763583123 0.001604394145997866 0 0.0070015842221023755 0.001617633078024311 0 0.0069945426115790186 0.0014311973374794037 0 0.00054609046634624412 0.0026666707653546702 0 0.00016176573852475393 0.0027000820825994515 0 0.00013320060419201544 0.0024508652140490333 0 3.3839423027045853e-05 0.0024883414869081243 0 0.0002532582901065001 0.002567404534060722 0 0.00011855824904942302 0.0026302167306331212 0 0.00016507303601716609 0.0025182528546049015 0 0.00013320060419201544 0.0024508652140490333 0 0.0032168557038369859 0.0022157883448467104 0 0.0033846663570156733 0.0018036446035861844 0 0.006699857526137153 0.0015322132765421648 0 0.0069945426115790186 0.0014311973374794037 0 0.0066687860348294565 0.0011905770299530708 0 -7.125983192540895e-05 0.0024122710473332581 0 0.00013320060419201544 0.0024508652140490333 0 4.0210877094026568e-05 0.0023019715302709451 0 -7.125983192540895e-05 0.0024122710473332581 0 -0.00016824041604886501 0.0022134247177522321 0 4.0210877094026568e-05 0.0023019715302709451 0 -0.00072801833092091869 0.0022087984955344643 0 -0.0017110268563705915 0.0015887013567670797 0 0.00016507303601716609 0.0025182528546049015 0 0.00013320060419201544 0.0024508652140490333 0 4.0210877094026568e-05 0.0023019715302709451 0 -0.0016328071197543256 0.0019012843671000789 0 -0.0025609966517262084 0.00066725912262153404 0 -0.003355865279342105 0.00093003048154850863 0 0.00016176573852475393 0.0027000820825994515 0 -7.125983192540895e-05 0.0024122710473332581 0 0.00013320060419201544 0.0024508652140490333 0 0.0062098273444162362 0.0013343441921006411 0 0.0063380790223385858 0.0014879154631712913 0 0.0064524412078809977 0.0013497054294100185 0 0.006132149175308352 0.0015022094571923907 0 0.0062098273444162362 0.0013343441921006411 0 0.0063380790223385858 0.0014879154631712913 0 0.006699857526137153 0.0015322132765421648 0 0.0066687860348294565 0.0011905770299530708 0 0.0064524412078809977 0.0013497054294100185 0 0.006699857526137153 0.0015322132765421648 0 0.0063380790223385858 0.0014879154631712913 0 0.0064524412078809977 0.0013497054294100185 0 0.0066687860348294565 0.0011905770299530708 0 0.0063425142218026739 0.0011957366071112525 0 0.0062900237760236634 0.00094625418848174117 0 0.0066687860348294565 0.0011905770299530708 0 0.0064524412078809977 0.0013497054294100185 0 0.0063425142218026739 0.0011957366071112525 0 0.0062098273444162362 0.0013343441921006411 0 0.0063425142218026739 0.0011957366071112525 0 0.0060629704019208898 0.0011272106933804804 0 0.0062098273444162362 0.0013343441921006411 0 0.0064524412078809977 0.0013497054294100185 0 0.0063425142218026739 0.0011957366071112525 0 0.0060629704019208898 0.0011272106933804804 0 0.0062900237760236634 0.00094625418848174117 0 0.0057556955052719188 0.0009821102265555545 0 0.0063425142218026739 0.0011957366071112525 0 0.0060629704019208898 0.0011272106933804804 0 0.0062900237760236634 0.00094625418848174117 0 -0.00043471084335866105 0.0020844541046612266 0 -0.00031597858131765332 0.0020127390546021405 0 -0.00043703619352662769 0.0019474809927652718 0 -0.0042750642013061786 8.4065035304353857e-06 0 -0.0047326631653866955 0.00013559752547772174 0 -0.003355865279342105 0.00093003048154850863 0 -0.00016824041604886501 0.0022134247177522321 0 -0.00026561321409219741 0.0020451815696296439 0 4.0210877094026568e-05 0.0023019715302709451 0 -0.00043471084335866105 0.0020844541046612266 0 -0.00016824041604886501 0.0022134247177522321 0 -0.00026561321409219741 0.0020451815696296439 0 -7.125983192540895e-05 0.0024122710473332581 0 -0.00043471084335866105 0.0020844541046612266 0 -0.00016824041604886501 0.0022134247177522321 0 0.0033846663570156733 0.0018036446035861844 0 0.0027744317582186545 0.0015182227352885647 0 -0.0042750642013061786 8.4065035304353857e-06 0 -0.0047326631653866955 0.00013559752547772174 0 -0.004920566768511425 2.53770044298635e-05 0 -0.00043471084335866105 0.0020844541046612266 0 -0.00026561321409219741 0.0020451815696296439 0 -0.00031597858131765332 0.0020127390546021405 0 -0.002270186731876228 0.0011799808283216495 0 -0.001761298932694004 0.0014595826745399754 0 -0.0042750642013061786 8.4065035304353857e-06 0 -0.004920566768511425 2.53770044298635e-05 0 -0.0058328926189463951 -0.00060941827782111401 0 -0.012950027792673985 0.0038277316770429872 0 -0.012857081184985589 0.0041508705565372582 0 -0.012377831417712308 0.003997576696642989 0 -0.001761298932694004 0.0014595826745399754 0 -0.00053756542767340553 0.0020748769221547434 0 -0.009104951251538226 0.0018471909694051287 0 -0.0065912544263444584 0.0015340785527040328 0 -0.00043471084335866105 0.0020844541046612266 0 -0.00051862385478190613 0.0018568262963947768 0 -0.00070189515721389404 0.0018069717921639851 0 0.0027744317582186545 0.0015182227352885647 0 0.0033980499402720223 0.00090314567928743387 0 -0.001761298932694004 0.0014595826745399754 0 -0.0065912544263444584 0.0015340785527040328 0 -0.00043471084335866105 0.0020844541046612266 0 -0.00051862385478190613 0.0018568262963947768 0 -0.00043703619352662769 0.0019474809927652718 0 -0.00035650070940613696 0.002014376372497826 0 -0.00051862385478190613 0.0018568262963947768 0 -0.00043703619352662769 0.0019474809927652718 0 -0.01336465317019005 0.0039742646547350161 0 -0.013236760695386245 0.0039302759747384215 0 -0.013386954427714544 0.0038800296903273874 0 -0.013233362403115904 0.0039994116164059103 0 -0.01336465317019005 0.0039742646547350161 0 -0.013386954427714544 0.0038800296903273874 0 -0.009104951251538226 0.0018471909694051287 0 -0.0077802140674379221 0.0023861062883655964 0 -0.0042750642013061786 8.4065035304353857e-06 0 -0.0025609966517262084 0.00066725912262153404 0 -0.003355865279342105 0.00093003048154850863 0 -0.002270186731876228 0.0011799808283216495 0 -0.0017110268563705915 0.0015887013567670797 0 -0.012950027792673985 0.0038277316770429872 0 -0.01336465317019005 0.0039742646547350161 0 -0.013236760695386245 0.0039302759747384215 0 -0.012950027792673985 0.0038277316770429872 0 -0.012857081184985589 0.0041508705565372582 0 -0.013236760695386245 0.0039302759747384215 0 -0.012857081184985589 0.0041508705565372582 0 -0.013236760695386245 0.0039302759747384215 0 -0.013206401642580164 0.0042398968680227378 0 -0.013236760695386245 0.0039302759747384215 0 -0.013386954427714544 0.0038800296903273874 0 -0.013206401642580164 0.0042398968680227378 0 -0.01337870079919049 0.0039313058149382457 0 -0.013367628377586489 0.004075025242403791 0 -0.013536634685826925 0.003967415555942288 0 -0.013386954427714544 0.0038800296903273874 0 -0.013444010728663004 0.0039916205882250923 0 -0.013536634685826925 0.003967415555942288 0 -0.013444010728663004 0.0039916205882250923 0 -0.013523709618763912 0.004108788641593128 0 -0.013444010728663004 0.0039916205882250923 0 -0.013523709618763912 0.004108788641593128 0 -0.013342619901813083 0.0041422036708144922 0 -0.013367628377586489 0.004075025242403791 0 -0.012795199543119421 0.0044458247841143734 0 -0.012857081184985589 0.0041508705565372582 0 -0.013206401642580164 0.0042398968680227378 0 -0.012881316849771078 0.0045897454039923328 0 -0.013486927265655755 0.004259275507697175 0 -0.013523709618763912 0.004108788641593128 0 -0.013342619901813083 0.0041422036708144922 0 -0.013486927265655755 0.004259275507697175 0 -0.013523709618763912 0.004108788641593128 0 -0.013683222870044538 0.0042514084834795593 0 -0.013536634685826925 0.003967415555942288 0 -0.013523709618763912 0.004108788641593128 0 -0.013683222870044538 0.0042514084834795593 0 -0.012475211253788795 0.0043671331870431731 0 -0.012270284454481946 0.0045469824627808689 0 -0.012040431930724571 0.0042437067711035342 0 -0.012857081184985589 0.0041508705565372582 0 -0.012377831417712308 0.003997576696642989 0 -0.012475211253788795 0.0043671331870431731 0 -0.012377831417712308 0.003997576696642989 0 -0.012475211253788795 0.0043671331870431731 0 -0.012040431930724571 0.0042437067711035342 0 -0.012857081184985589 0.0041508705565372582 0 -0.012475211253788795 0.0043671331870431731 0 -0.012881316849771078 0.0045897454039923328 0 -0.015321670919895447 0.0052465366336261468 0 -0.012795199543119421 0.0044458247841143734 0 -0.012475211253788795 0.0043671331870431731 0 -0.012881316849771078 0.0045897454039923328 0 -0.01247354438871698 0.0046353762808371999 0 -0.012520114992437839 0.0049290596524003416 0 -0.012881316849771078 0.0045897454039923328 0 -0.01247354438871698 0.0046353762808371999 0 -0.01247354438871698 0.0046353762808371999 0 -0.012270284454481946 0.0045469824627808689 0 -0.012219772555246564 0.0047407914266549668 0 -0.012475211253788795 0.0043671331870431731 0 -0.01247354438871698 0.0046353762808371999 0 -0.012270284454481946 0.0045469824627808689 0 -0.012520114992437839 0.0049290596524003416 0 -0.01247354438871698 0.0046353762808371999 0 -0.012219772555246564 0.0047407914266549668 0 -0.015321670919895447 0.0052465366336261468 0 -0.011722891355908659 0.0043007670355504537 0 -0.011668382472341997 0.0044796630570583841 0 -0.01173529149870289 0.0045011649122071945 0 -0.011623725049698875 0.0045926244484873341 0 -0.011750732342711923 0.004428544607824751 0 -0.011668382472341997 0.0044796630570583841 0 -0.01173529149870289 0.0045011649122071945 0 -0.012270284454481946 0.0045469824627808689 0 -0.012219772555246564 0.0047407914266549668 0 -0.012144261008326803 0.0047126235486765261 0 -0.011750732342711923 0.004428544607824751 0 -0.011812184346430821 0.0044432379285565052 0 -0.01173529149870289 0.0045011649122071945 0 -0.011812184346430821 0.0044432379285565052 0 -0.01173529149870289 0.0045011649122071945 0 -0.011758929143502522 0.0045398344248611389 0 -0.0085610632203205923 0.005576015475342388 0 -0.0051099912296195633 0.0034497312330868442 0 -0.0051099912296195633 0.0034497312330868442 0 -0.00058081976060434307 0.0027853789155938093 0 0.0052315268531848806 0.001179583966234885 0 0.0052389062020415161 0.0010971304252714565 0 0.005254831400743851 0.0010864024398677813 0 -0.01173529149870289 0.0045011649122071945 0 -0.011734956386415087 0.0045286731680726751 0 -0.011623725049698875 0.0045926244484873341 0 0.0052315268531848806 0.001179583966234885 0 0.0052389062020415161 0.0010971304252714565 0 0.0049631125464262337 0.0010968098232799605 0 -0.012270284454481946 0.0045469824627808689 0 -0.012144261008326803 0.0047126235486765261 0 -0.012040431930724571 0.0042437067711035342 0 -0.012169471440523855 0.0047877937023131679 0 -0.0055911361499745857 0.0037832660565065737 0 -0.0051099912296195633 0.0034497312330868442 0 -0.0055911361499745857 0.0037832660565065737 0 0.0052389062020415161 0.0010971304252714565 0 0.0049631125464262337 0.0010968098232799605 0 0.0049700962087001659 0.0010147929564146389 0 0.0052389062020415161 0.0010971304252714565 0 0.0053820341892555123 0.0010806416563743575 0 0.0053398122442527545 0.001096316196300195 0 0.0058994160664009934 0.0019262716059366275 0 0.00049629927679386762 0.0018417922353545499 0 -0.0055911361499745857 0.0037832660565065737 0 0.00049629927679386762 0.0018417922353545499 0 0.0033980499402720223 0.00090314567928743387 0 0.0060231080644449703 0.0010728378601758 0 -0.0065912544263444584 0.0015340785527040328 0 -0.0055911361499745857 0.0037832660565065737 0 -0.00051862385478190613 0.0018568262963947768 0 -0.00069520432448052952 0.0017530369617057005 0 -0.00070189515721389404 0.0018069717921639851 0 -0.0061085404029960809 0.0018506460561249997 0 -0.0037751075774884726 0.0036533302365101155 0 -0.0036703505251972973 0.0029651000038281266 0 0.0053699888352884157 0.0010944073223130304 0 0.0054673343672694821 0.0011391464760852168 0 0.0056458671190117932 0.001180196511425831 0 -0.0065912544263444584 0.0015340785527040328 0 0.00049629927679386762 0.0018417922353545499 0 0.0062900237760236634 0.00094625418848174117 0 0.0057814266872067829 0.0005409389448908712 0 0.0057556955052719188 0.0009821102265555545 0 0.0053699888352884157 0.0010944073223130304 0 0.0053952705172527794 0.0011134528762774569 0 0.0054673343672694821 0.0011391464760852168 0 0.0053699888352884157 0.0010944073223130304 0 0.0053398122442527545 0.001096316196300195 0 0.0053952705172527794 0.0011134528762774569 0 0.00049629927679386762 0.0018417922353545499 0 0.0033980499402720223 0.00090314567928743387 0 0.0053820341892555123 0.0010806416563743575 0 0.0053730099087662088 0.001120589663531762 0 0.0053398122442527545 0.001096316196300195 0 0.0033980499402720223 0.00090314567928743387 0 0.0043829150092985578 0.0013786681927240583 0 0.0052389062020415161 0.0010971304252714565 0 0.0053266247139982367 0.0011022378051890481 0 0.005254831400743851 0.0010864024398677813 0 0.0052389062020415161 0.0010971304252714565 0 0.0053398122442527545 0.001096316196300195 0 0.0053266247139982367 0.0011022378051890481 0 0.0053398122442527545 0.001096316196300195 0 0.0053266247139982367 0.0011022378051890481 0 0.0053952705172527794 0.0011134528762774569 0 0.0053266247139982367 0.0011022378051890481 0 0.005396662704506108 0.001143810079860618 0 0.0053199452682135828 0.001186586439537788 0 0.0053266247139982367 0.0011022378051890481 0 0.0053952705172527794 0.0011134528762774569 0 0.005396662704506108 0.001143810079860618 0 0.0053952705172527794 0.0011134528762774569 0 0.005396662704506108 0.001143810079860618 0 0.0054673343672694821 0.0011391464760852168 0 0.005396662704506108 0.001143810079860618 0 0.0054673343672694821 0.0011391464760852168 0 0.0054435923213700726 0.0012237543346195995 0 0.0054673343672694821 0.0011391464760852168 0 0.0054435923213700726 0.0012237543346195995 0 0.0056458671190117932 0.001180196511425831 0 0.005396662704506108 0.001143810079860618 0 0.0054435923213700726 0.0012237543346195995 0 0.0053199452682135828 0.001186586439537788 0 0.0053103613934163754 0.0013483434982798398 0 0.0054435923213700726 0.0012237543346195995 0 0.0053199452682135828 0.001186586439537788 0 0.0055031200871185999 0.0014773969956310238 0 0.0054435923213700726 0.0012237543346195995 0 0.0056458671190117932 0.001180196511425831 0 0.0057814266872067829 0.0005409389448908712 0 0.0057556955052719188 0.0009821102265555545 0 0.0056458671190117932 0.001180196511425831 0 0.0057508251649196068 0.0015636512937784001 0 0.0057556955052719188 0.0009821102265555545 0 0.0056458671190117932 0.001180196511425831 0 -0.0077006363273183706 0.004952544907597816 0 -0.0077041849821880178 0.0049576164824260693 0 -0.0077464391821714306 0.0049768525351000705 0 0.0053103613934163754 0.0013483434982798398 0 0.0050497966035868667 0.0013240270621142287 0 0.0053199452682135828 0.001186586439537788 0 0.0050497966035868667 0.0013240270621142287 0 0.0053199452682135828 0.001186586439537788 0 0.005254831400743851 0.0010864024398677813 0 -0.001528131196235377 0.0032201141214498823 0 -0.00058081976060434307 0.0027853789155938093 0 0.0053266247139982367 0.0011022378051890481 0 0.0053199452682135828 0.001186586439537788 0 0.005254831400743851 0.0010864024398677813 0 -0.0077186720594258984 0.0049852761350549684 0 -0.0077714320341983585 0.0050289965865282869 0 -0.0077464391821714306 0.0049768525351000705 0 -0.0077006363273183706 0.004952544907597816 0 -0.0077186720594258984 0.0049852761350549684 0 -0.0077464391821714306 0.0049768525351000705 0 -0.0077714320341983585 0.0050289965865282869 0 -0.007865541998847066 0.0049895982941358186 0 -0.0077464391821714306 0.0049768525351000705 0 -0.0076912869091186704 0.0049951764065216345 0 -0.0077186720594258984 0.0049852761350549684 0 -0.0077714320341983585 0.0050289965865282869 0 -0.011948076759853144 0.0044047048136510343 0 -0.011812184346430821 0.0044432379285565052 0 -0.011758929143502522 0.0045398344248611389 0 -0.0076938185679481267 0.005011064627169581 0 -0.0076912869091186704 0.0049951764065216345 0 -0.0077714320341983585 0.0050289965865282869 0 -0.010669207292606793 0.0047323199304397856 0 -0.0051099912296195633 0.0034497312330868442 0 -0.0080992619451328712 0.0050630415084575251 0 -0.0076938185679481267 0.005011064627169581 0 -0.0077714320341983585 0.0050289965865282869 0 -0.0080992619451328712 0.0050630415084575251 0 -0.0077714320341983585 0.0050289965865282869 0 -0.007865541998847066 0.0049895982941358186 0 -0.0080992619451328712 0.0050630415084575251 0 -0.007865541998847066 0.0049895982941358186 0 -0.0078813517042532338 0.0049804503444112972 0 -0.007865541998847066 0.0049895982941358186 0 -0.0078120954976160567 0.0049554858217307337 0 -0.0077464391821714306 0.0049768525351000705 0 -0.007865541998847066 0.0049895982941358186 0 -0.0078120954976160567 0.0049554858217307337 0 -0.0078813517042532338 0.0049804503444112972 0 -0.0078120954976160567 0.0049554858217307337 0 -0.0077880550480149292 0.0049448063832498342 0 -0.0077745393496896588 0.0049422634243608474 0 -0.0078120954976160567 0.0049554858217307337 0 -0.0078138184123082276 0.0049661489374698223 0 -0.0077880550480149292 0.0049448063832498342 0 -0.0078000115399101755 0.0050195898807782252 0 -0.0080992619451328712 0.0050630415084575251 0 -0.0078813517042532338 0.0049804503444112972 0 -0.0078120954976160567 0.0049554858217307337 0 -0.0078138184123082276 0.0049661489374698223 0 -0.0078813517042532338 0.0049804503444112972 0 -0.0078000115399101755 0.0050195898807782252 0 -0.0078138184123082276 0.0049661489374698223 0 -0.0078813517042532338 0.0049804503444112972 0 -0.0077872037694338338 0.0049538900397961489 0 -0.0077811653718026499 0.0049197711438443061 0 -0.0077880550480149292 0.0049448063832498342 0 -0.0077880450834370979 0.0049060172848438216 0 -0.0078000115399101755 0.0050195898807782252 0 -0.0077872037694338338 0.0049538900397961489 0 -0.0078000115399101755 0.0050195898807782252 0 -0.0078138184123082276 0.0049661489374698223 0 -0.0077872037694338338 0.0049538900397961489 0 -0.0078138184123082276 0.0049661489374698223 0 -0.0077872037694338338 0.0049538900397961489 0 -0.0077880550480149292 0.0049448063832498342 0 -0.0077880450834370979 0.0049060172848438216 0 -0.0077872037694338338 0.0049538900397961489 0 -0.0077811653718026499 0.0049197711438443061 0 -0.0077880450834370979 0.0049060172848438216 0 -0.0077811653718026499 0.0049197711438443061 0 -0.0077779645186258507 0.0048735408464942462 0 -0.0077811653718026499 0.0049197711438443061 0 -0.0077842473762575219 0.0049320077448933271 0 -0.0077779645186258507 0.0048735408464942462 0 -0.0077811653718026499 0.0049197711438443061 0 -0.0077842473762575219 0.0049320077448933271 0 -0.0077797188422987964 0.0049373434466289407 0 -0.0077811653718026499 0.0049197711438443061 0 -0.0077880550480149292 0.0049448063832498342 0 -0.0077797188422987964 0.0049373434466289407 0 -0.0077880550480149292 0.0049448063832498342 0 -0.0077797188422987964 0.0049373434466289407 0 -0.0077745393496896588 0.0049422634243608474 0 -0.0077797188422987964 0.0049373434466289407 0 -0.0077745393496896588 0.0049422634243608474 0 -0.0077735567129870332 0.0049516565827798734 0 -0.0077745393496896588 0.0049422634243608474 0 -0.0077735567129870332 0.0049516565827798734 0 -0.0077569527342197459 0.0049494285910618189 0 -0.0077735567129870332 0.0049516565827798734 0 -0.0077333707972702366 0.0049524065641075128 0 -0.0077569527342197459 0.0049494285910618189 0 -0.007360893610302348 0.0049885209656516096 0 -0.0068997313541058732 0.0052668460170133321 0 -0.0073030402221377988 0.0052868877806169301 0 -0.0077842473762575219 0.0049320077448933271 0 -0.0077797188422987964 0.0049373434466289407 0 -0.0077735567129870332 0.0049516565827798734 0 -0.0075684632770491493 0.0049685861734824989 0 -0.0073329057739227816 0.0051161160938047344 0 -0.0073030402221377988 0.0052868877806169301 0 -0.0070488245207001544 0.0055309280425737042 0 -0.0074590058827071377 0.0055014559587806561 0 -0.0064611706452847393 0.0055515044903923635 0 -0.0061602607118813445 0.005262413545410639 0 -0.0058250533694772016 0.0055925012824898403 0 -0.0050961644831664715 0.0057220952363686226 0 -0.0054236840773826062 0.0051046266166656284 0 -0.0068997313541058732 0.0052668460170133321 0 -0.0073030402221377988 0.0052868877806169301 0 -0.0070488245207001544 0.0055309280425737042 0 -0.0070488245207001544 0.0055309280425737042 0 -0.0068026418468774014 0.0054103804819946519 0 -0.006652088509561521 0.0054394322290817294 0 -0.0064611706452847393 0.0055515044903923635 0 -0.0066398875179360089 0.005467582112073939 0 -0.0073329057739227816 0.0051161160938047344 0 -0.0072278032899481797 0.0051811734472926828 0 -0.0068997313541058732 0.0052668460170133321 0 -0.0068026418468774014 0.0054103804819946519 0 -0.0066794642169407626 0.0054537230868257599 0 -0.0068997313541058732 0.0052668460170133321 0 -0.0070488245207001544 0.0055309280425737042 0 -0.0068026418468774014 0.0054103804819946519 0 -0.0068026418468774014 0.0054103804819946519 0 -0.006652088509561521 0.0054394322290817294 0 -0.0066794642169407626 0.0054537230868257599 0 -0.0077735567129870332 0.0049516565827798734 0 -0.0077333707972702366 0.0049524065641075128 0 -0.0077087148062601387 0.0049600005432033504 0 -0.0077333707972702366 0.0049524065641075128 0 -0.0077069207373304058 0.0049503140496408322 0 -0.0077534785114163896 0.0049528190543582451 0 -0.0077087148062601387 0.0049600005432033504 0 -0.0077069207373304058 0.0049503140496408322 0 -0.0076630919623190703 0.0049356335333730645 0 -0.0077333707972702366 0.0049524065641075128 0 -0.0077087148062601387 0.0049600005432033504 0 -0.0077069207373304058 0.0049503140496408322 0 -0.0076687080948383999 0.004941141886577116 0 -0.0077069207373304058 0.0049503140496408322 0 -0.0076630919623190703 0.0049356335333730645 0 -0.0076687080948383999 0.004941141886577116 0 -0.0077041849821880178 0.0049576164824260693 0 -0.0077069207373304058 0.0049503140496408322 0 -0.0077006363273183706 0.004952544907597816 0 -0.0076687080948383999 0.004941141886577116 0 -0.0077041849821880178 0.0049576164824260693 0 -0.0077041849821880178 0.0049576164824260693 0 -0.0077069207373304058 0.0049503140496408322 0 -0.0077464391821714306 0.0049768525351000705 0 -0.0077069207373304058 0.0049503140496408322 0 -0.0077464391821714306 0.0049768525351000705 0 -0.0077534785114163896 0.0049528190543582451 0 -0.0078120954976160567 0.0049554858217307337 0 -0.0077464391821714306 0.0049768525351000705 0 -0.0077534785114163896 0.0049528190543582451 0 -0.0078120954976160567 0.0049554858217307337 0 -0.0077745393496896588 0.0049422634243608474 0 -0.0077534785114163896 0.0049528190543582451 0 -0.0077333707972702366 0.0049524065641075128 0 -0.0077569527342197459 0.0049494285910618189 0 -0.0077534785114163896 0.0049528190543582451 0 -0.0077745393496896588 0.0049422634243608474 0 -0.0077569527342197459 0.0049494285910618189 0 -0.0077534785114163896 0.0049528190543582451 0 -0.011419265481343083 0.0035178733784872133 0 -0.010434409135421787 0.0033920397124621473 0 -0.010605767748541255 0.0044529997812160944 0 -0.011419265481343083 0.0035178733784872133 0 -0.010434409135421787 0.0033920397124621473 0 -0.010934393207480938 0.002584233357679776 0 -0.012004344850458112 0.0017384574573012627 0 -0.011419265481343083 0.0035178733784872133 0 -0.010934393207480938 0.002584233357679776 0 -0.010654114745929888 0.0017212703956990777 0 -0.012004344850458112 0.0017384574573012627 0 -0.010934393207480938 0.002584233357679776 0 -0.010654114745929888 0.0017212703956990777 0 -0.010934393207480938 0.002584233357679776 0 -0.010173552282918106 0.0025363906685462014 0 -0.010434409135421787 0.0033920397124621473 0 -0.010934393207480938 0.002584233357679776 0 -0.010173552282918106 0.0025363906685462014 0 -0.0093333306461453273 0.0017129616926550371 0 -0.010173552282918106 0.0025363906685462014 0 -0.0095329474896797134 0.0031633419420808019 0 -0.0093333306461453273 0.0017129616926550371 0 -0.010654114745929888 0.0017212703956990777 0 -0.010173552282918106 0.0025363906685462014 0 -0.010434409135421787 0.0033920397124621473 0 -0.010173552282918106 0.0025363906685462014 0 -0.0095329474896797134 0.0031633419420808019 0 -0.010434409135421787 0.0033920397124621473 0 -0.0099067399313231552 0.0039361949259995354 0 -0.010605767748541255 0.0044529997812160944 0 -0.010434409135421787 0.0033920397124621473 0 -0.0095329474896797134 0.0031633419420808019 0 -0.0099067399313231552 0.0039361949259995354 0 -0.0095329474896797134 0.0031633419420808019 0 -0.0099067399313231552 0.0039361949259995354 0 -0.0091605159885953455 0.0040230363822569958 0 -0.0080688594086578309 0.004017866624954936 0 -0.007872619942427753 0.0047690643557887795 0 -0.0091605159885953455 0.0040230363822569958 0 -0.0085798710532618404 0.0030675351299543564 0 -0.0078253787078459616 0.0044154377744309217 0 -0.0079032354482024541 0.0049039962364223859 0 -0.0077629109419010212 0.004932750362883387 0 -0.0077098110696683167 0.0051453769000616321 0 -0.0079032354482024541 0.0049039962364223859 0 -0.0078321311234253507 0.0048709091327105722 0 -0.0077629109419010212 0.004932750362883387 0 -0.0095329474896797134 0.0031633419420808019 0 -0.0091605159885953455 0.0040230363822569958 0 -0.0085798710532618404 0.0030675351299543564 0 -0.010984221796324833 0.0046715896746400195 0 -0.006837370658145491 0.0052479738589764529 0 -0.0079501366524701005 0.0046794669402075587 0 -0.0078752654296140295 0.0048073029759658232 0 -0.0077779645186258507 0.0048735408464942462 0 -0.0093333306461453273 0.0017129616926550371 0 -0.0095329474896797134 0.0031633419420808019 0 -0.0085798710532618404 0.0030675351299543564 0 -0.010620012897371084 0.0036561776637739217 0 -0.0080688594086578309 0.004017866624954936 0 -0.0080511462219000924 0.0046804594722016438 0 -0.0079032354482024541 0.0049039962364223859 0 -0.0078752654296140295 0.0048073029759658232 0 -0.0079501366524701005 0.0046794669402075587 0 -0.0080511462219000924 0.0046804594722016438 0 -0.0078752654296140295 0.0048073029759658232 0 -0.0079032354482024541 0.0049039962364223859 0 -0.0078752654296140295 0.0048073029759658232 0 -0.0078321311234253507 0.0048709091327105722 0 -0.0078752654296140295 0.0048073029759658232 0 -0.0078321311234253507 0.0048709091327105722 0 -0.0077796725729579307 0.0048631558019496882 0 -0.0078752654296140295 0.0048073029759658232 0 -0.0077796725729579307 0.0048631558019496882 0 -0.0077779645186258507 0.0048735408464942462 0 -0.0078401969828684609 0.0048553588560939706 0 -0.0077880450834370979 0.0049060172848438216 0 -0.0077779645186258507 0.0048735408464942462 0 -0.007360893610302348 0.0049885209656516096 0 -0.0076447907899063108 0.0049744683002933094 0 -0.0077098110696683167 0.0051453769000616321 0 -0.0077629109419010212 0.004932750362883387 0 -0.0076447907899063108 0.0049744683002933094 0 -0.0077098110696683167 0.0051453769000616321 0 -0.007360893610302348 0.0049885209656516096 0 -0.0077796725729579307 0.0048631558019496882 0 -0.0076447907899063108 0.0049744683002933094 0 -0.0075684632770491493 0.0049685861734824989 0 -0.0077468599906265929 0.0048717770714786354 0 -0.0077842473762575219 0.0049320077448933271 0 -0.0077796725729579307 0.0048631558019496882 0 -0.0077779645186258507 0.0048735408464942462 0 -0.0077796725729579307 0.0048631558019496882 0 -0.0077629109419010212 0.004932750362883387 0 -0.0076447907899063108 0.0049744683002933094 0 -0.0078321311234253507 0.0048709091327105722 0 -0.0077796725729579307 0.0048631558019496882 0 -0.0077629109419010212 0.004932750362883387 0 -0.0073030402221377988 0.0052868877806169301 0 -0.0077098110696683167 0.0051453769000616321 0 -0.0074590058827071377 0.0055014559587806561 0 -0.007872619942427753 0.0047690643557887795 0 -0.0061602607118813445 0.005262413545410639 0 -0.007360893610302348 0.0049885209656516096 0 -0.0073030402221377988 0.0052868877806169301 0 -0.0077098110696683167 0.0051453769000616321 0 -0.0061602607118813445 0.005262413545410639 0 -0.0068315871952409728 0.0046785801878225612 0 -0.0044106470051321536 0.0040176147892503015 0 -0.0052736981428561794 0.0038442862746072668 0 -0.0051798126890767538 0.00429418790862448 0 -0.0044106470051321536 0.0040176147892503015 0 -0.0051798126890767538 0.00429418790862448 0 -0.0040263325318339403 0.0047113378916031007 0 -0.0078253787078459616 0.0044154377744309217 0 -0.0070714248618867258 0.0057721414734835542 0 -0.0083999807383046774 0.0055194385688653105 0 -0.0028614478774567752 0.0030061197035310375 0 -0.0057740308525207505 0.0032691651307192237 0 -0.0083999807383046774 0.0055194385688653105 0 -0.0089567631666491124 0.0048115178340818032 0 -0.0097248711864175944 0.005259651970626238 0 -0.0068315871952409728 0.0046785801878225612 0 -0.0075716810503758027 0.0042141570479307285 0 -0.0052736981428561794 0.0038442862746072668 0 -0.0051798126890767538 0.00429418790862448 0 -0.0061473576048526705 0.0036687375536060569 0 -0.0091605159885953455 0.0040230363822569958 0 -0.0078253787078459616 0.0044154377744309217 0 -0.0089567631666491124 0.0048115178340818032 0 -0.0078253787078459616 0.0044154377744309217 0 -0.0083999807383046774 0.0055194385688653105 0 -0.0089567631666491124 0.0048115178340818032 0 -0.0091605159885953455 0.0040230363822569958 0 -0.0089567631666491124 0.0048115178340818032 0 -0.0098306424558020911 0.0046171629327746615 0 -0.0099067399313231552 0.0039361949259995354 0 -0.0091605159885953455 0.0040230363822569958 0 -0.0098306424558020911 0.0046171629327746615 0 -0.0099067399313231552 0.0039361949259995354 0 -0.0098306424558020911 0.0046171629327746615 0 -0.010605767748541255 0.0044529997812160944 0 -0.0098306424558020911 0.0046171629327746615 0 -0.0097248711864175944 0.005259651970626238 0 -0.010382533938961904 0.005132774980040394 0 -0.0098306424558020911 0.0046171629327746615 0 -0.010382533938961904 0.005132774980040394 0 -0.010605767748541255 0.0044529997812160944 0 -0.0089567631666491124 0.0048115178340818032 0 -0.0098306424558020911 0.0046171629327746615 0 -0.0097248711864175944 0.005259651970626238 0 -0.0051798126890767538 0.00429418790862448 0 -0.0061473576048526705 0.0036687375536060569 0 -0.006351609581857375 0.0038696723846648709 0 -0.0014111985084395496 0.0019572972160687022 0 -0.0021005201389695909 0.001948974772526912 0 -0.0023768841240014607 0.0016169056195125865 0 -0.0021005201389695909 0.001948974772526912 0 -0.0024603539352820573 0.0017010473543195596 0 -0.0023768841240014607 0.0016169056195125865 0 -0.0075716810503758027 0.0042141570479307285 0 -0.0089007470970544292 0.0041069486933565311 0 -0.0071546349671674208 0.0038861195608862601 0 -0.0075552629888080902 0.0040492595416623429 0 -0.0076401453357716363 0.0037933641378927289 0 -0.0060277452538326374 0.0027316649898574204 0 -0.007493108609147414 0.0034792461502274469 0 -0.0066270591361563382 0.0035232197610771663 0 -0.0067403656241160764 0.0036359433771576848 0 -0.0065737456218299892 0.0036965126445381042 0 -0.0060277452538326374 0.0027316649898574204 0 -0.0057740308525207505 0.0032691651307192237 0 -0.0057740308525207505 0.0032691651307192237 0 -0.007493108609147414 0.0034792461502274469 0 -0.0071546349671674208 0.0038861195608862601 0 -0.0073837717920687109 0.0041105010739603846 0 -0.0075552629888080902 0.0040492595416623429 0 -0.0075716810503758027 0.0042141570479307285 0 -0.0057740308525207505 0.0032691651307192237 0 -0.007493108609147414 0.0034792461502274469 0 -0.0089007470970544292 0.0041069486933565311 0 -0.0080556283662990141 0.0028258468964328255 0 -0.0082194901564049856 0.0027710053102888792 0 -0.0081432434232341765 0.0029913984330284162 0 -0.010345695165248537 0.0032960810429110503 0 -0.0071750069715872606 0.0021621590526660394 0 -0.010269142288519105 0.0054190740882076446 0 -0.010856021265833557 0.0052221437768676417 0 -0.01051678471258973 0.0050678869598769528 0 -0.0094931165445214898 0.0016660076494213116 0 -0.0094687487493545098 0.0016544594979601595 0 -0.009455230617206609 0.0016738144054476525 0 -0.007493108609147414 0.0034792461502274469 0 -0.010345695165248537 0.0032960810429110503 0 -0.010269142288519105 0.0054190740882076446 0 -0.010381564505145902 0.0050908449819920499 0 -0.01051678471258973 0.0050678869598769528 0 -0.0060277452538326374 0.0027316649898574204 0 -0.0071750069715872606 0.0021621590526660394 0 -0.0080342881617708767 0.0028856220695873095 0 -0.0080556283662990141 0.0028258468964328255 0 -0.0081432434232341765 0.0029913984330284162 0 -0.011419265481343083 0.0035178733784872133 0 -0.010856021265833557 0.0052221437768676417 0 -0.010605767748541255 0.0044529997812160944 0 -0.011837594130839126 0.0034823207092335106 0 -0.010345695165248537 0.0032960810429110503 0 -0.010382734992912987 0.0050924952154673565 0 -0.01051678471258973 0.0050678869598769528 0 -0.010605767748541255 0.0044529997812160944 0 -0.010856021265833557 0.0052221437768676417 0 -0.01051678471258973 0.0050678869598769528 0 -0.010605767748541255 0.0044529997812160944 0 -0.0089007470970544292 0.0041069486933565311 0 -0.0098565104095698804 0.0044631678141572526 0 -0.0089007470970544292 0.0041069486933565311 0 -0.0090958829798695757 0.0041171303406441744 0 -0.0041657813066870832 0.0021678250516956681 0 -0.0035385522297177539 0.0016323137459827637 0 -0.0032833368003102122 0.0024627361661620391 0 -0.0048418002012422029 0.0018533745361558238 0 -0.0041657813066870832 0.0021678250516956681 0 -0.0035385522297177539 0.0016323137459827637 0 -0.0069805638365411527 0.0019789108875066341 0 -0.0041616982327329294 0.0022269268070811577 0 -0.0061652477730754236 0.0017330722115420083 0 -0.0065154337604675537 0.0020754612314676083 0 -0.0059947023678961955 0.002273234297629185 0 -0.0094931165445214898 0.0016660076494213116 0 -0.009455230617206609 0.0016738144054476525 0 -0.0094742842149170975 0.0016856089986686958 0 -0.0071750069715872606 0.0021621590526660394 0 -0.0041616982327329294 0.0022269268070811577 0 -0.006868983733635578 0.002418203295474688 0 -0.0065154337604675537 0.0020754612314676083 0 -0.0059947023678961955 0.002273234297629185 0 -0.0071750069715872606 0.0021621590526660394 0 -0.008077306028913378 0.0020234809892177405 0 -0.0060277452538326374 0.0027316649898574204 0 -0.0024388049739346236 0.0023727309367244519 0 -0.0048425315259379102 0.002140206916873875 0 -0.0049539258462635528 0.0022499073180303002 0 -0.0046866890238139404 0.0025574804136014317 0 -0.0021005201389695909 0.001948974772526912 0 -0.0024603539352820573 0.0017010473543195596 0 -0.002154770641047687 0.0025188008516145678 0 -0.0049539258462635528 0.0022499073180303002 0 -0.0048389407539450755 0.0025832061928316432 0 -0.0046866890238139404 0.0025574804136014317 0 -0.0041616982327329294 0.0022269268070811577 0 -0.0024388049739346236 0.0023727309367244519 0 -0.0041616982327329294 0.0022269268070811577 0 -0.0019800248128039482 0.0026002695863171195 0 -0.0023966604231192993 0.0022040165071694389 0 -0.0021993061464603367 0.0027972076382411989 0 -0.0024730313833265798 0.0028439028241447929 0 -0.002657228955110984 0.0022486753708736425 0 -0.0023966604231192993 0.0022040165071694389 0 -0.0024730313833265798 0.0028439028241447929 0 -0.0024388049739346236 0.0023727309367244519 0 -0.0013041643754054006 0.0026938339511380525 0 -0.0014552895217573943 0.0023440597259620772 0 -0.0013249067442232371 0.002406069843858852 0 -0.0013920158090259163 0.0025544238184496528 0 -0.0011712163770818095 0.0023802110950711941 0 -0.0011115739819601059 0.0025272096510797308 0 -0.0014100918977778809 0.0026067178730522786 0 -0.0012006128202160125 0.0023748473774774575 0 -0.0013041643754054006 0.0026938339511380525 0 -0.0011393697317150754 0.0025263921815613898 0 -0.0013041643754054006 0.0026938339511380525 0 -0.0013249067442232371 0.002406069843858852 0 -0.0011712163770818095 0.0023802110950711941 0 -0.0013920158090259163 0.0025544238184496528 0 -0.0014111985084395496 0.0019572972160687022 0 -0.0021005201389695909 0.001948974772526912 0 -0.002154770641047687 0.0025188008516145678 0 -0.0014552895217573943 0.0023440597259620772 0 -0.0013249067442232371 0.002406069843858852 0 -0.0011412134221309136 0.0022668955594151792 0 -0.0014111985084395496 0.0019572972160687022 0 -0.002154770641047687 0.0025188008516145678 0 -0.0011412134221309136 0.0022668955594151792 0 -0.0024388049739346236 0.0023727309367244519 0 -0.00090168991172777282 0.0022781833955725166 0 -0.0013249067442232371 0.002406069843858852 0 -0.0011412134221309136 0.0022668955594151792 0 -0.0011712163770818095 0.0023802110950711941 0 -0.0011412134221309136 0.0022668955594151792 0 -0.00095474390350099264 0.0024562217495146489 0 -0.00080192708149378949 0.0022519436086513942 0 -0.0028614478774567752 0.0030061197035310375 0 -0.0034496691634404164 0.0045069473538607539 0 -0.0014111985084395496 0.0019572972160687022 0 -0.0011412134221309136 0.0022668955594151792 0 -0.00080192708149378949 0.0022519436086513942 0 -0.00095474390350099264 0.0024562217495146489 0 -0.0011115739819601059 0.0025272096510797308 0 -0.00089186967004260701 0.0026389179187412699 0 -0.0011412134221309136 0.0022668955594151792 0 -0.00095474390350099264 0.0024562217495146489 0 -0.0011712163770818095 0.0023802110950711941 0 -0.00095474390350099264 0.0024562217495146489 0 -0.0011712163770818095 0.0023802110950711941 0 -0.0011115739819601059 0.0025272096510797308 0 -0.0010574138670972871 0.0026606962929142529 0 -0.00090263186130875445 0.0028196383461262802 0 -0.00089186967004260701 0.0026389179187412699 0 -0.0011115739819601059 0.0025272096510797308 0 -0.0010574138670972871 0.0026606962929142529 0 -0.00089186967004260701 0.0026389179187412699 0 -0.0010574138670972871 0.0026606962929142529 0 -0.00090263186130875445 0.0028196383461262802 0 -0.0012345564309665395 0.0027656937711123281 0 -0.00043579802872550677 0.0028469252770652424 0 -0.00033806473387459744 0.0028523293149225258 0 9.5097993329076878e-06 0.0028909803939599224 0 0.00039298989184175708 0.0027282943807023854 0 0.00066269160314127258 0.0030499636040698204 0 0.00039298989184175708 0.0027282943807023854 0 0.00066269160314127258 0.0030499636040698204 0 0.00074357912428407106 0.0025130407959445102 0 -0.0011115739819601059 0.0025272096510797308 0 -0.0011907523736063238 0.0026128829393496146 0 -0.0012843132263714724 0.0025822380371168844 0 -0.00033806473387459744 0.0028523293149225258 0 -0.0013041643754054006 0.0026938339511380525 0 -0.0012345564309665395 0.0027656937711123281 0 -0.0011907523736063238 0.0026128829393496146 0 -0.0012843132263714724 0.0025822380371168844 0 -0.0010574138670972871 0.0026606962929142529 0 -0.0012345564309665395 0.0027656937711123281 0 -0.0011907523736063238 0.0026128829393496146 0 -0.0011115739819601059 0.0025272096510797308 0 -0.0010574138670972871 0.0026606962929142529 0 -0.0011907523736063238 0.0026128829393496146 0 -0.0004116940907165309 0.0029999478867849556 0 -0.00048825796852647123 0.0027724805635856754 0 -0.00054324609854305744 0.0029683963360321998 0 -0.0013041643754054006 0.0026938339511380525 0 -0.0019800248128039482 0.0026002695863171195 0 -0.00048825796852647123 0.0027724805635856754 0 -0.00058032875893379847 0.002850390187785603 0 -0.00054324609854305744 0.0029683963360321998 0 -0.0013243564846889427 0.0028131607204733549 0 -0.0012323845245916642 0.0027966571905831262 0 -0.00124585674983607 0.0027481710415194248 0 -0.0013041643754054006 0.0026938339511380525 0 -0.00087136355301412592 0.0027187374030073143 0 -0.00099053694184209019 0.0020830315304145798 0 -0.00091351950114910974 0.0023412788180600715 0 -0.0013663893525766805 0.0027132500788469367 0 -0.0019800248128039482 0.0026002695863171195 0 -0.00087136355301412592 0.0027187374030073143 0 0.00061150676270878962 0.0030312185967907423 0 0.00038758630834694513 0.0025341425195246278 0 -2.0220927412076876e-05 0.0027209033159949826 0 -2.691577752156478e-05 0.0026901575701951843 0 9.7860458315782795e-06 0.002697317161523877 0 -0.00087136355301412592 0.0027187374030073143 0 0.00038758630834694513 0.0025341425195246278 0 -0.00087136355301412592 0.0027187374030073143 0 0.00061150676270878962 0.0030312185967907423 0 0.00066269160314127258 0.0030499636040698204 0 0.00090768546982771838 0.0031081666069852358 0 0.00074357912428407106 0.0025130407959445102 0 0.0018983986112887034 0.0031872022693014814 0 0.0023088586545049459 0.0025359209907968713 0 0.0023529004375998095 0.003292524704924278 0 0.0018983986112887034 0.0031872022693014814 0 0.0023088586545049459 0.0025359209907968713 0 0.00159089907578218 0.0021132266297188658 0 -0.00033806473387459744 0.0028523293149225258 0 0.00061150676270878962 0.0030312185967907423 0 0.00061150676270878962 0.0030312185967907423 0 0.0013051645549451631 0.0024325491011061265 0 -0.001397419925929132 0.0033473726243597457 0 -0.0014537954034099787 0.0017266770897456504 0 0.00011506716502359081 0.0021039237816298027 0 0.0031895352755691008 0.0026049715812013073 0 0.0023088586545049459 0.0025359209907968713 0 0.0023529004375998095 0.003292524704924278 0 0.00062242165291894781 0.0028504507113821585 0 0.00038758630834694513 0.0025341425195246278 0 -0.0025250773493063817 0.002431681836424191 0 -0.00099053694184209019 0.0020830315304145798 0 -0.0013663893525766805 0.0027132500788469367 0 -0.0030876017903238386 0.0022042234325425725 0 0.00038758630834694513 0.0025341425195246278 0 -0.0044631360105426808 0.0027308983975360777 0 -0.0041657813066870832 0.0021678250516956681 0 -0.0032833368003102122 0.0024627361661620391 0 -0.0030876017903238386 0.0022042234325425725 0 -0.0019800248128039482 0.0026002695863171195 0 -0.0068830944952358707 0.0043892966129473951 0 -0.0068581722129479813 0.0048003863258486799 0 -0.0062334586883101874 0.0048254681496965619 0 -0.0068830944952358707 0.0043892966129473951 0 -0.0056978316288387471 0.0039701134537079609 0 -0.0050811891542823341 0.0050373839214775508 0 -0.0067508014145091014 0.0044582948870423699 0 -0.0058095123990794459 0.0049251629923113202 0 -0.0068830944952358707 0.0043892966129473951 0 -0.0056978316288387471 0.0039701134537079609 0 -0.0066034936651374375 0.0031554976457147574 0 -0.0068830944952358707 0.0043892966129473951 0 -0.0075336726372288686 0.0045724855720820261 0 -0.0066034936651374375 0.0031554976457147574 0 -0.00071774073743732228 0.0033590733793447875 0 -0.00052031549322300392 0.0028008324788482129 0 0.0059727900964944326 0.0022475149554534398 0 -0.00071774073743732228 0.0033590733793447875 0 -0.0068830944952358707 0.0043892966129473951 0 -0.0075336726372288686 0.0045724855720820261 0 -0.0068581722129479813 0.0048003863258486799 0 -0.001528131196235377 0.0032201141214498823 0 -0.00071774073743732228 0.0033590733793447875 0 -0.0077006363273183706 0.004952544907597816 0 -0.00754526981625365 0.0048302515007305888 0 -0.007566218573761936 0.0048679442071845654 0 -0.0072278032899481797 0.0051811734472926828 0 -0.0075472945511067232 0.0048803264488630378 0 -0.0075336726372288686 0.0045724855720820261 0 -0.0071122736756404244 0.0051193328388060098 0 -0.0068581722129479813 0.0048003863258486799 0 -0.0077006363273183706 0.004952544907597816 0 -0.0076687080948383999 0.004941141886577116 0 -0.007566218573761936 0.0048679442071845654 0 -0.0077087148062601387 0.0049600005432033504 0 -0.007566218573761936 0.0048679442071845654 0 -0.0076630919623190703 0.0049356335333730645 0 -0.00754526981625365 0.0048302515007305888 0 -0.0071122736756404244 0.0051193328388060098 0 -0.007566218573761936 0.0048679442071845654 0 -0.00071774073743732228 0.0033590733793447875 0 -0.0064322133926147593 0.0039683074182754368 0 -0.0066794642169407626 0.0054537230868257599 0 -0.0071122736756404244 0.0051193328388060098 0 -0.007566218573761936 0.0048679442071845654 0 -0.0076687080948383999 0.004941141886577116 0 -0.007566218573761936 0.0048679442071845654 0 -0.0076630919623190703 0.0049356335333730645 0 -0.0066794642169407626 0.0054537230868257599 0 -0.0071122736756404244 0.0051193328388060098 0 -0.0066705186102564672 0.0051084235272251307 0 -0.0068581722129479813 0.0048003863258486799 0 -0.0066705186102564672 0.0051084235272251307 0 -0.0062334586883101874 0.0048254681496965619 0 -0.0071122736756404244 0.0051193328388060098 0 -0.0068581722129479813 0.0048003863258486799 0 -0.0066705186102564672 0.0051084235272251307 0 -0.006652088509561521 0.0054394322290817294 0 -0.0066794642169407626 0.0054537230868257599 0 -0.0066705186102564672 0.0051084235272251307 0 -0.006652088509561521 0.0054394322290817294 0 -0.0066705186102564672 0.0051084235272251307 0 -0.0064324169051758586 0.0051476690646959384 0 -0.0058250533694772016 0.0055925012824898403 0 -0.006652088509561521 0.0054394322290817294 0 -0.0061621855284901324 0.0052536432719575655 0 -0.0061621855284901324 0.0052536432719575655 0 -0.0062334586883101874 0.0048254681496965619 0 -0.0054236840773826062 0.0051046266166656284 0 -0.006652088509561521 0.0054394322290817294 0 -0.0064324169051758586 0.0051476690646959384 0 -0.0061621855284901324 0.0052536432719575655 0 -0.0058095123990794459 0.0049251629923113202 0 -0.0034496691634404164 0.0045069473538607539 0 -0.0066705186102564672 0.0051084235272251307 0 -0.0064324169051758586 0.0051476690646959384 0 -0.0062334586883101874 0.0048254681496965619 0 -0.0064324169051758586 0.0051476690646959384 0 -0.0061621855284901324 0.0052536432719575655 0 -0.0062334586883101874 0.0048254681496965619 0 -0.0058250533694772016 0.0055925012824898403 0 -0.0061621855284901324 0.0052536432719575655 0 -0.0054236840773826062 0.0051046266166656284 0 -0.0061602607118813445 0.005262413545410639 0 -0.0034496691634404164 0.0045069473538607539 0 -0.00095474390350099264 0.0024562217495146489 0 -0.00068356491208391057 0.002576034221885615 0 -0.00089186967004260701 0.0026389179187412699 0 -0.0034496691634404164 0.0045069473538607539 0 -0.002970819610669864 0.0028574563910847713 0 -0.00095474390350099264 0.0024562217495146489 0 -0.00080192708149378949 0.0022519436086513942 0 -0.00068356491208391057 0.002576034221885615 0 -0.0050811891542823341 0.0050373839214775508 0 -0.003335899863837984 0.0056476755935333028 0 -0.0044090624125401176 0.0036559588799302254 0 -0.0056978316288387471 0.0039701134537079609 0 -0.0050811891542823341 0.0050373839214775508 0 -0.0044090624125401176 0.0036559588799302254 0 -0.002970819610669864 0.0028574563910847713 0 0.0013051616842971372 0.0023316461937720454 0 -0.0056978316288387471 0.0039701134537079609 0 -0.0044090624125401176 0.0036559588799302254 0 -0.0054522112509875495 0.0016455894594946195 0 -0.00068356491208391057 0.002576034221885615 0 -0.00070720408249852951 0.0027124805715178103 0 -0.00069691248191533896 0.0027984332703008402 0 -0.00090263186130875445 0.0028196383461262802 0 -0.00089186967004260701 0.0026389179187412699 0 -0.00070720408249852951 0.0027124805715178103 0 -0.00068356491208391057 0.002576034221885615 0 -0.00089186967004260701 0.0026389179187412699 0 -0.00070720408249852951 0.0027124805715178103 0 -0.00090263186130875445 0.0028196383461262802 0 -0.00070720408249852951 0.0027124805715178103 0 -0.00057675957782739329 0.0026766495743403866 0 -0.00043579802872550677 0.0028469252770652424 0 -0.00058779290469737936 0.0027038661522632598 0 -0.00069691248191533896 0.0027984332703008402 0 -0.00057675957782739329 0.0026766495743403866 0 -0.00042530584808122304 0.0024517660973962232 0 -0.00070720408249852951 0.0027124805715178103 0 -0.00069691248191533896 0.0027984332703008402 0 -0.00057675957782739329 0.0026766495743403866 0 0.0057794983072483033 0.0023476668964590068 0 0.0058118539101300951 0.0023458757989681298 0 0.0058324135703848876 0.002342671898415266 0 0.0058118539101300951 0.0023458757989681298 0 0.0058464038364123066 0.002342984632064071 0 0.0058324135703848876 0.002342671898415266 0 0.0057794983072483033 0.0023476668964590068 0 0.0058118539101300951 0.0023458757989681298 0 0.0057698476300386556 0.002344964310535005 0 -0.0056978316288387471 0.0039701134537079609 0 -0.0054522112509875495 0.0016455894594946195 0 -0.0066034936651374375 0.0031554976457147574 0 0.0013051616842971372 0.0023316461937720454 0 -0.00052031549322300392 0.0028008324788482129 0 0.0058118539101300951 0.0023458757989681298 0 0.0057698476300386556 0.002344964310535005 0 0.0058023865986098254 0.0023448806479827236 0 0.0057429499282556648 0.0023350517763943541 0 0.0057698476300386556 0.002344964310535005 0 0.0058023865986098254 0.0023448806479827236 0 0.0058159569158505444 0.0023387272595041344 0 0.0057429499282556648 0.0023350517763943541 0 0.0058023865986098254 0.0023448806479827236 0 0.0058159569158505444 0.0023387272595041344 0 0.0058023865986098254 0.0023448806479827236 0 0.0058373435059910972 0.0023518935615221368 0 0.0058023865986098254 0.0023448806479827236 0 0.0058373435059910972 0.0023518935615221368 0 0.005838178372110891 0.0023478371576987366 0 0.0058118539101300951 0.0023458757989681298 0 0.0058023865986098254 0.0023448806479827236 0 0.005838178372110891 0.0023478371576987366 0 0.005838178372110891 0.0023478371576987366 0 0.0058464038364123066 0.002342984632064071 0 0.0058676226254278695 0.0023400166184312176 0 0.0058118539101300951 0.0023458757989681298 0 0.005838178372110891 0.0023478371576987366 0 0.0058464038364123066 0.002342984632064071 0 0.0058373435059910972 0.0023518935615221368 0 0.005838178372110891 0.0023478371576987366 0 0.0058679740011888127 0.0023486686591736518 0 0.005838178372110891 0.0023478371576987366 0 0.0058676226254278695 0.0023400166184312176 0 0.0058679740011888127 0.0023486686591736518 0 0.0058676226254278695 0.0023400166184312176 0 0.0058946246817956315 0.0023291874192804484 0 0.0058679740011888127 0.0023486686591736518 0 0.0058464038364123066 0.002342984632064071 0 0.0058676226254278695 0.0023400166184312176 0 0.0058609856074690742 0.0023389184719244311 0 0.0058808588286040145 0.0023333986859930497 0 0.0059066224618720964 0.0023217970710722818 0 0.0058708268606443743 0.0023373055121309774 0 0.0058609856074690742 0.0023389184719244311 0 0.0058808588286040145 0.0023333986859930497 0 0.0058708268606443743 0.0023373055121309774 0 0.0058676226254278695 0.0023400166184312176 0 0.0058609856074690742 0.0023389184719244311 0 0.0058808588286040145 0.0023333986859930497 0 0.0058676226254278695 0.0023400166184312176 0 0.0058808588286040145 0.0023333986859930497 0 0.0058946246817956315 0.0023291874192804484 0 0.0058808588286040145 0.0023333986859930497 0 0.0058946246817956315 0.0023291874192804484 0 0.0059066224618720964 0.0023217970710722818 0 0.0063164879378195676 0.0026309657267461679 0 0.0064196720634521745 0.0026776397904222124 0 0.0064166426080740861 0.0026749694984277718 0 0.0059066224618720964 0.0023217970710722818 0 0.0059566491038491182 0.0023137303795501378 0 0.0059478022605981276 0.0023019860944356292 0 0.0067968046887340369 0.0026429478373669163 0 0.0060675122029933935 0.0024251147265019774 0 0.0063164879378195676 0.0026309657267461679 0 0.0063079829364089211 0.0026121326421492362 0 0.0064196720634521745 0.0026776397904222124 0 0.0058946246817956315 0.0023291874192804484 0 0.0059066224618720964 0.0023217970710722818 0 0.0059478022605981276 0.0023019860944356292 0 0.0059066224618720964 0.0023217970710722818 0 0.0058708268606443743 0.0023373055121309774 0 0.0059566491038491182 0.0023137303795501378 0 0.0063164879378195676 0.0026309657267461679 0 0.0065420694099938949 0.0027127649240195131 0 0.0064166426080740861 0.0026749694984277718 0 0.0063164879378195676 0.0026309657267461679 0 0.0061384904156171352 0.0025903920432124744 0 0.0059809161831285377 0.0027411944922910267 0 0.00632905942813442 0.0026228075492923555 0 0.00627505818581471 0.0027126449365367424 0 0.0063164879378195676 0.0026309657267461679 0 0.0061384904156171352 0.0025903920432124744 0 0.0063079829364089211 0.0026121326421492362 0 0.0013051616842971372 0.0023316461937720454 0 0.0067968046887340369 0.0026429478373669163 0 0.0060274411435758419 0.0022218042007406116 0 0.0061384904156171352 0.0025903920432124744 0 0.0063079829364089211 0.0026121326421492362 0 0.0057794983072483033 0.0023476668964590068 0 0.0058708268606443743 0.0023373055121309774 0 0.0058324135703848876 0.002342671898415266 0 0.0058609856074690742 0.0023389184719244311 0 0.0058708268606443743 0.0023373055121309774 0 0.0058324135703848876 0.002342671898415266 0 0.0058464038364123066 0.002342984632064071 0 0.0058609856074690742 0.0023389184719244311 0 0.0058324135703848876 0.002342671898415266 0 0.0060274411435758419 0.0022218042007406116 0 0.0061384904156171352 0.0025903920432124744 0 0.0059987678474299373 0.0025910329531104257 0 0.0013051616842971372 0.0023316461937720454 0 0.0029376589988860851 0.0024408555371553398 0 0.0060274411435758419 0.0022218042007406116 0 0.0059987678474299373 0.0025910329531104257 0 0.0058626573763348446 0.0025466813209888725 0 9.5097993329076878e-06 0.0028909803939599224 0 -0.00042530584808122304 0.0024517660973962232 0 0.00022406762337812258 0.0023956074085635017 0 9.5097993329076878e-06 0.0028909803939599224 0 -0.00057675957782739329 0.0026766495743403866 0 -0.00042530584808122304 0.0024517660973962232 0 0.0058626573763348446 0.0025466813209888725 0 0.0058927694089534518 0.0026460195005300773 0 0.0057535496856198085 0.0026067059005181015 0 -0.00042530584808122304 0.0024517660973962232 0 0.00022406762337812258 0.0023956074085635017 0 1.3593231979440435e-05 0.0018538297671756028 0 0.0029376589988860851 0.0024408555371553398 0 0.0027483373152883553 0.0023119762245120503 0 0.0061384904156171352 0.0025903920432124744 0 0.0059987678474299373 0.0025910329531104257 0 0.0059809161831285377 0.0027411944922910267 0 0.0059987678474299373 0.0025910329531104257 0 0.0058927694089534518 0.0026460195005300773 0 0.0059809161831285377 0.0027411944922910267 0 0.0059987678474299373 0.0025910329531104257 0 0.0058626573763348446 0.0025466813209888725 0 0.0058927694089534518 0.0026460195005300773 0 0.0058927694089534518 0.0026460195005300773 0 0.0059809161831285377 0.0027411944922910267 0 0.0059782245381974032 0.0026768678379423109 0 0.0059809161831285377 0.0027411944922910267 0 0.0059782245381974032 0.0026768678379423109 0 0.005954905567362649 0.0025353232607404313 0 0.00627505818581471 0.0027126449365367424 0 0.0064847069803553072 0.0025092992137065529 0 0.0058678088278328617 0.0026742993354478234 0 0.0059916606697279834 0.0024760016962712674 0 0.0058927694089534518 0.0026460195005300773 0 0.0057065431656303633 0.0025219425097456586 0 0.0057535496856198085 0.0026067059005181015 0 0.0058927694089534518 0.0026460195005300773 0 0.0059782245381974032 0.0026768678379423109 0 0.0060890141287934848 0.0026835365459372605 0 0.0060890141287934848 0.0026835365459372605 0 0.005954905567362649 0.0025353232607404313 0 0.006226275065885232 0.0023428158294038107 0 0.0059782245381974032 0.0026768678379423109 0 0.0060890141287934848 0.0026835365459372605 0 0.005954905567362649 0.0025353232607404313 0 0.0065420694099938949 0.0027127649240195131 0 0.0069266463732096609 0.0025974156081313492 0 0.0066614685472471671 0.0025951087602688167 0 0.0066559226416447164 0.0025415039019876969 0 0.006535031587148534 0.0025963040792175078 0 0.0066396073327973761 0.0024322653526949807 0 0.0065420694099938949 0.0027127649240195131 0 0.0066614685472471671 0.0025951087602688167 0 0.006535031587148534 0.0025963040792175078 0 0.0066614685472471671 0.0025951087602688167 0 0.0066559226416447164 0.0025415039019876969 0 0.006535031587148534 0.0025963040792175078 0 0.0069266463732096609 0.0025974156081313492 0 0.0066614685472471671 0.0025951087602688167 0 0.0067602060697790371 0.002537788321856008 0 0.0067602060697790371 0.002537788321856008 0 0.0066559226416447164 0.0025415039019876969 0 0.0067140724759729604 0.0024773733276909214 0 0.0066614685472471671 0.0025951087602688167 0 0.0067602060697790371 0.002537788321856008 0 0.0066559226416447164 0.0025415039019876969 0 0.006535031587148534 0.0025963040792175078 0 0.0064495023602492534 0.0026068260214567435 0 0.0064685811303257148 0.0025129942071355866 0 0.0064495023602492534 0.0026068260214567435 0 0.0064196720634521745 0.0026776397904222124 0 0.0062914156273680411 0.0025386956167098972 0 0.0064495023602492534 0.0026068260214567435 0 0.0064685811303257148 0.0025129942071355866 0 0.0062914156273680411 0.0025386956167098972 0 0.0064495023602492534 0.0026068260214567435 0 0.0064196720634521745 0.0026776397904222124 0 0.0064166426080740861 0.0026749694984277718 0 0.006535031587148534 0.0025963040792175078 0 0.0064495023602492534 0.0026068260214567435 0 0.0064166426080740861 0.0026749694984277718 0 0.0065420694099938949 0.0027127649240195131 0 0.006535031587148534 0.0025963040792175078 0 0.0064166426080740861 0.0026749694984277718 0 0.0028968134610140592 0.0012152757665557586 0 0.0027076779801736804 0.0018761476590427068 0 0.0020434200981954897 0.0014709284408217309 0 0.0028968134610140592 0.0012152757665557586 0 0.0020434200981954897 0.0014709284408217309 0 0.0022789965045195478 0.00055879538892174329 0 0.0033008372202881137 0.0017463882698043501 0 0.0028968134610140592 0.0012152757665557586 0 0.0027076779801736804 0.0018761476590427068 0 0.00062242165291894781 0.0028504507113821585 0 0.0031925017579121123 0.0022745093051354279 0 0.0031895352755691008 0.0026049715812013073 0 0.0023088586545049459 0.0025359209907968713 0 0.0027076779801736804 0.0018761476590427068 0 0.0032720023215918452 0.0028158946970813135 0 0.0033008372202881137 0.0017463882698043501 0 0.0027076779801736804 0.0018761476590427068 0 0.0023088586545049459 0.0025359209907968713 0 0.0020434200981954897 0.0014709284408217309 0 0.00159089907578218 0.0021132266297188658 0 0.0023088586545049459 0.0025359209907968713 0 0.0027076779801736804 0.0018761476590427068 0 0.0020434200981954897 0.0014709284408217309 0 0.0020434200981954897 0.0014709284408217309 0 0.0012886157148021121 0.0010000361854450779 0 0.0022789965045195478 0.00055879538892174329 0 0.00059569392249719322 0.0019049495448031674 0 0.00074357912428407106 0.0025130407959445102 0 0.00022406762337812258 0.0023956074085635017 0 0.00057299147941148969 0.0011259401233592572 0 0.0013051645549451631 0.0024325491011061265 0 0.0020434200981954897 0.0014709284408217309 0 0.0012886157148021121 0.0010000361854450779 0 0.00159089907578218 0.0021132266297188658 0 0.00039298989184175708 0.0027282943807023854 0 0.00074357912428407106 0.0025130407959445102 0 0.00022406762337812258 0.0023956074085635017 0 9.5097993329076878e-06 0.0028909803939599224 0 0.00039298989184175708 0.0027282943807023854 0 0.00022406762337812258 0.0023956074085635017 0 0.00059569392249719322 0.0019049495448031674 0 0.00022406762337812258 0.0023956074085635017 0 1.3593231979440435e-05 0.0018538297671756028 0 0.00059569392249719322 0.0019049495448031674 0 1.3593231979440435e-05 0.0018538297671756028 0 0.00045251951913484711 0.0012930404747827082 0 0.0057065431656303633 0.0025219425097456586 0 0.0057535496856198085 0.0026067059005181015 0 0.0058101490623299517 0.0024264352560944432 0 0.0027483373152883553 0.0023119762245120503 0 0.0037413106449711068 0.0016786972588651002 0 0.0059916606697279834 0.0024760016962712674 0 0.005784824580688323 0.0026049190308196704 0 0.0060890141287934848 0.0026835365459372605 0 0.006226275065885232 0.0023428158294038107 0 0.0065627179113472859 0.0021615554650188558 0 0.0057065431656303633 0.0025219425097456586 0 0.0057259358594643544 0.0024086182805887445 0 0.0057388730845964716 0.002219596552900186 0 0.0057065431656303633 0.0025219425097456586 0 0.0057259358594643544 0.0024086182805887445 0 0.0058101490623299517 0.0024264352560944432 0 0.0057259358594643544 0.0024086182805887445 0 0.0057669784564879081 0.0023249080639870441 0 0.0057388730845964716 0.002219596552900186 0 0.0057259358594643544 0.0024086182805887445 0 0.0057669784564879081 0.0023249080639870441 0 0.005769757634726271 0.0023420358972276257 0 0.0061597482937793564 0.0022715511183049688 0 0.0037413106449711068 0.0016786972588651002 0 0.0058010672686399653 0.0021747486860571224 0 0.0057633484365808814 0.0021635357555866938 0 0.0057957950266934403 0.0022109684193757492 0 0.0010069390783645981 -8.7882294153172533e-05 0 0.0014934323381751091 0.00022606611147651652 0 0.0019292439801186878 -0.00019581189962870245 0 0.0037413106449711068 0.0016786972588651002 0 0.003720004242158759 0.0010141908912696862 0 0.00409051509957843 0.0020791541806129826 0 0.0037413106449711068 0.0016786972588651002 0 0.0057777705369521934 0.0023558478741673447 0 0.0057957950266934403 0.0022109684193757492 0 0.0057728235277846379 0.0022560686887166271 0 0.0037413106449711068 0.0016786972588651002 0 0.0056872205681906532 0.0019134359579620396 0 0.0057669784564879081 0.0023249080639870441 0 0.0057777705369521934 0.0023558478741673447 0 0.0057728235277846379 0.0022560686887166271 0 0.00057299147941148969 0.0011259401233592572 0 0.0037413106449711068 0.0016786972588651002 0 0.0012886157148021121 0.0010000361854450779 0 0.0010069390783645981 -8.7882294153172533e-05 0 0.0014934323381751091 0.00022606611147651652 0 0.0012886157148021121 0.0010000361854450779 0 0.0014934323381751091 0.00022606611147651652 0 0.0022789965045195478 0.00055879538892174329 0 0.0014934323381751091 0.00022606611147651652 0 0.0022789965045195478 0.00055879538892174329 0 0.0019292439801186878 -0.00019581189962870245 0 0.003720004242158759 0.0010141908912696862 0 0.004549755281666846 -9.8271102672981236e-05 0 0.0057633484365808814 0.0021635357555866938 0 0.0056997793066282205 0.0021380077749375863 0 0.0057778055813039915 0.0022012623917984663 0 0.0022789965045195478 0.00055879538892174329 0 0.0019292439801186878 -0.00019581189962870245 0 0.0028391092242083496 -0.00025848593895297237 0 0.0035289197507865624 0.00050270046645557785 0 0.0022789965045195478 0.00055879538892174329 0 0.0028391092242083496 -0.00025848593895297237 0 0.0035289197507865624 0.00050270046645557785 0 0.0028968134610140592 0.0012152757665557586 0 0.0022789965045195478 0.00055879538892174329 0 0.0085463867808303097 -0.001357979947192087 0 0.0091654308108223958 -0.0013056670821013565 0 0.010047373831801761 -0.0022507954615248117 0 0.010216682844498457 -0.0020240029597130759 0 0.010440116757760805 -0.0021146245693503779 0 0.0070369117644191771 -0.00054397649175702914 0 0.0074132164318893657 -0.00070315466524251613 0 0.007598782251959221 -0.00037821243410440173 0 0.010216682844498457 -0.0020240029597130759 0 0.010440116757760805 -0.0021146245693503779 0 0.010486892488884089 -0.0018904838735589531 0 0.0070369117644191771 -0.00054397649175702914 0 0.0073326784049041333 -0.0011814315941165274 0 0.0074132164318893657 -0.00070315466524251613 0 0.0073326784049041333 -0.0011814315941165274 0 0.0074132164318893657 -0.00070315466524251613 0 0.0077575478812468004 -0.00071212683357208689 0 0.004549755281666846 -9.8271102672981236e-05 0 0.0069129358007400587 0.0010013969525497902 0 0.0074132164318893657 -0.00070315466524251613 0 0.0077575478812468004 -0.00071212683357208689 0 0.007598782251959221 -0.00037821243410440173 0 0.0057633484365808814 0.0021635357555866938 0 0.0057778055813039915 0.0022012623917984663 0 0.0057957950266934403 0.0022109684193757492 0 0.010440116757760805 -0.0021146245693503779 0 0.010729786050036294 -0.0019525602867766681 0 0.010486892488884089 -0.0018904838735589531 0 0.0077575478812468004 -0.00071212683357208689 0 0.007598782251959221 -0.00037821243410440173 0 0.0081971533957005353 -0.00021597075772890998 0 0.010440116757760805 -0.0021146245693503779 0 0.010759464375964893 -0.0020034575991487416 0 0.010729786050036294 -0.0019525602867766681 0 0.0091654308108223958 -0.0013056670821013565 0 0.0085006940644064381 -8.3421326195185798e-06 0 0.0069129358007400587 0.0010013969525497902 0 0.0085006940644064381 -8.3421326195185798e-06 0 0.0057778055813039915 0.0022012623917984663 0 0.0058132348084982775 0.0021491905395333039 0 0.005791454617099092 0.0021948700657673679 0 0.0085006940644064381 -8.3421326195185798e-06 0 0.005784824580688323 0.0026049190308196704 0 0.0058132348084982775 0.0021491905395333039 0 0.0057854751550868418 0.0021864053150344735 0 0.0057388730845964716 0.002219596552900186 0 0.0072134824032131948 0.0011945773563915671 0 0.0067776515980766646 0.0016181400261511738 0 0.0065627179113472859 0.0021615554650188558 0 0.0085006940644064381 -8.3421326195185798e-06 0 0.0093097541200227469 -0.0010677807126338919 0 0.0085006940644064381 -8.3421326195185798e-06 0 0.0085973702775365719 0.00033989808631040505 0 0.010757098046566221 -0.0019980327642924109 0 0.010795075486514188 -0.0019586881806841713 0 0.010729786050036294 -0.0019525602867766681 0 0.0085006940644064381 -8.3421326195185798e-06 0 0.010562687246533557 -0.0014093908470737626 0 0.0085973702775365719 0.00033989808631040505 0 0.010562687246533557 -0.0014093908470737626 0 0.0088515289748395294 -0.00034196407645148235 0 0.010431368373574678 6.5346759834473235e-05 0 0.0097582125838805052 0.00083629983764228429 0 0.0072134824032131948 0.0011945773563915671 0 0.0070185302147605074 0.0011405984032475903 0 0.0067776515980766646 0.0016181400261511738 0 0.0085973702775365719 0.00033989808631040505 0 0.0084427512282206456 0.00045902355672340043 0 0.0058132348084982775 0.0021491905395333039 0 0.0057854751550868418 0.0021864053150344735 0 0.005791454617099092 0.0021948700657673679 0 0.005791454617099092 0.0021948700657673679 0 0.0057957950266934403 0.0022109684193757492 0 0.0057815630161789826 0.0022117515501173459 0 0.0057778055813039915 0.0022012623917984663 0 0.005791454617099092 0.0021948700657673679 0 0.0057957950266934403 0.0022109684193757492 0 0.0057728235277846379 0.0022560686887166271 0 0.0057815630161789826 0.0022117515501173459 0 0.0057388730845964716 0.002219596552900186 0 0.0057957950266934403 0.0022109684193757492 0 0.0057728235277846379 0.0022560686887166271 0 0.0057815630161789826 0.0022117515501173459 0 0.0057854751550868418 0.0021864053150344735 0 0.005791454617099092 0.0021948700657673679 0 0.0057815630161789826 0.0022117515501173459 0 0.0057854751550868418 0.0021864053150344735 0 0.0057815630161789826 0.0022117515501173459 0 0.0057388730845964716 0.002219596552900186 0 0.0067776515980766646 0.0016181400261511738 0 0.0065627179113472859 0.0021615554650188558 0 0.0063229518322213607 0.0019730637092446892 0 0.0057669784564879081 0.0023249080639870441 0 0.0057728235277846379 0.0022560686887166271 0 0.0057388730845964716 0.002219596552900186 0 0.006226275065885232 0.0023428158294038107 0 0.0065627179113472859 0.0021615554650188558 0 0.0063229518322213607 0.0019730637092446892 0 0.0076889103264975549 0.001782684110784135 0 0.0079979647571608858 0.0011437750741256189 0 0.007381570641768441 0.0014459068211080794 0 0.0070185302147605074 0.0011405984032475903 0 0.0067776515980766646 0.0016181400261511738 0 0.0063229518322213607 0.0019730637092446892 0 0.0082370095039118133 0.00060286015736258248 0 0.0083044166424923512 -4.4241384177105917e-06 0 0.007381570641768441 0.0014459068211080794 0 0.0085973702775365719 0.00033989808631040505 0 0.0068719662460803837 0.0020136946151151722 0 0.011117419804268964 -0.0012791890937366324 0 0.0064561322962317994 0.0025650329620832864 0 0.008692073795740593 0.00073806686175209623 0 0.0076889103264975549 0.001782684110784135 0 0.0079979647571608858 0.0011437750741256189 0 0.008692073795740593 0.00073806686175209623 0 0.0079979647571608858 0.0011437750741256189 0 0.0082370095039118133 0.00060286015736258248 0 0.0079979647571608858 0.0011437750741256189 0 0.0082370095039118133 0.00060286015736258248 0 0.007381570641768441 0.0014459068211080794 0 0.0069273570553263619 0.0022901478020227934 0 0.0069539057806985551 0.0022727299028965919 0 0.0069359951909085211 0.0023487895763879118 0 0.0069273570553263619 0.0022901478020227934 0 0.0069539057806985551 0.0022727299028965919 0 0.0069133359057021735 0.0023595738737559719 0 0.015047066090786659 -0.0046406910543176369 0 0.015187843598865373 -0.002858166579754272 0 0.016619926476311751 -0.0027857145087666342 0 0.011117419804268964 -0.0012791890937366324 0 0.011761921929769553 -0.00019951009949399322 0 0.014745758734494392 -0.0044806127775470043 0 0.013741643195250126 -0.0040271079245194344 0 0.013679625869380669 -0.0026327507652841443 0 0.015047066090786659 -0.0046406910543176369 0 0.015187843598865373 -0.002858166579754272 0 0.013679625869380669 -0.0026327507652841443 0 0.011117419804268964 -0.0012791890937366324 0 0.015085083003076732 -0.0042512521063332474 0 0.013741643195250126 -0.0040271079245194344 0 0.014054404461017031 -0.0053034507851801253 0 0.012466368976329172 -0.0036474856926153867 0 0.010795075486514188 -0.0019586881806841713 0 0.010729786050036294 -0.0019525602867766681 0 0.010554608939308961 -0.0016460870605357414 0 0.014745758734494392 -0.0044806127775470043 0 0.013741643195250126 -0.0040271079245194344 0 0.014054404461017031 -0.0053034507851801253 0 0.0087088190669024623 0.00071629519349658479 0 0.0082370095039118133 0.00060286015736258248 0 0.0088195651950733322 0.00058964964374941915 0 0.0082370095039118133 0.00060286015736258248 0 0.0083044166424923512 -4.4241384177105917e-06 0 0.0088195651950733322 0.00058964964374941915 0 0.011117419804268964 -0.0012791890937366324 0 0.010562687246533557 -0.0014093908470737626 0 0.010562687246533557 -0.0014093908470737626 0 0.011948195814580242 -0.0031198704677670589 0 0.010729786050036294 -0.0019525602867766681 0 0.010486892488884089 -0.0018904838735589531 0 0.010554608939308961 -0.0016460870605357414 0 0.012466368976329172 -0.0036474856926153867 0 0.012214060196281145 -0.0018521954446667382 0 0.013679625869380669 -0.0026327507652841443 0 0.013741643195250126 -0.0040271079245194344 0 0.012466368976329172 -0.0036474856926153867 0 0.013679625869380669 -0.0026327507652841443 0 0.011948195814580242 -0.0031198704677670589 0 0.010415672372097638 -0.0011451993028687762 0 0.010554608939308961 -0.0016460870605357414 0 0.010402444020903854 -0.0015298197347768442 0 0.01027066491352205 -0.0017781046677753085 0 0.010554608939308961 -0.0016460870605357414 0 0.010402444020903854 -0.0015298197347768442 0 0.010577639497411206 -0.0012710708227228506 0 0.010028543510043394 -0.0015410320742265398 0 0.010402444020903854 -0.0015298197347768442 0 0.010269383236015683 -0.0014234614555198733 0 0.010028543510043394 -0.0015410320742265398 0 0.010402444020903854 -0.0015298197347768442 0 0.01027066491352205 -0.0017781046677753085 0 0.010486892488884089 -0.0018904838735589531 0 0.010554608939308961 -0.0016460870605357414 0 0.01027066491352205 -0.0017781046677753085 0 0.010216682844498457 -0.0020240029597130759 0 0.010486892488884089 -0.0018904838735589531 0 0.01027066491352205 -0.0017781046677753085 0 0.006648921237328324 0.0024595139818854215 0 0.0066674616512816167 0.0024614102378169187 0 0.0064936229671911693 0.0024713440739818444 0 0.0066396073327973761 0.0024322653526949807 0 0.00635929107987015 0.0025924481233416843 0 0.0064936229671911693 0.0024713440739818444 0 0.0065789686425270395 0.002502111526770723 0 0.00635929107987015 0.0025924481233416843 0 0.0064936229671911693 0.0024713440739818444 0 0.0065789686425270395 0.002502111526770723 0 0.0064464715924738552 0.0025086393892399124 0 0.0064464715924738552 0.0025086393892399124 0 0.0064685811303257148 0.0025129942071355866 0 0.0062914156273680411 0.0025386956167098972 0 0.0064936229671911693 0.0024713440739818444 0 0.0064464715924738552 0.0025086393892399124 0 0.0064685811303257148 0.0025129942071355866 0 0.006535031587148534 0.0025963040792175078 0 0.0064685811303257148 0.0025129942071355866 0 0.0066396073327973761 0.0024322653526949807 0 0.0064936229671911693 0.0024713440739818444 0 0.0064685811303257148 0.0025129942071355866 0 0.0066396073327973761 0.0024322653526949807 0 0.0067602060697790371 0.002537788321856008 0 0.0067140724759729604 0.0024773733276909214 0 0.0068118904346544419 0.0024158481779808089 0 0.0066396073327973761 0.0024322653526949807 0 0.0068118904346544419 0.0024158481779808089 0 0.0068636537753036788 0.0023094547310091407 0 0.0066559226416447164 0.0025415039019876969 0 0.0067140724759729604 0.0024773733276909214 0 0.0066396073327973761 0.0024322653526949807 0 0.0067140724759729604 0.0024773733276909214 0 0.0066396073327973761 0.0024322653526949807 0 0.0068118904346544419 0.0024158481779808089 0 0.0067602060697790371 0.002537788321856008 0 0.0068118904346544419 0.0024158481779808089 0 0.0069359951909085211 0.0023487895763879118 0 0.0070545475328811372 0.0021918411617172584 0 0.0064561322962317994 0.0025650329620832864 0 0.0064847069803553072 0.0025092992137065529 0 0.0068719662460803837 0.0020136946151151722 0 0.0069266463732096609 0.0025974156081313492 0 0.0067602060697790371 0.002537788321856008 0 0.007381570641768441 0.0014459068211080794 0 0.0069266463732096609 0.0025974156081313492 0 0.0076889103264975549 0.001782684110784135 0 0.007381570641768441 0.0014459068211080794 0 0.005954905567362649 0.0025353232607404313 0 0.006226275065885232 0.0023428158294038107 0 0.0063229518322213607 0.0019730637092446892 0 0.0069273570553263619 0.0022901478020227934 0 0.0069359951909085211 0.0023487895763879118 0 0.0069058957694311104 0.0023117605346501115 0 0.0069359951909085211 0.0023487895763879118 0 0.0068793952409383725 0.0023414750199821839 0 0.0069058957694311104 0.0023117605346501115 0 0.0068118904346544419 0.0024158481779808089 0 0.0069359951909085211 0.0023487895763879118 0 0.0068793952409383725 0.0023414750199821839 0 0.0068118904346544419 0.0024158481779808089 0 0.0068793952409383725 0.0023414750199821839 0 0.0068636537753036788 0.0023094547310091407 0 0.0068793952409383725 0.0023414750199821839 0 0.0069058957694311104 0.0023117605346501115 0 0.0068636537753036788 0.0023094547310091407 0 0.0066396073327973761 0.0024322653526949807 0 0.0068636537753036788 0.0023094547310091407 0 0.0069480184532912086 0.0022690252196014937 0 0.0069306949508927225 0.0022953846402454679 0 0.0070123204973787066 0.0023450316804610916 0 0.0069480184532912086 0.0022690252196014937 0 0.0068636537753036788 0.0023094547310091407 0 0.0069306949508927225 0.0022953846402454679 0 0.0069480184532912086 0.0022690252196014937 0 0.0069306949508927225 0.0022953846402454679 0 0.0069248723308356439 0.0022938286085524033 0 0.0070123204973787066 0.0023450316804610916 0 0.0068636537753036788 0.0023094547310091407 0 0.0069306949508927225 0.0022953846402454679 0 0.0069248723308356439 0.0022938286085524033 0 0.0069273570553263619 0.0022901478020227934 0 0.0069058957694311104 0.0023117605346501115 0 0.0069248723308356439 0.0022938286085524033 0 0.0069058957694311104 0.0023117605346501115 0 0.0068636537753036788 0.0023094547310091407 0 0.0069248723308356439 0.0022938286085524033 0 0.0069248723308356439 0.0022938286085524033 0 0.0069133359057021735 0.0023595738737559719 0 0.0070123204973787066 0.0023450316804610916 0 0.0069273570553263619 0.0022901478020227934 0 0.0069248723308356439 0.0022938286085524033 0 0.0069133359057021735 0.0023595738737559719 0 0.0070123204973787066 0.0023450316804610916 0 0.0072500458141030082 0.0023873981697335274 0 0.0069480184532912086 0.0022690252196014937 0 0.0068132159394445309 0.0027826610364103731 0 0.0066674616512816167 0.0024614102378169187 0 0.0065789686425270395 0.002502111526770723 0 0.00635929107987015 0.0025924481233416843 0 0.0066769042453414824 0.0028418991949767164 0 0.0063799480664506886 0.0031426240509729365 0 0.0066769042453414824 0.0028418991949767164 0 0.0069138205504476503 0.0031875067603106821 0 0.0063799480664506886 0.0031426240509729365 0 0.00635929107987015 0.0025924481233416843 0 0.0066769042453414824 0.0028418991949767164 0 0.0066769042453414824 0.0028418991949767164 0 0.0069138205504476503 0.0031875067603106821 0 0.0070538036038176903 0.0029129592860730742 0 0.0070538036038176903 0.0029129592860730742 0 0.0073301853600870994 0.0027940252001864164 0 0.0073810806279226556 0.0031772049808107303 0 0.0069138205504476503 0.0031875067603106821 0 0.0070538036038176903 0.0029129592860730742 0 0.0073810806279226556 0.0031772049808107303 0 0.0073301853600870994 0.0027940252001864164 0 0.0073252992819734641 0.0025009299433137828 0 0.0069805909970388266 0.0025338291336014823 0 0.0070538036038176903 0.0029129592860730742 0 0.0073301853600870994 0.0027940252001864164 0 0.0069805909970388266 0.0025338291336014823 0 0.0065789686425270395 0.002502111526770723 0 0.0066769042453414824 0.0028418991949767164 0 0.0069805909970388266 0.0025338291336014823 0 0.0066769042453414824 0.0028418991949767164 0 0.0070538036038176903 0.0029129592860730742 0 0.0069805909970388266 0.0025338291336014823 0 0.0078587823926099861 0.0029062799958693443 0 0.0078685550427753433 0.0031595524631733343 0 0.0080602025564039254 0.003056697345737238 0 0.0078587823926099861 0.0029062799958693443 0 0.0080696907082999248 0.0028529828490906997 0 0.0080602025564039254 0.003056697345737238 0 0.0078685550427753433 0.0031595524631733343 0 0.0080602025564039254 0.003056697345737238 0 0.0081736824553690912 0.003308164904452853 0 0.0078685550427753433 0.0031595524631733343 0 0.0076099963462051496 0.0029238450365161733 0 0.0076288693736151474 0.0031682252383802016 0 0.0078587823926099861 0.0029062799958693443 0 0.0078685550427753433 0.0031595524631733343 0 0.0076099963462051496 0.0029238450365161733 0 0.0073301853600870994 0.0027940252001864164 0 0.0076099963462051496 0.0029238450365161733 0 0.0073810806279226556 0.0031772049808107303 0 0.0076099963462051496 0.0029238450365161733 0 0.0076288693736151474 0.0031682252383802016 0 0.0073810806279226556 0.0031772049808107303 0 0.0073301853600870994 0.0027940252001864164 0 0.0076099963462051496 0.0029238450365161733 0 0.0075376115687654874 0.0026706439203053219 0 0.0073301853600870994 0.0027940252001864164 0 0.0075376115687654874 0.0026706439203053219 0 0.0073252992819734641 0.0025009299433137828 0 0.0075376115687654874 0.0026706439203053219 0 0.0077901991243604311 0.0026597235835136217 0 0.0075405186787419589 0.002417135714098493 0 0.0076099963462051496 0.0029238450365161733 0 0.0075376115687654874 0.0026706439203053219 0 0.0077901991243604311 0.0026597235835136217 0 0.0078587823926099861 0.0029062799958693443 0 0.0076099963462051496 0.0029238450365161733 0 0.0077901991243604311 0.0026597235835136217 0 0.0077901991243604311 0.0026597235835136217 0 0.008058052499299197 0.0025674986392401917 0 0.0080696907082999248 0.0028529828490906997 0 0.0078587823926099861 0.0029062799958693443 0 0.0077901991243604311 0.0026597235835136217 0 0.0080696907082999248 0.0028529828490906997 0 0.0077901991243604311 0.0026597235835136217 0 0.0077614730336859668 0.0023211516339569803 0 0.0075405186787419589 0.002417135714098493 0 0.0077901991243604311 0.0026597235835136217 0 0.0077614730336859668 0.0023211516339569803 0 0.008058052499299197 0.0025674986392401917 0 0.0077614730336859668 0.0023211516339569803 0 0.0075405186787419589 0.002417135714098493 0 0.0075354614934150278 0.0021594080443820057 0 0.0075376115687654874 0.0026706439203053219 0 0.0075405186787419589 0.002417135714098493 0 0.0073252992819734641 0.0025009299433137828 0 0.0075405186787419589 0.002417135714098493 0 0.0075354614934150278 0.0021594080443820057 0 0.0073022571457779075 0.0022081891385725069 0 0.0075405186787419589 0.002417135714098493 0 0.0073252992819734641 0.0025009299433137828 0 0.0073022571457779075 0.0022081891385725069 0 0.0075354614934150278 0.0021594080443820057 0 0.007742552061400401 0.0019511603098923405 0 0.007322817532949135 0.0019094905313841687 0 0.0075354614934150278 0.0021594080443820057 0 0.0073022571457779075 0.0022081891385725069 0 0.007322817532949135 0.0019094905313841687 0 0.0077614730336859668 0.0023211516339569803 0 0.0075354614934150278 0.0021594080443820057 0 0.007742552061400401 0.0019511603098923405 0 0.0077614730336859668 0.0023211516339569803 0 0.007742552061400401 0.0019511603098923405 0 0.0080662413296543212 0.0022320143279939931 0 0.0065651905963672137 0.0024943412949204194 0 0.0066660881693480206 0.0023803128134069762 0 0.0065789686425270395 0.002502111526770723 0 0.0064464715924738552 0.0025086393892399124 0 0.0063173348567232323 0.0025541647655213783 0 0.0065789686425270395 0.002502111526770723 0 0.0069805909970388266 0.0025338291336014823 0 0.0069819954128880228 0.0021791476981225387 0 0.0071460801036496765 0.0023545710538687122 0 0.0073022571457779075 0.0022081891385725069 0 0.0069819954128880228 0.0021791476981225387 0 0.0073252992819734641 0.0025009299433137828 0 0.0069805909970388266 0.0025338291336014823 0 0.0071460801036496765 0.0023545710538687122 0 0.0069805909970388266 0.0025338291336014823 0 0.0071460801036496765 0.0023545710538687122 0 0.0069819954128880228 0.0021791476981225387 0 0.0073252992819734641 0.0025009299433137828 0 0.0071460801036496765 0.0023545710538687122 0 0.0073022571457779075 0.0022081891385725069 0 0.0073022571457779075 0.0022081891385725069 0 0.0069819954128880228 0.0021791476981225387 0 0.007322817532949135 0.0019094905313841687 0 0.0063173348567232323 0.0025541647655213783 0 0.0063515866760641155 0.0025172268822935581 0 0.0065970292145771658 0.0025800387834960122 0 0.0066660881693480206 0.0023803128134069762 0 0.0069696347038753735 0.0022269054236138492 0 0.0062914156273680411 0.0025386956167098972 0 0.0063173348567232323 0.0025541647655213783 0 0.0063515866760641155 0.0025172268822935581 0 0.0064464715924738552 0.0025086393892399124 0 0.0062914156273680411 0.0025386956167098972 0 0.0063173348567232323 0.0025541647655213783 0 0.0062914156273680411 0.0025386956167098972 0 0.0062221116021582727 0.002314909846803694 0 0.0063515866760641155 0.0025172268822935581 0 0.0060675122029933935 0.0024251147265019774 0 0.0063139589324976535 0.0025639260846253647 0 0.0062914156273680411 0.0025386956167098972 0 0.0060633654662042213 0.0022838428608031804 0 0.0062221116021582727 0.002314909846803694 0 0.0059566491038491182 0.0023137303795501378 0 0.0060633654662042213 0.0022838428608031804 0 0.0059478022605981276 0.0023019860944356292 0 0.0059566491038491182 0.0023137303795501378 0 0.0062914156273680411 0.0025386956167098972 0 0.0060633654662042213 0.0022838428608031804 0 0.0060633654662042213 0.0022838428608031804 0 0.0062221116021582727 0.002314909846803694 0 0.0058823328178318566 0.0022929296933140984 0 0.0062221116021582727 0.002314909846803694 0 0.0067378843751172398 0.0020963560238671632 0 0.006645430674510568 0.0016168661258701242 0 0.0061988866639625956 0.0022903297813237347 0 0.0062606098320340331 0.0020011037167839973 0 0.0062221116021582727 0.002314909846803694 0 0.0065970292145771658 0.0025800387834960122 0 0.0067378843751172398 0.0020963560238671632 0 0.0062221116021582727 0.002314909846803694 0 0.0063515866760641155 0.0025172268822935581 0 0.0065970292145771658 0.0025800387834960122 0 0.0069696347038753735 0.0022269054236138492 0 0.0074217203531107877 0.0018881615455044452 0 0.007742552061400401 0.0019511603098923405 0 0.007322817532949135 0.0019094905313841687 0 0.007607414370639819 0.0016564360833760481 0 0.0065970292145771658 0.0025800387834960122 0 0.0072527156219807576 0.0021470581779735563 0 0.0067378843751172398 0.0020963560238671632 0 0.007742552061400401 0.0019511603098923405 0 0.007607414370639819 0.0016564360833760481 0 0.0078784777687638582 0.0016335594121402045 0 0.0074217203531107877 0.0018881615455044452 0 0.0077435778801345596 0.0015478405532821642 0 0.007607414370639819 0.0016564360833760481 0 0.0077653792768849639 0.0015044938466087011 0 0.0078784777687638582 0.0016335594121402045 0 0.0072527156219807576 0.0021470581779735563 0 0.0072080341966949332 0.0015755612436821902 0 0.0077653792768849639 0.0015044938466087011 0 0.0072527156219807576 0.0021470581779735563 0 0.0067378843751172398 0.0020963560238671632 0 0.0072080341966949332 0.0015755612436821902 0 0.0067378843751172398 0.0020963560238671632 0 0.0072080341966949332 0.0015755612436821902 0 0.006645430674510568 0.0016168661258701242 0 0.0072080341966949332 0.0015755612436821902 0 0.0070331714769708365 0.0011202789945900342 0 0.006645430674510568 0.0016168661258701242 0 0.0064393993340379442 0.0016558386783923956 0 0.0062606098320340331 0.0020011037167839973 0 0.0072080341966949332 0.0015755612436821902 0 0.0076372662357134073 0.0013267817160192504 0 0.0077653792768849639 0.0015044938466087011 0 0.0075731369468516182 0.00057809282592042536 0 0.0076372662357134073 0.0013267817160192504 0 0.0074101580588841701 0.00094830787506284609 0 0.0077618266146069117 0.0015351002686552781 0 0.0076372662357134073 0.0013267817160192504 0 0.0076879060711698317 0.001455925027902348 0 0.0076372662357134073 0.0013267817160192504 0 0.0074101580588841701 0.00094830787506284609 0 0.0070331714769708365 0.0011202789945900342 0 0.0072080341966949332 0.0015755612436821902 0 0.0076372662357134073 0.0013267817160192504 0 0.0070331714769708365 0.0011202789945900342 0 0.0069357949066520038 0.0013811598494063435 0 0.0077787613205691202 0.0011972804106955086 0 0.0074309048577598513 0.00074105933614537355 0 0.0074101580588841701 0.00094830787506284609 0 0.0070331714769708365 0.0011202789945900342 0 0.005628370718008242 0.0022173618800931643 0 0.0057046338037264558 0.0021566852366131906 0 0.0057637119686360589 0.0023201154041586603 0 0.0058613946401525271 0.0023654540080926792 0 0.0057765745443827416 0.0023343341888107608 0 0.0058685180846893004 0.0023454207809648435 0 0.005628370718008242 0.0022173618800931643 0 0.0057637119686360589 0.0023201154041586603 0 0.0057765745443827416 0.0023343341888107608 0 0.0055392956421656224 0.002189370826980399 0 0.0057541623118972643 0.002344676858584411 0 0.0053446611342961511 0.0021529423463913472 0 0.005628370718008242 0.0022173618800931643 0 0.0057765745443827416 0.0023343341888107608 0 0.0057765745443827416 0.0023343341888107608 0 0.0058685180846893004 0.0023454207809648435 0 0.005895894331231802 0.002321321563624711 0 0.0058613946401525271 0.0023654540080926792 0 0.0058685180846893004 0.0023454207809648435 0 0.0058679740011888127 0.0023486686591736518 0 0.0058685180846893004 0.0023454207809648435 0 0.0058679740011888127 0.0023486686591736518 0 0.0058978231833956155 0.0023293976904804167 0 0.0058946246817956315 0.0023291874192804484 0 0.0058679740011888127 0.0023486686591736518 0 0.0058978231833956155 0.0023293976904804167 0 0.0058685180846893004 0.0023454207809648435 0 0.0058978231833956155 0.0023293976904804167 0 0.005895894331231802 0.002321321563624711 0 0.005895894331231802 0.002321321563624711 0 0.0059247211430603934 0.0023032834140376177 0 0.0059478022605981276 0.0023019860944356292 0 0.0058978231833956155 0.0023293976904804167 0 0.005895894331231802 0.002321321563624711 0 0.0059478022605981276 0.0023019860944356292 0 0.0058946246817956315 0.0023291874192804484 0 0.0058978231833956155 0.0023293976904804167 0 0.0059478022605981276 0.0023019860944356292 0 0.0060633654662042213 0.0022838428608031804 0 0.0059247211430603934 0.0023032834140376177 0 0.0059478022605981276 0.0023019860944356292 0 0.0060633654662042213 0.0022838428608031804 0 0.0059247211430603934 0.0023032834140376177 0 0.0058823328178318566 0.0022929296933140984 0 0.0057637119686360589 0.0023201154041586603 0 0.0057765745443827416 0.0023343341888107608 0 0.0058823328178318566 0.0022929296933140984 0 0.0057765745443827416 0.0023343341888107608 0 0.005895894331231802 0.002321321563624711 0 0.0059247211430603934 0.0023032834140376177 0 0.0057765745443827416 0.0023343341888107608 0 0.0059247211430603934 0.0023032834140376177 0 0.0058823328178318566 0.0022929296933140984 0 0.0088960854016198795 0.0010854241752957714 0 0.0085529755414349116 0.00071486288665978143 0 0.0085527595584674754 0.0013224850090710288 0 0.0085529755414349116 0.00071486288665978143 0 0.0079214674022188292 0.0013540295825809087 0 0.0085527595584674754 0.0013224850090710288 0 0.0091706284926529914 0.00073820815042391992 0 0.0088960854016198795 0.0010854241752957714 0 0.0092489296305908828 0.0012645182360663701 0 0.0091706284926529914 0.00073820815042391992 0 0.0088960854016198795 0.0010854241752957714 0 0.0085529755414349116 0.00071486288665978143 0 0.0093534855836986622 0.00041803682556292596 0 0.0090908716819820858 0.0002131756269010945 0 0.0091706284926529914 0.00073820815042391992 0 0.0084079858701413008 0.00080277360775653163 0 0.007868224456070343 0.0011261738344373227 0 0.0090908716819820858 0.0002131756269010945 0 0.0091706284926529914 0.00073820815042391992 0 0.0085529755414349116 0.00071486288665978143 0 0.0069974833399523862 0.0016963615813351913 0 0.0070828668134944334 0.0017231261950976897 0 0.0073104781053704099 0.0013908441033594165 0 0.0070828668134944334 0.0017231261950976897 0 0.0073104781053704099 0.0013908441033594165 0 0.0074478805298936737 0.0015315890555207545 0 0.0073104781053704099 0.0013908441033594165 0 0.0074478805298936737 0.0015315890555207545 0 0.0077268089985246344 0.00141607588743746 0 0.0076198936352868032 0.001619329551248945 0 0.0074478805298936737 0.0015315890555207545 0 0.0077268089985246344 0.00141607588743746 0 0.0076198936352868032 0.001619329551248945 0 0.0077268089985246344 0.00141607588743746 0 0.0076879060711698317 0.001455925027902348 0 0.0076372662357134073 0.0013267817160192504 0 0.0077268089985246344 0.00141607588743746 0 0.0076879060711698317 0.001455925027902348 0 0.0076372662357134073 0.0013267817160192504 0 0.0077268089985246344 0.00141607588743746 0 0.0077653792768849639 0.0015044938466087011 0 0.0077268089985246344 0.00141607588743746 0 0.0077653792768849639 0.0015044938466087011 0 0.0079214674022188292 0.0013540295825809087 0 0.007868224456070343 0.0011261738344373227 0 0.0079126155256574564 0.0013038781398985828 0 0.0073104781053704099 0.0013908441033594165 0 0.0077268089985246344 0.00141607588743746 0 0.0079214674022188292 0.0013540295825809087 0 0.0079214674022188292 0.0013540295825809087 0 0.0078784777687638582 0.0016335594121402045 0 0.0083530002445647619 0.0017154631697439246 0 0.0079214674022188292 0.0013540295825809087 0 0.0083530002445647619 0.0017154631697439246 0 0.0085527595584674754 0.0013224850090710288 0 0.0077653792768849639 0.0015044938466087011 0 0.0079214674022188292 0.0013540295825809087 0 0.0078784777687638582 0.0016335594121402045 0 0.007742552061400401 0.0019511603098923405 0 0.0078784777687638582 0.0016335594121402045 0 0.0080592522475359096 0.001927095404233684 0 0.0080592522475359096 0.001927095404233684 0 0.0083530002445647619 0.0017154631697439246 0 0.0084536906653209908 0.0021469640731578746 0 0.0078784777687638582 0.0016335594121402045 0 0.0080592522475359096 0.001927095404233684 0 0.0083530002445647619 0.0017154631697439246 0 0.0083530002445647619 0.0017154631697439246 0 0.0088609784476704982 0.0019421608983860423 0 0.0089174538919188674 0.0015531974818713042 0 0.0083530002445647619 0.0017154631697439246 0 0.0088609784476704982 0.0019421608983860423 0 0.0084536906653209908 0.0021469640731578746 0 0.0088960854016198795 0.0010854241752957714 0 0.0085527595584674754 0.0013224850090710288 0 0.0089174538919188674 0.0015531974818713042 0 0.0083530002445647619 0.0017154631697439246 0 0.0085527595584674754 0.0013224850090710288 0 0.0089174538919188674 0.0015531974818713042 0 0.009413211685408979 0.0017387686354244584 0 0.0092489296305908828 0.0012645182360663701 0 0.0089174538919188674 0.0015531974818713042 0 0.0088960854016198795 0.0010854241752957714 0 0.0092489296305908828 0.0012645182360663701 0 0.0089174538919188674 0.0015531974818713042 0 0.009413211685408979 0.0017387686354244584 0 0.0088609784476704982 0.0019421608983860423 0 0.0089174538919188674 0.0015531974818713042 0 0.009413211685408979 0.0017387686354244584 0 0.0088609784476704982 0.0019421608983860423 0 0.0092212067514385373 0.0021057194259783705 0 0.0092212067514385373 0.0021057194259783705 0 0.0088336122571428064 0.0022368082858445514 0 0.0092215352741348636 0.0024624775504503908 0 0.0088609784476704982 0.0019421608983860423 0 0.0092212067514385373 0.0021057194259783705 0 0.0088336122571428064 0.0022368082858445514 0 0.0088609784476704982 0.0019421608983860423 0 0.0088336122571428064 0.0022368082858445514 0 0.0084536906653209908 0.0021469640731578746 0 0.0088336122571428064 0.0022368082858445514 0 0.0087826572806025283 0.0025154153655675346 0 0.0084536906653209908 0.0021469640731578746 0 0.0088336122571428064 0.0022368082858445514 0 0.0087826572806025283 0.0025154153655675346 0 0.0092215352741348636 0.0024624775504503908 0 0.0087826572806025283 0.0025154153655675346 0 0.0092215352741348636 0.0024624775504503908 0 0.0090637318895909914 0.0026576854030713943 0 0.0092215352741348636 0.0024624775504503908 0 0.009298657262648528 0.0027009203834553849 0 0.0090637318895909914 0.0026576854030713943 0 0.007742552061400401 0.0019511603098923405 0 0.0080592522475359096 0.001927095404233684 0 0.0080662413296543212 0.0022320143279939931 0 0.0080592522475359096 0.001927095404233684 0 0.0080662413296543212 0.0022320143279939931 0 0.0084536906653209908 0.0021469640731578746 0 0.0087826572806025283 0.0025154153655675346 0 0.0084536906653209908 0.0021469640731578746 0 0.0083771206246251052 0.0025077892144034315 0 0.0080662413296543212 0.0022320143279939931 0 0.0084536906653209908 0.0021469640731578746 0 0.0083771206246251052 0.0025077892144034315 0 0.0080662413296543212 0.0022320143279939931 0 0.0083771206246251052 0.0025077892144034315 0 0.008058052499299197 0.0025674986392401917 0 0.0077614730336859668 0.0023211516339569803 0 0.0080662413296543212 0.0022320143279939931 0 0.008058052499299197 0.0025674986392401917 0 0.0083771206246251052 0.0025077892144034315 0 0.008058052499299197 0.0025674986392401917 0 0.0083343520082838195 0.0028164406245285265 0 0.008058052499299197 0.0025674986392401917 0 0.0080696907082999248 0.0028529828490906997 0 0.0083343520082838195 0.0028164406245285265 0 0.0087826572806025283 0.0025154153655675346 0 0.0083771206246251052 0.0025077892144034315 0 0.0086512853628443933 0.0028138546467195644 0 0.0083771206246251052 0.0025077892144034315 0 0.0083343520082838195 0.0028164406245285265 0 0.0086512853628443933 0.0028138546467195644 0 0.0083343520082838195 0.0028164406245285265 0 0.0086512853628443933 0.0028138546467195644 0 0.0085677430830505916 0.0030836237072049515 0 0.0085677430830505916 0.0030836237072049515 0 0.008285437915003491 0.0030806007880548217 0 0.0084554425603914421 0.0032761905422867671 0 0.0083343520082838195 0.0028164406245285265 0 0.0085677430830505916 0.0030836237072049515 0 0.008285437915003491 0.0030806007880548217 0 0.0080696907082999248 0.0028529828490906997 0 0.0083343520082838195 0.0028164406245285265 0 0.008285437915003491 0.0030806007880548217 0 0.008285437915003491 0.0030806007880548217 0 0.0081736824553690912 0.003308164904452853 0 0.0084554425603914421 0.0032761905422867671 0 0.008285437915003491 0.0030806007880548217 0 0.0080602025564039254 0.003056697345737238 0 0.0081736824553690912 0.003308164904452853 0 0.0080696907082999248 0.0028529828490906997 0 0.008285437915003491 0.0030806007880548217 0 0.0080602025564039254 0.003056697345737238 0 0.0091936429151565462 0.0028281673647255721 0 0.0089407050087665831 0.0028155975950772184 0 0.0091142391635429601 0.0030119579041174246 0 0.0094194003839351368 0.0028245431639061865 0 0.0091936429151565462 0.0028281673647255721 0 0.009298657262648528 0.0027009203834553849 0 0.0094194003839351368 0.0028245431639061865 0 0.0091936429151565462 0.0028281673647255721 0 0.0093098063778904814 0.0029802904266621271 0 0.0091936429151565462 0.0028281673647255721 0 0.009298657262648528 0.0027009203834553849 0 0.0090637318895909914 0.0026576854030713943 0 0.0091936429151565462 0.0028281673647255721 0 0.0090637318895909914 0.0026576854030713943 0 0.0089407050087665831 0.0028155975950772184 0 0.0087826572806025283 0.0025154153655675346 0 0.0090637318895909914 0.0026576854030713943 0 0.0089407050087665831 0.0028155975950772184 0 0.0087826572806025283 0.0025154153655675346 0 0.0086512853628443933 0.0028138546467195644 0 0.0089407050087665831 0.0028155975950772184 0 0.0086512853628443933 0.0028138546467195644 0 0.0089407050087665831 0.0028155975950772184 0 0.0088636211817067351 0.0030524699007691844 0 0.0089407050087665831 0.0028155975950772184 0 0.0088636211817067351 0.0030524699007691844 0 0.0091142391635429601 0.0030119579041174246 0 0.0086512853628443933 0.0028138546467195644 0 0.0085677430830505916 0.0030836237072049515 0 0.0088636211817067351 0.0030524699007691844 0 0.0085677430830505916 0.0030836237072049515 0 0.0088636211817067351 0.0030524699007691844 0 0.0087788244589268871 0.0033434070932688671 0 0.0088636211817067351 0.0030524699007691844 0 0.0090737631720780657 0.0032562680937057945 0 0.0087788244589268871 0.0033434070932688671 0 0.0088636211817067351 0.0030524699007691844 0 0.0091142391635429601 0.0030119579041174246 0 0.0090737631720780657 0.0032562680937057945 0 0.0091142391635429601 0.0030119579041174246 0 0.0093076743389790741 0.003152542210315691 0 0.0090737631720780657 0.0032562680937057945 0 0.0094436747853459298 0.0029884950637597153 0 0.0093098063778904814 0.0029802904266621271 0 0.0093076743389790741 0.003152542210315691 0 0.0091142391635429601 0.0030119579041174246 0 0.0093098063778904814 0.0029802904266621271 0 0.0093076743389790741 0.003152542210315691 0 0.0091936429151565462 0.0028281673647255721 0 0.0091142391635429601 0.0030119579041174246 0 0.0093098063778904814 0.0029802904266621271 0 0.0093076743389790741 0.003152542210315691 0 0.0092936848755932836 0.0033388774174782357 0 0.009554831685997028 0.003252254128971315 0 0.0093076743389790741 0.003152542210315691 0 0.0092936848755932836 0.0033388774174782357 0 0.0090737631720780657 0.0032562680937057945 0 0.0092802495554086591 0.0035456995391240291 0 0.0093606862052233279 0.0036721009520941767 0 0.0094202233264819649 0.0034806849935372329 0 0.0092936848755932836 0.0033388774174782357 0 0.0092802495554086591 0.0035456995391240291 0 0.0094202233264819649 0.0034806849935372329 0 0.0092936848755932836 0.0033388774174782357 0 0.0092802495554086591 0.0035456995391240291 0 0.0090646985951107154 0.003495465856941216 0 0.0092936848755932836 0.0033388774174782357 0 0.0090737631720780657 0.0032562680937057945 0 0.0090646985951107154 0.003495465856941216 0 0.0090737631720780657 0.0032562680937057945 0 0.0087788244589268871 0.0033434070932688671 0 0.0090646985951107154 0.003495465856941216 0 0.0087788244589268871 0.0033434070932688671 0 0.0090646985951107154 0.003495465856941216 0 0.0088795280602513779 0.003592943214212249 0 0.0088795280602513779 0.003592943214212249 0 0.0093383760131633825 0.0037580667124808972 0 0.0090162329966753958 0.0040285544416068294 0 0.0089420915778793096 0.0036206560597708188 0 0.0092113371107219733 0.0037567399407738892 0 0.0090646985951107154 0.003495465856941216 0 0.0088795280602513779 0.003592943214212249 0 0.0091194825015681914 0.0037714045070998811 0 0.0088795280602513779 0.003592943214212249 0 0.0086729728606346305 0.0038793613605849139 0 0.0090162329966753958 0.0040285544416068294 0 0.0091194825015681914 0.0037714045070998811 0 0.0093606862052233279 0.0036721009520941767 0 0.0094091612945809006 0.0039446580868518297 0 0.0092113371107219733 0.0037567399407738892 0 0.0096796288906110268 0.0039577074971504757 0 0.0092802495554086591 0.0035456995391240291 0 0.0091194825015681914 0.0037714045070998811 0 0.0093606862052233279 0.0036721009520941767 0 0.0092802495554086591 0.0035456995391240291 0 0.0090646985951107154 0.003495465856941216 0 0.0091194825015681914 0.0037714045070998811 0 0.0081364470196010185 0.0035396584186376035 0 0.0081736824553690912 0.003308164904452853 0 0.0079291408292493041 0.003400747711932045 0 0.0081736824553690912 0.003308164904452853 0 0.0084554425603914421 0.0032761905422867671 0 0.0084688486119448431 0.0035684360297183197 0 0.0081364470196010185 0.0035396584186376035 0 0.0081736824553690912 0.003308164904452853 0 0.0084688486119448431 0.0035684360297183197 0 0.0087788244589268871 0.0033434070932688671 0 0.0088795280602513779 0.003592943214212249 0 0.0084688486119448431 0.0035684360297183197 0 0.0087788244589268871 0.0033434070932688671 0 0.0084554425603914421 0.0032761905422867671 0 0.0084688486119448431 0.0035684360297183197 0 0.0085677430830505916 0.0030836237072049515 0 0.0087788244589268871 0.0033434070932688671 0 0.0084554425603914421 0.0032761905422867671 0 0.0088795280602513779 0.003592943214212249 0 0.0086729728606346305 0.0038793613605849139 0 0.0084688486119448431 0.0035684360297183197 0 0.0086729728606346305 0.0038793613605849139 0 0.0084688486119448431 0.0035684360297183197 0 0.0084176321970071705 0.0038582807425722172 0 0.0081364470196010185 0.0035396584186376035 0 0.0084688486119448431 0.0035684360297183197 0 0.0081959517548292928 0.0037638984463998358 0 0.0084688486119448431 0.0035684360297183197 0 0.0084176321970071705 0.0038582807425722172 0 0.0081959517548292928 0.0037638984463998358 0 0.0084176321970071705 0.0038582807425722172 0 0.0081959517548292928 0.0037638984463998358 0 0.0081126232251060495 0.0039489711033610236 0 0.0084077351415817094 0.0040917907339760203 0 0.0084192102597141875 0.0044316841528015362 0 0.0081349544425013496 0.0042605154809623085 0 0.0084077351415817094 0.0040917907339760203 0 0.0081126232251060495 0.0039489711033610236 0 0.0081349544425013496 0.0042605154809623085 0 0.0084176321970071705 0.0038582807425722172 0 0.0084077351415817094 0.0040917907339760203 0 0.0081126232251060495 0.0039489711033610236 0 0.0086729728606346305 0.0038793613605849139 0 0.0084077351415817094 0.0040917907339760203 0 0.0087525003319316869 0.0042902077961314072 0 0.0086729728606346305 0.0038793613605849139 0 0.0087525003319316869 0.0042902077961314072 0 0.0090162329966753958 0.0040285544416068294 0 0.0084077351415817094 0.0040917907339760203 0 0.0087525003319316869 0.0042902077961314072 0 0.0084192102597141875 0.0044316841528015362 0 0.0086729728606346305 0.0038793613605849139 0 0.0084176321970071705 0.0038582807425722172 0 0.0084077351415817094 0.0040917907339760203 0 0.0087525003319316869 0.0042902077961314072 0 0.0089147933421368977 0.0045773538817032305 0 0.0086433048318202196 0.0046324124933283832 0 0.0087525003319316869 0.0042902077961314072 0 0.0086433048318202196 0.0046324124933283832 0 0.0084192102597141875 0.0044316841528015362 0 0.0086433048318202196 0.0046324124933283832 0 0.0084192102597141875 0.0044316841528015362 0 0.0084162651405447902 0.0048087383102943691 0 0.0084192102597141875 0.0044316841528015362 0 0.0081755652380942675 0.0045331616647556411 0 0.0084162651405447902 0.0048087383102943691 0 0.0084192102597141875 0.0044316841528015362 0 0.0081755652380942675 0.0045331616647556411 0 0.0081349544425013496 0.0042605154809623085 0 0.0093457727829432107 0.0041054300581773251 0 0.0092245826533142745 0.0044002993232127325 0 0.0095972614445993271 0.004315951611506004 0 0.0093457727829432107 0.0041054300581773251 0 0.0095972614445993271 0.004315951611506004 0 0.0097240781593894935 0.0039496047342567411 0 0.00963904636248669 0.0043052054526555071 0 0.0096796288906110268 0.0039577074971504757 0 0.0093383760131633825 0.0037580667124808972 0 0.0093457727829432107 0.0041054300581773251 0 0.0097240781593894935 0.0039496047342567411 0 0.0087525003319316869 0.0042902077961314072 0 0.0090162329966753958 0.0040285544416068294 0 0.0092245826533142745 0.0044002993232127325 0 0.0093383760131633825 0.0037580667124808972 0 0.0093457727829432107 0.0041054300581773251 0 0.0090162329966753958 0.0040285544416068294 0 0.0093457727829432107 0.0041054300581773251 0 0.0090162329966753958 0.0040285544416068294 0 0.0092245826533142745 0.0044002993232127325 0 0.0087525003319316869 0.0042902077961314072 0 0.0089147933421368977 0.0045773538817032305 0 0.0092245826533142745 0.0044002993232127325 0 0.0092245826533142745 0.0044002993232127325 0 0.0095190799528009559 0.0046804441719022448 0 0.0092130848091945116 0.0048897792618222509 0 0.0089147933421368977 0.0045773538817032305 0 0.0092245826533142745 0.0044002993232127325 0 0.0092130848091945116 0.0048897792618222509 0 0.0092245826533142745 0.0044002993232127325 0 0.0095190799528009559 0.0046804441719022448 0 0.0095972614445993271 0.004315951611506004 0 0.009527586266508601 0.0046346236451270091 0 0.00963904636248669 0.0043052054526555071 0 0.0096827404007118131 0.0042978966967224756 0 0.0097875824327587711 0.004623667535207078 0 0.0099755800163232166 0.0045163941066280701 0 0.0095190799528009559 0.0046804441719022448 0 0.0096827404007118131 0.0042978966967224756 0 0.0097875824327587711 0.004623667535207078 0 0.0095190799528009559 0.0046804441719022448 0 0.0095207810180228374 0.0049371780314318298 0 0.0099030554763965429 0.0048530708279158011 0 0.0095190799528009559 0.0046804441719022448 0 0.0097875824327587711 0.004623667535207078 0 0.0099030554763965429 0.0048530708279158011 0 0.0095190799528009559 0.0046804441719022448 0 0.0095207810180228374 0.0049371780314318298 0 0.0092130848091945116 0.0048897792618222509 0 0.0095207810180228374 0.0049371780314318298 0 0.0097113486435616205 0.0051159268988264991 0 0.0094644884828504298 0.0051792329179340948 0 0.0095207810180228374 0.0049371780314318298 0 0.0097113486435616205 0.0051159268988264991 0 0.0099030554763965429 0.0048530708279158011 0 0.0097113486435616205 0.0051159268988264991 0 0.0097058166056981122 0.0053612108872869669 0 0.0099933732594526849 0.0052275543781360196 0 0.0097113486435616205 0.0051159268988264991 0 0.0094644884828504298 0.0051792329179340948 0 0.0097058166056981122 0.0053612108872869669 0 0.0094939345892139995 0.0055184354675137243 0 0.0097058166056981122 0.0053612108872869669 0 0.0097098562899002108 0.0055357496408962488 0 0.0094644884828504298 0.0051792329179340948 0 0.0094939345892139995 0.0055184354675137243 0 0.0097058166056981122 0.0053612108872869669 0 0.0097058166056981122 0.0053612108872869669 0 0.0098998864424080669 0.0054788253797905338 0 0.0099933732594526849 0.0052275543781360196 0 0.0097058166056981122 0.0053612108872869669 0 0.0097098562899002108 0.0055357496408962488 0 0.0098998864424080669 0.0054788253797905338 0 0.0091821144325271373 0.0052555779630471238 0 0.0088756113412478809 0.0052724501448767917 0 0.0091260469992668191 0.0055197902498739073 0 0.0094939345892139995 0.0055184354675137243 0 0.0091821144325271373 0.0052555779630471238 0 0.0091260469992668191 0.0055197902498739073 0 0.0094644884828504298 0.0051792329179340948 0 0.0094939345892139995 0.0055184354675137243 0 0.0091821144325271373 0.0052555779630471238 0 0.0091821144325271373 0.0052555779630471238 0 0.0092130848091945116 0.0048897792618222509 0 0.0088264085018869079 0.0049482372901912637 0 0.0095207810180228374 0.0049371780314318298 0 0.0094644884828504298 0.0051792329179340948 0 0.0092130848091945116 0.0048897792618222509 0 0.0094644884828504298 0.0051792329179340948 0 0.0091821144325271373 0.0052555779630471238 0 0.0092130848091945116 0.0048897792618222509 0 0.0089147933421368977 0.0045773538817032305 0 0.0092130848091945116 0.0048897792618222509 0 0.0088264085018869079 0.0049482372901912637 0 0.0088264085018869079 0.0049482372901912637 0 0.0084162651405447902 0.0048087383102943691 0 0.0085595351504825553 0.0052548896207113222 0 0.0089147933421368977 0.0045773538817032305 0 0.0086433048318202196 0.0046324124933283832 0 0.0088264085018869079 0.0049482372901912637 0 0.0086433048318202196 0.0046324124933283832 0 0.0088264085018869079 0.0049482372901912637 0 0.0084162651405447902 0.0048087383102943691 0 0.0084162651405447902 0.0048087383102943691 0 0.0082003722622585769 0.0051072525286781426 0 0.0085595351504825553 0.0052548896207113222 0 0.0081755652380942675 0.0045331616647556411 0 0.0084162651405447902 0.0048087383102943691 0 0.0080838513713018586 0.0047724478931264729 0 0.0084162651405447902 0.0048087383102943691 0 0.0082003722622585769 0.0051072525286781426 0 0.0080838513713018586 0.0047724478931264729 0 0.0082003722622585769 0.0051072525286781426 0 0.0085595351504825553 0.0052548896207113222 0 0.0082447368962701925 0.0054737812877645184 0 0.0085595351504825553 0.0052548896207113222 0 0.0082447368962701925 0.0054737812877645184 0 0.0085067081957758001 0.0056355277625747963 0 0.0085595351504825553 0.0052548896207113222 0 0.0088054292872427383 0.0055732857506852482 0 0.0085067081957758001 0.0056355277625747963 0 0.0091821144325271373 0.0052555779630471238 0 0.0088264085018869079 0.0049482372901912637 0 0.0088756113412478809 0.0052724501448767917 0 0.0088264085018869079 0.0049482372901912637 0 0.0085595351504825553 0.0052548896207113222 0 0.0088756113412478809 0.0052724501448767917 0 0.0085595351504825553 0.0052548896207113222 0 0.0088756113412478809 0.0052724501448767917 0 0.0088054292872427383 0.0055732857506852482 0 0.0088756113412478809 0.0052724501448767917 0 0.0088054292872427383 0.0055732857506852482 0 0.0091260469992668191 0.0055197902498739073 0 0.0088054292872427383 0.0055732857506852482 0 0.0090299017808678061 0.0057744896925505376 0 0.0086228033535670871 0.0060651755065012011 0 0.0088054292872427383 0.0055732857506852482 0 0.0085067081957758001 0.0056355277625747963 0 0.0086228033535670871 0.0060651755065012011 0 0.0088054292872427383 0.0055732857506852482 0 0.0090299017808678061 0.0057744896925505376 0 0.0091260469992668191 0.0055197902498739073 0 0.0082447368962701925 0.0054737812877645184 0 0.0085067081957758001 0.0056355277625747963 0 0.0083014886747998905 0.0058211544728258048 0 0.0085067081957758001 0.0056355277625747963 0 0.0083014886747998905 0.0058211544728258048 0 0.0086228033535670871 0.0060651755065012011 0 0.011792045487369295 0.0058787842022193764 0 0.012211186522575267 0.0055379848331741652 0 0.012957186027738578 0.005740162197796504 0 0.010278100505295963 0.0059516252456658404 0 0.010197115410763215 0.0061695054028336575 0 0.0083014886747998905 0.0058211544728258048 0 0.0086228033535670871 0.0060651755065012011 0 0.0080811292443159037 0.0061190209096951215 0 0.011792045487369295 0.0058787842022193764 0 0.012211186522575267 0.0055379848331741652 0 0.011495087831772563 0.005380764517271582 0 0.012211186522575267 0.0055379848331741652 0 0.011495087831772563 0.005380764517271582 0 0.011913502789126198 0.0049699494315467605 0 0.012211186522575267 0.0055379848331741652 0 0.012742504556881685 0.0054629801640173285 0 0.012585411193632757 0.0048995612514118689 0 0.012211186522575267 0.0055379848331741652 0 0.012742504556881685 0.0054629801640173285 0 0.012957186027738578 0.005740162197796504 0 0.0090299017808678061 0.0057744896925505376 0 0.0086228033535670871 0.0060651755065012011 0 0.0092262400204261592 0.0060034230511280887 0 0.011792045487369295 0.0058787842022193764 0 0.011495087831772563 0.005380764517271582 0 0.010647586405094443 0.0059690378000802884 0 0.010278100505295963 0.0059516252456658404 0 0.0099181657351263153 0.0059686711580736662 0 0.011495087831772563 0.005380764517271582 0 0.010895585372369119 0.005315620306347732 0 0.010647586405094443 0.0059690378000802884 0 0.0099181657351263153 0.0059686711580736662 0 0.0096433009890496257 0.0059101267596292084 0 0.0092262400204261592 0.0060034230511280887 0 0.0095938507072957629 0.0058728452382103401 0 0.0095578418028313215 0.005881930796560365 0 0.010647586405094443 0.0059690378000802884 0 0.010252556699763269 0.0056452531172770269 0 0.0095938507072957629 0.0058728452382103401 0 0.010895585372369119 0.005315620306347732 0 0.010647586405094443 0.0059690378000802884 0 0.010252556699763269 0.0056452531172770269 0 0.010252556699763269 0.0056452531172770269 0 0.0099213920128446379 0.0056022651769049459 0 0.010153294346698576 0.0052587592315318822 0 0.010895585372369119 0.005315620306347732 0 0.010252556699763269 0.0056452531172770269 0 0.010153294346698576 0.0052587592315318822 0 0.0099213920128446379 0.0056022651769049459 0 0.0096712605874119117 0.0055508238072866029 0 0.010153294346698576 0.0052587592315318822 0 0.0096712605874119117 0.0055508238072866029 0 0.0095938507072957629 0.0058728452382103401 0 0.0095092102253028377 0.0057631178222280668 0 0.010252556699763269 0.0056452531172770269 0 0.0099213920128446379 0.0056022651769049459 0 0.0095938507072957629 0.0058728452382103401 0 0.0099213920128446379 0.0056022651769049459 0 0.0096712605874119117 0.0055508238072866029 0 0.0095938507072957629 0.0058728452382103401 0 0.0095938507072957629 0.0058728452382103401 0 0.0095578418028313215 0.005881930796560365 0 0.0094736251023216748 0.0057983699901898054 0 0.0095578418028313215 0.005881930796560365 0 0.0095044587971412735 0.0057116642175901464 0 0.0096427292055270789 0.0057012299158600791 0 0.0095578418028313215 0.005881930796560365 0 0.0096427292055270789 0.0057012299158600791 0 0.0098958615579388433 0.0057390440257817157 0 0.0098181661569196992 0.0056153850423639852 0 0.0096427292055270789 0.0057012299158600791 0 0.0098958615579388433 0.0057390440257817157 0 0.0097098562899002108 0.0055357496408962488 0 0.0098181661569196992 0.0056153850423639852 0 0.0096427292055270789 0.0057012299158600791 0 0.0097098562899002108 0.0055357496408962488 0 0.0098181661569196992 0.0056153850423639852 0 0.0098998864424080669 0.0054788253797905338 0 0.0094939345892139995 0.0055184354675137243 0 0.0097098562899002108 0.0055357496408962488 0 0.0096427292055270789 0.0057012299158600791 0 0.0094939345892139995 0.0055184354675137243 0 0.0095044587971412735 0.0057116642175901464 0 0.0096427292055270789 0.0057012299158600791 0 0.0094939345892139995 0.0055184354675137243 0 0.0091260469992668191 0.0055197902498739073 0 0.0093245281267038665 0.0057382275397113002 0 0.0094939345892139995 0.0055184354675137243 0 0.0095044587971412735 0.0057116642175901464 0 0.0093245281267038665 0.0057382275397113002 0 0.0090299017808678061 0.0057744896925505376 0 0.0091260469992668191 0.0055197902498739073 0 0.0093245281267038665 0.0057382275397113002 0 0.0090299017808678061 0.0057744896925505376 0 0.0092262400204261592 0.0060034230511280887 0 0.0093245281267038665 0.0057382275397113002 0 0.0092262400204261592 0.0060034230511280887 0 0.0095578418028313215 0.005881930796560365 0 0.0093245281267038665 0.0057382275397113002 0 0.0095578418028313215 0.005881930796560365 0 0.0095044587971412735 0.0057116642175901464 0 0.0093245281267038665 0.0057382275397113002 0 0.014511184131622855 0.0030021175308180331 0 0.014405337518728993 0.003011141412845197 0 0.01449798798199186 0.0032134104857461242 0 0.019579627726482234 0.00084177505020441572 0 0.01952511111659223 0.00098422212629705472 0 0.019325499971246617 0.00083636873929815003 0 0.019579627726482234 0.00084177505020441572 0 0.01952511111659223 0.00098422212629705472 0 0.019661486586147362 0.0010794585222741915 0 0.01952511111659223 0.00098422212629705472 0 0.019505704404381898 0.0011168236058174675 0 0.019661486586147362 0.0010794585222741915 0 0.019917355616306393 0.0010783723976121608 0 0.018541900034915324 0.0013241252992674875 0 0.014511184131622855 0.0030021175308180331 0 0.01449798798199186 0.0032134104857461242 0 0.014690216268934122 0.0032008819841261326 0 0.018541900034915324 0.0013241252992674875 0 0.014402494506884574 0.0042795774803425606 0 0.019682519812089766 0.0012943420971405471 0 0.019676020735693491 0.001332701382845317 0 0.019687181144988523 0.0013143146368602911 0 0.017251299813974771 0.0018805569968128168 0 0.018541900034915324 0.0013241252992674875 0 0.018541900034915324 0.0013241252992674875 0 0.018957760328724541 0.0014202729280709963 0 0.0088734999121837313 0.0071842542781430322 0 0.0096492169001046423 0.0070903363322536118 0 0.0087417925411536722 0.006055594285512696 0 0.013882336493159508 0.0056131599086633637 0 0.012742504556881685 0.0054629801640173285 0 0.012958874299819328 0.0057307716246086842 0 0.013882336493159508 0.0056131599086633637 0 0.012742504556881685 0.0054629801640173285 0 0.012585411193632757 0.0048995612514118689 0 0.014402494506884574 0.0042795774803425606 0 0.010197115410763215 0.0061695054028336575 0 0.01130460987980888 0.0063912405961377532 0 0.010197115410763215 0.0061695054028336575 0 0.0083014886747998905 0.0058211544728258048 0 0.0080811292443159037 0.0061190209096951215 0 0.0080266650007356083 0.0056589802089070211 0 0.010197115410763215 0.0061695054028336575 0 0.0079666175607986372 0.0058080758316093649 0 0.0080811292443159037 0.0061190209096951215 0 0.0080266650007356083 0.0056589802089070211 0 0.0075978706843671875 0.0055046141861829758 0 0.0080266650007356083 0.0056589802089070211 0 0.0075978706843671875 0.0055046141861829758 0 0.0079332482934011093 0.0052982739250137627 0 0.0082447368962701925 0.0054737812877645184 0 0.0083014886747998905 0.0058211544728258048 0 0.0080266650007356083 0.0056589802089070211 0 0.0080000050435411075 0.0062315944668758193 0 0.0088734999121837313 0.0071842542781430322 0 0.0087417925411536722 0.006055594285512696 0 0.010692220478839784 0.0047194159990375534 0 0.014402494506884574 0.0042795774803425606 0 0.0075978706843671875 0.0055046141861829758 0 0.0079332482934011093 0.0052982739250137627 0 0.0076437410695704925 0.0050358975199127892 0 0.0075978706843671875 0.0055046141861829758 0 0.0076437410695704925 0.0050358975199127892 0 0.007170989400021901 0.0048803578408587222 0 0.0082003722622585769 0.0051072525286781426 0 0.0082447368962701925 0.0054737812877645184 0 0.0079332482934011093 0.0052982739250137627 0 0.0082447368962701925 0.0054737812877645184 0 0.0080266650007356083 0.0056589802089070211 0 0.0079332482934011093 0.0052982739250137627 0 0.0079332482934011093 0.0052982739250137627 0 0.0078851696266023993 0.0050235947021620431 0 0.0076437410695704925 0.0050358975199127892 0 0.0082003722622585769 0.0051072525286781426 0 0.0079332482934011093 0.0052982739250137627 0 0.0078851696266023993 0.0050235947021620431 0 0.0082003722622585769 0.0051072525286781426 0 0.0078851696266023993 0.0050235947021620431 0 0.0080838513713018586 0.0047724478931264729 0 0.0078851696266023993 0.0050235947021620431 0 0.0080838513713018586 0.0047724478931264729 0 0.0077663344848385701 0.0047311165601484515 0 0.0076437410695704925 0.0050358975199127892 0 0.0074931457367852583 0.0047237693048519831 0 0.007170989400021901 0.0048803578408587222 0 0.0078851696266023993 0.0050235947021620431 0 0.0076437410695704925 0.0050358975199127892 0 0.0077663344848385701 0.0047311165601484515 0 0.0076437410695704925 0.0050358975199127892 0 0.0077663344848385701 0.0047311165601484515 0 0.0074931457367852583 0.0047237693048519831 0 0.0074931457367852583 0.0047237693048519831 0 0.007170989400021901 0.0048803578408587222 0 0.0073864611294368974 0.0045077159751111965 0 0.007170989400021901 0.0048803578408587222 0 0.0071989741825347498 0.0045392998736245227 0 0.0073864611294368974 0.0045077159751111965 0 0.0080000050435411075 0.0062315944668758193 0 0.0087417925411536722 0.006055594285512696 0 0.0078181946441317589 0.0051001733379153358 0 0.0079666175607986372 0.0058080758316093649 0 0.0075310965025084543 0.0050018721917629979 0 0.0080000050435411075 0.0062315944668758193 0 0.0078181946441317589 0.0051001733379153358 0 0.0071633894298407759 0.0053350172294598331 0 0.019579627726482234 0.00084177505020441572 0 0.019451735885834313 0.00057167977088963963 0 0.019358832903969177 0.00068868514624529276 0 0.010692220478839784 0.0047194159990375534 0 0.012148578858756361 0.0033085550708500805 0 0.014511184131622855 0.0030021175308180331 0 0.014405337518728993 0.003011141412845197 0 0.014300962962614034 0.0027944963461856201 0 0.017251299813974771 0.0018805569968128168 0 0.012148578858756361 0.0033085550708500805 0 0.012148578858756361 0.0033085550708500805 0 0.0067823809627909435 0.0040362666339239959 0 0.0078181946441317589 0.0051001733379153358 0 0.0071633894298407759 0.0053350172294598331 0 0.0068789629376277417 0.0043079715088313788 0 0.007170989400021901 0.0048803578408587222 0 0.0068789629376277417 0.0043079715088313788 0 0.0070709764276948531 0.004422477099569215 0 0.0071633894298407759 0.0053350172294598331 0 0.0068789629376277417 0.0043079715088313788 0 0.0067224432822128406 0.0043465382149836416 0 0.0075310965025084543 0.0050018721917629979 0 0.0069125856315794673 0.0043456095892517154 0 0.0068789629376277417 0.0043079715088313788 0 0.0068720933214036052 0.0040890546031992561 0 0.0067224432822128406 0.0043465382149836416 0 0.0069773044399429 0.0042613782258612469 0 0.0070709764276948531 0.004422477099569215 0 0.0070849933880754749 0.0042050118540529202 0 0.0068789629376277417 0.0043079715088313788 0 0.0069773044399429 0.0042613782258612469 0 0.0070709764276948531 0.004422477099569215 0 0.007170989400021901 0.0048803578408587222 0 0.0070709764276948531 0.004422477099569215 0 0.0071989741825347498 0.0045392998736245227 0 0.0070709764276948531 0.004422477099569215 0 0.0071989741825347498 0.0045392998736245227 0 0.0072191628880540022 0.0043532687506196424 0 0.0071989741825347498 0.0045392998736245227 0 0.0073864611294368974 0.0045077159751111965 0 0.0072191628880540022 0.0043532687506196424 0 0.0073864611294368974 0.0045077159751111965 0 0.0073855088457264661 0.0042913272898687741 0 0.0072191628880540022 0.0043532687506196424 0 0.0070709764276948531 0.004422477099569215 0 0.0072191628880540022 0.0043532687506196424 0 0.0070849933880754749 0.0042050118540529202 0 0.0072191628880540022 0.0043532687506196424 0 0.0070849933880754749 0.0042050118540529202 0 0.0072666027298365649 0.004063126071514692 0 0.0073855088457264661 0.0042913272898687741 0 0.0072191628880540022 0.0043532687506196424 0 0.0072666027298365649 0.004063126071514692 0 0.0073855088457264661 0.0042913272898687741 0 0.0072666027298365649 0.004063126071514692 0 0.0074980165572929858 0.0041302787695506804 0 0.0072666027298365649 0.004063126071514692 0 0.0074980165572929858 0.0041302787695506804 0 0.0074417465899684386 0.0038387594163751789 0 0.0070849933880754749 0.0042050118540529202 0 0.0072666027298365649 0.004063126071514692 0 0.0070497796538154852 0.0039202221040892044 0 0.0072666027298365649 0.004063126071514692 0 0.0070497796538154852 0.0039202221040892044 0 0.0072034902220031267 0.0037230631038119703 0 0.0070497796538154852 0.0039202221040892044 0 0.0068720933214036052 0.0040890546031992561 0 0.0068273460771468529 0.0038349481866731643 0 0.0068720933214036052 0.0040890546031992561 0 0.0068273460771468529 0.0038349481866731643 0 0.0065313969842115517 0.0037508374842149909 0 0.0068789629376277417 0.0043079715088313788 0 0.0069773044399429 0.0042613782258612469 0 0.0068720933214036052 0.0040890546031992561 0 0.0069773044399429 0.0042613782258612469 0 0.0070849933880754749 0.0042050118540529202 0 0.0068720933214036052 0.0040890546031992561 0 0.0070849933880754749 0.0042050118540529202 0 0.0070497796538154852 0.0039202221040892044 0 0.0068720933214036052 0.0040890546031992561 0 0.0081755652380942675 0.0045331616647556411 0 0.007904368823038365 0.0044267154813224085 0 0.0081349544425013496 0.0042605154809623085 0 0.0081755652380942675 0.0045331616647556411 0 0.0080838513713018586 0.0047724478931264729 0 0.007904368823038365 0.0044267154813224085 0 0.0080838513713018586 0.0047724478931264729 0 0.0077663344848385701 0.0047311165601484515 0 0.007904368823038365 0.0044267154813224085 0 0.007904368823038365 0.0044267154813224085 0 0.0075919487664059529 0.0044263598301971102 0 0.0076879631851169226 0.0042132769847244636 0 0.0077663344848385701 0.0047311165601484515 0 0.007904368823038365 0.0044267154813224085 0 0.0075919487664059529 0.0044263598301971102 0 0.0077663344848385701 0.0047311165601484515 0 0.0074931457367852583 0.0047237693048519831 0 0.0075919487664059529 0.0044263598301971102 0 0.0074931457367852583 0.0047237693048519831 0 0.0073864611294368974 0.0045077159751111965 0 0.0075919487664059529 0.0044263598301971102 0 0.0073855088457264661 0.0042913272898687741 0 0.0075919487664059529 0.0044263598301971102 0 0.0074980165572929858 0.0041302787695506804 0 0.0073864611294368974 0.0045077159751111965 0 0.0073855088457264661 0.0042913272898687741 0 0.0075919487664059529 0.0044263598301971102 0 0.0074980165572929858 0.0041302787695506804 0 0.0076313429777828045 0.0039651477500437073 0 0.0074417465899684386 0.0038387594163751789 0 0.0075919487664059529 0.0044263598301971102 0 0.0074980165572929858 0.0041302787695506804 0 0.0076879631851169226 0.0042132769847244636 0 0.0074980165572929858 0.0041302787695506804 0 0.0076313429777828045 0.0039651477500437073 0 0.0076879631851169226 0.0042132769847244636 0 0.0076313429777828045 0.0039651477500437073 0 0.0076879631851169226 0.0042132769847244636 0 0.0078851383272409755 0.0041274645714311463 0 0.007904368823038365 0.0044267154813224085 0 0.0076879631851169226 0.0042132769847244636 0 0.0078851383272409755 0.0041274645714311463 0 0.0076313429777828045 0.0039651477500437073 0 0.0078851383272409755 0.0041274645714311463 0 0.0078185733327444402 0.0038753102038179919 0 0.0078851383272409755 0.0041274645714311463 0 0.0081126232251060495 0.0039489711033610236 0 0.0078185733327444402 0.0038753102038179919 0 0.007904368823038365 0.0044267154813224085 0 0.0078851383272409755 0.0041274645714311463 0 0.0081349544425013496 0.0042605154809623085 0 0.0078851383272409755 0.0041274645714311463 0 0.0081126232251060495 0.0039489711033610236 0 0.0081349544425013496 0.0042605154809623085 0 0.0081364470196010185 0.0035396584186376035 0 0.0081959517548292928 0.0037638984463998358 0 0.0079176035541756278 0.0036626366318078269 0 0.0081126232251060495 0.0039489711033610236 0 0.0079176035541756278 0.0036626366318078269 0 0.0078185733327444402 0.0038753102038179919 0 0.0081959517548292928 0.0037638984463998358 0 0.0081126232251060495 0.0039489711033610236 0 0.0079176035541756278 0.0036626366318078269 0 0.0079176035541756278 0.0036626366318078269 0 0.0078185733327444402 0.0038753102038179919 0 0.0076514283185788031 0.0037026913816324012 0 0.0079176035541756278 0.0036626366318078269 0 0.0076514283185788031 0.0037026913816324012 0 0.0076811821429111065 0.0034155864176989908 0 0.0076313429777828045 0.0039651477500437073 0 0.0076514283185788031 0.0037026913816324012 0 0.0074417465899684386 0.0038387594163751789 0 0.0076313429777828045 0.0039651477500437073 0 0.0078185733327444402 0.0038753102038179919 0 0.0076514283185788031 0.0037026913816324012 0 0.0076514283185788031 0.0037026913816324012 0 0.0074417465899684386 0.0038387594163751789 0 0.0074339321158841424 0.0035105936123822549 0 0.0073810806279226556 0.0031772049808107303 0 0.0074339321158841424 0.0035105936123822549 0 0.0076811821429111065 0.0034155864176989908 0 0.0076288693736151474 0.0031682252383802016 0 0.0073810806279226556 0.0031772049808107303 0 0.0076811821429111065 0.0034155864176989908 0 0.0076514283185788031 0.0037026913816324012 0 0.0074339321158841424 0.0035105936123822549 0 0.0076811821429111065 0.0034155864176989908 0 0.0079176035541756278 0.0036626366318078269 0 0.0076811821429111065 0.0034155864176989908 0 0.0079291408292493041 0.003400747711932045 0 0.0078685550427753433 0.0031595524631733343 0 0.0076288693736151474 0.0031682252383802016 0 0.0076811821429111065 0.0034155864176989908 0 0.0078685550427753433 0.0031595524631733343 0 0.0076811821429111065 0.0034155864176989908 0 0.0079291408292493041 0.003400747711932045 0 0.0078685550427753433 0.0031595524631733343 0 0.0081736824553690912 0.003308164904452853 0 0.0079291408292493041 0.003400747711932045 0 0.0081364470196010185 0.0035396584186376035 0 0.0079176035541756278 0.0036626366318078269 0 0.0079291408292493041 0.003400747711932045 0 0.0070497796538154852 0.0039202221040892044 0 0.0068552414062080678 0.0035833334907904475 0 0.0072034902220031267 0.0037230631038119703 0 0.0068552414062080678 0.0035833334907904475 0 0.0068273460771468529 0.0038349481866731643 0 0.0065313969842115517 0.0037508374842149909 0 0.0070497796538154852 0.0039202221040892044 0 0.0068552414062080678 0.0035833334907904475 0 0.0068273460771468529 0.0038349481866731643 0 0.0068552414062080678 0.0035833334907904475 0 0.0072034902220031267 0.0037230631038119703 0 0.0071672844007715083 0.0034488468962993592 0 0.0072666027298365649 0.004063126071514692 0 0.0074417465899684386 0.0038387594163751789 0 0.0072034902220031267 0.0037230631038119703 0 0.0074339321158841424 0.0035105936123822549 0 0.0072034902220031267 0.0037230631038119703 0 0.0071672844007715083 0.0034488468962993592 0 0.0074417465899684386 0.0038387594163751789 0 0.0074339321158841424 0.0035105936123822549 0 0.0072034902220031267 0.0037230631038119703 0 0.0069138205504476503 0.0031875067603106821 0 0.0073810806279226556 0.0031772049808107303 0 0.0071672844007715083 0.0034488468962993592 0 0.0073810806279226556 0.0031772049808107303 0 0.0074339321158841424 0.0035105936123822549 0 0.0071672844007715083 0.0034488468962993592 0 0.0069138205504476503 0.0031875067603106821 0 0.0068552414062080678 0.0035833334907904475 0 0.0071672844007715083 0.0034488468962993592 0 0.0068132159394445309 0.0027826610364103731 0 0.0071267892306401161 0.0032241074365221656 0 0.0063799480664506886 0.0031426240509729365 0 0.0068552414062080678 0.0035833334907904475 0 0.0065313969842115517 0.0037508374842149909 0 0.0063799480664506886 0.0031426240509729365 0 0.0069138205504476503 0.0031875067603106821 0 0.0068552414062080678 0.0035833334907904475 0 0.007578613658843482 0.0027294533602574807 0 0.0072073669025103934 0.0025685525784327218 0 0.0072561224952766836 0.0029798711525079063 0 0.0072500458141030082 0.0023873981697335274 0 0.007578613658843482 0.0027294533602574807 0 0.0072073669025103934 0.0025685525784327218 0 0.0070123204973787066 0.0023450316804610916 0 0.0072500458141030082 0.0023873981697335274 0 0.0072073669025103934 0.0025685525784327218 0 0.018124722614030551 -0.0011531828108707839 0 0.015359406309292894 -0.0014130648244044532 0 0.016295602437627225 0.00029295255920612685 0 0.0070123204973787066 0.0023450316804610916 0 0.0072073669025103934 0.0025685525784327218 0 0.0070083338458814268 0.0025937068385358973 0 0.016619926476311751 -0.0027857145087666342 0 0.018124722614030551 -0.0011531828108707839 0 0.015359406309292894 -0.0014130648244044532 0 0.0069133359057021735 0.0023595738737559719 0 0.0070123204973787066 0.0023450316804610916 0 0.0070083338458814268 0.0025937068385358973 0 0.011761921929769553 -0.00019951009949399322 0 0.012568069665948567 0.00072314147791919321 0 0.0072073669025103934 0.0025685525784327218 0 0.0070083338458814268 0.0025937068385358973 0 0.0072561224952766836 0.0029798711525079063 0 0.012568069665948567 0.00072314147791919321 0 0.013085691475156279 0.0014488091524889411 0 0.018124722614030551 -0.0011531828108707839 0 0.018512793231937448 0.00027865150931981076 0 0.018993823953502464 -7.0947418391691298e-05 0 0.018512793231937448 0.00027865150931981076 0 0.018958539452955118 0.00027737517024073531 0 0.018993823953502464 -7.0947418391691298e-05 0 0.018391978884200123 0.00025685579910031479 0 0.017383145755908491 -2.2602277821757019e-05 0 0.018124722614030551 -0.0011531828108707839 0 0.018512793231937448 0.00027865150931981076 0 0.016295602437627225 0.00029295255920612685 0 0.018512793231937448 0.00027865150931981076 0 0.018672593284156803 0.00021757309066506656 0 0.018568500083344847 -0.00028889670589351109 0 0.018672593284156803 0.00021757309066506656 0 0.01874885760114102 0.00030276590160858627 0 0.018929044313626735 0.00043350730991575514 0 0.018512793231937448 0.00027865150931981076 0 0.01874885760114102 0.00030276590160858627 0 0.018958539452955118 0.00027737517024073531 0 0.018512793231937448 0.00027865150931981076 0 0.018672593284156803 0.00021757309066506656 0 0.01874885760114102 0.00030276590160858627 0 0.01874885760114102 0.00030276590160858627 0 0.018958539452955118 0.00027737517024073531 0 0.018929044313626735 0.00043350730991575514 0 0.018958539452955118 0.00027737517024073531 0 0.019213073624400605 0.00032071849709728592 0 0.018993823953502464 -7.0947418391691298e-05 0 0.0076842676821092561 0.0035170473932867314 0 0.0075893318889860492 0.003133456727964664 0 0.0072561224952766836 0.0029798711525079063 0 0.018958539452955118 0.00027737517024073531 0 0.019213073624400605 0.00032071849709728592 0 0.019092625501637279 0.00040767959851858955 0 0.013679922979164472 0.0018358628634342583 0 0.013085691475156279 0.0014488091524889411 0 0.0076842676821092561 0.0035170473932867314 0 0.0079399299908459609 0.003324544716067889 0 0.0075893318889860492 0.003133456727964664 0 0.0068720933214036052 0.0040890546031992561 0 0.0065313969842115517 0.0037508374842149909 0 0.0067224432822128406 0.0043465382149836416 0 0.007578613658843482 0.0027294533602574807 0 0.0079399299908459609 0.003324544716067889 0 0.0075893318889860492 0.003133456727964664 0 0.0071267892306401161 0.0032241074365221656 0 0.0067823809627909435 0.0040362666339239959 0 0.007578613658843482 0.0027294533602574807 0 0.0075893318889860492 0.003133456727964664 0 0.0072561224952766836 0.0029798711525079063 0 0.017261626395095465 -0.0011891507684171558 0 0.017432894173371054 -0.0015427644080736639 0 0.01759396372156935 -0.00075453100364981322 0 0.017261626395095465 -0.0011891507684171558 0 0.017432894173371054 -0.0015427644080736639 0 0.017084736074532716 -0.0015896468611591346 0 0.010906702145168741 -0.0007480539420766201 0 0.010577639497411206 -0.0012710708227228506 0 0.010065402605291396 -0.0013063646154379219 0 0.012466368976329172 -0.0036474856926153867 0 0.010577639497411206 -0.0012710708227228506 0 0.012214060196281145 -0.0018521954446667382 0 0.010906702145168741 -0.0007480539420766201 0 0.010577639497411206 -0.0012710708227228506 0 0.012214060196281145 -0.0018521954446667382 0 0.010402444020903854 -0.0015298197347768442 0 0.010577639497411206 -0.0012710708227228506 0 0.010269383236015683 -0.0014234614555198733 0 0.010906702145168741 -0.0007480539420766201 0 0.012214060196281145 -0.0018521954446667382 0 0.01329328368998133 -0.0013338565752321551 0 0.012214060196281145 -0.0018521954446667382 0 0.01329328368998133 -0.0013338565752321551 0 0.013679625869380669 -0.0026327507652841443 0 0.014157284507483917 -0.0011583638620276317 0 0.015869539591303813 -0.00050971217145812868 0 0.010906702145168741 -0.0007480539420766201 0 0.01329328368998133 -0.0013338565752321551 0 0.013727205643518366 -4.5703456539146568e-05 0 0.017432894173371054 -0.0015427644080736639 0 0.018097135336805643 -0.00093117447281568862 0 0.01759396372156935 -0.00075453100364981322 0 0.01329328368998133 -0.0013338565752321551 0 0.013727205643518366 -4.5703456539146568e-05 0 0.015359406309292894 -0.0014130648244044532 0 0.015187843598865373 -0.002858166579754272 0 0.013679625869380669 -0.0026327507652841443 0 0.015359406309292894 -0.0014130648244044532 0 0.01329328368998133 -0.0013338565752321551 0 0.013679625869380669 -0.0026327507652841443 0 0.015359406309292894 -0.0014130648244044532 0 0.015187843598865373 -0.002858166579754272 0 0.016619926476311751 -0.0027857145087666342 0 0.015359406309292894 -0.0014130648244044532 0 0.013727205643518366 -4.5703456539146568e-05 0 0.015359406309292894 -0.0014130648244044532 0 0.016295602437627225 0.00029295255920612685 0 0.018568500083344847 -0.00028889670589351109 0 0.018426312767800154 3.189678287890986e-05 0 0.01815486583345299 -0.00035921557665133196 0 0.018672593284156803 0.00021757309066506656 0 0.018568500083344847 -0.00028889670589351109 0 0.018426312767800154 3.189678287890986e-05 0 0.018426312767800154 3.189678287890986e-05 0 0.01815486583345299 -0.00035921557665133196 0 0.017881196447776245 -6.3379402327873874e-05 0 0.015869539591303813 -0.00050971217145812868 0 0.017383145755908491 -2.2602277821757019e-05 0 0.018097135336805643 -0.00093117447281568862 0 0.018568500083344847 -0.00028889670589351109 0 0.01815486583345299 -0.00035921557665133196 0 0.018097135336805643 -0.00093117447281568862 0 0.01815486583345299 -0.00035921557665133196 0 0.01759396372156935 -0.00075453100364981322 0 0.01815486583345299 -0.00035921557665133196 0 0.017881196447776245 -6.3379402327873874e-05 0 0.01759396372156935 -0.00075453100364981322 0 0.017881196447776245 -6.3379402327873874e-05 0 0.017326869063490454 -0.00032795962679075483 0 0.01759396372156935 -0.00075453100364981322 0 0.017261626395095465 -0.0011891507684171558 0 0.01759396372156935 -0.00075453100364981322 0 0.01690608073813744 -0.00086931280581899293 0 0.017326869063490454 -0.00032795962679075483 0 0.01759396372156935 -0.00075453100364981322 0 0.01690608073813744 -0.00086931280581899293 0 0.017513129081085606 0.00071145835379150845 0 0.017356822488858076 0.00019702939425606902 0 0.01681211133746861 0.00048610193213909504 0 0.017513129081085606 0.00071145835379150845 0 0.017356822488858076 0.00019702939425606902 0 0.017822427577934868 0.0003627649646956676 0 0.017881196447776245 -6.3379402327873874e-05 0 0.017326869063490454 -0.00032795962679075483 0 0.017356822488858076 0.00019702939425606902 0 0.017881196447776245 -6.3379402327873874e-05 0 0.017356822488858076 0.00019702939425606902 0 0.017822427577934868 0.0003627649646956676 0 0.017881196447776245 -6.3379402327873874e-05 0 0.017822427577934868 0.0003627649646956676 0 0.018269325270886594 0.00036906168597382403 0 0.017513129081085606 0.00071145835379150845 0 0.017822427577934868 0.0003627649646956676 0 0.01812163382953369 0.00087312859326586952 0 0.017822427577934868 0.0003627649646956676 0 0.018269325270886594 0.00036906168597382403 0 0.01812163382953369 0.00087312859326586952 0 0.018269325270886594 0.00036906168597382403 0 0.01853606287425277 0.00065123667984169891 0 0.01812163382953369 0.00087312859326586952 0 0.018426312767800154 3.189678287890986e-05 0 0.017881196447776245 -6.3379402327873874e-05 0 0.018269325270886594 0.00036906168597382403 0 0.018672593284156803 0.00021757309066506656 0 0.018426312767800154 3.189678287890986e-05 0 0.018628375922448981 0.00039875644101323158 0 0.018426312767800154 3.189678287890986e-05 0 0.018269325270886594 0.00036906168597382403 0 0.018628375922448981 0.00039875644101323158 0 0.018269325270886594 0.00036906168597382403 0 0.01853606287425277 0.00065123667984169891 0 0.018628375922448981 0.00039875644101323158 0 0.01853606287425277 0.00065123667984169891 0 0.018628375922448981 0.00039875644101323158 0 0.018799548431341021 0.00069231226561118696 0 0.01853606287425277 0.00065123667984169891 0 0.018721960330348265 0.0009678720644759897 0 0.018799548431341021 0.00069231226561118696 0 0.01853606287425277 0.00065123667984169891 0 0.018721960330348265 0.0009678720644759897 0 0.01812163382953369 0.00087312859326586952 0 0.018721960330348265 0.0009678720644759897 0 0.018910645747337418 0.0011631407644653704 0 0.018697871038711643 0.0010873171537133621 0 0.018721960330348265 0.0009678720644759897 0 0.018681379696490391 0.00094571994957615222 0 0.018697871038711643 0.0010873171537133621 0 0.018699505977168834 0.0009732171211623465 0 0.01838632922974524 0.00089555556115240007 0 0.018530299122211942 0.00084266226942192486 0 0.018681379696490391 0.00094571994957615222 0 0.018606533248487052 0.0010072258803250026 0 0.018071977779712249 0.00081208648238992429 0 0.01838632922974524 0.00089555556115240007 0 0.018681379696490391 0.00094571994957615222 0 0.018606533248487052 0.0010072258803250026 0 0.018697871038711643 0.0010873171537133621 0 0.018606533248487052 0.0010072258803250026 0 0.018602741669719466 0.0011240066863535654 0 0.018697871038711643 0.0010873171537133621 0 0.018606533248487052 0.0010072258803250026 0 0.018457593270270602 0.0010074108431424181 0 0.018602741669719466 0.0011240066863535654 0 0.018530299122211942 0.00084266226942192486 0 0.018457593270270602 0.0010074108431424181 0 0.018402938891174416 0.00088150512607892875 0 0.018530299122211942 0.00084266226942192486 0 0.018606533248487052 0.0010072258803250026 0 0.018457593270270602 0.0010074108431424181 0 0.01920809227279191 0.00058982026621724585 0 0.019044995773272202 0.00070976943856004143 0 0.019325499971246617 0.00083636873929815003 0 0.01920809227279191 0.00058982026621724585 0 0.018929044313626735 0.00043350730991575514 0 0.019044995773272202 0.00070976943856004143 0 0.019451735885834313 0.00057167977088963963 0 0.019358832903969177 0.00068868514624529276 0 0.01920809227279191 0.00058982026621724585 0 0.019358832903969177 0.00068868514624529276 0 0.01920809227279191 0.00058982026621724585 0 0.019325499971246617 0.00083636873929815003 0 0.019451735885834313 0.00057167977088963963 0 0.019213073624400605 0.00032071849709728592 0 0.019245291303104171 0.00047382108934549734 0 0.012148578858756361 0.0033085550708500805 0 0.013679922979164472 0.0018358628634342583 0 0.0083023490996481965 0.0041428653644243136 0 0.0076842676821092561 0.0035170473932867314 0 0.0079399299908459609 0.003324544716067889 0 0.019451735885834313 0.00057167977088963963 0 0.01920809227279191 0.00058982026621724585 0 0.019245291303104171 0.00047382108934549734 0 0.01920809227279191 0.00058982026621724585 0 0.019245291303104171 0.00047382108934549734 0 0.019092625501637279 0.00040767959851858955 0 0.019213073624400605 0.00032071849709728592 0 0.019245291303104171 0.00047382108934549734 0 0.019092625501637279 0.00040767959851858955 0 0.01920809227279191 0.00058982026621724585 0 0.019092625501637279 0.00040767959851858955 0 0.018929044313626735 0.00043350730991575514 0 0.018958539452955118 0.00027737517024073531 0 0.019092625501637279 0.00040767959851858955 0 0.018929044313626735 0.00043350730991575514 0 0.018672593284156803 0.00021757309066506656 0 0.01882131953567007 0.00049090545726652936 0 0.018929044313626735 0.00043350730991575514 0 0.018672593284156803 0.00021757309066506656 0 0.01882131953567007 0.00049090545726652936 0 0.018628375922448981 0.00039875644101323158 0 0.01882131953567007 0.00049090545726652936 0 0.018628375922448981 0.00039875644101323158 0 0.018799548431341021 0.00069231226561118696 0 0.01882131953567007 0.00049090545726652936 0 0.018799548431341021 0.00069231226561118696 0 0.019044995773272202 0.00070976943856004143 0 0.01882131953567007 0.00049090545726652936 0 0.018929044313626735 0.00043350730991575514 0 0.019044995773272202 0.00070976943856004143 0 0.019044995773272202 0.00070976943856004143 0 0.018957184082981901 0.00092695920537677265 0 0.019202638685570633 0.0010257565694591264 0 0.018799548431341021 0.00069231226561118696 0 0.019044995773272202 0.00070976943856004143 0 0.018957184082981901 0.00092695920537677265 0 0.018721960330348265 0.0009678720644759897 0 0.018799548431341021 0.00069231226561118696 0 0.018957184082981901 0.00092695920537677265 0 0.018957184082981901 0.00092695920537677265 0 0.01907383170800675 0.0011127844678115561 0 0.018910645747337418 0.0011631407644653704 0 0.018721960330348265 0.0009678720644759897 0 0.018957184082981901 0.00092695920537677265 0 0.018910645747337418 0.0011631407644653704 0 0.018957184082981901 0.00092695920537677265 0 0.019202638685570633 0.0010257565694591264 0 0.01907383170800675 0.0011127844678115561 0 0.019044995773272202 0.00070976943856004143 0 0.019202638685570633 0.0010257565694591264 0 0.019325499971246617 0.00083636873929815003 0 0.019579627726482234 0.00084177505020441572 0 0.019358832903969177 0.00068868514624529276 0 0.019325499971246617 0.00083636873929815003 0 0.019202638685570633 0.0010257565694591264 0 0.019377994012867564 0.0010216059344950459 0 0.019454720228291891 0.0012091226611496044 0 0.019505704404381898 0.0011168236058174675 0 0.019377994012867564 0.0010216059344950459 0 0.019454720228291891 0.0012091226611496044 0 0.01952511111659223 0.00098422212629705472 0 0.019325499971246617 0.00083636873929815003 0 0.019377994012867564 0.0010216059344950459 0 0.019202638685570633 0.0010257565694591264 0 0.019325499971246617 0.00083636873929815003 0 0.019377994012867564 0.0010216059344950459 0 0.01952511111659223 0.00098422212629705472 0 0.019505704404381898 0.0011168236058174675 0 0.019377994012867564 0.0010216059344950459 0 0.019454720228291891 0.0012091226611496044 0 0.019508604051898418 0.0013652079501025431 0 0.019655399398799067 0.0013665898699875638 0 0.019454720228291891 0.0012091226611496044 0 0.019508604051898418 0.0013652079501025431 0 0.019254124547398041 0.0012482553715803116 0 0.019508604051898418 0.0013652079501025431 0 0.019254124547398041 0.0012482553715803116 0 0.019259961292031204 0.0014124708062440983 0 0.019202638685570633 0.0010257565694591264 0 0.019454720228291891 0.0012091226611496044 0 0.019254124547398041 0.0012482553715803116 0 0.019202638685570633 0.0010257565694591264 0 0.019254124547398041 0.0012482553715803116 0 0.01907383170800675 0.0011127844678115561 0 0.01907383170800675 0.0011127844678115561 0 0.018910645747337418 0.0011631407644653704 0 0.019072167245268293 0.0013031172106470971 0 0.018910645747337418 0.0011631407644653704 0 0.019072167245268293 0.0013031172106470971 0 0.018937600694650746 0.0013800996669576903 0 0.019254124547398041 0.0012482553715803116 0 0.01907383170800675 0.0011127844678115561 0 0.019072167245268293 0.0013031172106470971 0 0.019254124547398041 0.0012482553715803116 0 0.019072167245268293 0.0013031172106470971 0 0.019259961292031204 0.0014124708062440983 0 0.019072167245268293 0.0013031172106470971 0 0.019259961292031204 0.0014124708062440983 0 0.01908673414471319 0.0015389258066193913 0 0.019072167245268293 0.0013031172106470971 0 0.01908673414471319 0.0015389258066193913 0 0.018937600694650746 0.0013800996669576903 0 0.019165999996898435 0.0015638260428240433 0 0.018951685580232299 0.0013870006550254414 0 0.019213690385110727 0.0015647261959272035 0 0.019356508772433702 0.0017360699056120853 0 0.019137798451878345 0.0016998615827434446 0 0.019213690385110727 0.0015647261959272035 0 0.018918356011207876 0.0016176870303250687 0 0.019137798451878345 0.0016998615827434446 0 0.019259961292031204 0.0014124708062440983 0 0.01908673414471319 0.0015389258066193913 0 0.019355633407126413 0.0015445367690408271 0 0.01908673414471319 0.0015389258066193913 0 0.019355633407126413 0.0015445367690408271 0 0.019300328312084683 0.0017300082154482479 0 0.019165999996898435 0.0015638260428240433 0 0.019201596695593421 0.0017073107727126747 0 0.019355633407126413 0.0015445367690408271 0 0.019638548341659897 0.0016421721698409418 0 0.019300328312084683 0.0017300082154482479 0 0.019355633407126413 0.0015445367690408271 0 0.019516834833403187 0.0014847859484895096 0 0.019638548341659897 0.0016421721698409418 0 0.019516834833403187 0.0014847859484895096 0 0.019638548341659897 0.0016421721698409418 0 0.019792531996986339 0.0014794670850934246 0 0.019638548341659897 0.0016421721698409418 0 0.020093618177361997 0.0016501952872661927 0 0.019792531996986339 0.0014794670850934246 0 0.019508604051898418 0.0013652079501025431 0 0.019655399398799067 0.0013665898699875638 0 0.019792531996986339 0.0014794670850934246 0 0.019508604051898418 0.0013652079501025431 0 0.019516834833403187 0.0014847859484895096 0 0.019792531996986339 0.0014794670850934246 0 0.019508604051898418 0.0013652079501025431 0 0.019259961292031204 0.0014124708062440983 0 0.019516834833403187 0.0014847859484895096 0 0.019259961292031204 0.0014124708062440983 0 0.019355633407126413 0.0015445367690408271 0 0.019516834833403187 0.0014847859484895096 0 0.018469929925161523 0.0012928186285300672 0 0.0188255915915625 0.0014346317803592163 0 0.018641674630755067 0.0016301858791473252 0 0.018469929925161523 0.0012928186285300672 0 0.018602741669719466 0.0011240066863535654 0 0.0188255915915625 0.0014346317803592163 0 0.018457593270270602 0.0010074108431424181 0 0.018469929925161523 0.0012928186285300672 0 0.018602741669719466 0.0011240066863535654 0 0.018602741669719466 0.0011240066863535654 0 0.018621510193872148 0.0012860531875628796 0 0.018697871038711643 0.0010873171537133621 0 0.01860687864616364 0.0011266121288808295 0 0.018759113507311808 0.0014006760488127175 0 0.018621510193872148 0.0012860531875628796 0 0.018776535995189681 0.0012669613002486584 0 0.018697871038711643 0.0010873171537133621 0 0.018910645747337418 0.0011631407644653704 0 0.018776535995189681 0.0012669613002486584 0 0.018697871038711643 0.0010873171537133621 0 0.018910645747337418 0.0011631407644653704 0 0.018776535995189681 0.0012669613002486584 0 0.018937600694650746 0.0013800996669576903 0 0.019213690385110727 0.0015647261959272035 0 0.018937600694650746 0.0013800996669576903 0 0.018918356011207876 0.0016176870303250687 0 0.018918356011207876 0.0016176870303250687 0 0.018698803775780034 0.0015283364026180907 0 0.018805845003739882 0.0018251907143265612 0 0.018937600694650746 0.0013800996669576903 0 0.018918356011207876 0.0016176870303250687 0 0.018698803775780034 0.0015283364026180907 0 0.018621510193872148 0.0012860531875628796 0 0.018776535995189681 0.0012669613002486584 0 0.018698803775780034 0.0015283364026180907 0 0.018776535995189681 0.0012669613002486584 0 0.018937600694650746 0.0013800996669576903 0 0.018698803775780034 0.0015283364026180907 0 0.0188255915915625 0.0014346317803592163 0 0.019038091114079295 0.0018312389888579049 0 0.018641674630755067 0.0016301858791473252 0 0.018759113507311808 0.0014006760488127175 0 0.018620599714432348 0.0015601250534470418 0 0.019038091114079295 0.0018312389888579049 0 0.018764575903934357 0.0019333306272557391 0 0.018935810510051717 0.0020591260707058436 0 0.019038091114079295 0.0018312389888579049 0 0.018764575903934357 0.0019333306272557391 0 0.018641674630755067 0.0016301858791473252 0 0.018764575903934357 0.0019333306272557391 0 0.018514748312254178 0.0018696974996024439 0 0.018641674630755067 0.0016301858791473252 0 0.018764575903934357 0.0019333306272557391 0 0.018514748312254178 0.0018696974996024439 0 0.018714266036014109 0.0021923773242392367 0 0.02003968146519532 0.0015636165878577023 0 0.022863218944222673 0.0019812422519642327 0 0.018514748312254178 0.0018696974996024439 0 0.018641674630755067 0.0016301858791473252 0 0.018352281048608754 0.0015758644780775757 0 0.026558495644386192 0.0020726391594731572 0 0.026902561798300063 0.0022107622003275642 0 0.026675004687983336 0.0017080904161692562 0 0.026558495644386192 0.0020726391594731572 0 0.026080453709589696 0.002050589976760454 0 0.026675004687983336 0.0017080904161692562 0 0.026558495644386192 0.0020726391594731572 0 0.026555875532898884 0.002477247300934092 0 0.026080453709589696 0.002050589976760454 0 0.026558495644386192 0.0020726391594731572 0 0.026902561798300063 0.0022107622003275642 0 0.026555875532898884 0.002477247300934092 0 0.026902561798300063 0.0022107622003275642 0 0.026555875532898884 0.002477247300934092 0 0.027101446292434394 0.0023684280264410123 0 0.021961639626289619 0.0015087560042044772 0 0.022403126227556334 0.0022180159242494875 0 0.021658549546211336 0.0020893427104669562 0 0.022863218944222673 0.0019812422519642327 0 0.02485706698300081 0.0023116008982684861 0 0.018714266036014109 0.0021923773242392367 0 0.018935810510051717 0.0020591260707058436 0 0.019226914598983968 0.0022829922138302193 0 0.022863218944222673 0.0019812422519642327 0 0.020967055407995993 0.0023525902002065947 0 0.026555875532898884 0.002477247300934092 0 0.026080453709589696 0.002050589976760454 0 0.025426559598613886 0.002408041435836011 0 0.019038091114079295 0.0018312389888579049 0 0.018935810510051717 0.0020591260707058436 0 0.019226914598983968 0.0022829922138302193 0 0.018764575903934357 0.0019333306272557391 0 0.018714266036014109 0.0021923773242392367 0 0.018935810510051717 0.0020591260707058436 0 0.026080453709589696 0.002050589976760454 0 0.025426559598613886 0.002408041435836011 0 0.025792673875522799 0.0014568016139426836 0 0.026080453709589696 0.002050589976760454 0 0.025792673875522799 0.0014568016139426836 0 0.026675004687983336 0.0017080904161692562 0 0.025426559598613886 0.002408041435836011 0 0.025103786729613387 0.0015251710570707228 0 0.025792673875522799 0.0014568016139426836 0 0.020967055407995993 0.0023525902002065947 0 0.022479848399861394 0.0017084608393242026 0 0.019655815059464544 0.0019637588223720354 0 0.019472341350958176 0.0019281890434404952 0 0.019572693461460195 0.0017340583381822824 0 0.020967055407995993 0.0023525902002065947 0 0.018957792084797493 0.001840871436166054 0 0.018620599714432348 0.0015601250534470418 0 0.020967055407995993 0.0023525902002065947 0 0.018918356011207876 0.0016176870303250687 0 0.018805845003739882 0.0018251907143265612 0 0.019007693839960805 0.0018555833946538509 0 0.018918356011207876 0.0016176870303250687 0 0.019007693839960805 0.0018555833946538509 0 0.019137798451878345 0.0016998615827434446 0 0.019472341350958176 0.0019281890434404952 0 0.019402004318555984 0.0017794277549527441 0 0.019572693461460195 0.0017340583381822824 0 0.018957792084797493 0.001840871436166054 0 0.019341678334949979 0.0018790122323169714 0 0.019472341350958176 0.0019281890434404952 0 0.019402004318555984 0.0017794277549527441 0 0.019260382593943894 0.0018474482761094996 0 0.01945090165971429 0.0016789949763508227 0 0.019521082546092534 0.0015320634004182638 0 0.019572693461460195 0.0017340583381822824 0 0.022340103182380628 0.00069856337425896575 0 0.022479848399861394 0.0017084608393242026 0 0.019402004318555984 0.0017794277549527441 0 0.01945090165971429 0.0016789949763508227 0 0.019572693461460195 0.0017340583381822824 0 0.019402004318555984 0.0017794277549527441 0 0.01945090165971429 0.0016789949763508227 0 0.019374738707564596 0.0017298901644929724 0 0.01945090165971429 0.0016789949763508227 0 0.019521082546092534 0.0015320634004182638 0 0.019339913400668735 0.0016718137105058665 0 0.023924898439928677 0.00048188551459627394 0 0.02340425792749435 0.00053085548056982167 0 0.023830822587737742 0.00018013625696318628 0 0.022340103182380628 0.00069856337425896575 0 0.021269475795467101 0.0013240001808051982 0 0.024770126002775426 0.00057836843369734334 0 0.025123305243851292 0.00089948548614590099 0 0.025103786729613387 0.0015251710570707228 0 0.024770126002775426 0.00057836843369734334 0 0.025142183526425627 0.00045754007267897182 0 0.024883563263278823 0.00032981121660718543 0 0.024770126002775426 0.00057836843369734334 0 0.025123305243851292 0.00089948548614590099 0 0.025142183526425627 0.00045754007267897182 0 0.025123305243851292 0.00089948548614590099 0 0.025628693085808237 0.00069999511082823724 0 0.025792673875522799 0.0014568016139426836 0 0.025123305243851292 0.00089948548614590099 0 0.025142183526425627 0.00045754007267897182 0 0.025628693085808237 0.00069999511082823724 0 0.025628693085808237 0.00069999511082823724 0 0.025981261914647731 0.00012909486636404082 0 0.025505986752011919 0.00027620026688178533 0 0.025142183526425627 0.00045754007267897182 0 0.025628693085808237 0.00069999511082823724 0 0.025505986752011919 0.00027620026688178533 0 0.025123305243851292 0.00089948548614590099 0 0.025103786729613387 0.0015251710570707228 0 0.025792673875522799 0.0014568016139426836 0 0.025792673875522799 0.0014568016139426836 0 0.026166133146200241 0.00092460128159446611 0 0.026675004687983336 0.0017080904161692562 0 0.026703080567604766 0.00095071493191133745 0 0.02552396195146911 -0.00022200698600722274 0 0.026166133146200241 0.00092460128159446611 0 0.026776767259292455 0.00063694605540948711 0 0.025981261914647731 0.00012909486636404082 0 0.025628693085808237 0.00069999511082823724 0 0.026166133146200241 0.00092460128159446611 0 0.025981261914647731 0.00012909486636404082 0 0.025628693085808237 0.00069999511082823724 0 0.025792673875522799 0.0014568016139426836 0 0.026166133146200241 0.00092460128159446611 0 0.026166133146200241 0.00092460128159446611 0 0.026776767259292455 0.00063694605540948711 0 0.026675004687983336 0.0017080904161692562 0 0.026703080567604766 0.00095071493191133745 0 0.026697554620289585 0.0016173166598534242 0 0.026759449898051284 0.0010792652647511048 0 0.026675004687983336 0.0017080904161692562 0 0.027475448563308687 0.0016265957165151012 0 0.019390214055142477 0.0017980169963897896 0 0.019356508772433702 0.0017360699056120853 0 0.019343347993590013 0.0017946258225732166 0 0.019390214055142477 0.0017980169963897896 0 0.019343347993590013 0.0017946258225732166 0 0.019310635422987745 0.0017992070388580194 0 0.021655669022418514 0.0019869868520953661 0 0.022806515241280651 0.0012926390145093563 0 0.021708588183778844 0.0012050255545232873 0 0.020407281867298246 0.001698765708788899 0 0.02108080561807946 0.001539404650588425 0 0.02110921274628174 0.0014215788633470021 0 0.020463767178009264 0.0013307495353944297 0 0.020093618177361997 0.0016501952872661927 0 0.021655669022418514 0.0019869868520953661 0 0.021708588183778844 0.0012050255545232873 0 0.0209027904776081 0.0011835504474890311 0 0.020407281867298246 0.001698765708788899 0 0.02106385446188537 0.0014563881832734629 0 0.02110921274628174 0.0014215788633470021 0 0.0209027904776081 0.0011835504474890311 0 0.020463767178009264 0.0013307495353944297 0 0.019597984634788807 0.0020223444656166929 0 0.019638548341659897 0.0016421721698409418 0 0.020093618177361997 0.0016501952872661927 0 0.020407281867298246 0.001698765708788899 0 0.020119110091163423 0.0016762192574822615 0 0.019597984634788807 0.0020223444656166929 0 0.019638548341659897 0.0016421721698409418 0 0.019300328312084683 0.0017300082154482479 0 0.020407281867298246 0.001698765708788899 0 0.019201596695593421 0.0017073107727126747 0 0.019007693839960805 0.0018555833946538509 0 0.019137798451878345 0.0016998615827434446 0 0.019260382593943894 0.0018474482761094996 0 0.019356508772433702 0.0017360699056120853 0 0.019137798451878345 0.0016998615827434446 0 0.019260382593943894 0.0018474482761094996 0 0.019260382593943894 0.0018474482761094996 0 0.019310320888608137 0.0018081519485303199 0 0.019313317366096802 0.001778928750989705 0 0.019402004318555984 0.0017794277549527441 0 0.019260382593943894 0.0018474482761094996 0 0.019313317366096802 0.001778928750989705 0 0.019356508772433702 0.0017360699056120853 0 0.019260382593943894 0.0018474482761094996 0 0.019310320888608137 0.0018081519485303199 0 0.019356508772433702 0.0017360699056120853 0 0.019343347993590013 0.0017946258225732166 0 0.019310320888608137 0.0018081519485303199 0 0.019310320888608137 0.0018081519485303199 0 0.019310635422987745 0.0017992070388580194 0 0.019313317366096802 0.001778928750989705 0 0.019343347993590013 0.0017946258225732166 0 0.019310320888608137 0.0018081519485303199 0 0.019310635422987745 0.0017992070388580194 0 0.02108080561807946 0.001539404650588425 0 0.021269475795467101 0.0013240001808051982 0 0.022806515241280651 0.0012926390145093563 0 0.022902745681942123 0.00092523413696691376 0 0.023428414601591341 0.00082652057706339335 0 0.019310635422987745 0.0017992070388580194 0 0.019313317366096802 0.001778928750989705 0 0.019339913400668735 0.0016718137105058665 0 0.022902745681942123 0.00092523413696691376 0 0.022381738998694216 0.00042650232817406457 0 0.022330603838394192 0.00094495870055851027 0 0.022806515241280651 0.0012926390145093563 0 0.022902745681942123 0.00092523413696691376 0 0.022330603838394192 0.00094495870055851027 0 0.019402004318555984 0.0017794277549527441 0 0.019374738707564596 0.0017298901644929724 0 0.019313317366096802 0.001778928750989705 0 0.019374738707564596 0.0017298901644929724 0 0.019313317366096802 0.001778928750989705 0 0.019339913400668735 0.0016718137105058665 0 0.01945090165971429 0.0016789949763508227 0 0.019374738707564596 0.0017298901644929724 0 0.019339913400668735 0.0016718137105058665 0 0.022902745681942123 0.00092523413696691376 0 0.023428414601591341 0.00082652057706339335 0 0.02340425792749435 0.00053085548056982167 0 0.023924898439928677 0.00048188551459627394 0 0.023428414601591341 0.00082652057706339335 0 0.02340425792749435 0.00053085548056982167 0 0.024103078777221416 0.00023678318347392145 0 0.023626106115729694 -0.00011379721934602283 0 0.024262916546254367 -0.00037083561971417155 0 0.023702745912368761 0.00037419126978219713 0 0.024474587800071439 -0.00013111606387822142 0 0.022902745681942123 0.00092523413696691376 0 0.023157042542349612 0.00022311442566959653 0 0.022381738998694216 0.00042650232817406457 0 0.02301635996733389 0.00087952993255629823 0 0.023702745912368761 0.00037419126978219713 0 0.022902745681942123 0.00092523413696691376 0 0.024103078777221416 0.00023678318347392145 0 0.023157042542349612 0.00022311442566959653 0 0.024103078777221416 0.00023678318347392145 0 0.023157042542349612 0.00022311442566959653 0 0.023626106115729694 -0.00011379721934602283 0 0.023157042542349612 0.00022311442566959653 0 0.023626106115729694 -0.00011379721934602283 0 0.022773275808625759 -0.00034584644867888086 0 0.023157042542349612 0.00022311442566959653 0 0.022381738998694216 0.00042650232817406457 0 0.022773275808625759 -0.00034584644867888086 0 0.021967270054881197 -4.7685124085891927e-05 0 0.022381738998694216 0.00042650232817406457 0 0.022773275808625759 -0.00034584644867888086 0 0.021967270054881197 -4.7685124085891927e-05 0 0.021705301802102579 0.00038113699918001696 0 0.022381738998694216 0.00042650232817406457 0 0.021705301802102579 0.00038113699918001696 0 0.022381738998694216 0.00042650232817406457 0 0.021884011205893006 0.00078851402150000515 0 0.022806515241280651 0.0012926390145093563 0 0.022330603838394192 0.00094495870055851027 0 0.021708588183778844 0.0012050255545232873 0 0.022381738998694216 0.00042650232817406457 0 0.022330603838394192 0.00094495870055851027 0 0.021884011205893006 0.00078851402150000515 0 0.022330603838394192 0.00094495870055851027 0 0.021884011205893006 0.00078851402150000515 0 0.021708588183778844 0.0012050255545232873 0 0.021884011205893006 0.00078851402150000515 0 0.021708588183778844 0.0012050255545232873 0 0.021161226458262353 0.00059625094336246951 0 0.0209027904776081 0.0011835504474890311 0 0.020740859186349471 0.00082879546917386177 0 0.020387348723631012 0.001090285194413805 0 0.021708588183778844 0.0012050255545232873 0 0.0209027904776081 0.0011835504474890311 0 0.021161226458262353 0.00059625094336246951 0 0.021705301802102579 0.00038113699918001696 0 0.021884011205893006 0.00078851402150000515 0 0.021161226458262353 0.00059625094336246951 0 0.021161226458262353 0.00059625094336246951 0 0.020740859186349471 0.00082879546917386177 0 0.020635259211208547 0.00053018535839401018 0 0.0209027904776081 0.0011835504474890311 0 0.021161226458262353 0.00059625094336246951 0 0.020740859186349471 0.00082879546917386177 0 0.021161226458262353 0.00059625094336246951 0 0.021235477892646803 -6.1927102421749269e-05 0 0.020798695819317037 0.00015738678004885399 0 0.021161226458262353 0.00059625094336246951 0 0.020798695819317037 0.00015738678004885399 0 0.020635259211208547 0.00053018535839401018 0 0.021705301802102579 0.00038113699918001696 0 0.021161226458262353 0.00059625094336246951 0 0.021235477892646803 -6.1927102421749269e-05 0 0.021967270054881197 -4.7685124085891927e-05 0 0.021705301802102579 0.00038113699918001696 0 0.021235477892646803 -6.1927102421749269e-05 0 0.021235477892646803 -6.1927102421749269e-05 0 0.020798695819317037 0.00015738678004885399 0 0.020593304564995751 -0.00017846942524400882 0 0.020798695819317037 0.00015738678004885399 0 0.020339626096528896 0.00036049287430122497 0 0.020593304564995751 -0.00017846942524400882 0 0.020339626096528896 0.00036049287430122497 0 0.020155444889963167 3.7679436356206806e-05 0 0.020593304564995751 -0.00017846942524400882 0 0.020798695819317037 0.00015738678004885399 0 0.020339626096528896 0.00036049287430122497 0 0.020635259211208547 0.00053018535839401018 0 0.019858534858796958 0.0001188572470693993 0 0.019733490638901813 2.9660700013179615e-05 0 0.019810391284167984 -4.5801258777409329e-05 0 0.019858534858796958 0.0001188572470693993 0 0.020155444889963167 3.7679436356206806e-05 0 0.019976737529385918 0.00042029005160895341 0 0.019858534858796958 0.0001188572470693993 0 0.020155444889963167 3.7679436356206806e-05 0 0.020006597307733374 -0.0002106422718973215 0 0.020339626096528896 0.00036049287430122497 0 0.019976737529385918 0.00042029005160895341 0 0.02005503447665271 0.00073813031226597006 0 0.020339626096528896 0.00036049287430122497 0 0.020155444889963167 3.7679436356206806e-05 0 0.019976737529385918 0.00042029005160895341 0 0.019858534858796958 0.0001188572470693993 0 0.019976737529385918 0.00042029005160895341 0 0.019740419362993561 0.00041831492698054525 0 0.019976737529385918 0.00042029005160895341 0 0.019811716285580636 0.00069135908453942917 0 0.019740419362993561 0.00041831492698054525 0 0.019976737529385918 0.00042029005160895341 0 0.019811716285580636 0.00069135908453942917 0 0.02005503447665271 0.00073813031226597006 0 0.02005503447665271 0.00073813031226597006 0 0.020105818519921857 0.0010220973048797558 0 0.019878849093749776 0.00099027669260753621 0 0.02005503447665271 0.00073813031226597006 0 0.020105818519921857 0.0010220973048797558 0 0.020361321944105296 0.0007742536758365815 0 0.019811716285580636 0.00069135908453942917 0 0.02005503447665271 0.00073813031226597006 0 0.019878849093749776 0.00099027669260753621 0 0.020740859186349471 0.00082879546917386177 0 0.020635259211208547 0.00053018535839401018 0 0.020361321944105296 0.0007742536758365815 0 0.020339626096528896 0.00036049287430122497 0 0.020635259211208547 0.00053018535839401018 0 0.020361321944105296 0.0007742536758365815 0 0.020339626096528896 0.00036049287430122497 0 0.02005503447665271 0.00073813031226597006 0 0.020361321944105296 0.0007742536758365815 0 0.020105818519921857 0.0010220973048797558 0 0.020361321944105296 0.0007742536758365815 0 0.020387348723631012 0.001090285194413805 0 0.020740859186349471 0.00082879546917386177 0 0.020361321944105296 0.0007742536758365815 0 0.020387348723631012 0.001090285194413805 0 0.020463767178009264 0.0013307495353944297 0 0.020012761304857289 0.0012910968846418993 0 0.020093618177361997 0.0016501952872661927 0 0.0209027904776081 0.0011835504474890311 0 0.020387348723631012 0.001090285194413805 0 0.020463767178009264 0.0013307495353944297 0 0.020387348723631012 0.001090285194413805 0 0.020463767178009264 0.0013307495353944297 0 0.020012761304857289 0.0012910968846418993 0 0.020105818519921857 0.0010220973048797558 0 0.020387348723631012 0.001090285194413805 0 0.020012761304857289 0.0012910968846418993 0 0.019878849093749776 0.00099027669260753621 0 0.020012761304857289 0.0012910968846418993 0 0.019690249962466176 0.0011713626390065829 0 0.020012761304857289 0.0012910968846418993 0 0.019745971016795854 0.0014183326337549242 0 0.019690249962466176 0.0011713626390065829 0 0.020105818519921857 0.0010220973048797558 0 0.019878849093749776 0.00099027669260753621 0 0.020012761304857289 0.0012910968846418993 0 0.019927688086798654 0.00148053995033956 0 0.020093618177361997 0.0016501952872661927 0 0.019843385935764644 0.0015146409564316629 0 0.020012761304857289 0.0012910968846418993 0 0.019927688086798654 0.00148053995033956 0 0.019745971016795854 0.0014183326337549242 0 0.019927688086798654 0.00148053995033956 0 0.019745971016795854 0.0014183326337549242 0 0.019843385935764644 0.0015146409564316629 0 0.020012761304857289 0.0012910968846418993 0 0.019927688086798654 0.00148053995033956 0 0.020093618177361997 0.0016501952872661927 0 0.019435821113976941 0.0013234131966064714 0 0.01933723778874484 0.0014729927577545143 0 0.019641892261079177 0.0014833541826038445 0 0.019613984466217951 0.0013677161518161876 0 0.019435821113976941 0.0013234131966064714 0 0.019508773905258171 0.0011805949494678178 0 0.019613984466217951 0.0013677161518161876 0 0.019435821113976941 0.0013234131966064714 0 0.019641892261079177 0.0014833541826038445 0 0.019613984466217951 0.0013677161518161876 0 0.019745971016795854 0.0014183326337549242 0 0.019733846587734041 0.0014875659083123953 0 0.019613984466217951 0.0013677161518161876 0 0.019745971016795854 0.0014183326337549242 0 0.019690249962466176 0.0011713626390065829 0 0.019613984466217951 0.0013677161518161876 0 0.019690249962466176 0.0011713626390065829 0 0.019508773905258171 0.0011805949494678178 0 0.019878849093749776 0.00099027669260753621 0 0.019690249962466176 0.0011713626390065829 0 0.019653946590123601 0.00088203026966916537 0 0.019690249962466176 0.0011713626390065829 0 0.019508773905258171 0.0011805949494678178 0 0.019481609823787632 0.00093822937965947774 0 0.019690249962466176 0.0011713626390065829 0 0.019481609823787632 0.00093822937965947774 0 0.019653946590123601 0.00088203026966916537 0 0.019435821113976941 0.0013234131966064714 0 0.019508773905258171 0.0011805949494678178 0 0.019351136260142166 0.0010759325679645618 0 0.019508773905258171 0.0011805949494678178 0 0.019481609823787632 0.00093822937965947774 0 0.019351136260142166 0.0010759325679645618 0 0.027490298420596394 0.00056757911369031857 0 0.027882281998667258 0.00026116647088270421 0 0.026962521086316887 0.0014942799644671709 0 0.019481609823787632 0.00093822937965947774 0 0.019423008545043693 0.0006245809333711768 0 0.019351136260142166 0.0010759325679645618 0 0.023464877906558823 0.0005043966423379316 0 0.023108360942698122 0.0012938104529744414 0 0.019481609823787632 0.00093822937965947774 0 0.019423008545043693 0.0006245809333711768 0 0.019540090105453305 0.00077409033538533773 0 0.019811716285580636 0.00069135908453942917 0 0.019878849093749776 0.00099027669260753621 0 0.019653946590123601 0.00088203026966916537 0 0.019481609823787632 0.00093822937965947774 0 0.019653946590123601 0.00088203026966916537 0 0.019540090105453305 0.00077409033538533773 0 0.019653946590123601 0.00088203026966916537 0 0.019540090105453305 0.00077409033538533773 0 0.019621825716738064 0.00063604558533256086 0 0.019423008545043693 0.0006245809333711768 0 0.019540090105453305 0.00077409033538533773 0 0.019621825716738064 0.00063604558533256086 0 0.019811716285580636 0.00069135908453942917 0 0.019653946590123601 0.00088203026966916537 0 0.019621825716738064 0.00063604558533256086 0 0.019811716285580636 0.00069135908453942917 0 0.019621825716738064 0.00063604558533256086 0 0.019740419362993561 0.00041831492698054525 0 0.019423008545043693 0.0006245809333711768 0 0.019645341323636933 0.00016416236238482295 0 0.019659234504121881 -0.00012640772167763943 0 0.027882281998667258 0.00026116647088270421 0 0.02806934589958196 -0.00030707247500483221 0 0.028566774485871263 -0.0008857992417774616 0 0.023464877906558823 0.0005043966423379316 0 0.025518130343818314 -0.00057912055073177206 0 0.019740419362993561 0.00041831492698054525 0 0.01960671508473541 0.00046208880428638536 0 0.019645341323636933 0.00016416236238482295 0 0.019621825716738064 0.00063604558533256086 0 0.019740419362993561 0.00041831492698054525 0 0.01960671508473541 0.00046208880428638536 0 0.019423008545043693 0.0006245809333711768 0 0.019621825716738064 0.00063604558533256086 0 0.01960671508473541 0.00046208880428638536 0 0.019423008545043693 0.0006245809333711768 0 0.01960671508473541 0.00046208880428638536 0 0.019645341323636933 0.00016416236238482295 0 0.02806934589958196 -0.00030707247500483221 0 0.028369897444255512 -0.00078326539925002649 0 0.02810918804290987 -0.0007149298501871222 0 0.019645341323636933 0.00016416236238482295 0 0.019733490638901813 2.9660700013179615e-05 0 0.019659234504121881 -0.00012640772167763943 0 0.019858534858796958 0.0001188572470693993 0 0.019645341323636933 0.00016416236238482295 0 0.019733490638901813 2.9660700013179615e-05 0 0.019858534858796958 0.0001188572470693993 0 0.019740419362993561 0.00041831492698054525 0 0.019645341323636933 0.00016416236238482295 0 0.027490298420596394 0.00056757911369031857 0 0.027882281998667258 0.00026116647088270421 0 0.027789005080745211 -0.00072954396639521464 0 0.027490298420596394 0.00056757911369031857 0 0.026958892827685422 -0.00013140272109684898 0 0.027610268460666002 -0.00069656386476710621 0 0.027525380083443844 0.00044359424279347836 0 0.027653227389168512 -0.00058677540743190526 0 0.027882281998667258 0.00026116647088270421 0 0.02806934589958196 -0.00030707247500483221 0 0.027789005080745211 -0.00072954396639521464 0 0.02806934589958196 -0.00030707247500483221 0 0.027789005080745211 -0.00072954396639521464 0 0.02810918804290987 -0.0007149298501871222 0 0.026958892827685422 -0.00013140272109684898 0 0.026894891515911689 -0.00087158594244080879 0 0.027610268460666002 -0.00069656386476710621 0 0.026958892827685422 -0.00013140272109684898 0 0.026207704135104287 -0.00042415878165660376 0 0.02649190699145524 0.00060611456708130102 0 0.026958892827685422 -0.00013140272109684898 0 0.026207704135104287 -0.00042415878165660376 0 0.026894891515911689 -0.00087158594244080879 0 0.026207704135104287 -0.00042415878165660376 0 0.025699732244321694 0.00027524945995988732 0 0.02649190699145524 0.00060611456708130102 0 0.026207704135104287 -0.00042415878165660376 0 0.025699732244321694 0.00027524945995988732 0 0.025107098051546747 -0.00019374624746456974 0 0.025699732244321694 0.00027524945995988732 0 0.025107098051546747 -0.00019374624746456974 0 0.025176679785515917 0.00056003709560221299 0 0.025699732244321694 0.00027524945995988732 0 0.02566390755158458 0.00092613230333678167 0 0.02649190699145524 0.00060611456708130102 0 0.025699732244321694 0.00027524945995988732 0 0.02566390755158458 0.00092613230333678167 0 0.025176679785515917 0.00056003709560221299 0 0.02566390755158458 0.00092613230333678167 0 0.025176679785515917 0.00056003709560221299 0 0.025052016461847234 0.0011655495250222556 0 0.027490298420596394 0.00056757911369031857 0 0.02649190699145524 0.00060611456708130102 0 0.026962521086316887 0.0014942799644671709 0 0.027490298420596394 0.00056757911369031857 0 0.026958892827685422 -0.00013140272109684898 0 0.02649190699145524 0.00060611456708130102 0 0.02566390755158458 0.00092613230333678167 0 0.02649190699145524 0.00060611456708130102 0 0.026208115664647914 0.0013489411254493453 0 0.02649190699145524 0.00060611456708130102 0 0.026962521086316887 0.0014942799644671709 0 0.026208115664647914 0.0013489411254493453 0 0.022610745868791252 0.0016969419427567919 0 0.024511802176846939 0.00044058235267973748 0 0.024440381980124246 0.00082101686644769879 0 0.02407966675865578 0.00052126043291157622 0 0.024195861444003552 -0.00063694762941032845 0 0.02407966675865578 0.00052126043291157622 0 0.024195861444003552 -0.00063694762941032845 0 0.023490406770897587 -0.0012029995248740103 0 0.021680172755791892 0.0026421637923526942 0 0.021789723914117608 0.0028525571594268744 0 0.021661485306735267 0.0023714476284104236 0 0.021680172755791892 0.0026421637923526942 0 0.021789723914117608 0.0028525571594268744 0 0.021578811568155113 0.0028689973616513771 0 0.024529393626767398 0.00064929991869202923 0 0.02419391237622712 -0.00051410952633437561 0 0.025107098051546747 -0.00019374624746456974 0 0.024440920220188001 0.0006815793573382088 0 0.024195861444003552 -0.00063694762941032845 0 0.024440381980124246 0.00082101686644769879 0 0.02407966675865578 0.00052126043291157622 0 0.024671676955869856 0.0023057305516509257 0 0.022610745868791252 0.0016969419427567919 0 0.023573360883439577 0.0026769954846393418 0 0.025107098051546747 -0.00019374624746456974 0 0.025176679785515917 0.00056003709560221299 0 0.024440920220188001 0.0006815793573382088 0 0.025176679785515917 0.00056003709560221299 0 0.025052016461847234 0.0011655495250222556 0 0.024440920220188001 0.0006815793573382088 0 0.021789723914117608 0.0028525571594268744 0 0.021578811568155113 0.0028689973616513771 0 0.021554542201287222 0.0031464827067804778 0 0.021554542201287222 0.0031464827067804778 0 0.021953705780853271 0.0033712180324125566 0 0.021778583691689748 0.0034285235444491188 0 0.017016112770950158 0.0053397875221790035 0 0.017194815547209006 0.0055474489250850597 0 0.016977555028500218 0.0056955840297852802 0 0.021789723914117608 0.0028525571594268744 0 0.021554542201287222 0.0031464827067804778 0 0.021953705780853271 0.0033712180324125566 0 0.019236774943318935 0.0042085846679663702 0 0.019447553815552049 0.0045000208619918984 0 0.025052016461847234 0.0011655495250222556 0 0.024440920220188001 0.0006815793573382088 0 0.024662791539421372 0.0020354879562302867 0 0.024529393626767398 0.00064929991869202923 0 0.023573360883439577 0.0026769954846393418 0 0.025052016461847234 0.0011655495250222556 0 0.024662791539421372 0.0020354879562302867 0 0.02545661261272052 0.0017129970981842524 0 0.021953705780853271 0.0033712180324125566 0 0.021778583691689748 0.0034285235444491188 0 0.021998727517989983 0.0037168104604654974 0 0.022124612725488477 0.0031936607263211465 0 0.022293446721938868 0.0037618926622527832 0 0.022175565403210442 0.0036045924003214585 0 0.023573360883439577 0.0026769954846393418 0 0.021704652552484122 0.0039799795683765219 0 0.024662791539421372 0.0020354879562302867 0 0.025453527385970807 0.0024299959578161861 0 0.025170784150100649 0.0035401118642494908 0 0.023573360883439577 0.0026769954846393418 0 0.02037474700588749 0.0043658767151854381 0 0.019447553815552049 0.0045000208619918984 0 0.02037474700588749 0.0043658767151854381 0 0.017194815547209006 0.0055474489250850597 0 0.017168112054099648 0.005749180525405578 0 0.017389011737642204 0.0057638892411154647 0 0.017194815547209006 0.0055474489250850597 0 0.017168112054099648 0.005749180525405578 0 0.016977555028500218 0.0056955840297852802 0 0.026222872703135461 0.0020634285739113134 0 0.026962521086316887 0.0014942799644671709 0 0.02606847424163964 0.0026610251059890335 0 0.023108360942698122 0.0012938104529744414 0 0.023162867756264874 0.0019008377662195148 0 0.026222872703135461 0.0020634285739113134 0 0.026962521086316887 0.0014942799644671709 0 0.026208115664647914 0.0013489411254493453 0 0.02566390755158458 0.00092613230333678167 0 0.026208115664647914 0.0013489411254493453 0 0.02545661261272052 0.0017129970981842524 0 0.02566390755158458 0.00092613230333678167 0 0.025052016461847234 0.0011655495250222556 0 0.02545661261272052 0.0017129970981842524 0 0.024662791539421372 0.0020354879562302867 0 0.02545661261272052 0.0017129970981842524 0 0.025453527385970807 0.0024299959578161861 0 0.026222872703135461 0.0020634285739113134 0 0.02545661261272052 0.0017129970981842524 0 0.025453527385970807 0.0024299959578161861 0 0.026222872703135461 0.0020634285739113134 0 0.026208115664647914 0.0013489411254493453 0 0.02545661261272052 0.0017129970981842524 0 0.025453527385970807 0.0024299959578161861 0 0.026074862769860197 0.0026558029804589294 0 0.025170784150100649 0.0035401118642494908 0 0.026222872703135461 0.0020634285739113134 0 0.025453527385970807 0.0024299959578161861 0 0.026074862769860197 0.0026558029804589294 0 0.019435821113976941 0.0013234131966064714 0 0.019351136260142166 0.0010759325679645618 0 0.0191999964852855 0.00135652112024011 0 0.019435821113976941 0.0013234131966064714 0 0.0191999964852855 0.00135652112024011 0 0.01933723778874484 0.0014729927577545143 0 0.025087613849553138 0.0019879820986201465 0 0.023162867756264874 0.0019008377662195148 0 0.0191999964852855 0.00135652112024011 0 0.01933723778874484 0.0014729927577545143 0 0.01922913036875553 0.0016198423550030428 0 0.01933723778874484 0.0014729927577545143 0 0.019391545563883467 0.0016757145338910677 0 0.01922913036875553 0.0016198423550030428 0 0.021040383266125423 0.0015309632694097024 0 0.019991618204031253 0.0029387423165501349 0 0.020572868720261754 0.003479115081893257 0 0.023162867756264874 0.0019008377662195148 0 0.020151905707692423 0.0035692489940512455 0 0.0191999964852855 0.00135652112024011 0 0.01922913036875553 0.0016198423550030428 0 0.019077774875765761 0.0017601012932116457 0 0.026074862769860197 0.0026558029804589294 0 0.025170784150100649 0.0035401118642494908 0 0.02524315490919514 0.0037531266882095096 0 0.023162867756264874 0.0019008377662195148 0 0.017956529737227035 0.0025373894351206653 0 0.019447384785265774 0.0044610535425754884 0 0.019426727274495997 0.0044132118192053644 0 0.019474183331394057 0.0043396656240870159 0 0.020151905707692423 0.0035692489940512455 0 0.017956529737227035 0.0025373894351206653 0 0.021704652552484122 0.0039799795683765219 0 0.020151905707692423 0.0035692489940512455 0 0.020151905707692423 0.0035692489940512455 0 0.017408610625449593 0.0050907750273942627 0 0.01922913036875553 0.0016198423550030428 0 0.019077774875765761 0.0017601012932116457 0 0.019144904598765344 0.0018459712611849251 0 0.016109331688384371 0.003797441579502158 0 0.01646913847216654 0.0048267011591084791 0 0.015828364134630978 0.0041722307902018205 0 0.017956529737227035 0.0025373894351206653 0 0.015111590382103459 0.0034815179453016628 0 0.018081817474276944 0.0039862188490782787 0 0.017363136320248079 0.0033399750339023135 0 0.017520213929550051 0.0025772241041143971 0 0.020151905707692423 0.0035692489940512455 0 0.015111590382103459 0.0034815179453016628 0 0.017956529737227035 0.0025373894351206653 0 0.016523704647054882 0.0019672802406962672 0 0.015951997010116931 0.0049359768781687251 0 0.01646913847216654 0.0048267011591084791 0 0.015828364134630978 0.0041722307902018205 0 0.015951997010116931 0.0049359768781687251 0 0.01646913847216654 0.0048267011591084791 0 0.016444009409843377 0.0049385048264916276 0 0.016117529304648753 0.002099282761840644 0 0.016566774716188094 0.0026328710273360195 0 0.015917989541422147 0.0029610355960341611 0 0.016523704647054882 0.0019672802406962672 0 0.01371784107897331 0.0037446815538962749 0 0.016566774716188094 0.0026328710273360195 0 0.015917989541422147 0.0029610355960341611 0 0.015878954088613478 0.0031307451763540866 0 0.015111590382103459 0.0034815179453016628 0 0.01371784107897331 0.0037446815538962749 0 0.019687860456317857 0.0014535319524531199 0 0.019681000806293831 0.0014493393996269062 0 0.019694792546956393 0.0014390069019957243 0 0.019924667090663557 0.0013054892291264424 0 0.016523704647054882 0.0019672802406962672 0 0.019391545563883467 0.0016757145338910677 0 0.01922913036875553 0.0016198423550030428 0 0.019144904598765344 0.0018459712611849251 0 0.017168112054099648 0.005749180525405578 0 0.017106779049306409 0.0059620300292257062 0 0.016977555028500218 0.0056955840297852802 0 0.02037474700588749 0.0043658767151854381 0 0.017408610625449593 0.0050907750273942627 0 0.017106779049306409 0.0059620300292257062 0 0.017389011737642204 0.0057638892411154647 0 0.017431395225874599 0.0060108317117233169 0 0.017168112054099648 0.005749180525405578 0 0.017106779049306409 0.0059620300292257062 0 0.017389011737642204 0.0057638892411154647 0 0.019447384785265774 0.0044610535425754884 0 0.019532714702054654 0.0045545359509575776 0 0.019474183331394057 0.0043396656240870159 0 0.021704652552484122 0.0039799795683765219 0 0.02037474700588749 0.0043658767151854381 0 0.017106779049306409 0.0059620300292257062 0 0.017431395225874599 0.0060108317117233169 0 0.017193769570498629 0.0063192254597503874 0 0.017408610625449593 0.0050907750273942627 0 0.016135179973149515 0.0059303059916386239 0 0.015951997010116931 0.0049359768781687251 0 0.015808504045361608 0.0041636584685282516 0 0.014830614112146296 0.0054789221009933168 0 0.016258545439479112 0.0044825785070693111 0 0.017408610625449593 0.0050907750273942627 0 0.017106779049306409 0.0059620300292257062 0 0.017193769570498629 0.0063192254597503874 0 0.016911214141905703 0.0062221026760427506 0 0.017193769570498629 0.0063192254597503874 0 0.016946046133046688 0.006628600210125144 0 0.016911214141905703 0.0062221026760427506 0 0.014830614112146296 0.0054789221009933168 0 0.015150018136782012 0.0058681268367278402 0 0.013864580350942656 0.0067850382428426663 0 0.015951997010116931 0.0049359768781687251 0 0.016444009409843377 0.0049385048264916276 0 0.015150018136782012 0.0058681268367278402 0 0.015951997010116931 0.0049359768781687251 0 0.014830614112146296 0.0054789221009933168 0 0.015150018136782012 0.0058681268367278402 0 0.01371784107897331 0.0037446815538962749 0 0.012453748339794495 0.0053060029184713317 0 0.010337433031008451 0.0044579932962217584 0 0.010617232196353844 0.0049015239214888996 0 0.010153294346698576 0.0052587592315318822 0 0.010337433031008451 0.0044579932962217584 0 0.010617232196353844 0.0049015239214888996 0 0.011068086506613317 0.0045797774404276763 0 0.010895585372369119 0.005315620306347732 0 0.010617232196353844 0.0049015239214888996 0 0.010153294346698576 0.0052587592315318822 0 0.0096712605874119117 0.0055508238072866029 0 0.010153294346698576 0.0052587592315318822 0 0.0095282120792512526 0.0051830526088908913 0 0.016135179973149515 0.0059303059916386239 0 0.013516231079394534 0.0061883731226355558 0 0.010337433031008451 0.0044579932962217584 0 0.010153294346698576 0.0052587592315318822 0 0.0095282120792512526 0.0051830526088908913 0 0.012453748339794495 0.0053060029184713317 0 0.013516231079394534 0.0061883731226355558 0 0.011808607503009003 0.0031178519266404719 0 0.011765807591477297 0.0042477860905818692 0 0.012824869820203803 0.0043589828693883729 0 0.019681000806293831 0.0014493393996269062 0 0.019694792546956393 0.0014390069019957243 0 0.019704376658642431 0.001407936081749557 0 0.016523704647054882 0.0019672802406962672 0 0.016515823125917921 0.0028544854296988567 0 0.01371784107897331 0.0037446815538962749 0 0.011605311397429628 0.0037476527966042931 0 0.011808607503009003 0.0031178519266404719 0 0.011430625567013379 0.0033927973662972776 0 0.011765807591477297 0.0042477860905818692 0 0.01371784107897331 0.0037446815538962749 0 0.011097749188918553 0.0045307664877592066 0 0.011269339473792375 0.0037789126395450868 0 0.010337433031008451 0.0044579932962217584 0 0.011068086506613317 0.0045797774404276763 0 0.011382524194779368 0.0033474762956079607 0 0.011140421052978034 0.0043305662345678141 0 0.011765807591477297 0.0042477860905818692 0 0.011765807591477297 0.0042477860905818692 0 0.011442978051173924 0.0048494776538097716 0 0.011913502789126198 0.0049699494315467605 0 0.011140421052978034 0.0043305662345678141 0 0.011765807591477297 0.0042477860905818692 0 0.011442978051173924 0.0048494776538097716 0 0.010895585372369119 0.005315620306347732 0 0.010617232196353844 0.0049015239214888996 0 0.011068086506613317 0.0045797774404276763 0 0.010928296055673289 0.0051963465744977655 0 0.011097749188918553 0.0045307664877592066 0 0.010895585372369119 0.005315620306347732 0 0.011140421052978034 0.0043305662345678141 0 0.011442978051173924 0.0048494776538097716 0 0.011495087831772563 0.005380764517271582 0 0.010895585372369119 0.005315620306347732 0 0.011442978051173924 0.0048494776538097716 0 0.011495087831772563 0.005380764517271582 0 0.011442978051173924 0.0048494776538097716 0 0.011913502789126198 0.0049699494315467605 0 0.011765807591477297 0.0042477860905818692 0 0.012585411193632757 0.0048995612514118689 0 0.012824869820203803 0.0043589828693883729 0 0.011765807591477297 0.0042477860905818692 0 0.011913502789126198 0.0049699494315467605 0 0.012585411193632757 0.0048995612514118689 0 0.012211186522575267 0.0055379848331741652 0 0.011913502789126198 0.0049699494315467605 0 0.012585411193632757 0.0048995612514118689 0 0.014402494506884574 0.0042795774803425606 0 0.016515823125917921 0.0028544854296988567 0 0.013882336493159508 0.0056131599086633637 0 0.012585411193632757 0.0048995612514118689 0 0.012824869820203803 0.0043589828693883729 0 0.019694792546956393 0.0014390069019957243 0 0.019704376658642431 0.001407936081749557 0 0.019707207645957153 0.0014380200774414939 0 0.019704376658642431 0.001407936081749557 0 0.019714017210913024 0.0014115267697257018 0 0.019707207645957153 0.0014380200774414939 0 0.019704376658642431 0.001407936081749557 0 0.019714017210913024 0.0014115267697257018 0 0.019701074126508816 0.001363220183709146 0 0.019714017210913024 0.0014115267697257018 0 0.019707207645957153 0.0014380200774414939 0 0.019732562743228852 0.0014358316407468786 0 0.019714017210913024 0.0014115267697257018 0 0.019713561412325501 0.001381779649840474 0 0.019732562743228852 0.0014358316407468786 0 0.019714017210913024 0.0014115267697257018 0 0.019713561412325501 0.001381779649840474 0 0.019701074126508816 0.001363220183709146 0 0.019713561412325501 0.001381779649840474 0 0.019701074126508816 0.001363220183709146 0 0.019699827029104326 0.0013334950045210817 0 0.019701074126508816 0.001363220183709146 0 0.019687181144988523 0.0013143146368602911 0 0.019699827029104326 0.0013334950045210817 0 0.019676020735693491 0.001332701382845317 0 0.019701074126508816 0.001363220183709146 0 0.019687181144988523 0.0013143146368602911 0 0.019676020735693491 0.001332701382845317 0 0.019704376658642431 0.001407936081749557 0 0.019701074126508816 0.001363220183709146 0 0.019687181144988523 0.0013143146368602911 0 0.019692698202934941 0.0012726341026015539 0 0.019699827029104326 0.0013334950045210817 0 0.019682519812089766 0.0012943420971405471 0 0.019687181144988523 0.0013143146368602911 0 0.019692698202934941 0.0012726341026015539 0 0.019682305038267976 0.001200957666548221 0 0.019692698202934941 0.0012726341026015539 0 0.019632198114500905 0.0012753653794348953 0 0.019692698202934941 0.0012726341026015539 0 0.019685153674452241 0.0013115624127345447 0 0.019632198114500905 0.0012753653794348953 0 0.019685153674452241 0.0013115624127345447 0 0.019699827029104326 0.0013334950045210817 0 0.019705551463296323 0.0013670762396627767 0 0.019685153674452241 0.0013115624127345447 0 0.019632198114500905 0.0012753653794348953 0 0.019705551463296323 0.0013670762396627767 0 0.019692698202934941 0.0012726341026015539 0 0.019685153674452241 0.0013115624127345447 0 0.019699827029104326 0.0013334950045210817 0 0.019454720228291891 0.0012091226611496044 0 0.019632198114500905 0.0012753653794348953 0 0.019655399398799067 0.0013665898699875638 0 0.019505704404381898 0.0011168236058174675 0 0.019682305038267976 0.001200957666548221 0 0.019632198114500905 0.0012753653794348953 0 0.019505704404381898 0.0011168236058174675 0 0.019454720228291891 0.0012091226611496044 0 0.019632198114500905 0.0012753653794348953 0 0.019632198114500905 0.0012753653794348953 0 0.019655399398799067 0.0013665898699875638 0 0.019705551463296323 0.0013670762396627767 0 0.019655399398799067 0.0013665898699875638 0 0.019705551463296323 0.0013670762396627767 0 0.019732701376646192 0.0014266966441233574 0 0.019713561412325501 0.001381779649840474 0 0.019699827029104326 0.0013334950045210817 0 0.019705551463296323 0.0013670762396627767 0 0.019705551463296323 0.0013670762396627767 0 0.019732701376646192 0.0014266966441233574 0 0.019732562743228852 0.0014358316407468786 0 0.019713561412325501 0.001381779649840474 0 0.019705551463296323 0.0013670762396627767 0 0.019732562743228852 0.0014358316407468786 0 0.019732701376646192 0.0014266966441233574 0 0.019769481578256906 0.0014774939584731616 0 0.019732562743228852 0.0014358316407468786 0 0.019732701376646192 0.0014266966441233574 0 0.019769481578256906 0.0014774939584731616 0 0.019792531996986339 0.0014794670850934246 0 0.019655399398799067 0.0013665898699875638 0 0.019732701376646192 0.0014266966441233574 0 0.019792531996986339 0.0014794670850934246 0 0.020093618177361997 0.0016501952872661927 0 0.019792531996986339 0.0014794670850934246 0 0.019843385935764644 0.0015146409564316629 0 0.019769481578256906 0.0014774939584731616 0 0.019792531996986339 0.0014794670850934246 0 0.019843385935764644 0.0015146409564316629 0 0.019769481578256906 0.0014774939584731616 0 0.019843385935764644 0.0015146409564316629 0 0.019733846587734041 0.0014875659083123953 0 0.019745971016795854 0.0014183326337549242 0 0.019843385935764644 0.0015146409564316629 0 0.019733846587734041 0.0014875659083123953 0 0.019769481578256906 0.0014774939584731616 0 0.019733846587734041 0.0014875659083123953 0 0.019711270321921416 0.0014736454239160385 0 0.019733846587734041 0.0014875659083123953 0 0.019641892261079177 0.0014833541826038445 0 0.019711270321921416 0.0014736454239160385 0 0.019613984466217951 0.0013677161518161876 0 0.019733846587734041 0.0014875659083123953 0 0.019641892261079177 0.0014833541826038445 0 0.01933723778874484 0.0014729927577545143 0 0.019391545563883467 0.0016757145338910677 0 0.019641892261079177 0.0014833541826038445 0 0.019687860456317857 0.0014535319524531199 0 0.019641892261079177 0.0014833541826038445 0 0.019711270321921416 0.0014736454239160385 0 0.019924667090663557 0.0013054892291264424 0 0.019502014589017552 0.0015866005290934688 0 0.019687860456317857 0.0014535319524531199 0 0.019707207645957153 0.0014380200774414939 0 0.019711270321921416 0.0014736454239160385 0 0.019687860456317857 0.0014535319524531199 0 0.019694792546956393 0.0014390069019957243 0 0.019707207645957153 0.0014380200774414939 0 0.019707207645957153 0.0014380200774414939 0 0.019732562743228852 0.0014358316407468786 0 0.019711270321921416 0.0014736454239160385 0 0.019769481578256906 0.0014774939584731616 0 0.019732562743228852 0.0014358316407468786 0 0.019711270321921416 0.0014736454239160385 0 0.0079590054702169954 0.00023724949429677672 0 0.0068551459251836372 0.00026967750532917311 0 0.0067681046219067688 0.00015760317262222815 0 0.0075592811880599827 3.6821419065834412e-07 0 0.0079590054702169954 0.00023724949429677672 0 0.0067681046219067688 0.00015760317262222815 0 0.0075592811880599827 3.6821419065834412e-07 0 0.0079590054702169954 0.00023724949429677672 0 0.0091786836148955876 0.00030425543455575219 0 0.0079590054702169954 0.00023724949429677672 0 0.008121349454596416 0.00015471672753293863 0 0.0093000271470702767 0.00068776187836931072 0 0.0092934632789386587 0.00013660491977074724 0 0.008121349454596416 0.00015471672753293863 0 0.0093000271470702767 0.00068776187836931072 0 0.0092934632789386587 0.00013660491977074724 0 0.008121349454596416 0.00015471672753293863 0 0.0071152140715590988 0.00038173695322586053 0 0.0079590054702169954 0.00023724949429677672 0 0.008121349454596416 0.00015471672753293863 0 0.0068551459251836372 0.00026967750532917311 0 0.008121349454596416 0.00015471672753293863 0 0.0068551459251836372 0.00026967750532917311 0 0.0068791335274372943 0.00045482888036898946 0 0.008121349454596416 0.00015471672753293863 0 0.0068791335274372943 0.00045482888036898946 0 0.0071152140715590988 0.00038173695322586053 0 0.0068791335274372943 0.00045482888036898946 0 0.005756678170699977 0.0003431380438993092 0 0.0063903795696141335 0.0006109199153223648 0 0.0068551459251836372 0.00026967750532917311 0 0.005756678170699977 0.0003431380438993092 0 0.0053346927614999883 0.00015662084687858687 0 0.0068551459251836372 0.00026967750532917311 0 0.0068791335274372943 0.00045482888036898946 0 0.005756678170699977 0.0003431380438993092 0 0.0068551459251836372 0.00026967750532917311 0 0.0053346927614999883 0.00015662084687858687 0 0.0067681046219067688 0.00015760317262222815 0 0.0053346927614999883 0.00015662084687858687 0 0.0067681046219067688 0.00015760317262222815 0 0.0054979341108614506 3.1821836144048486e-07 0 0.0075592811880599827 3.6821419065834412e-07 0 0.0067681046219067688 0.00015760317262222815 0 0.0054979341108614506 3.1821836144048486e-07 0 0.0053346927614999883 0.00015662084687858687 0 0.0054979341108614506 3.1821836144048486e-07 0 0.0034363497164920211 4.6245246252864885e-08 0 0.0053346927614999883 0.00015662084687858687 0 0.0034363497164920211 4.6245246252864885e-08 0 0.0042122810307064808 -4.4526696855864747e-05 0 0.0042122810307064808 -4.4526696855864747e-05 0 0.0027153075791908083 -0.00021145311107939366 0 0.0034809984967727392 -0.00077177466688099598 0 0.0034363497164920211 4.6245246252864885e-08 0 0.0042122810307064808 -4.4526696855864747e-05 0 0.0027153075791908083 -0.00021145311107939366 0 0.0034363497164920211 4.6245246252864885e-08 0 0.0013750850200362193 -2.9722670398682761e-07 0 0.0027153075791908083 -0.00021145311107939366 0 0.0013750850200362193 -2.9722670398682761e-07 0 0.0027153075791908083 -0.00021145311107939366 0 0.0014263755584580605 -0.00030907020814078455 0 0.0027153075791908083 -0.00021145311107939366 0 0.0014263755584580605 -0.00030907020814078455 0 0.0034809984967727392 -0.00077177466688099598 0 -0.00068625005961860314 -4.3131264027157857e-07 0 0.0013750850200362193 -2.9722670398682761e-07 0 0.0014263755584580605 -0.00030907020814078455 0 0.0036492693452836568 -0.0013277470622681282 0 0.0026924933091874233 -0.0007888708650216923 0 0.0034809984967727392 -0.00077177466688099598 0 0.0028969416700808355 -0.001007180419973932 0 0.0036492693452836568 -0.0013277470622681282 0 0.0026924933091874233 -0.0007888708650216923 0 0.001797938305413543 -0.00060587787655584375 0 0.0014263755584580605 -0.00030907020814078455 0 0.0026924933091874233 -0.0007888708650216923 0 0.0014263755584580605 -0.00030907020814078455 0 0.0026924933091874233 -0.0007888708650216923 0 0.0034809984967727392 -0.00077177466688099598 0 0.0036492693452836568 -0.0013277470622681282 0 0.0034809984967727392 -0.00077177466688099598 0 0.0045252632532196075 -0.0016096794573935459 0 0.0034809984967727392 -0.00077177466688099598 0 0.0045252632532196075 -0.0016096794573935459 0 0.0052148824633468493 -0.00027871651280532748 0 0.0042122810307064808 -4.4526696855864747e-05 0 0.0034809984967727392 -0.00077177466688099598 0 0.0052148824633468493 -0.00027871651280532748 0 0.005756678170699977 0.0003431380438993092 0 0.0053346927614999883 0.00015662084687858687 0 0.0042122810307064808 -4.4526696855864747e-05 0 0.005756678170699977 0.0003431380438993092 0 0.0042122810307064808 -4.4526696855864747e-05 0 0.0052148824633468493 -0.00027871651280532748 0 0.005756678170699977 0.0003431380438993092 0 0.0052148824633468493 -0.00027871651280532748 0 0.0063903795696141335 0.0006109199153223648 0 0.0052148824633468493 -0.00027871651280532748 0 0.0063903795696141335 0.0006109199153223648 0 0.007846355680557953 5.8464399139352782e-05 0 0.0063903795696141335 0.0006109199153223648 0 0.007846355680557953 5.8464399139352782e-05 0 0.0089992901703165543 0.0019146668618229912 0 0.007846355680557953 5.8464399139352782e-05 0 0.011209346530244559 -0.0010521465546220608 0 0.0089992901703165543 0.0019146668618229912 0 0.007846355680557953 5.8464399139352782e-05 0 0.0078561827849079266 -0.0013976525454645484 0 0.011209346530244559 -0.0010521465546220608 0 0.0045252632532196075 -0.0016096794573935459 0 0.0052148824633468493 -0.00027871651280532748 0 0.0078561827849079266 -0.0013976525454645484 0 0.0052148824633468493 -0.00027871651280532748 0 0.007846355680557953 5.8464399139352782e-05 0 0.0078561827849079266 -0.0013976525454645484 0 0.0045252632532196075 -0.0016096794573935459 0 0.008802342666030331 -0.0031185772159136641 0 0.0076916917355736884 -0.0045071793461817396 0 0.004524120145819285 -0.0018101928003749768 0 0.0051280033333809842 -0.0027552740193853608 0 0.0045252632532196075 -0.0016096794573935459 0 0.0078561827849079266 -0.0013976525454645484 0 0.008802342666030331 -0.0031185772159136641 0 0.0078561827849079266 -0.0013976525454645484 0 0.008802342666030331 -0.0031185772159136641 0 0.010529843535363966 -0.0031116310906421471 0 0.007195305866642715 -0.0039610147022809119 0 0.0051280033333809842 -0.0027552740193853608 0 0.0027752292963198698 -0.0014945978189770366 0 0.0027720465995868539 -0.0014840482102990772 0 0.0029222588205588557 -0.0014094124800575431 0 0.010328943616462284 -0.0056340484842115554 0 0.0076916917355736884 -0.0045071793461817396 0 0.009759865811882042 -0.0042461583827436873 0 0.00066193841872314106 -0.00090767968185606705 0 0.0030825778190524439 -0.0016543426432208705 0 0.008802342666030331 -0.0031185772159136641 0 0.0076916917355736884 -0.0045071793461817396 0 0.009759865811882042 -0.0042461583827436873 0 0.0036492693452836568 -0.0013277470622681282 0 0.0027720465995868539 -0.0014840482102990772 0 0.0029222588205588557 -0.0014094124800575431 0 0.0036492693452836568 -0.0013277470622681282 0 0.0045252632532196075 -0.0016096794573935459 0 0.0027720465995868539 -0.0014840482102990772 0 0.0024919972869977473 -0.0010321685750506492 0 0.0028969416700808355 -0.001007180419973932 0 0.0029222588205588557 -0.0014094124800575431 0 0.0028969416700808355 -0.001007180419973932 0 0.0036492693452836568 -0.0013277470622681282 0 0.0029222588205588557 -0.0014094124800575431 0 0.012312284993834528 -0.0048471566947214393 0 0.012221552335379401 -0.0036783131485412122 0 0.013495629884163689 -0.0039226581152345128 0 0.012312284993834528 -0.0048471566947214393 0 0.011105198443529021 -0.0047147597628808824 0 0.012221552335379401 -0.0036783131485412122 0 0.011571885348881964 -0.0053954932762428605 0 0.012312284993834528 -0.0048471566947214393 0 0.011105198443529021 -0.0047147597628808824 0 0.011105198443529021 -0.0047147597628808824 0 0.009759865811882042 -0.0042461583827436873 0 0.010529843535363966 -0.0031116310906421471 0 0.011105198443529021 -0.0047147597628808824 0 0.010529843535363966 -0.0031116310906421471 0 0.012221552335379401 -0.0036783131485412122 0 0.010328943616462284 -0.0056340484842115554 0 0.011105198443529021 -0.0047147597628808824 0 0.009759865811882042 -0.0042461583827436873 0 0.008802342666030331 -0.0031185772159136641 0 0.009759865811882042 -0.0042461583827436873 0 0.010529843535363966 -0.0031116310906421471 0 0.012221552335379401 -0.0036783131485412122 0 0.012200710606442516 -0.0022450256814296331 0 0.013547503558683735 -0.0026591258659243626 0 0.010529843535363966 -0.0031116310906421471 0 0.012221552335379401 -0.0036783131485412122 0 0.012200710606442516 -0.0022450256814296331 0 0.012200710606442516 -0.0022450256814296331 0 0.01319964543614866 -0.0010260861194230921 0 0.013547503558683735 -0.0026591258659243626 0 0.012200710606442516 -0.0022450256814296331 0 0.011209346530244559 -0.0010521465546220608 0 0.01319964543614866 -0.0010260861194230921 0 0.0078561827849079266 -0.0013976525454645484 0 0.010529843535363966 -0.0031116310906421471 0 0.011209346530244559 -0.0010521465546220608 0 0.010529843535363966 -0.0031116310906421471 0 0.012200710606442516 -0.0022450256814296331 0 0.011209346530244559 -0.0010521465546220608 0 0.011209346530244559 -0.0010521465546220608 0 0.012720995179674104 0.0002328295223533228 0 0.010792759582086092 4.576168080025076e-05 0 0.010883741891353854 -0.00043642255161493711 0 0.010450463455169617 -0.00036151850030320887 0 0.011209346530244559 -0.0010521465546220608 0 0.01319964543614866 -0.0010260861194230921 0 0.012720995179674104 0.0002328295223533228 0 0.015619692517908143 -0.0019421182916628463 0 0.01583187092565793 -0.00085364630821792872 0 0.016407863291658692 -0.00058994073736854367 0 0.015619692517908143 -0.0019421182916628463 0 0.014523309542377735 -0.0016937615250001603 0 0.01583187092565793 -0.00085364630821792872 0 0.015619692517908143 -0.0019421182916628463 0 0.014523309542377735 -0.0016937615250001603 0 0.014007290177782078 -0.0030326643621736821 0 0.01451816772774721 -0.00099909448575322395 0 0.010450463455169617 -0.00036151850030320887 0 0.0063903795696141335 0.0006109199153223648 0 0.0067473725468995731 0.00049882579349835182 0 0.0071152140715590988 0.00038173695322586053 0 0.0055291159384246481 0.00094462171233595453 0 0.010450463455169617 -0.00036151850030320887 0 0.0068791335274372943 0.00045482888036898946 0 0.0063903795696141335 0.0006109199153223648 0 0.0071152140715590988 0.00038173695322586053 0 0.010450463455169617 -0.00036151850030320887 0 0.0097727408701911243 -0.00093763079338079634 0 0.014523309542377735 -0.0016937615250001603 0 0.014007290177782078 -0.0030326643621736821 0 0.012444054693342272 -0.0021097469882090359 0 0.0092934632789386587 0.00013660491977074724 0 0.014188452431786047 -8.7408528455535042e-05 0 0.011724561329807927 0.0015096298907468231 0 0.0092934632789386587 0.00013660491977074724 0 0.012444054693342272 -0.0021097469882090359 0 0.014188452431786047 -8.7408528455535042e-05 0 0.014523309542377735 -0.0016937615250001603 0 0.012444054693342272 -0.0021097469882090359 0 0.014188452431786047 -8.7408528455535042e-05 0 0.0091961127561078753 0.00027964009607900087 0 0.0097727408701911243 -0.00093763079338079634 0 0.014188452431786047 -8.7408528455535042e-05 0 0.01598737663494235 -0.00013695794852065812 0 0.01583187092565793 -0.00085364630821792872 0 0.01598737663494235 -0.00013695794852065812 0 0.01583187092565793 -0.00085364630821792872 0 0.016965209204024678 -0.0001007172247667569 0 0.014523309542377735 -0.0016937615250001603 0 0.014188452431786047 -8.7408528455535042e-05 0 0.01583187092565793 -0.00085364630821792872 0 0.016835691040503892 -0.00034310677878227443 0 0.016407863291658692 -0.00058994073736854367 0 0.015774544080911203 -0.00051594279483018423 0 0.01583187092565793 -0.00085364630821792872 0 0.016407863291658692 -0.00058994073736854367 0 0.016965209204024678 -0.0001007172247667569 0 0.016835691040503892 -0.00034310677878227443 0 0.016407863291658692 -0.00058994073736854367 0 0.016965209204024678 -0.0001007172247667569 0 0.016835691040503892 -0.00034310677878227443 0 0.01745363720734595 1.7195425599212242e-05 0 0.016965209204024678 -0.0001007172247667569 0 0.016835691040503892 -0.00034310677878227443 0 0.017182390621932778 -0.00025527620305797438 0 0.01745363720734595 1.7195425599212242e-05 0 0.01765001131023184 -1.5548999590544334e-05 0 0.017182390621932778 -0.00025527620305797438 0 0.01745363720734595 1.7195425599212242e-05 0 0.0175827208303861 2.2509587878434332e-05 0 0.017595844261093521 -0.00038288587915173125 0 0.01765001131023184 -1.5548999590544334e-05 0 0.017182390621932778 -0.00025527620305797438 0 0.017271420519914329 -0.00034837931538944704 0 0.017182390621932778 -0.00025527620305797438 0 0.017271420519914329 -0.00034837931538944704 0 0.016658106760482089 -0.00054170732976529894 0 0.016835691040503892 -0.00034310677878227443 0 0.017182390621932778 -0.00025527620305797438 0 0.016658106760482089 -0.00054170732976529894 0 0.017271420519914329 -0.00034837931538944704 0 0.016658106760482089 -0.00054170732976529894 0 0.017123180838466673 -0.00080670084072959449 0 0.017595844261093521 -0.00038288587915173125 0 0.016298712585775928 -0.00033541671873716489 0 0.016658106760482089 -0.00054170732976529894 0 0.017123180838466673 -0.00080670084072959449 0 0.016514587347898218 -0.00098711898484384183 0 0.016298712585775928 -0.00033541671873716489 0 0.015120253399277755 -0.0004668924930433163 0 0.016514587347898218 -0.00098711898484384183 0 0.015774544080911203 -0.00051594279483018423 0 0.015794506408906377 -0.0012273971730155395 0 0.016658106760482089 -0.00054170732976529894 0 0.016514587347898218 -0.00098711898484384183 0 0.015774544080911203 -0.00051594279483018423 0 0.015774544080911203 -0.00051594279483018423 0 0.014822005767693837 -0.0013802808153146929 0 0.015794506408906377 -0.0012273971730155395 0 0.016835691040503892 -0.00034310677878227443 0 0.016658106760482089 -0.00054170732976529894 0 0.015774544080911203 -0.00051594279483018423 0 0.015619692517908143 -0.0019421182916628463 0 0.016407863291658692 -0.00058994073736854367 0 0.015774544080911203 -0.00051594279483018423 0 0.01451816772774721 -0.00099909448575322395 0 0.015378657465365899 -0.00054673892938167639 0 0.01319964543614866 -0.0010260861194230921 0 0.012720995179674104 0.0002328295223533228 0 0.015774544080911203 -0.00051594279483018423 0 0.01319964543614866 -0.0010260861194230921 0 0.015774544080911203 -0.00051594279483018423 0 0.014822005767693837 -0.0013802808153146929 0 0.014822005767693837 -0.0013802808153146929 0 0.015468609129682929 -0.0020733210689508601 0 0.015794506408906377 -0.0012273971730155395 0 0.015468609129682929 -0.0020733210689508601 0 0.013547503558683735 -0.0026591258659243626 0 0.015516765454008478 -0.0032522925300231191 0 0.014822005767693837 -0.0013802808153146929 0 0.015468609129682929 -0.0020733210689508601 0 0.013547503558683735 -0.0026591258659243626 0 0.01319964543614866 -0.0010260861194230921 0 0.014822005767693837 -0.0013802808153146929 0 0.013547503558683735 -0.0026591258659243626 0 0.012221552335379401 -0.0036783131485412122 0 0.013547503558683735 -0.0026591258659243626 0 0.013495629884163689 -0.0039226581152345128 0 0.013547503558683735 -0.0026591258659243626 0 0.013495629884163689 -0.0039226581152345128 0 0.015516765454008478 -0.0032522925300231191 0 0.013909907602455146 -0.0051159943413247675 0 0.013495629884163689 -0.0039226581152345128 0 0.015516765454008478 -0.0032522925300231191 0 0.012708244767821725 -0.0035623392275102141 0 0.013778222764118725 -0.0030548203524719971 0 0.013587372613128652 -0.0019963440947197183 0 0.013332281440002966 -0.0043101022397562475 0 0.014548502917098879 -0.0026203411030888087 0 0.013909907602455146 -0.0051159943413247675 0 0.012312284993834528 -0.0048471566947214393 0 0.013495629884163689 -0.0039226581152345128 0 0.015032867163235278 -0.002456778051242281 0 0.014607226725464535 -0.0029720765261885673 0 0.014573039466228286 -0.0020391548169960095 0 0.015032867163235278 -0.002456778051242281 0 0.014607226725464535 -0.0029720765261885673 0 0.015179321446236826 -0.0029102590620538947 0 0.014066039752962129 -0.0037356505902911468 0 0.014607226725464535 -0.0029720765261885673 0 0.013778222764118725 -0.0030548203524719971 0 0.014607226725464535 -0.0029720765261885673 0 0.013778222764118725 -0.0030548203524719971 0 0.014573039466228286 -0.0020391548169960095 0 0.013587372613128652 -0.0019963440947197183 0 0.014573039466228286 -0.0020391548169960095 0 0.014360220366542439 -0.00078348220618534533 0 0.013778222764118725 -0.0030548203524719971 0 0.013587372613128652 -0.0019963440947197183 0 0.014573039466228286 -0.0020391548169960095 0 0.015032867163235278 -0.002456778051242281 0 0.014573039466228286 -0.0020391548169960095 0 0.015276487564446556 -0.0018460622511902052 0 0.014573039466228286 -0.0020391548169960095 0 0.015118550889267826 -0.0012696024671774687 0 0.015276487564446556 -0.0018460622511902052 0 0.014360220366542439 -0.00078348220618534533 0 0.015089180442242361 -0.00045502607899218316 0 0.015118550889267826 -0.0012696024671774687 0 0.014573039466228286 -0.0020391548169960095 0 0.014360220366542439 -0.00078348220618534533 0 0.015118550889267826 -0.0012696024671774687 0 0.014548502917098879 -0.0026203411030888087 0 0.015431458171903752 -0.0012279538416706272 0 0.015468609129682929 -0.0020733210689508601 0 0.015516765454008478 -0.0032522925300231191 0 0.016571719405446328 -0.0016835109628849207 0 0.015468609129682929 -0.0020733210689508601 0 0.015794506408906377 -0.0012273971730155395 0 0.016571719405446328 -0.0016835109628849207 0 0.016514587347898218 -0.00098711898484384183 0 0.015794506408906377 -0.0012273971730155395 0 0.016571719405446328 -0.0016835109628849207 0 0.016298712585775928 -0.00033541671873716489 0 0.015431458171903752 -0.0012279538416706272 0 0.0150734248631329 0.00033779786292585878 0 0.014360220366542439 -0.00078348220618534533 0 0.015089180442242361 -0.00045502607899218316 0 0.017123180838466673 -0.00080670084072959449 0 0.016514587347898218 -0.00098711898484384183 0 0.016571719405446328 -0.0016835109628849207 0 0.015160379149555149 -0.00062097222182714987 0 0.015518241259454824 -0.00085787755967187877 0 0.015118550889267826 -0.0012696024671774687 0 0.015160379149555149 -0.00062097222182714987 0 0.015518241259454824 -0.00085787755967187877 0 0.015632295237548655 -0.00035364342909657799 0 0.015987426387832442 -0.000745214374790199 0 0.0163618335590076 -0.0003978936646637261 0 0.016023371337427549 -0.00032014802376214966 0 0.015987426387832442 -0.000745214374790199 0 0.016023371337427549 -0.00032014802376214966 0 0.015632295237548655 -0.00035364342909657799 0 0.015518241259454824 -0.00085787755967187877 0 0.015987426387832442 -0.000745214374790199 0 0.015632295237548655 -0.00035364342909657799 0 0.015987426387832442 -0.000745214374790199 0 0.016102943053340858 -0.0013099022169666811 0 0.015646670277013029 -0.0012973563846439594 0 0.015987426387832442 -0.000745214374790199 0 0.016102943053340858 -0.0013099022169666811 0 0.016465382113591796 -0.00081916641400373144 0 0.015518241259454824 -0.00085787755967187877 0 0.015987426387832442 -0.000745214374790199 0 0.015646670277013029 -0.0012973563846439594 0 0.015120253399277755 -0.0004668924930433163 0 0.01512815094144236 -0.0012185688790586552 0 0.015518241259454824 -0.00085787755967187877 0 0.015646670277013029 -0.0012973563846439594 0 0.015118550889267826 -0.0012696024671774687 0 0.015646670277013029 -0.0012973563846439594 0 0.015118550889267826 -0.0012696024671774687 0 0.015276487564446556 -0.0018460622511902052 0 0.015032867163235278 -0.002456778051242281 0 0.015276487564446556 -0.0018460622511902052 0 0.01549153005317158 -0.0024170074707231624 0 0.015276487564446556 -0.0018460622511902052 0 0.015765074813269948 -0.0018798184691614865 0 0.01549153005317158 -0.0024170074707231624 0 0.015646670277013029 -0.0012973563846439594 0 0.015276487564446556 -0.0018460622511902052 0 0.015765074813269948 -0.0018798184691614865 0 0.016102943053340858 -0.0013099022169666811 0 0.015646670277013029 -0.0012973563846439594 0 0.015765074813269948 -0.0018798184691614865 0 0.016102943053340858 -0.0013099022169666811 0 0.016194785577787748 -0.0018248215050064569 0 0.015765074813269948 -0.0018798184691614865 0 0.016194785577787748 -0.0018248215050064569 0 0.015765074813269948 -0.0018798184691614865 0 0.015890811212862982 -0.0023231510770620068 0 0.015716835357911074 -0.0029405684871978434 0 0.015890811212862982 -0.0023231510770620068 0 0.016247489379913157 -0.0023379814738575103 0 0.015799494710031628 -0.0028636341813724729 0 0.016066298228994837 -0.0024585995495181785 0 0.015226458945966543 -0.0028621676267193853 0 0.015512861580023463 -0.0028020726996603696 0 0.016247489379913157 -0.0023379814738575103 0 0.015765074813269948 -0.0018798184691614865 0 0.015890811212862982 -0.0023231510770620068 0 0.01549153005317158 -0.0024170074707231624 0 0.016194785577787748 -0.0018248215050064569 0 0.015890811212862982 -0.0023231510770620068 0 0.016247489379913157 -0.0023379814738575103 0 0.015716835357911074 -0.0029405684871978434 0 0.015890811212862982 -0.0023231510770620068 0 0.01549153005317158 -0.0024170074707231624 0 0.015716835357911074 -0.0029405684871978434 0 0.015179321446236826 -0.0029102590620538947 0 0.01549153005317158 -0.0024170074707231624 0 0.015032867163235278 -0.002456778051242281 0 0.015179321446236826 -0.0029102590620538947 0 0.01549153005317158 -0.0024170074707231624 0 0.014157284507483917 -0.0011583638620276317 0 0.013201286710570125 -0.0016285119220751044 0 0.010906702145168741 -0.0007480539420766201 0 0.010065402605291396 -0.0013063646154379219 0 0.0096028422796570114 -0.0010950955999420445 0 0.010577639497411206 -0.0012710708227228506 0 0.010269383236015683 -0.0014234614555198733 0 0.010065402605291396 -0.0013063646154379219 0 0.010028543510043394 -0.0015410320742265398 0 0.010269383236015683 -0.0014234614555198733 0 0.010065402605291396 -0.0013063646154379219 0 0.0096553078804290544 -0.0013976104824158749 0 0.010065402605291396 -0.0013063646154379219 0 0.0096028422796570114 -0.0010950955999420445 0 0.015512861580023463 -0.0028020726996603696 0 0.016247489379913157 -0.0023379814738575103 0 0.016736004267136513 -0.0021783083160058412 0 0.011943044055408556 -0.0020241501708788971 0 0.013201286710570125 -0.0016285119220751044 0 0.0093414215522842452 -0.0013245855758449612 0 0.0096553078804290544 -0.0013976104824158749 0 0.0096028422796570114 -0.0010950955999420445 0 0.0093414215522842452 -0.0013245855758449612 0 0.008898362755687084 -0.0012534499390241453 0 0.0096028422796570114 -0.0010950955999420445 0 0.016247489379913157 -0.0023379814738575103 0 0.016736004267136513 -0.0021783083160058412 0 0.016528429104534656 -0.0018226943386894661 0 0.016736004267136513 -0.0021783083160058412 0 0.016528429104534656 -0.0018226943386894661 0 0.01690265638748048 -0.0014678841873794902 0 0.016194785577787748 -0.0018248215050064569 0 0.016247489379913157 -0.0023379814738575103 0 0.016528429104534656 -0.0018226943386894661 0 0.016102943053340858 -0.0013099022169666811 0 0.016194785577787748 -0.0018248215050064569 0 0.016510978442383112 -0.0013786340131601718 0 0.016194785577787748 -0.0018248215050064569 0 0.016528429104534656 -0.0018226943386894661 0 0.016510978442383112 -0.0013786340131601718 0 0.016528429104534656 -0.0018226943386894661 0 0.016510978442383112 -0.0013786340131601718 0 0.01690265638748048 -0.0014678841873794902 0 0.016736004267136513 -0.0021783083160058412 0 0.01690265638748048 -0.0014678841873794902 0 0.017084736074532716 -0.0015896468611591346 0 0.017432894173371054 -0.0015427644080736639 0 0.016736004267136513 -0.0021783083160058412 0 0.017084736074532716 -0.0015896468611591346 0 0.017261626395095465 -0.0011891507684171558 0 0.01690265638748048 -0.0014678841873794902 0 0.017084736074532716 -0.0015896468611591346 0 0.017261626395095465 -0.0011891507684171558 0 0.01690265638748048 -0.0014678841873794902 0 0.01690608073813744 -0.00086931280581899293 0 0.016510978442383112 -0.0013786340131601718 0 0.01690265638748048 -0.0014678841873794902 0 0.01690608073813744 -0.00086931280581899293 0 0.016510978442383112 -0.0013786340131601718 0 0.01690608073813744 -0.00086931280581899293 0 0.016465382113591796 -0.00081916641400373144 0 0.016102943053340858 -0.0013099022169666811 0 0.016510978442383112 -0.0013786340131601718 0 0.016465382113591796 -0.00081916641400373144 0 0.016465382113591796 -0.00081916641400373144 0 0.0163618335590076 -0.0003978936646637261 0 0.016831984490856232 -0.00036699797593963822 0 0.015987426387832442 -0.000745214374790199 0 0.016465382113591796 -0.00081916641400373144 0 0.0163618335590076 -0.0003978936646637261 0 0.016902257727338308 -0.00081497602817695971 0 0.016815335369302169 -0.00024695118984904309 0 0.01690608073813744 -0.00086931280581899293 0 0.016465382113591796 -0.00081916641400373144 0 0.016831984490856232 -0.00036699797593963822 0 0.017326869063490454 -0.00032795962679075483 0 0.01690608073813744 -0.00086931280581899293 0 0.016840776363282121 -0.00010563916387204813 0 0.017326869063490454 -0.00032795962679075483 0 0.017356822488858076 0.00019702939425606902 0 0.016840776363282121 -0.00010563916387204813 0 0.017356822488858076 0.00019702939425606902 0 0.016840776363282121 -0.00010563916387204813 0 0.01681211133746861 0.00048610193213909504 0 0.016831984490856232 -0.00036699797593963822 0 0.0167648205669799 0.00023675547085236893 0 0.016616369472258186 2.4353348786363878e-05 0 0.016815335369302169 -0.00024695118984904309 0 0.017326530072820395 0.00038518022059138619 0 0.018071977779712249 0.00081208648238992429 0 0.017326530072820395 0.00038518022059138619 0 0.017326530072820395 0.00038518022059138619 0 0.017509338961463998 0.0008651307968268496 0 0.018530299122211942 0.00084266226942192486 0 0.018317534089029221 0.00074468260477611047 0 0.018402938891174416 0.00088150512607892875 0 0.017326530072820395 0.00038518022059138619 0 0.017196083129418279 0.00033941716805249348 0 0.016761995765110838 0.00023756482701713357 0 0.016474766866986849 0.00061947163678994892 0 0.016682547845680854 0.00084004936382652885 0 0.01648760086728409 0.0003559162920314013 0 0.016300755781195976 0.00031596128489870518 0 0.016219921955624977 0.00049396735398087293 0 0.01648760086728409 0.0003559162920314013 0 0.016219921955624977 0.00049396735398087293 0 0.016474766866986849 0.00061947163678994892 0 0.016761995765110838 0.00023756482701713357 0 0.01648760086728409 0.0003559162920314013 0 0.016474766866986849 0.00061947163678994892 0 0.016761995765110838 0.00023756482701713357 0 0.01648760086728409 0.0003559162920314013 0 0.016692006050039135 0.00020959436084721229 0 0.01648760086728409 0.0003559162920314013 0 0.016692006050039135 0.00020959436084721229 0 0.016472347534072434 0.00019012830466288646 0 0.016692006050039135 0.00020959436084721229 0 0.016472347534072434 0.00019012830466288646 0 0.016616369472258186 2.4353348786363878e-05 0 0.0167648205669799 0.00023675547085236893 0 0.016692006050039135 0.00020959436084721229 0 0.016616369472258186 2.4353348786363878e-05 0 0.016472347534072434 0.00019012830466288646 0 0.016300755781195976 0.00031596128489870518 0 0.016295276527002384 0.0001310915239311864 0 0.016472347534072434 0.00019012830466288646 0 0.016295276527002384 0.0001310915239311864 0 0.016436895095052518 2.968605769316393e-05 0 0.01648760086728409 0.0003559162920314013 0 0.016472347534072434 0.00019012830466288646 0 0.016300755781195976 0.00031596128489870518 0 0.016300755781195976 0.00031596128489870518 0 0.016295276527002384 0.0001310915239311864 0 0.016121601023899004 0.00026786274722942894 0 0.016295276527002384 0.0001310915239311864 0 0.016436895095052518 2.968605769316393e-05 0 0.016266707831581833 -0.00011708137167406442 0 0.0163618335590076 -0.0003978936646637261 0 0.016831984490856232 -0.00036699797593963822 0 0.016499348427568755 -0.00015150715343289028 0 0.016436895095052518 2.968605769316393e-05 0 0.016266707831581833 -0.00011708137167406442 0 0.016499348427568755 -0.00015150715343289028 0 0.016472347534072434 0.00019012830466288646 0 0.016436895095052518 2.968605769316393e-05 0 0.016616369472258186 2.4353348786363878e-05 0 0.016436895095052518 2.968605769316393e-05 0 0.016616369472258186 2.4353348786363878e-05 0 0.016499348427568755 -0.00015150715343289028 0 0.016831984490856232 -0.00036699797593963822 0 0.016616369472258186 2.4353348786363878e-05 0 0.016499348427568755 -0.00015150715343289028 0 0.0163618335590076 -0.0003978936646637261 0 0.016266707831581833 -0.00011708137167406442 0 0.016499348427568755 -0.00015150715343289028 0 0.016266707831581833 -0.00011708137167406442 0 0.016023371337427549 -0.00032014802376214966 0 0.015977065148509034 -9.4236457684445549e-06 0 0.0163618335590076 -0.0003978936646637261 0 0.016266707831581833 -0.00011708137167406442 0 0.016023371337427549 -0.00032014802376214966 0 0.016023371337427549 -0.00032014802376214966 0 0.015977065148509034 -9.4236457684445549e-06 0 0.015632295237548655 -0.00035364342909657799 0 0.015977065148509034 -9.4236457684445549e-06 0 0.015632295237548655 -0.00035364342909657799 0 0.015678028811187038 0.00012422719382160067 0 0.016295276527002384 0.0001310915239311864 0 0.016266707831581833 -0.00011708137167406442 0 0.015977065148509034 -9.4236457684445549e-06 0 0.015189830630040013 -5.4384550522016408e-05 0 0.015160379149555149 -0.00062097222182714987 0 0.015632295237548655 -0.00035364342909657799 0 0.015189830630040013 -5.4384550522016408e-05 0 0.015632295237548655 -0.00035364342909657799 0 0.015678028811187038 0.00012422719382160067 0 0.015189830630040013 -5.4384550522016408e-05 0 0.015678028811187038 0.00012422719382160067 0 0.015696638539274346 0.00066416065070954886 0 0.017654509456641206 -0.00028357075075269663 0 0.017643876259668626 -0.00055336541764074024 0 0.017822300542160704 -0.0002950188405401656 0 0.016298712585775928 -0.00033541671873716489 0 0.016803485529655788 0.00020201300933862424 0 0.015678028811187038 0.00012422719382160067 0 0.015896474069935797 0.0003573012634603484 0 0.015696638539274346 0.00066416065070954886 0 0.015977065148509034 -9.4236457684445549e-06 0 0.016121601023899004 0.00026786274722942894 0 0.015896474069935797 0.0003573012634603484 0 0.016295276527002384 0.0001310915239311864 0 0.015977065148509034 -9.4236457684445549e-06 0 0.016121601023899004 0.00026786274722942894 0 0.015977065148509034 -9.4236457684445549e-06 0 0.015678028811187038 0.00012422719382160067 0 0.015896474069935797 0.0003573012634603484 0 0.015896474069935797 0.0003573012634603484 0 0.016219921955624977 0.00049396735398087293 0 0.01606069125170289 0.00075660123205415061 0 0.016121601023899004 0.00026786274722942894 0 0.015896474069935797 0.0003573012634603484 0 0.016219921955624977 0.00049396735398087293 0 0.016300755781195976 0.00031596128489870518 0 0.016121601023899004 0.00026786274722942894 0 0.016219921955624977 0.00049396735398087293 0 0.016803485529655788 0.00020201300933862424 0 0.016888208987083063 0.00062689905345922955 0 0.016219921955624977 0.00049396735398087293 0 0.01606069125170289 0.00075660123205415061 0 0.016332610634012507 0.00091837427254373878 0 0.01606069125170289 0.00075660123205415061 0 0.015696638539274346 0.00066416065070954886 0 0.016160440506117639 0.0013206343134850159 0 0.01606069125170289 0.00075660123205415061 0 0.016160440506117639 0.0013206343134850159 0 0.016332610634012507 0.00091837427254373878 0 0.015896474069935797 0.0003573012634603484 0 0.01606069125170289 0.00075660123205415061 0 0.015696638539274346 0.00066416065070954886 0 0.017654509456641206 -0.00028357075075269663 0 0.017822300542160704 -0.0002950188405401656 0 0.017816146349316157 -0.00011289521418083475 0 0.01765001131023184 -1.5548999590544334e-05 0 0.017816146349316157 -0.00011289521418083475 0 0.017869032653293766 1.869467849339874e-05 0 0.01765001131023184 -1.5548999590544334e-05 0 0.017654509456641206 -0.00028357075075269663 0 0.017816146349316157 -0.00011289521418083475 0 0.017816146349316157 -0.00011289521418083475 0 0.017977671238541208 -3.531944047504151e-05 0 0.017869032653293766 1.869467849339874e-05 0 0.017822300542160704 -0.0002950188405401656 0 0.017816146349316157 -0.00011289521418083475 0 0.017977671238541208 -3.531944047504151e-05 0 0.016618045064967644 0.0014028290877563926 0 0.016332610634012507 0.00091837427254373878 0 0.016682547845680854 0.00084004936382652885 0 0.016160440506117639 0.0013206343134850159 0 0.016618045064967644 0.0014028290877563926 0 0.016332610634012507 0.00091837427254373878 0 0.017369533906742951 0.0014298547449595204 0 0.017509338961463998 0.0008651307968268496 0 0.018457593270270602 0.0010074108431424181 0 0.018270863984674358 0.0011104996558669099 0 0.018301161827838822 0.0009261943043404506 0 0.018317534089029221 0.00074468260477611047 0 0.018402938891174416 0.00088150512607892875 0 0.018301161827838822 0.0009261943043404506 0 0.018457593270270602 0.0010074108431424181 0 0.018402938891174416 0.00088150512607892875 0 0.018301161827838822 0.0009261943043404506 0 0.016474766866986849 0.00061947163678994892 0 0.016332610634012507 0.00091837427254373878 0 0.016682547845680854 0.00084004936382652885 0 0.016219921955624977 0.00049396735398087293 0 0.016474766866986849 0.00061947163678994892 0 0.016332610634012507 0.00091837427254373878 0 0.018063913707938722 0.00012594171943729651 0 0.017969567631981213 0.00015520787184501863 0 0.018077887023985016 0.00022114970614906987 0 0.018063913707938722 0.00012594171943729651 0 0.017957504255504242 8.9951913716223634e-05 0 0.017969567631981213 0.00015520787184501863 0 0.018493381038311277 0.00082734236086820783 0 0.019351108356438367 0.00038288599279074611 0 0.018469929925161523 0.0012928186285300672 0 0.018641674630755067 0.0016301858791473252 0 0.018352281048608754 0.0015758644780775757 0 0.018493381038311277 0.00082734236086820783 0 0.020052916707428068 0.0012810624994441964 0 0.018469929925161523 0.0012928186285300672 0 0.018230277392913368 0.0013333213427637637 0 0.018352281048608754 0.0015758644780775757 0 0.018469929925161523 0.0012928186285300672 0 0.018270863984674358 0.0011104996558669099 0 0.018230277392913368 0.0013333213427637637 0 0.018457593270270602 0.0010074108431424181 0 0.018469929925161523 0.0012928186285300672 0 0.018270863984674358 0.0011104996558669099 0 0.017369533906742951 0.0014298547449595204 0 0.018493381038311277 0.00082734236086820783 0 0.016160440506117639 0.0013206343134850159 0 0.016618045064967644 0.0014028290877563926 0 0.016579244537196579 0.0019322861933900044 0 0.017977671238541208 -3.531944047504151e-05 0 0.018063913707938722 0.00012594171943729651 0 0.017957504255504242 8.9951913716223634e-05 0 0.016888208987083063 0.00062689905345922955 0 0.018493381038311277 0.00082734236086820783 0 0.017977671238541208 -3.531944047504151e-05 0 0.017957504255504242 8.9951913716223634e-05 0 0.017869032653293766 1.869467849339874e-05 0 0.017957504255504242 8.9951913716223634e-05 0 0.017869032653293766 1.869467849339874e-05 0 0.017893715575259136 0.00013945241348890976 0 0.01765001131023184 -1.5548999590544334e-05 0 0.017869032653293766 1.869467849339874e-05 0 0.017893715575259136 0.00013945241348890976 0 0.01765001131023184 -1.5548999590544334e-05 0 0.017893715575259136 0.00013945241348890976 0 0.017830768037362808 0.00019071155377335227 0 0.017893715575259136 0.00013945241348890976 0 0.01790644151299171 0.00017914218433566487 0 0.017830768037362808 0.00019071155377335227 0 0.017893715575259136 0.00013945241348890976 0 0.01790644151299171 0.00017914218433566487 0 0.017969567631981213 0.00015520787184501863 0 0.017957504255504242 8.9951913716223634e-05 0 0.017893715575259136 0.00013945241348890976 0 0.017969567631981213 0.00015520787184501863 0 0.017969567631981213 0.00015520787184501863 0 0.017917798084032932 0.00018500629123896723 0 0.018077887023985016 0.00022114970614906987 0 0.01790644151299171 0.00017914218433566487 0 0.017969567631981213 0.00015520787184501863 0 0.017917798084032932 0.00018500629123896723 0 0.017917798084032932 0.00018500629123896723 0 0.018014212477463792 0.00029357611997141777 0 0.018077887023985016 0.00022114970614906987 0 0.01790644151299171 0.00017914218433566487 0 0.017931418555989315 0.00014505324743369432 0 0.01794272152696412 0.00018699305778313986 0 0.01790644151299171 0.00017914218433566487 0 0.017917798084032932 0.00018500629123896723 0 0.017931418555989315 0.00014505324743369432 0 0.017917798084032932 0.00018500629123896723 0 0.017931418555989315 0.00014505324743369432 0 0.017949782270213203 7.9773032959560086e-05 0 0.017931418555989315 0.00014505324743369432 0 0.017949782270213203 7.9773032959560086e-05 0 0.017986752864872974 6.5019474642316711e-05 0 0.020612811071193456 7.3034285336411311e-05 0 0.017177745763863807 -0.00012085179580028927 0 0.023433759103630901 0.0014151555622442399 0 0.019441075435050893 -9.5183746166951658e-05 0 0.018544509169333843 0.0001142750717501375 0 0.018528424849692058 0.00025622770019444679 0 0.018083069093164879 -3.0700505832027544e-05 0 0.018528424849692058 0.00025622770019444679 0 0.018083069093164879 -3.0700505832027544e-05 0 0.01797338456211417 -8.43320578071676e-05 0 0.017917798084032932 0.00018500629123896723 0 0.017949782270213203 7.9773032959560086e-05 0 0.017877505555847356 -1.6919446139468395e-05 0 0.017949782270213203 7.9773032959560086e-05 0 0.017877505555847356 -1.6919446139468395e-05 0 0.018083069093164879 -3.0700505832027544e-05 0 0.018014212477463792 0.00029357611997141777 0 0.017931915586457774 0.00037244507712225547 0 0.018118050860255055 0.00040287607468218934 0 0.017645813742616159 0.00027340186594335147 0 0.020612811071193456 7.3034285336411311e-05 0 0.017917798084032932 0.00018500629123896723 0 0.018014212477463792 0.00029357611997141777 0 0.017931915586457774 0.00037244507712225547 0 0.018014212477463792 0.00029357611997141777 0 0.018077887023985016 0.00022114970614906987 0 0.018118050860255055 0.00040287607468218934 0 0.020992015906117916 0.0010311054627138105 0 0.021348588102733459 0.0015395721486712978 0 0.020920060243908127 0.001958490361406827 0 0.021348588102733459 0.0015395721486712978 0 0.021658549546211336 0.0020893427104669562 0 0.020920060243908127 0.001958490361406827 0 0.019351108356438367 0.00038288599279074611 0 0.022938449938195448 0.0018555229752199231 0 0.020992015906117916 0.0010311054627138105 0 0.021513657273634475 0.00080680482902449548 0 0.021348588102733459 0.0015395721486712978 0 0.021059747787795791 0.00011132611534728801 0 0.020992015906117916 0.0010311054627138105 0 0.021513657273634475 0.00080680482902449548 0 0.02003968146519532 0.0015636165878577023 0 0.020052916707428068 0.0012810624994441964 0 0.021961639626289619 0.0015087560042044772 0 0.021513657273634475 0.00080680482902449548 0 0.021348588102733459 0.0015395721486712978 0 0.021961639626289619 0.0015087560042044772 0 0.021348588102733459 0.0015395721486712978 0 0.021658549546211336 0.0020893427104669562 0 0.026902561798300063 0.0022107622003275642 0 0.027101446292434394 0.0023684280264410123 0 0.027302850180037599 0.0021750455877500687 0 0.02485706698300081 0.0023116008982684861 0 0.022938449938195448 0.0018555229752199231 0 0.027101446292434394 0.0023684280264410123 0 0.027390098710473265 0.0022052325517210643 0 0.027302850180037599 0.0021750455877500687 0 0.027352864752547633 0.0021491903566693972 0 0.027406971099874035 0.0021029136968873014 0 0.027213346298462258 0.0021022512426733088 0 0.027352864752547633 0.0021491903566693972 0 0.027404921537256009 0.0021676527676880767 0 0.027213346298462258 0.0021022512426733088 0 0.027352864752547633 0.0021491903566693972 0 0.027393169456238903 0.0021737811809547933 0 0.027404921537256009 0.0021676527676880767 0 0.022938449938195448 0.0018555229752199231 0 0.023165849658915074 0.0018465209975399577 0 0.027352864752547633 0.0021491903566693972 0 0.027406971099874035 0.0021029136968873014 0 0.027393169456238903 0.0021737811809547933 0 0.027390098710473265 0.0022052325517210643 0 0.027393169456238903 0.0021737811809547933 0 0.027302850180037599 0.0021750455877500687 0 0.027302850180037599 0.0021750455877500687 0 0.027404921537256009 0.0021676527676880767 0 0.027398777253164808 0.0020280293645058515 0 0.027393169456238903 0.0021737811809547933 0 0.027302850180037599 0.0021750455877500687 0 0.027404921537256009 0.0021676527676880767 0 0.027404921537256009 0.0021676527676880767 0 0.027398777253164808 0.0020280293645058515 0 0.027502056659519807 0.002005937960818801 0 0.027302850180037599 0.0021750455877500687 0 0.027398777253164808 0.0020280293645058515 0 0.027263194743804616 0.001941016999310934 0 0.027398777253164808 0.0020280293645058515 0 0.027489150424819371 0.0018295444932873732 0 0.027263194743804616 0.001941016999310934 0 0.027398777253164808 0.0020280293645058515 0 0.027489150424819371 0.0018295444932873732 0 0.027502056659519807 0.002005937960818801 0 0.026902561798300063 0.0022107622003275642 0 0.027302850180037599 0.0021750455877500687 0 0.027263194743804616 0.001941016999310934 0 0.026902561798300063 0.0022107622003275642 0 0.026675004687983336 0.0017080904161692562 0 0.027263194743804616 0.001941016999310934 0 0.026675004687983336 0.0017080904161692562 0 0.027263194743804616 0.001941016999310934 0 0.027475448563308687 0.0016265957165151012 0 0.027489150424819371 0.0018295444932873732 0 0.027475448563308687 0.0016265957165151012 0 0.027568055821932134 0.0017204512957922258 0 0.027489150424819371 0.0018295444932873732 0 0.027263194743804616 0.001941016999310934 0 0.027475448563308687 0.0016265957165151012 0 0.027568055821932134 0.0017204512957922258 0 0.027637680187775501 0.0018016884157942025 0 0.02768542763770817 0.0017730740957029778 0 0.027475448563308687 0.0016265957165151012 0 0.027568055821932134 0.0017204512957922258 0 0.02768542763770817 0.0017730740957029778 0 0.027871270871950224 0.0016978973039752712 0 0.027475448563308687 0.0016265957165151012 0 0.02768542763770817 0.0017730740957029778 0 0.026703080567604766 0.00095071493191133745 0 0.027744062280535314 0.0017864033668504749 0 0.024059798448677439 0.0030055105858231017 0 0.023598851304479106 0.0026718582202431224 0 0.02410108586877073 0.003096072081870412 0 0.027568058304442263 0.0017504023918036933 0 0.027568055821932134 0.0017204512957922258 0 0.027637680187775501 0.0018016884157942025 0 0.027568055821932134 0.0017204512957922258 0 0.027651252867370971 0.0018198351326426327 0 0.027562580540717769 0.0018588252897300183 0 0.027568058304442263 0.0017504023918036933 0 0.027568055821932134 0.0017204512957922258 0 0.027651252867370971 0.0018198351326426327 0 0.027489150424819371 0.0018295444932873732 0 0.027568055821932134 0.0017204512957922258 0 0.027562580540717769 0.0018588252897300183 0 0.023757696045066185 0.0023019414630069657 0 0.023073490980653172 0.0015509522299451978 0 0.023598851304479106 0.0026718582202431224 0 0.025769009693342421 0.002391402542296413 0 0.025998021151545227 0.0020832498893642378 0 0.024059798448677439 0.0030055105858231017 0 0.023757696045066185 0.0023019414630069657 0 0.023598851304479106 0.0026718582202431224 0 0.02310586836887156 0.0015389153816963081 0 0.023080204800063481 0.0022418828677395353 0 0.023757696045066185 0.0023019414630069657 0 0.023073490980653172 0.0015509522299451978 0 0.023609834105310191 0.00081038851968907389 0 0.025998021151545227 0.0020832498893642378 0 0.023433759103630901 0.0014151555622442399 0 0.027651252867370971 0.0018198351326426327 0 0.027585546621907223 0.0020023019956914752 0 0.027663452173890105 0.0022181139169133346 0 0.027489150424819371 0.0018295444932873732 0 0.027562580540717769 0.0018588252897300183 0 0.027502056659519807 0.002005937960818801 0 0.027651252867370971 0.0018198351326426327 0 0.027562580540717769 0.0018588252897300183 0 0.027585546621907223 0.0020023019956914752 0 0.027562580540717769 0.0018588252897300183 0 0.027585546621907223 0.0020023019956914752 0 0.027502056659519807 0.002005937960818801 0 0.027585546621907223 0.0020023019956914752 0 0.027502056659519807 0.002005937960818801 0 0.027538832755976708 0.0020970986440175953 0 0.026964364390584167 0.0019528464503032362 0 0.027406971099874035 0.0021029136968873014 0 0.027213346298462258 0.0021022512426733088 0 0.028675745001642935 0.0026468326606331602 0 0.023433759103630901 0.0014151555622442399 0 0.020612811071193456 7.3034285336411311e-05 0 0.022938449938195448 0.0018555229752199231 0 0.027404921537256009 0.0021676527676880767 0 0.026949182032638023 0.0021157507164122325 0 0.027213346298462258 0.0021022512426733088 0 0.027404921537256009 0.0021676527676880767 0 0.027538832755976708 0.0020970986440175953 0 0.027663452173890105 0.0022181139169133346 0 0.027404921537256009 0.0021676527676880767 0 0.027502056659519807 0.002005937960818801 0 0.027538832755976708 0.0020970986440175953 0 0.027585546621907223 0.0020023019956914752 0 0.027538832755976708 0.0020970986440175953 0 0.027663452173890105 0.0022181139169133346 0 0.026964364390584167 0.0019528464503032362 0 0.026949182032638023 0.0021157507164122325 0 0.027213346298462258 0.0021022512426733088 0 0.020612811071193456 7.3034285336411311e-05 0 0.023433759103630901 0.0014151555622442399 0 0.023609834105310191 0.00081038851968907389 0 0.022627680232084859 0.0010013060881792872 0 0.022022960203030198 0.00022260505873433829 0 0.023073490980653172 0.0015509522299451978 0 0.023609834105310191 0.00081038851968907389 0 0.022627680232084859 0.0010013060881792872 0 0.023073490980653172 0.0015509522299451978 0 0.022627680232084859 0.0010013060881792872 0 0.022470204465825951 0.0013604752385244193 0 0.022627680232084859 0.0010013060881792872 0 0.021926365947644254 0.00118203989057236 0 0.022022960203030198 0.00022260505873433829 0 0.022627680232084859 0.0010013060881792872 0 0.021926365947644254 0.00118203989057236 0 0.022470204465825951 0.0013604752385244193 0 0.021926365947644254 0.00118203989057236 0 0.020461676438973869 0.00085031512822106151 0 0.021413347240340871 0.0015456182918404632 0 0.021926365947644254 0.00118203989057236 0 0.020461676438973869 0.00085031512822106151 0 0.022022960203030198 0.00022260505873433829 0 0.021926365947644254 0.00118203989057236 0 0.021413347240340871 0.0015456182918404632 0 0.022287239844478748 0.0016659442981974643 0 0.021413347240340871 0.0015456182918404632 0 0.022287239844478748 0.0016659442981974643 0 0.022130494527474506 0.001780781898620268 0 0.023073490980653172 0.0015509522299451978 0 0.022287239844478748 0.0016659442981974643 0 0.022479710478486667 0.0019286526364968096 0 0.023073490980653172 0.0015509522299451978 0 0.022470204465825951 0.0013604752385244193 0 0.022287239844478748 0.0016659442981974643 0 0.021926365947644254 0.00118203989057236 0 0.022470204465825951 0.0013604752385244193 0 0.022287239844478748 0.0016659442981974643 0 0.022287239844478748 0.0016659442981974643 0 0.022479710478486667 0.0019286526364968096 0 0.022130494527474506 0.001780781898620268 0 0.022479710478486667 0.0019286526364968096 0 0.022130494527474506 0.001780781898620268 0 0.022655433377702115 0.0017300808063882378 0 0.022479710478486667 0.0019286526364968096 0 0.022655433377702115 0.0017300808063882378 0 0.02292734199397771 0.0017336551001364763 0 0.023080204800063481 0.0022418828677395353 0 0.023523146955487136 0.0024260853160652908 0 0.022848132439302227 0.0013624143649091161 0 0.021663206727927785 0.0016254110230208168 0 0.022945981634942138 0.00094888161850067857 0 0.022655433377702115 0.0017300808063882378 0 0.022848132439302227 0.0013624143649091161 0 0.021663206727927785 0.0016254110230208168 0 0.022655433377702115 0.0017300808063882378 0 0.022848132439302227 0.0013624143649091161 0 0.023281069200320161 0.0015782935260937935 0 0.022130494527474506 0.001780781898620268 0 0.022655433377702115 0.0017300808063882378 0 0.021663206727927785 0.0016254110230208168 0 0.021368879690709795 0.0015323529577289659 0 0.020622669338632951 0.0011817351930002444 0 0.021663206727927785 0.0016254110230208168 0 0.020260130664677401 0.0012861518654047391 0 0.018481749129655105 0.0014740813953782106 0 0.021413347240340871 0.0015456182918404632 0 0.021663206727927785 0.0016254110230208168 0 0.020260130664677401 0.0012861518654047391 0 0.021413347240340871 0.0015456182918404632 0 0.022130494527474506 0.001780781898620268 0 0.021663206727927785 0.0016254110230208168 0 0.020461676438973869 0.00085031512822106151 0 0.020260130664677401 0.0012861518654047391 0 0.018671173709841463 0.00064452215273298915 0 0.020461676438973869 0.00085031512822106151 0 0.021413347240340871 0.0015456182918404632 0 0.020260130664677401 0.0012861518654047391 0 0.020260130664677401 0.0012861518654047391 0 0.018671173709841463 0.00064452215273298915 0 0.018481749129655105 0.0014740813953782106 0 0.018671173709841463 0.00064452215273298915 0 0.019002826202443451 0.00013574135991766212 0 0.017703808723687455 0.00030246732234580034 0 0.019002826202443451 0.00013574135991766212 0 0.017703808723687455 0.00030246732234580034 0 0.017786616588081474 0.00019664225516329497 0 0.019002826202443451 0.00013574135991766212 0 0.018212882245594086 0.00025395154360434007 0 0.017786616588081474 0.00019664225516329497 0 0.020461676438973869 0.00085031512822106151 0 0.018671173709841463 0.00064452215273298915 0 0.019002826202443451 0.00013574135991766212 0 0.020461676438973869 0.00085031512822106151 0 0.019002826202443451 0.00013574135991766212 0 0.022022960203030198 0.00022260505873433829 0 0.019374396559114861 0.00019683017833849894 0 0.019441075435050893 -9.5183746166951658e-05 0 0.01797338456211417 -8.43320578071676e-05 0 0.017986752864872974 6.5019474642316711e-05 0 0.018212882245594086 0.00025395154360434007 0 0.018083069093164879 -3.0700505832027544e-05 0 0.01797338456211417 -8.43320578071676e-05 0 0.017986752864872974 6.5019474642316711e-05 0 0.017949782270213203 7.9773032959560086e-05 0 0.018083069093164879 -3.0700505832027544e-05 0 0.017986752864872974 6.5019474642316711e-05 0 0.017986752864872974 6.5019474642316711e-05 0 0.01794272152696412 0.00018699305778313986 0 0.018212882245594086 0.00025395154360434007 0 0.017931418555989315 0.00014505324743369432 0 0.017986752864872974 6.5019474642316711e-05 0 0.01794272152696412 0.00018699305778313986 0 0.019002826202443451 0.00013574135991766212 0 0.01797338456211417 -8.43320578071676e-05 0 0.018212882245594086 0.00025395154360434007 0 0.018212882245594086 0.00025395154360434007 0 0.01778676442210388 0.00016505762455951817 0 0.017786616588081474 0.00019664225516329497 0 0.018212882245594086 0.00025395154360434007 0 0.01778676442210388 0.00016505762455951817 0 0.017830768037362808 0.00019071155377335227 0 0.01790644151299171 0.00017914218433566487 0 0.01794272152696412 0.00018699305778313986 0 0.017830768037362808 0.00019071155377335227 0 0.01794272152696412 0.00018699305778313986 0 0.018212882245594086 0.00025395154360434007 0 0.017830768037362808 0.00019071155377335227 0 0.01765001131023184 -1.5548999590544334e-05 0 0.017830768037362808 0.00019071155377335227 0 0.01745363720734595 1.7195425599212242e-05 0 0.01778676442210388 0.00016505762455951817 0 0.01745363720734595 1.7195425599212242e-05 0 0.017786616588081474 0.00019664225516329497 0 0.01778676442210388 0.00016505762455951817 0 0.017830768037362808 0.00019071155377335227 0 0.01745363720734595 1.7195425599212242e-05 0 0.01745363720734595 1.7195425599212242e-05 0 0.016965209204024678 -0.0001007172247667569 0 0.017786616588081474 0.00019664225516329497 0 0.016965209204024678 -0.0001007172247667569 0 0.017703808723687455 0.00030246732234580034 0 0.016594537848199632 0.00017671480681682251 0 0.016965209204024678 -0.0001007172247667569 0 0.017703808723687455 0.00030246732234580034 0 0.017786616588081474 0.00019664225516329497 0 0.016135544024867783 0.00036152445808986184 0 0.016594537848199632 0.00017671480681682251 0 0.015558137908177595 0.00015709954335048438 0 0.016135544024867783 0.00036152445808986184 0 0.015558137908177595 0.00015709954335048438 0 0.015513378162670521 0.00029132164105450081 0 0.016135544024867783 0.00036152445808986184 0 0.015513378162670521 0.00029132164105450081 0 0.016041996812689922 0.00064889952041194063 0 0.017703808723687455 0.00030246732234580034 0 0.016594537848199632 0.00017671480681682251 0 0.017226999952566886 0.00070657801882085083 0 0.016135544024867783 0.00036152445808986184 0 0.016594537848199632 0.00017671480681682251 0 0.017226999952566886 0.00070657801882085083 0 0.01598737663494235 -0.00013695794852065812 0 0.016965209204024678 -0.0001007172247667569 0 0.016594537848199632 0.00017671480681682251 0 0.01598737663494235 -0.00013695794852065812 0 0.016594537848199632 0.00017671480681682251 0 0.015558137908177595 0.00015709954335048438 0 0.014188452431786047 -8.7408528455535042e-05 0 0.01598737663494235 -0.00013695794852065812 0 0.015558137908177595 0.00015709954335048438 0 0.014274335504348647 -0.00018347693972860718 0 0.014206712633366154 0.0013782479558904518 0 0.014188452431786047 -8.7408528455535042e-05 0 0.015558137908177595 0.00015709954335048438 0 0.015513378162670521 0.00029132164105450081 0 0.014188452431786047 -8.7408528455535042e-05 0 0.011724561329807927 0.0015096298907468231 0 0.013170775521569547 0.0023536290821946134 0 0.0092934632789386587 0.00013660491977074724 0 0.011724561329807927 0.0015096298907468231 0 0.010283269860522838 0.0018092350922327973 0 0.011724561329807927 0.0015096298907468231 0 0.012014099457220102 0.0030577084456716074 0 0.010283269860522838 0.0018092350922327973 0 0.012014099457220102 0.0030577084456716074 0 0.011729120313471878 0.0036035925433573952 0 0.010283269860522838 0.0018092350922327973 0 0.012582202124953448 0.0030765398115646034 0 0.013042780266040471 0.0025202761147800957 0 0.013042780266040471 0.0025202761147800957 0 0.010035493703078265 0.001718774524117636 0 0.010537300799037037 0.002110492156034371 0 0.010173661223041296 0.0020910503917103383 0 0.010283269860522838 0.0018092350922327973 0 0.012014099457220102 0.0030577084456716074 0 0.013170775521569547 0.0023536290821946134 0 0.01291179771039366 0.0045420257524325372 0 0.011724561329807927 0.0015096298907468231 0 0.012014099457220102 0.0030577084456716074 0 0.013170775521569547 0.0023536290821946134 0 0.012014099457220102 0.0030577084456716074 0 0.01291179771039366 0.0045420257524325372 0 0.011801686824276703 0.0034718868765353248 0 0.015513378162670521 0.00029132164105450081 0 0.015629977351945816 0.0010562265402778174 0 0.016041996812689922 0.00064889952041194063 0 0.014206712633366154 0.0013782479558904518 0 0.015290123666911216 0.0022532292393929207 0 0.015290123666911216 0.0022532292393929207 0 0.013042780266040471 0.0025202761147800957 0 0.015522471240316402 0.001922589494552453 0 0.016040049781883316 0.0024544194169355865 0 0.016057954800483241 0.0017752026640479124 0 0.013042780266040471 0.0025202761147800957 0 0.013339519725357333 0.0020961307373049166 0 0.010537300799037037 0.002110492156034371 0 0.010158945342897246 0.0022948184831688089 0 0.010173661223041296 0.0020910503917103383 0 0.016040049781883316 0.0024544194169355865 0 0.016057954800483241 0.0017752026640479124 0 0.016659204347394985 0.0013242357252943411 0 0.010537300799037037 0.002110492156034371 0 0.010192853510770684 0.0026265646983144432 0 0.010158945342897246 0.0022948184831688089 0 0.016057954800483241 0.0017752026640479124 0 0.016010554128035766 0.0013991510680161853 0 0.016659204347394985 0.0013242357252943411 0 0.016010554128035766 0.0013991510680161853 0 0.016247800363927777 0.00084945162655281786 0 0.016659204347394985 0.0013242357252943411 0 0.018039662646870409 0.0017716587881501232 0 0.017461952438952207 0.0011861572961735156 0 0.018158437904946343 0.00051955534373641856 0 0.015522471240316402 0.001922589494552453 0 0.016010554128035766 0.0013991510680161853 0 0.015626980758966586 0.00087831285663419372 0 0.015290123666911216 0.0022532292393929207 0 0.019826458635436434 0.00028008028295233158 0 0.015290123666911216 0.0022532292393929207 0 0.018744299159788525 0.0011669260116564384 0 0.015522471240316402 0.001922589494552453 0 0.016057954800483241 0.0017752026640479124 0 0.016010554128035766 0.0013991510680161853 0 0.018744299159788525 0.0011669260116564384 0 0.019826458635436434 0.00028008028295233158 0 0.017237700753391139 0.00086850785412485203 0 0.017226999952566886 0.00070657801882085083 0 0.017867753028108325 0.00088916818889576152 0 0.018744299159788525 0.0011669260116564384 0 0.016700947606704632 0.0010937336592559584 0 0.015629977351945816 0.0010562265402778174 0 0.016167797478153664 0.0017899235512313998 0 0.016209980393883921 0.0010347397118857272 0 0.016135544024867783 0.00036152445808986184 0 0.016041996812689922 0.00064889952041194063 0 0.017226999952566886 0.00070657801882085083 0 0.015629977351945816 0.0010562265402778174 0 0.016209980393883921 0.0010347397118857272 0 0.016041996812689922 0.00064889952041194063 0 0.016209980393883921 0.0010347397118857272 0 0.016041996812689922 0.00064889952041194063 0 0.017226999952566886 0.00070657801882085083 0 0.016167797478153664 0.0017899235512313998 0 0.016209980393883921 0.0010347397118857272 0 0.017226999952566886 0.00070657801882085083 0 0.018671173709841463 0.00064452215273298915 0 0.017703808723687455 0.00030246732234580034 0 0.017226999952566886 0.00070657801882085083 0 0.018671173709841463 0.00064452215273298915 0 0.017226999952566886 0.00070657801882085083 0 0.017867753028108325 0.00088916818889576152 0 0.018671173709841463 0.00064452215273298915 0 0.017867753028108325 0.00088916818889576152 0 0.018481749129655105 0.0014740813953782106 0 0.017237700753391139 0.00086850785412485203 0 0.017867753028108325 0.00088916818889576152 0 0.018481749129655105 0.0014740813953782106 0 0.022379459617765295 0.001027511392219855 0 0.022447095892882737 0.00088845503268997423 0 0.022458213534430654 0.00067323340753656447 0 0.022444546864114373 0.00093036267995484981 0 0.022379459617765295 0.001027511392219855 0 0.022447095892882737 0.00088845503268997423 0 0.018744299159788525 0.0011669260116564384 0 0.020622669338632951 0.0011817351930002444 0 0.022444546864114373 0.00093036267995484981 0 0.022447095892882737 0.00088845503268997423 0 0.022586289863993216 0.00088900711238032307 0 0.022447095892882737 0.00088845503268997423 0 0.022458213534430654 0.00067323340753656447 0 0.022586289863993216 0.00088900711238032307 0 0.022379459617765295 0.001027511392219855 0 0.022458213534430654 0.00067323340753656447 0 0.022534170203998484 0.00097638629784838299 0 0.022458213534430654 0.00067323340753656447 0 0.022534170203998484 0.00097638629784838299 0 0.022637340844753859 0.00058420658221028376 0 0.021663206727927785 0.0016254110230208168 0 0.022379459617765295 0.001027511392219855 0 0.022534170203998484 0.00097638629784838299 0 0.021663206727927785 0.0016254110230208168 0 0.022534170203998484 0.00097638629784838299 0 0.022945981634942138 0.00094888161850067857 0 0.022534170203998484 0.00097638629784838299 0 0.022637340844753859 0.00058420658221028376 0 0.022945981634942138 0.00094888161850067857 0 0.022637340844753859 0.00058420658221028376 0 0.022945981634942138 0.00094888161850067857 0 0.022731945609505005 0.00071353002959283966 0 0.022945981634942138 0.00094888161850067857 0 0.023360663408251912 0.0012326623818418939 0 0.023064835083973206 0.0010254093557995408 0 0.022945981634942138 0.00094888161850067857 0 0.022731945609505005 0.00071353002959283966 0 0.023064835083973206 0.0010254093557995408 0 0.022848132439302227 0.0013624143649091161 0 0.022945981634942138 0.00094888161850067857 0 0.023360663408251912 0.0012326623818418939 0 0.022032348660694145 0.00052034494687990495 0 0.021547190196659578 0.00020621079557075217 0 0.021056189268283822 0.00037678422408078443 0 0.022032348660694145 0.00052034494687990495 0 0.021547190196659578 0.00020621079557075217 0 0.021831012868159496 7.0052766956416073e-05 0 0.022032348660694145 0.00052034494687990495 0 0.021056189268283822 0.00037678422408078443 0 0.021373175757353501 0.00080975869341715935 0 0.022032348660694145 0.00052034494687990495 0 0.022731945609505005 0.00071353002959283966 0 0.022376241162187727 0.00036817071404323965 0 0.022032348660694145 0.00052034494687990495 0 0.022731945609505005 0.00071353002959283966 0 0.022741987546004167 0.00096525413881049676 0 0.022731945609505005 0.00071353002959283966 0 0.022741987546004167 0.00096525413881049676 0 0.023064835083973206 0.0010254093557995408 0 0.022637340844753859 0.00058420658221028376 0 0.022731945609505005 0.00071353002959283966 0 0.022376241162187727 0.00036817071404323965 0 0.022637340844753859 0.00058420658221028376 0 0.022376241162187727 0.00036817071404323965 0 0.022458035407590754 0.00013778413053899146 0 0.022376241162187727 0.00036817071404323965 0 0.021831012868159496 7.0052766956416073e-05 0 0.022458035407590754 0.00013778413053899146 0 0.021831012868159496 7.0052766956416073e-05 0 0.02158059363117287 -0.00032138587451659416 0 0.022458035407590754 0.00013778413053899146 0 0.022032348660694145 0.00052034494687990495 0 0.022376241162187727 0.00036817071404323965 0 0.021831012868159496 7.0052766956416073e-05 0 0.021547190196659578 0.00020621079557075217 0 0.021831012868159496 7.0052766956416073e-05 0 0.021177389982931775 -0.00015267890785397863 0 0.021831012868159496 7.0052766956416073e-05 0 0.02158059363117287 -0.00032138587451659416 0 0.021177389982931775 -0.00015267890785397863 0 0.02158059363117287 -0.00032138587451659416 0 0.021693273277289989 -0.0006272648706765468 0 0.020861482236093739 -0.00070232354595066925 0 0.02158059363117287 -0.00032138587451659416 0 0.021693273277289989 -0.0006272648706765468 0 0.022458035407590754 0.00013778413053899146 0 0.022458213534430654 0.00067323340753656447 0 0.022458035407590754 0.00013778413053899146 0 0.022586289863993216 0.00088900711238032307 0 0.022458213534430654 0.00067323340753656447 0 0.022637340844753859 0.00058420658221028376 0 0.022458035407590754 0.00013778413053899146 0 0.023058196575420464 -0.00015462249073664298 0 0.019826458635436434 0.00028008028295233158 0 0.021693273277289989 -0.0006272648706765468 0 0.022458035407590754 0.00013778413053899146 0 0.022589766496242902 -0.0014782946844596788 0 0.016318243651630177 0.00020804056263090686 0 0.016247800363927777 0.00084945162655281786 0 0.017282559382674451 0.00016911516727782225 0 0.018934106986146285 -0.000271957960332306 0 0.019826458635436434 0.00028008028295233158 0 0.016318243651630177 0.00020804056263090686 0 0.015626980758966586 0.00087831285663419372 0 0.016247800363927777 0.00084945162655281786 0 0.016010554128035766 0.0013991510680161853 0 0.015626980758966586 0.00087831285663419372 0 0.016247800363927777 0.00084945162655281786 0 0.016247800363927777 0.00084945162655281786 0 0.017282559382674451 0.00016911516727782225 0 0.016659204347394985 0.0013242357252943411 0 0.014389611773667214 0.00076586905746798563 0 0.013339519725357333 0.0020961307373049166 0 0.010037923339441765 0.0029324610007264757 0 0.0099146522089358421 0.0026414903393781968 0 0.010192853510770684 0.0026265646983144432 0 0.014259442788773953 -2.6115412312481276e-05 0 0.014712193958323242 -0.00013977538370936544 0 0.013367742854384987 4.1714981783240942e-05 0 0.014259442788773953 -2.6115412312481276e-05 0 0.013783171946733057 -2.0514924512080563e-05 0 0.013367742854384987 4.1714981783240942e-05 0 0.014389611773667214 0.00076586905746798563 0 0.01142822422570776 0.0015289373587648704 0 0.014389611773667214 0.00076586905746798563 0 0.017215028165152479 -0.00070398330865853703 0 0.015650139443626674 -0.00022659525089289956 0 0.014712193958323242 -0.00013977538370936544 0 0.017101753962722923 -0.000319408450599673 0 0.017259647721516735 -0.00020831491282143839 0 0.017236524935427183 -0.00022814951532703322 0 0.017101753962722923 -0.000319408450599673 0 0.014937693102917423 -0.00012443618898534654 0 0.015650139443626674 -0.00022659525089289956 0 0.014919179429124378 -0.00012735273076359973 0 0.014259442788773953 -2.6115412312481276e-05 0 0.014937693102917423 -0.00012443618898534654 0 0.014919179429124378 -0.00012735273076359973 0 0.014937693102917423 -0.00012443618898534654 0 0.015650139443626674 -0.00022659525089289956 0 0.014712193958323242 -0.00013977538370936544 0 0.014259442788773953 -2.6115412312481276e-05 0 0.014937693102917423 -0.00012443618898534654 0 0.014712193958323242 -0.00013977538370936544 0 0.016318243651630177 0.00020804056263090686 0 0.017282559382674451 0.00016911516727782225 0 0.017236524935427183 -0.00022814951532703322 0 0.016318243651630177 0.00020804056263090686 0 0.017236524935427183 -0.00022814951532703322 0 0.016986303967374869 -0.00040496512710380732 0 0.014389611773667214 0.00076586905746798563 0 0.015758899261266755 5.4498283920713321e-05 0 0.018934106986146285 -0.000271957960332306 0 0.018829821821943066 -0.00043771952800693775 0 0.02158059363117287 -0.00032138587451659416 0 0.021177389982931775 -0.00015267890785397863 0 0.020861482236093739 -0.00070232354595066925 0 0.021177389982931775 -0.00015267890785397863 0 0.020314253169362313 -2.6720361418989132e-05 0 0.020861482236093739 -0.00070232354595066925 0 0.020314253169362313 -2.6720361418989132e-05 0 0.020861482236093739 -0.00070232354595066925 0 0.018225558042748086 -0.00013695757030360154 0 0.017236524935427183 -0.00022814951532703322 0 0.016986303967374869 -0.00040496512710380732 0 0.017380311620223559 -0.0002849098674381001 0 0.017236524935427183 -0.00022814951532703322 0 0.017380311620223559 -0.0002849098674381001 0 0.017101753962722923 -0.000319408450599673 0 0.015650139443626674 -0.00022659525089289956 0 0.017101753962722923 -0.000319408450599673 0 0.016226592505343328 -0.00019440511381824005 0 0.017101753962722923 -0.000319408450599673 0 0.017232180173949098 -0.00015397325425705043 0 0.016226592505343328 -0.00019440511381824005 0 0.017101753962722923 -0.000319408450599673 0 0.018225558042748086 -0.00013695757030360154 0 0.017232180173949098 -0.00015397325425705043 0 0.018829821821943066 -0.00043771952800693775 0 0.018195490323967056 -4.6246043332199541e-05 0 0.016986303967374869 -0.00040496512710380732 0 0.017380311620223559 -0.0002849098674381001 0 0.018225558042748086 -0.00013695757030360154 0 0.017380311620223559 -0.0002849098674381001 0 0.017101753962722923 -0.000319408450599673 0 0.018225558042748086 -0.00013695757030360154 0 0.020314253169362313 -2.6720361418989132e-05 0 0.018225558042748086 -0.00013695757030360154 0 0.019843226264866905 0.00040595991847308194 0 0.018225558042748086 -0.00013695757030360154 0 0.017826594444385974 8.9402015056513974e-05 0 0.017232180173949098 -0.00015397325425705043 0 0.018225558042748086 -0.00013695757030360154 0 0.018841448772752234 0.00042543854437122783 0 0.017826594444385974 8.9402015056513974e-05 0 0.018841448772752234 0.00042543854437122783 0 0.019843226264866905 0.00040595991847308194 0 0.020288437530234685 0.00080553019415726779 0 0.018225558042748086 -0.00013695757030360154 0 0.018841448772752234 0.00042543854437122783 0 0.019843226264866905 0.00040595991847308194 0 0.020639383886928819 0.00062855476124172138 0 0.019843226264866905 0.00040595991847308194 0 0.021056189268283822 0.00037678422408078443 0 0.020639383886928819 0.00062855476124172138 0 0.019843226264866905 0.00040595991847308194 0 0.020288437530234685 0.00080553019415726779 0 0.020639383886928819 0.00062855476124172138 0 0.021056189268283822 0.00037678422408078443 0 0.021373175757353501 0.00080975869341715935 0 0.021547190196659578 0.00020621079557075217 0 0.021177389982931775 -0.00015267890785397863 0 0.021056189268283822 0.00037678422408078443 0 0.021177389982931775 -0.00015267890785397863 0 0.020314253169362313 -2.6720361418989132e-05 0 0.021056189268283822 0.00037678422408078443 0 0.020314253169362313 -2.6720361418989132e-05 0 0.019843226264866905 0.00040595991847308194 0 0.021056189268283822 0.00037678422408078443 0 0.016997048447504513 -4.6456328028223845e-06 0 0.018173794154868833 0.00033120330244040618 0 0.017865049582287962 1.8855555612168502e-06 0 0.016997048447504513 -4.6456328028223845e-06 0 0.015806373368068713 -6.8968668945949815e-07 0 0.017865049582287962 1.8855555612168502e-06 0 0.018841448772752234 0.00042543854437122783 0 0.017826594444385974 8.9402015056513974e-05 0 0.018173794154868833 0.00033120330244040618 0 0.017826594444385974 8.9402015056513974e-05 0 0.016997048447504513 -4.6456328028223845e-06 0 0.018173794154868833 0.00033120330244040618 0 0.017826594444385974 8.9402015056513974e-05 0 0.016997048447504513 -4.6456328028223845e-06 0 0.017232180173949098 -0.00015397325425705043 0 0.016997048447504513 -4.6456328028223845e-06 0 0.017232180173949098 -0.00015397325425705043 0 0.016226592505343328 -0.00019440511381824005 0 0.016997048447504513 -4.6456328028223845e-06 0 0.016226592505343328 -0.00019440511381824005 0 0.015806373368068713 -6.8968668945949815e-07 0 0.015806373368068713 -6.8968668945949815e-07 0 0.014919179429124378 -0.00012735273076359973 0 0.013743987778937612 -3.7163218415275269e-09 0 0.015650139443626674 -0.00022659525089289956 0 0.016226592505343328 -0.00019440511381824005 0 0.014919179429124378 -0.00012735273076359973 0 0.016226592505343328 -0.00019440511381824005 0 0.015806373368068713 -6.8968668945949815e-07 0 0.014919179429124378 -0.00012735273076359973 0 0.014919179429124378 -0.00012735273076359973 0 0.013783171946733057 -2.0514924512080563e-05 0 0.013743987778937612 -3.7163218415275269e-09 0 0.014259442788773953 -2.6115412312481276e-05 0 0.014919179429124378 -0.00012735273076359973 0 0.013783171946733057 -2.0514924512080563e-05 0 0.013783171946733057 -2.0514924512080563e-05 0 0.013743987778937612 -3.7163218415275269e-09 0 0.012478482793995712 -8.5830935112247313e-06 0 0.013743987778937612 -3.7163218415275269e-09 0 0.011682498685402699 -5.5848776647562327e-08 0 0.012478482793995712 -8.5830935112247313e-06 0 0.011682498685402699 -5.5848776647562327e-08 0 0.012478482793995712 -8.5830935112247313e-06 0 0.010713276454098371 9.9253324688682956e-05 0 0.012478482793995712 -8.5830935112247313e-06 0 0.011445425625698814 4.0834833445876444e-05 0 0.010713276454098371 9.9253324688682956e-05 0 0.013783171946733057 -2.0514924512080563e-05 0 0.012478482793995712 -8.5830935112247313e-06 0 0.013367742854384987 4.1714981783240942e-05 0 0.0099146522089358421 0.0026414903393781968 0 0.0099852653612956168 0.002442642213843008 0 0.0096099982406773234 0.002143936457256398 0 0.012478482793995712 -8.5830935112247313e-06 0 0.013367742854384987 4.1714981783240942e-05 0 0.011445425625698814 4.0834833445876444e-05 0 0.0099852653612956168 0.002442642213843008 0 0.010192853510770684 0.0026265646983144432 0 0.010158945342897246 0.0022948184831688089 0 0.0099146522089358421 0.0026414903393781968 0 0.0099852653612956168 0.002442642213843008 0 0.010192853510770684 0.0026265646983144432 0 0.0099852653612956168 0.002442642213843008 0 0.010158945342897246 0.0022948184831688089 0 0.0096099982406773234 0.002143936457256398 0 0.010158945342897246 0.0022948184831688089 0 0.010173661223041296 0.0020910503917103383 0 0.0096099982406773234 0.002143936457256398 0 0.01142822422570776 0.0015289373587648704 0 0.010528177168465923 0.0011609226514098553 0 0.011445425625698814 4.0834833445876444e-05 0 0.0093000271470702767 0.00068776187836931072 0 0.010713276454098371 9.9253324688682956e-05 0 0.010528177168465923 0.0011609226514098553 0 0.0095578470150772254 0.00081298138437601284 0 0.0096099982406773234 0.002143936457256398 0 0.010283269860522838 0.0018092350922327973 0 0.0093000271470702767 0.00068776187836931072 0 0.010173661223041296 0.0020910503917103383 0 0.0096099982406773234 0.002143936457256398 0 0.010283269860522838 0.0018092350922327973 0 0.0092934632789386587 0.00013660491977074724 0 0.010283269860522838 0.0018092350922327973 0 0.0093000271470702767 0.00068776187836931072 0 0.0079590054702169954 0.00023724949429677672 0 0.0093000271470702767 0.00068776187836931072 0 0.0091786836148955876 0.00030425543455575219 0 0.0093000271470702767 0.00068776187836931072 0 0.0091786836148955876 0.00030425543455575219 0 0.010713276454098371 9.9253324688682956e-05 0 0.0091786836148955876 0.00030425543455575219 0 0.0096208680155713718 4.1830108490551533e-07 0 0.010713276454098371 9.9253324688682956e-05 0 0.0075592811880599827 3.6821419065834412e-07 0 0.0091786836148955876 0.00030425543455575219 0 0.0096208680155713718 4.1830108490551533e-07 0 0.011682498685402699 -5.5848776647562327e-08 0 0.0096208680155713718 4.1830108490551533e-07 0 0.010713276454098371 9.9253324688682956e-05 0 0.025632017805581497 -0.00018480319600252504 0 0.025602299827792663 6.825898408788794e-07 0 0.023620471592117678 -1.5669448312450524e-06 0 0.025602299827792663 6.825898408788794e-07 0 0.026691174978065071 0.00013892037789880684 0 0.026658281273961488 0.00014983962646130232 0 0.025826880198601673 0.0020204459973835629 0 0.030242441282126321 0.0024409291542146663 0 0.025632017805581497 -0.00018480319600252504 0 0.025602299827792663 6.825898408788794e-07 0 0.026691174978065071 0.00013892037789880684 0 0.032962100769717791 0.0041197641262222303 0 0.031326389930029321 0.0052073920358674374 0 0.031313116591172016 0.003387762254706805 0 0.033274187128702878 0.0059808408583045909 0 0.032962100769717791 0.0041197641262222303 0 0.031326389930029321 0.0052073920358674374 0 0.023582222552396542 0.0044965121525974957 0 0.025766515317214082 0.0035154688792364895 0 0.028139008793749771 0.0039055297002006046 0 0.027872217424627522 0.0052530709656961909 0 0.027715055431622043 0.0038384464878838567 0 0.031326389930029321 0.0052073920358674374 0 0.028139008793749771 0.0039055297002006046 0 0.031313116591172016 0.003387762254706805 0 0.02313272363933357 0.0034020244859954193 0 0.024282633185759604 0.0028586392867474366 0 0.025766515317214082 0.0035154688792364895 0 0.023582222552396542 0.0044965121525974957 0 0.02313272363933357 0.0034020244859954193 0 0.025766515317214082 0.0035154688792364895 0 0.021268500839843208 0.0038486799218026995 0 0.023582222552396542 0.0044965121525974957 0 0.02313272363933357 0.0034020244859954193 0 0.025826880198601673 0.0020204459973835629 0 0.027872217424627522 0.0052530709656961909 0 0.021268500839843208 0.0038486799218026995 0 0.022154281720721238 0.0028164507479614036 0 0.02313272363933357 0.0034020244859954193 0 0.022154281720721238 0.0028164507479614036 0 0.02313272363933357 0.0034020244859954193 0 0.024282633185759604 0.0028586392867474366 0 0.022154281720721238 0.0028164507479614036 0 0.024282633185759604 0.0028586392867474366 0 0.022541017930891871 0.0021941084324717201 0 0.024282633185759604 0.0028586392867474366 0 0.022541017930891871 0.0021941084324717201 0 0.023961693939399824 0.0023127640293990389 0 0.022154281720721238 0.0028164507479614036 0 0.021202333856753734 0.0023100208926723135 0 0.022541017930891871 0.0021941084324717201 0 0.022154281720721238 0.0028164507479614036 0 0.021202333856753734 0.0023100208926723135 0 0.020688896219327815 0.0027269300865969013 0 0.021202333856753734 0.0023100208926723135 0 0.020688896219327815 0.0027269300865969013 0 0.019800558564711693 0.0019879768978840239 0 0.025826880198601673 0.0020204459973835629 0 0.021156040972402545 0.0012910994418093126 0 0.021268500839843208 0.0038486799218026995 0 0.022154281720721238 0.0028164507479614036 0 0.020688896219327815 0.0027269300865969013 0 0.025826880198601673 0.0020204459973835629 0 0.023614632847952111 -1.9894489757070585e-06 0 0.022539276491324579 -0.00058333748525102444 0 0.022543911275448452 0.00021180191891341448 0 0.023614479957273119 -6.8472528205821139e-07 0 0.021156040972402545 0.0012910994418093126 0 0.020595058639506794 0.0010822117939876033 0 0.022543911275448452 0.00021180191891341448 0 0.023614479957273119 -6.8472528205821139e-07 0 0.02170126318518115 6.3450746034011515e-07 0 0.022543911275448452 0.00021180191891341448 0 0.021355287270402548 1.1911969915335479e-06 0 0.02170126318518115 6.3450746034011515e-07 0 0.021355287270402548 1.1911969915335479e-06 0 0.02170126318518115 6.3450746034011515e-07 0 0.019784011465886171 -2.3283587257793044e-07 0 0.021202333856753734 0.0023100208926723135 0 0.019800558564711693 0.0019879768978840239 0 0.02095876199957198 0.0017972820922997337 0 0.019800558564711693 0.0019879768978840239 0 0.019793532746316175 0.0014204844828168489 0 0.02095876199957198 0.0017972820922997337 0 0.020595058639506794 0.0010822117939876033 0 0.019201689517755697 0.00061974113875315701 0 0.021355287270402548 1.1911969915335479e-06 0 0.019784011465886171 -2.3283587257793044e-07 0 0.019643976026105989 -1.8391834219080818e-05 0 0.019800558564711693 0.0019879768978840239 0 0.019793532746316175 0.0014204844828168489 0 0.018711942665148744 0.0011646565892836703 0 0.019784011465886171 -2.3283587257793044e-07 0 0.019643976026105989 -1.8391834219080818e-05 0 0.017867520822021119 -2.8529836005854978e-08 0 0.018711942665148744 0.0011646565892836703 0 0.019120526393482672 0.0008566513744953972 0 0.017865049582287962 1.8855555612168502e-06 0 0.019201689517755697 0.00061974113875315701 0 0.017867569781564029 2.8882947392897155e-07 0 0.019793532746316175 0.0014204844828168489 0 0.018711942665148744 0.0011646565892836703 0 0.019120526393482672 0.0008566513744953972 0 0.019793532746316175 0.0014204844828168489 0 0.019120526393482672 0.0008566513744953972 0 0.020418248538076982 0.001180988732057838 0 0.019120526393482672 0.0008566513744953972 0 0.018173794154868833 0.00033120330244040618 0 0.019330038043860555 0.00073828682739640052 0 0.018841448772752234 0.00042543854437122783 0 0.018173794154868833 0.00033120330244040618 0 0.019330038043860555 0.00073828682739640052 0 0.019120526393482672 0.0008566513744953972 0 0.018173794154868833 0.00033120330244040618 0 0.017865049582287962 1.8855555612168502e-06 0 0.02146260126283098 0.0011200826856012616 0 0.020288437530234685 0.00080553019415726779 0 0.020418248538076982 0.001180988732057838 0 0.02146260126283098 0.0011200826856012616 0 0.021373175757353501 0.00080975869341715935 0 0.020288437530234685 0.00080553019415726779 0 0.020639383886928819 0.00062855476124172138 0 0.021373175757353501 0.00080975869341715935 0 0.020288437530234685 0.00080553019415726779 0 0.018841448772752234 0.00042543854437122783 0 0.020288437530234685 0.00080553019415726779 0 0.019330038043860555 0.00073828682739640052 0 0.020288437530234685 0.00080553019415726779 0 0.019330038043860555 0.00073828682739640052 0 0.020418248538076982 0.001180988732057838 0 0.019120526393482672 0.0008566513744953972 0 0.019330038043860555 0.00073828682739640052 0 0.020418248538076982 0.001180988732057838 0 0.02146260126283098 0.0011200826856012616 0 0.020418248538076982 0.001180988732057838 0 0.02166673512215855 0.0016115000212718797 0 0.02146260126283098 0.0011200826856012616 0 0.02166673512215855 0.0016115000212718797 0 0.02238878900142147 0.0014995779670035206 0 0.02166673512215855 0.0016115000212718797 0 0.023323217599798284 0.0018985530103280254 0 0.02238878900142147 0.0014995779670035206 0 0.020418248538076982 0.001180988732057838 0 0.02166673512215855 0.0016115000212718797 0 0.02095876199957198 0.0017972820922997337 0 0.019793532746316175 0.0014204844828168489 0 0.020418248538076982 0.001180988732057838 0 0.02095876199957198 0.0017972820922997337 0 0.02166673512215855 0.0016115000212718797 0 0.02095876199957198 0.0017972820922997337 0 0.022541017930891871 0.0021941084324717201 0 0.021202333856753734 0.0023100208926723135 0 0.02095876199957198 0.0017972820922997337 0 0.022541017930891871 0.0021941084324717201 0 0.02166673512215855 0.0016115000212718797 0 0.022541017930891871 0.0021941084324717201 0 0.023323217599798284 0.0018985530103280254 0 0.022541017930891871 0.0021941084324717201 0 0.023323217599798284 0.0018985530103280254 0 0.023961693939399824 0.0023127640293990389 0 0.023323217599798284 0.0018985530103280254 0 0.024362427051528496 0.0021452306582369534 0 0.023961693939399824 0.0023127640293990389 0 0.023323217599798284 0.0018985530103280254 0 0.024362427051528496 0.0021452306582369534 0 0.024009779037289538 0.0017645656669049866 0 0.024362427051528496 0.0021452306582369534 0 0.024009779037289538 0.0017645656669049866 0 0.024941009941822547 0.0021421860312131158 0 0.024009779037289538 0.0017645656669049866 0 0.023167989002924671 0.001593946798311204 0 0.023372544882487845 0.0013186389440597154 0 0.023323217599798284 0.0018985530103280254 0 0.024009779037289538 0.0017645656669049866 0 0.023167989002924671 0.001593946798311204 0 0.023323217599798284 0.0018985530103280254 0 0.023167989002924671 0.001593946798311204 0 0.02238878900142147 0.0014995779670035206 0 0.02146260126283098 0.0011200826856012616 0 0.02238878900142147 0.0014995779670035206 0 0.022679941393660315 0.0012662157587466749 0 0.023167989002924671 0.001593946798311204 0 0.02238878900142147 0.0014995779670035206 0 0.022679941393660315 0.0012662157587466749 0 0.023167989002924671 0.001593946798311204 0 0.022679941393660315 0.0012662157587466749 0 0.023372544882487845 0.0013186389440597154 0 0.022741987546004167 0.00096525413881049676 0 0.023064835083973206 0.0010254093557995408 0 0.023372544882487845 0.0013186389440597154 0 0.022679941393660315 0.0012662157587466749 0 0.022741987546004167 0.00096525413881049676 0 0.022168769427429728 0.00093504922914159868 0 0.022679941393660315 0.0012662157587466749 0 0.022741987546004167 0.00096525413881049676 0 0.023372544882487845 0.0013186389440597154 0 0.02146260126283098 0.0011200826856012616 0 0.022679941393660315 0.0012662157587466749 0 0.022168769427429728 0.00093504922914159868 0 0.022032348660694145 0.00052034494687990495 0 0.022741987546004167 0.00096525413881049676 0 0.022168769427429728 0.00093504922914159868 0 0.022032348660694145 0.00052034494687990495 0 0.021373175757353501 0.00080975869341715935 0 0.022168769427429728 0.00093504922914159868 0 0.02146260126283098 0.0011200826856012616 0 0.021373175757353501 0.00080975869341715935 0 0.022168769427429728 0.00093504922914159868 0 0.023360663408251912 0.0012326623818418939 0 0.023064835083973206 0.0010254093557995408 0 0.023372544882487845 0.0013186389440597154 0 0.023360663408251912 0.0012326623818418939 0 0.023372544882487845 0.0013186389440597154 0 0.023933222524450053 0.001537732804534853 0 0.024009779037289538 0.0017645656669049866 0 0.023372544882487845 0.0013186389440597154 0 0.023933222524450053 0.001537732804534853 0 0.023360663408251912 0.0012326623818418939 0 0.023933222524450053 0.001537732804534853 0 0.023658271217174596 0.0014919910354958738 0 0.023933222524450053 0.001537732804534853 0 0.024587374274979427 0.0018560850888284909 0 0.024337455850771208 0.0017297303246599891 0 0.024587374274979427 0.0018560850888284909 0 0.024963766728800119 0.0019644542619734443 0 0.024337455850771208 0.0017297303246599891 0 0.024009779037289538 0.0017645656669049866 0 0.023933222524450053 0.001537732804534853 0 0.024587374274979427 0.0018560850888284909 0 0.024009779037289538 0.0017645656669049866 0 0.024587374274979427 0.0018560850888284909 0 0.024941009941822547 0.0021421860312131158 0 0.024587374274979427 0.0018560850888284909 0 0.025567098533994737 0.0021927447664109837 0 0.024963766728800119 0.0019644542619734443 0 0.024587374274979427 0.0018560850888284909 0 0.024941009941822547 0.0021421860312131158 0 0.025567098533994737 0.0021927447664109837 0 0.026602401383556837 0.0024152575521438004 0 0.026025660657980704 0.0025292055091228499 0 0.027123696492480621 0.0028071057197470795 0 0.025567098533994737 0.0021927447664109837 0 0.026602401383556837 0.0024152575521438004 0 0.026025660657980704 0.0025292055091228499 0 0.024941009941822547 0.0021421860312131158 0 0.026025660657980704 0.0025292055091228499 0 0.025131954162701052 0.0025153635079059123 0 0.024941009941822547 0.0021421860312131158 0 0.025567098533994737 0.0021927447664109837 0 0.026025660657980704 0.0025292055091228499 0 0.024362427051528496 0.0021452306582369534 0 0.025131954162701052 0.0025153635079059123 0 0.023961693939399824 0.0023127640293990389 0 0.024362427051528496 0.0021452306582369534 0 0.024941009941822547 0.0021421860312131158 0 0.025131954162701052 0.0025153635079059123 0 0.024282633185759604 0.0028586392867474366 0 0.025131954162701052 0.0025153635079059123 0 0.023961693939399824 0.0023127640293990389 0 0.024282633185759604 0.0028586392867474366 0 0.025131954162701052 0.0025153635079059123 0 0.026484506560063129 0.0031447066799442222 0 0.026025660657980704 0.0025292055091228499 0 0.025131954162701052 0.0025153635079059123 0 0.026484506560063129 0.0031447066799442222 0 0.026484506560063129 0.0031447066799442222 0 0.025766515317214082 0.0035154688792364895 0 0.028139008793749771 0.0039055297002006046 0 0.024282633185759604 0.0028586392867474366 0 0.026484506560063129 0.0031447066799442222 0 0.025766515317214082 0.0035154688792364895 0 0.026484506560063129 0.0031447066799442222 0 0.028139008793749771 0.0039055297002006046 0 0.027860785071527037 0.0032379070793951388 0 0.027860785071527037 0.0032379070793951388 0 0.028036471838884958 0.0027323518312655109 0 0.027123696492480621 0.0028071057197470795 0 0.027860785071527037 0.0032379070793951388 0 0.028036471838884958 0.0027323518312655109 0 0.028697449165662796 0.0026937632377841939 0 0.028036471838884958 0.0027323518312655109 0 0.027123696492480621 0.0028071057197470795 0 0.027454889226973492 0.0025378328389597678 0 0.026602401383556837 0.0024152575521438004 0 0.027123696492480621 0.0028071057197470795 0 0.027454889226973492 0.0025378328389597678 0 0.026484506560063129 0.0031447066799442222 0 0.027860785071527037 0.0032379070793951388 0 0.027123696492480621 0.0028071057197470795 0 0.026025660657980704 0.0025292055091228499 0 0.026484506560063129 0.0031447066799442222 0 0.027123696492480621 0.0028071057197470795 0 0.027074929767548672 0.0020705014326200368 0 0.026686133969391991 0.0019038088233521329 0 0.027099720677589072 0.0021118353849542654 0 0.028188897583974633 0.0025330287541457264 0 0.028141106415402999 0.0023244566145712514 0 0.027099720677589072 0.0021118353849542654 0 0.027454889226973492 0.0025378328389597678 0 0.028188897583974633 0.0025330287541457264 0 0.026602401383556837 0.0024152575521438004 0 0.027099720677589072 0.0021118353849542654 0 0.027454889226973492 0.0025378328389597678 0 0.028036471838884958 0.0027323518312655109 0 0.027454889226973492 0.0025378328389597678 0 0.028458448164881734 0.0025896054151000893 0 0.027454889226973492 0.0025378328389597678 0 0.028188897583974633 0.0025330287541457264 0 0.028458448164881734 0.0025896054151000893 0 0.028450764141117611 0.0024233432348127935 0 0.028639718119831511 0.0023729258321082726 0 0.028780266042861373 0.0024644863939906505 0 0.028188897583974633 0.0025330287541457264 0 0.028450764141117611 0.0024233432348127935 0 0.028780266042861373 0.0024644863939906505 0 0.028188897583974633 0.0025330287541457264 0 0.028450764141117611 0.0024233432348127935 0 0.028141106415402999 0.0023244566145712514 0 0.028450764141117611 0.0024233432348127935 0 0.028639718119831511 0.0023729258321082726 0 0.028502287982285282 0.0022666348815647049 0 0.028450764141117611 0.0024233432348127935 0 0.028141106415402999 0.0023244566145712514 0 0.028502287982285282 0.0022666348815647049 0 0.028639718119831511 0.0023729258321082726 0 0.028641509725300256 0.0022432319813925129 0 0.02864145269067582 0.002291745485707737 0 0.028639718119831511 0.0023729258321082726 0 0.028502287982285282 0.0022666348815647049 0 0.028641509725300256 0.0022432319813925129 0 0.028502287982285282 0.0022666348815647049 0 0.028446679705104616 0.0018998733422577704 0 0.028641509725300256 0.0022432319813925129 0 0.028141106415402999 0.0023244566145712514 0 0.028502287982285282 0.0022666348815647049 0 0.028446679705104616 0.0018998733422577704 0 0.027099720677589072 0.0021118353849542654 0 0.028141106415402999 0.0023244566145712514 0 0.028446679705104616 0.0018998733422577704 0 0.025256909214918334 0.0018636418143938745 0 0.024951813347855529 0.002436653624601623 0 0.025846356054020605 0.0022444988360191776 0 0.026686133969391991 0.0019038088233521329 0 0.027331043278159592 0.0024386249764099203 0 0.028446679705104616 0.0018998733422577704 0 0.028679746779838682 0.0019183520805922155 0 0.028641509725300256 0.0022432319813925129 0 0.025256909214918334 0.0018636418143938745 0 0.024951813347855529 0.002436653624601623 0 0.024466915746004663 0.0021674142673906108 0 0.025690828585129947 0.0022439658685863241 0 0.024981776270317103 0.002396043704519873 0 0.024951813347855529 0.002436653624601623 0 0.025846356054020605 0.0022444988360191776 0 0.025094175004887299 0.0028096331874730377 0 0.025361189964593859 0.0020840017106832421 0 0.025846356054020605 0.0022444988360191776 0 0.024833339814232597 0.0019291230126578687 0 0.025361189964593859 0.0020840017106832421 0 0.025846356054020605 0.0022444988360191776 0 0.026146020043475066 0.0022377360197113698 0 0.027099720677589072 0.0021118353849542654 0 0.025846356054020605 0.0022444988360191776 0 0.026146020043475066 0.0022377360197113698 0 0.027099720677589072 0.0021118353849542654 0 0.025256909214918334 0.0018636418143938745 0 0.025846356054020605 0.0022444988360191776 0 0.026602401383556837 0.0024152575521438004 0 0.027099720677589072 0.0021118353849542654 0 0.026146020043475066 0.0022377360197113698 0 0.025567098533994737 0.0021927447664109837 0 0.026602401383556837 0.0024152575521438004 0 0.026146020043475066 0.0022377360197113698 0 0.025567098533994737 0.0021927447664109837 0 0.025361189964593859 0.0020840017106832421 0 0.026146020043475066 0.0022377360197113698 0 0.025361189964593859 0.0020840017106832421 0 0.024963766728800119 0.0019644542619734443 0 0.024571301270031411 0.0018367984274727269 0 0.025567098533994737 0.0021927447664109837 0 0.025361189964593859 0.0020840017106832421 0 0.024963766728800119 0.0019644542619734443 0 0.025361189964593859 0.0020840017106832421 0 0.024571301270031411 0.0018367984274727269 0 0.024833339814232597 0.0019291230126578687 0 0.024571301270031411 0.0018367984274727269 0 0.023901853084596855 0.0016667553707055342 0 0.023814065754613548 0.001687883615952662 0 0.024571301270031411 0.0018367984274727269 0 0.024337455850771208 0.0017297303246599891 0 0.023901853084596855 0.0016667553707055342 0 0.024963766728800119 0.0019644542619734443 0 0.024571301270031411 0.0018367984274727269 0 0.024337455850771208 0.0017297303246599891 0 0.023933222524450053 0.001537732804534853 0 0.024337455850771208 0.0017297303246599891 0 0.023658271217174596 0.0014919910354958738 0 0.024337455850771208 0.0017297303246599891 0 0.023658271217174596 0.0014919910354958738 0 0.023901853084596855 0.0016667553707055342 0 0.023901853084596855 0.0016667553707055342 0 0.023281069200320161 0.0015782935260937935 0 0.023346750018524275 0.0016716547383213063 0 0.023658271217174596 0.0014919910354958738 0 0.023901853084596855 0.0016667553707055342 0 0.023281069200320161 0.0015782935260937935 0 0.022655433377702115 0.0017300808063882378 0 0.023281069200320161 0.0015782935260937935 0 0.023346750018524275 0.0016716547383213063 0 0.022848132439302227 0.0013624143649091161 0 0.023658271217174596 0.0014919910354958738 0 0.023281069200320161 0.0015782935260937935 0 0.022848132439302227 0.0013624143649091161 0 0.023360663408251912 0.0012326623818418939 0 0.023658271217174596 0.0014919910354958738 0 0.022655433377702115 0.0017300808063882378 0 0.02292734199397771 0.0017336551001364763 0 0.023346750018524275 0.0016716547383213063 0 0.02292734199397771 0.0017336551001364763 0 0.023346750018524275 0.0016716547383213063 0 0.023814065754613548 0.001687883615952662 0 0.023901853084596855 0.0016667553707055342 0 0.023346750018524275 0.0016716547383213063 0 0.023814065754613548 0.001687883615952662 0 0.02410108586877073 0.003096072081870412 0 0.024590774652928613 0.0031020431804250617 0 0.024259254405603798 0.0031077984821583043 0 0.023523146955487136 0.0024260853160652908 0 0.024196119450656538 0.0024217335371438989 0 0.024951813347855529 0.002436653624601623 0 0.025094175004887299 0.0028096331874730377 0 0.024405841301296204 0.0028377511668938246 0 0.024590774652928613 0.0031020431804250617 0 0.025094175004887299 0.0028096331874730377 0 0.024405841301296204 0.0028377511668938246 0 0.024571301270031411 0.0018367984274727269 0 0.023814065754613548 0.001687883615952662 0 0.024833339814232597 0.0019291230126578687 0 0.024196119450656538 0.0024217335371438989 0 0.024981776270317103 0.002396043704519873 0 0.027613540839868757 0.0021993044007962682 0 0.027850301523705389 0.0021133702566585423 0 0.028046801181475126 0.0024358383716302926 0 0.027613540839868757 0.0021993044007962682 0 0.027567057882725805 0.0019498952756627456 0 0.027850301523705389 0.0021133702566585423 0 0.025830613779773096 0.0025143427998786765 0 0.025940940742256613 0.002529675501123093 0 0.024590774652928613 0.0031020431804250617 0 0.024405841301296204 0.0028377511668938246 0 0.024259254405603798 0.0031077984821583043 0 0.027567057882725805 0.0019498952756627456 0 0.027637680187775501 0.0018016884157942025 0 0.027732977698678257 0.0019063059787196755 0 0.027567057882725805 0.0019498952756627456 0 0.027732977698678257 0.0019063059787196755 0 0.027850301523705389 0.0021133702566585423 0 0.027568058304442263 0.0017504023918036933 0 0.027567057882725805 0.0019498952756627456 0 0.027637680187775501 0.0018016884157942025 0 0.024059798448677439 0.0030055105858231017 0 0.02410108586877073 0.003096072081870412 0 0.024259254405603798 0.0031077984821583043 0 0.025769009693342421 0.002391402542296413 0 0.025940940742256613 0.002529675501123093 0 0.027871270871950224 0.0016978973039752712 0 0.02768542763770817 0.0017730740957029778 0 0.02794011872865592 0.0019070797218569825 0 0.027637680187775501 0.0018016884157942025 0 0.02768542763770817 0.0017730740957029778 0 0.027732977698678257 0.0019063059787196755 0 0.027732977698678257 0.0019063059787196755 0 0.027869306535747148 0.001983251634018452 0 0.027850301523705389 0.0021133702566585423 0 0.02768542763770817 0.0017730740957029778 0 0.027732977698678257 0.0019063059787196755 0 0.027869306535747148 0.001983251634018452 0 0.02768542763770817 0.0017730740957029778 0 0.027869306535747148 0.001983251634018452 0 0.02794011872865592 0.0019070797218569825 0 0.027869306535747148 0.001983251634018452 0 0.02794011872865592 0.0019070797218569825 0 0.028041092872024536 0.002110514776124923 0 0.027869306535747148 0.001983251634018452 0 0.027850301523705389 0.0021133702566585423 0 0.028041092872024536 0.002110514776124923 0 0.027850301523705389 0.0021133702566585423 0 0.028016025536388385 0.002286955048588158 0 0.028046801181475126 0.0024358383716302926 0 0.028016025536388385 0.002286955048588158 0 0.028041092872024536 0.002110514776124923 0 0.028099462645043857 0.0023154077355097831 0 0.027850301523705389 0.0021133702566585423 0 0.028016025536388385 0.002286955048588158 0 0.028041092872024536 0.002110514776124923 0 0.028016025536388385 0.002286955048588158 0 0.028096975971646801 0.00237852995906724 0 0.028099462645043857 0.0023154077355097831 0 0.028096975971646801 0.00237852995906724 0 0.02810257915730778 0.0023570326108030542 0 0.028099462645043857 0.0023154077355097831 0 0.028096975971646801 0.00237852995906724 0 0.02810257915730778 0.0023570326108030542 0 0.028158353176330187 0.0023191544425000573 0 0.026603888971628069 0.0010317848019810003 0 0.026718236181388834 0.00088074827162100693 0 0.028096975971646801 0.00237852995906724 0 0.028195403072843381 0.0023453740851209605 0 0.028046801181475126 0.0024358383716302926 0 0.028096975971646801 0.00237852995906724 0 0.028195403072843381 0.0023453740851209605 0 0.028158353176330187 0.0023191544425000573 0 0.028016025536388385 0.002286955048588158 0 0.028096975971646801 0.00237852995906724 0 0.028046801181475126 0.0024358383716302926 0 0.028362297031470477 0.0024373606761250621 0 0.027331043278159592 0.0024386249764099203 0 0.027613540839868757 0.0021993044007962682 0 0.028046801181475126 0.0024358383716302926 0 0.027601471622753188 0.0026060068291572135 0 0.025830613779773096 0.0025143427998786765 0 0.027331043278159592 0.0024386249764099203 0 0.024951813347855529 0.002436653624601623 0 0.024405841301296204 0.0028377511668938246 0 0.024466915746004663 0.0021674142673906108 0 0.027331043278159592 0.0024386249764099203 0 0.028820259770050507 0.0021120704018618769 0 0.028195403072843381 0.0023453740851209605 0 0.028046801181475126 0.0024358383716302926 0 0.028374029299283475 0.0023207189897920207 0 0.028046801181475126 0.0024358383716302926 0 0.028540218623927669 0.0024703743555268371 0 0.028374029299283475 0.0023207189897920207 0 0.028195403072843381 0.0023453740851209605 0 0.028374029299283475 0.0023207189897920207 0 0.028359496850068572 0.0022524673849730289 0 0.028374029299283475 0.0023207189897920207 0 0.028359496850068572 0.0022524673849730289 0 0.028528350569238789 0.0022402207341979609 0 0.028374029299283475 0.0023207189897920207 0 0.028641509725300256 0.0022432319813925129 0 0.028528350569238789 0.0022402207341979609 0 0.028540218623927669 0.0024703743555268371 0 0.028374029299283475 0.0023207189897920207 0 0.028641509725300256 0.0022432319813925129 0 0.028641509725300256 0.0022432319813925129 0 0.028528350569238789 0.0022402207341979609 0 0.02864145269067582 0.002291745485707737 0 0.028528350569238789 0.0022402207341979609 0 0.028561555600682079 0.0022183041548873013 0 0.02864145269067582 0.002291745485707737 0 0.028359496850068572 0.0022524673849730289 0 0.028528350569238789 0.0022402207341979609 0 0.028472798288325777 0.002196782998883044 0 0.028528350569238789 0.0022402207341979609 0 0.028472798288325777 0.002196782998883044 0 0.028561555600682079 0.0022183041548873013 0 0.028359496850068572 0.0022524673849730289 0 0.028472798288325777 0.002196782998883044 0 0.028369685231429815 0.0021682697656724387 0 0.028359496850068572 0.0022524673849730289 0 0.028369685231429815 0.0021682697656724387 0 0.028274416738790938 0.0022159407886021614 0 0.028369685231429815 0.0021682697656724387 0 0.028274416738790938 0.0022159407886021614 0 0.028268001306697502 0.0021501985748305888 0 0.028369685231429815 0.0021682697656724387 0 0.028268001306697502 0.0021501985748305888 0 0.028321549825926974 0.0020904771154071477 0 0.028286746912599355 0.0019041026057446317 0 0.027951117961603687 0.0015777262816039934 0 0.028268001306697502 0.0021501985748305888 0 0.028250432370938026 0.002131733217916403 0 0.028289388985768528 0.0020972106908233729 0 0.028268001306697502 0.0021501985748305888 0 0.028150194537260007 0.0021337423620294131 0 0.028207699885558168 0.002196135931817899 0 0.027834430937645822 0.0010088463476036111 0 0.027825393213174329 0.0011107665553130644 0 0.027682369825525396 0.00099148424418794346 0 0.027951117961603687 0.0015777262816039934 0 0.027432942510653008 0.0011185757112500722 0 0.028150194537260007 0.0021337423620294131 0 0.028150604179284756 0.0021909835664161935 0 0.028207699885558168 0.002196135931817899 0 0.027432942510653008 0.0011185757112500722 0 0.028366421214388201 0.0021858982726437708 0 0.028274416738790938 0.0022159407886021614 0 0.028207699885558168 0.002196135931817899 0 0.028193321609498584 0.0022456261902419786 0 0.028274416738790938 0.0022159407886021614 0 0.028268001306697502 0.0021501985748305888 0 0.028207699885558168 0.002196135931817899 0 0.028150604179284756 0.0021909835664161935 0 0.028207699885558168 0.002196135931817899 0 0.028193321609498584 0.0022456261902419786 0 0.026603888971628069 0.0010317848019810003 0 0.027432942510653008 0.0011185757112500722 0 0.028129369304959261 0.0022001273053549996 0 0.028193321609498584 0.0022456261902419786 0 0.028158353176330187 0.0023191544425000573 0 0.028193321609498584 0.0022456261902419786 0 0.028158353176330187 0.0023191544425000573 0 0.028230445575891553 0.0022878409297956022 0 0.02810257915730778 0.0023570326108030542 0 0.028129369304959261 0.0022001273053549996 0 0.028158353176330187 0.0023191544425000573 0 0.028195403072843381 0.0023453740851209605 0 0.028359496850068572 0.0022524673849730289 0 0.028230445575891553 0.0022878409297956022 0 0.028195403072843381 0.0023453740851209605 0 0.028158353176330187 0.0023191544425000573 0 0.028230445575891553 0.0022878409297956022 0 0.028359496850068572 0.0022524673849730289 0 0.028274416738790938 0.0022159407886021614 0 0.028230445575891553 0.0022878409297956022 0 0.028274416738790938 0.0022159407886021614 0 0.028193321609498584 0.0022456261902419786 0 0.028230445575891553 0.0022878409297956022 0 0.028378519690249696 0.0020298001135163981 0 0.028334599267818585 0.0020408670101090274 0 0.028383416179747736 0.0020887739461919641 0 0.028378519690249696 0.0020298001135163981 0 0.028383416179747736 0.0020887739461919641 0 0.028458820030709833 0.0020736944322063324 0 0.028378519690249696 0.0020298001135163981 0 0.028375054160752505 0.0019825274218948606 0 0.028432426725862513 0.0019817411414764998 0 0.028378519690249696 0.0020298001135163981 0 0.028458820030709833 0.0020736944322063324 0 0.028432426725862513 0.0019817411414764998 0 0.028378519690249696 0.0020298001135163981 0 0.028349039858351768 0.0020045877395242413 0 0.028375054160752505 0.0019825274218948606 0 0.028349039858351768 0.0020045877395242413 0 0.028375054160752505 0.0019825274218948606 0 0.028356081214621617 0.001976900958842761 0 0.028349039858351768 0.0020045877395242413 0 0.028363635741759454 0.0020002623252426198 0 0.02834160510916179 0.0020118052794795317 0 0.028349039858351768 0.0020045877395242413 0 0.028363635741759454 0.0020002623252426198 0 0.028356081214621617 0.001976900958842761 0 0.028378519690249696 0.0020298001135163981 0 0.028349039858351768 0.0020045877395242413 0 0.028334599267818585 0.0020408670101090274 0 0.028349039858351768 0.0020045877395242413 0 0.02834160510916179 0.0020118052794795317 0 0.028334599267818585 0.0020408670101090274 0 0.028334599267818585 0.0020408670101090274 0 0.028302237335207345 0.0020253409471376166 0 0.028321549825926974 0.0020904771154071477 0 0.02834160510916179 0.0020118052794795317 0 0.028334599267818585 0.0020408670101090274 0 0.028302237335207345 0.0020253409471376166 0 0.028300861279469468 0.001908021258601891 0 0.028302237335207345 0.0020253409471376166 0 0.028334574807664544 0.001961510042950817 0 0.027951117961603687 0.0015777262816039934 0 0.02817457741074951 0.0020874331417326344 0 0.028250432370938026 0.002131733217916403 0 0.028302237335207345 0.0020253409471376166 0 0.028289388985768528 0.0020972106908233729 0 0.028268001306697502 0.0021501985748305888 0 0.028321549825926974 0.0020904771154071477 0 0.028289388985768528 0.0020972106908233729 0 0.028302237335207345 0.0020253409471376166 0 0.028321549825926974 0.0020904771154071477 0 0.028289388985768528 0.0020972106908233729 0 0.028369685231429815 0.0021682697656724387 0 0.028321549825926974 0.0020904771154071477 0 0.028383416179747736 0.0020887739461919641 0 0.028334599267818585 0.0020408670101090274 0 0.028321549825926974 0.0020904771154071477 0 0.028383416179747736 0.0020887739461919641 0 0.028383416179747736 0.0020887739461919641 0 0.028468377774770463 0.0021430850351497107 0 0.028458820030709833 0.0020736944322063324 0 0.028369685231429815 0.0021682697656724387 0 0.028383416179747736 0.0020887739461919641 0 0.028468377774770463 0.0021430850351497107 0 0.028472798288325777 0.002196782998883044 0 0.028369685231429815 0.0021682697656724387 0 0.028468377774770463 0.0021430850351497107 0 0.028472798288325777 0.002196782998883044 0 0.028561555600682079 0.0022183041548873013 0 0.028468377774770463 0.0021430850351497107 0 0.028561555600682079 0.0022183041548873013 0 0.028468377774770463 0.0021430850351497107 0 0.028581227573247287 0.0021269333637946408 0 0.028561555600682079 0.0022183041548873013 0 0.02864145269067582 0.002291745485707737 0 0.028670971904832351 0.0022344285112308642 0 0.028561555600682079 0.0022183041548873013 0 0.028670971904832351 0.0022344285112308642 0 0.028581227573247287 0.0021269333637946408 0 0.02864145269067582 0.002291745485707737 0 0.028670971904832351 0.0022344285112308642 0 0.028806964069595521 0.00232375076861382 0 0.028670971904832351 0.0022344285112308642 0 0.028755041533776522 0.002186653255854138 0 0.028806964069595521 0.00232375076861382 0 0.028670971904832351 0.0022344285112308642 0 0.028755041533776522 0.002186653255854138 0 0.028581227573247287 0.0021269333637946408 0 0.028755041533776522 0.002186653255854138 0 0.028723054149818072 0.0020600285023265248 0 0.028581227573247287 0.0021269333637946408 0 0.028723054149818072 0.0020600285023265248 0 0.028581227573247287 0.0021269333637946408 0 0.028590519514954366 0.0019982534888604137 0 0.028755041533776522 0.002186653255854138 0 0.028723054149818072 0.0020600285023265248 0 0.028967541650700049 0.0021372870005990567 0 0.028468377774770463 0.0021430850351497107 0 0.028458820030709833 0.0020736944322063324 0 0.028581227573247287 0.0021269333637946408 0 0.028581227573247287 0.0021269333637946408 0 0.028499694280400476 0.0020235965553516452 0 0.028590519514954366 0.0019982534888604137 0 0.028458820030709833 0.0020736944322063324 0 0.028499694280400476 0.0020235965553516452 0 0.028432426725862513 0.0019817411414764998 0 0.028458820030709833 0.0020736944322063324 0 0.028581227573247287 0.0021269333637946408 0 0.028499694280400476 0.0020235965553516452 0 0.028499694280400476 0.0020235965553516452 0 0.028496254877293944 0.0019392992649732408 0 0.028432426725862513 0.0019817411414764998 0 0.028496254877293944 0.0019392992649732408 0 0.028439601246206425 0.0019037623371136428 0 0.028432426725862513 0.0019817411414764998 0 0.028499694280400476 0.0020235965553516452 0 0.028496254877293944 0.0019392992649732408 0 0.028590519514954366 0.0019982534888604137 0 0.028496254877293944 0.0019392992649732408 0 0.028590519514954366 0.0019982534888604137 0 0.028582583201671154 0.0018712918648222396 0 0.028582583201671154 0.0018712918648222396 0 0.028497617988443972 0.0018296897936297852 0 0.028553173318500991 0.0017192209386697533 0 0.028496254877293944 0.0019392992649732408 0 0.028582583201671154 0.0018712918648222396 0 0.028497617988443972 0.0018296897936297852 0 0.028582583201671154 0.0018712918648222396 0 0.028662501952221708 0.0017668366277044428 0 0.028553173318500991 0.0017192209386697533 0 0.028496254877293944 0.0019392992649732408 0 0.028497617988443972 0.0018296897936297852 0 0.028439601246206425 0.0019037623371136428 0 0.028497617988443972 0.0018296897936297852 0 0.028439601246206425 0.0019037623371136428 0 0.028432970229291588 0.0018262317469160099 0 0.028723054149818072 0.0020600285023265248 0 0.028708662056333337 0.0018968349749225056 0 0.02888662131286468 0.0019228662337931804 0 0.028723054149818072 0.0020600285023265248 0 0.02888662131286468 0.0019228662337931804 0 0.028967541650700049 0.0021372870005990567 0 0.028590519514954366 0.0019982534888604137 0 0.028582583201671154 0.0018712918648222396 0 0.028708662056333337 0.0018968349749225056 0 0.028723054149818072 0.0020600285023265248 0 0.028590519514954366 0.0019982534888604137 0 0.028708662056333337 0.0018968349749225056 0 0.028582583201671154 0.0018712918648222396 0 0.028708662056333337 0.0018968349749225056 0 0.028662501952221708 0.0017668366277044428 0 0.028708662056333337 0.0018968349749225056 0 0.028784697541238941 0.0017507450503655754 0 0.028662501952221708 0.0017668366277044428 0 0.028708662056333337 0.0018968349749225056 0 0.02888662131286468 0.0019228662337931804 0 0.028784697541238941 0.0017507450503655754 0 0.02888662131286468 0.0019228662337931804 0 0.028784697541238941 0.0017507450503655754 0 0.029004401738927033 0.0016960825268697302 0 0.028811009651147433 0.0015106253013427021 0 0.028534909734863265 0.0015668877084208054 0 0.029003082027136032 0.0011804239746538712 0 0.028252668433231078 0.0015762260359270979 0 0.029101695349948269 0.0012153060646868292 0 0.028714443796271468 0.0013278063701403725 0 0.028641406059722471 0.0014169401987743583 0 0.029003082027136032 0.0011804239746538712 0 0.028811009651147433 0.0015106253013427021 0 0.029156783268444206 0.0014537635186552358 0 0.029004401738927033 0.0016960825268697302 0 0.028784697541238941 0.0017507450503655754 0 0.028811009651147433 0.0015106253013427021 0 0.029004401738927033 0.0016960825268697302 0 0.028784697541238941 0.0017507450503655754 0 0.028667155589275073 0.0016494594707452527 0 0.028811009651147433 0.0015106253013427021 0 0.028784697541238941 0.0017507450503655754 0 0.028662501952221708 0.0017668366277044428 0 0.028667155589275073 0.0016494594707452527 0 0.028662501952221708 0.0017668366277044428 0 0.028667155589275073 0.0016494594707452527 0 0.028553173318500991 0.0017192209386697533 0 0.028667155589275073 0.0016494594707452527 0 0.028811009651147433 0.0015106253013427021 0 0.028534909734863265 0.0015668877084208054 0 0.028811009651147433 0.0015106253013427021 0 0.029003082027136032 0.0011804239746538712 0 0.029156783268444206 0.0014537635186552358 0 0.031123113937938731 0.00046779458578571703 0 0.030252615491626608 0.00099598494911163097 0 0.028714443796271468 0.0013278063701403725 0 0.028641406059722471 0.0014169401987743583 0 0.02837374731772898 0.0015929916092013033 0 0.033120234421045627 -0.00023455713560050268 0 0.033616298495164905 -0.00017167039504932215 0 0.034067452340278338 -0.00034114064609059149 0 0.028484428506326247 0.0017065600471675123 0 0.028534909734863265 0.0015668877084208054 0 0.02839829184432744 0.00179627767334944 0 0.028252668433231078 0.0015762260359270979 0 0.030252615491626608 0.00099598494911163097 0 0.028484428506326247 0.0017065600471675123 0 0.028471619234858712 0.0017610761401900569 0 0.02839829184432744 0.00179627767334944 0 0.028484428506326247 0.0017065600471675123 0 0.028471619234858712 0.0017610761401900569 0 0.028553173318500991 0.0017192209386697533 0 0.028497617988443972 0.0018296897936297852 0 0.028471619234858712 0.0017610761401900569 0 0.028432970229291588 0.0018262317469160099 0 0.028497617988443972 0.0018296897936297852 0 0.028471619234858712 0.0017610761401900569 0 0.028553173318500991 0.0017192209386697533 0 0.028667155589275073 0.0016494594707452527 0 0.028553173318500991 0.0017192209386697533 0 0.028534909734863265 0.0015668877084208054 0 0.028484428506326247 0.0017065600471675123 0 0.028553173318500991 0.0017192209386697533 0 0.028534909734863265 0.0015668877084208054 0 0.033120234421045627 -0.00023455713560050268 0 0.033616298495164905 -0.00017167039504932215 0 0.033362158634742484 -0.00010841112703972931 0 0.033616298495164905 -0.00017167039504932215 0 0.033801828491695954 -9.5111244923832468e-05 0 0.03396964892680384 -0.00017007007721665083 0 0.033616298495164905 -0.00017167039504932215 0 0.03396964892680384 -0.00017007007721665083 0 0.034067452340278338 -0.00034114064609059149 0 0.03396964892680384 -0.00017007007721665083 0 0.034205133513649295 -0.00015689468788776653 0 0.034149727541261249 -5.2634407102094822e-06 0 0.03396964892680384 -0.00017007007721665083 0 0.034205133513649295 -0.00015689468788776653 0 0.034067452340278338 -0.00034114064609059149 0 0.034205133513649295 -0.00015689468788776653 0 0.034067452340278338 -0.00034114064609059149 0 0.034447201234280356 -0.00015209397552597525 0 0.034355391975522627 -5.803611981079554e-05 0 0.034205133513649295 -0.00015689468788776653 0 0.034447201234280356 -0.00015209397552597525 0 0.034355391975522627 -5.803611981079554e-05 0 0.034205133513649295 -0.00015689468788776653 0 0.034149727541261249 -5.2634407102094822e-06 0 0.034297684434583205 -0.00030355146647268068 0 0.034067452340278338 -0.00034114064609059149 0 0.034447201234280356 -0.00015209397552597525 0 0.02838138121513897 0.0018544284502540907 0 0.028395769718405232 0.0018513803861754628 0 0.028382131871955613 0.0019029868179463853 0 0.031226310191766665 0.00081206484915348931 0 0.030252615491626608 0.00099598494911163097 0 0.028471619234858712 0.0017610761401900569 0 0.02839829184432744 0.00179627767334944 0 0.028432970229291588 0.0018262317469160099 0 0.02838138121513897 0.0018544284502540907 0 0.02839829184432744 0.00179627767334944 0 0.028395769718405232 0.0018513803861754628 0 0.02839829184432744 0.00179627767334944 0 0.028395769718405232 0.0018513803861754628 0 0.028432970229291588 0.0018262317469160099 0 0.028395769718405232 0.0018513803861754628 0 0.028432970229291588 0.0018262317469160099 0 0.02840751035008621 0.0018785420091089152 0 0.028439601246206425 0.0019037623371136428 0 0.028432970229291588 0.0018262317469160099 0 0.02840751035008621 0.0018785420091089152 0 0.028439601246206425 0.0019037623371136428 0 0.02840751035008621 0.0018785420091089152 0 0.028396711687999392 0.001933367589039111 0 0.02840751035008621 0.0018785420091089152 0 0.028382131871955613 0.0019029868179463853 0 0.028396711687999392 0.001933367589039111 0 0.028395769718405232 0.0018513803861754628 0 0.02840751035008621 0.0018785420091089152 0 0.028382131871955613 0.0019029868179463853 0 0.028382131871955613 0.0019029868179463853 0 0.028371070339084602 0.0019487070924872171 0 0.02836748414908348 0.0019419178680121897 0 0.02838138121513897 0.0018544284502540907 0 0.028382131871955613 0.0019029868179463853 0 0.02836748414908348 0.0019419178680121897 0 0.028382131871955613 0.0019029868179463853 0 0.028371070339084602 0.0019487070924872171 0 0.028396711687999392 0.001933367589039111 0 0.028371070339084602 0.0019487070924872171 0 0.028375054160752505 0.0019825274218948606 0 0.028396711687999392 0.001933367589039111 0 0.028439601246206425 0.0019037623371136428 0 0.028432426725862513 0.0019817411414764998 0 0.028396711687999392 0.001933367589039111 0 0.028375054160752505 0.0019825274218948606 0 0.028432426725862513 0.0019817411414764998 0 0.028396711687999392 0.001933367589039111 0 0.028363635741759454 0.0020002623252426198 0 0.028356081214621617 0.001976900958842761 0 0.028368445483575255 0.0019883689317802566 0 0.028371070339084602 0.0019487070924872171 0 0.028375054160752505 0.0019825274218948606 0 0.028356081214621617 0.001976900958842761 0 0.028371070339084602 0.0019487070924872171 0 0.028356081214621617 0.001976900958842761 0 0.02836748414908348 0.0019419178680121897 0 0.028356081214621617 0.001976900958842761 0 0.02836748414908348 0.0019419178680121897 0 0.028368445483575255 0.0019883689317802566 0 0.031226310191766665 0.00081206484915348931 0 0.031519530377695969 0.00097961977415182352 0 0.034297684434583205 -0.00030355146647268068 0 0.034624304216861031 4.8391172088818516e-06 0 0.034447201234280356 -0.00015209397552597525 0 0.02838138121513897 0.0018544284502540907 0 0.02836748414908348 0.0019419178680121897 0 0.028368445483575255 0.0019883689317802566 0 0.034624304216861031 4.8391172088818516e-06 0 0.034447201234280356 -0.00015209397552597525 0 0.034608456015682409 -3.2673848283676264e-05 0 0.034447201234280356 -0.00015209397552597525 0 0.034567891229076622 -5.1160992996918373e-05 0 0.034608456015682409 -3.2673848283676264e-05 0 0.034567891229076622 -5.1160992996918373e-05 0 0.034490895984560399 -7.8236011938568773e-05 0 0.034584948454709441 -1.2188860022964525e-05 0 0.034355391975522627 -5.803611981079554e-05 0 0.034490895984560399 -7.8236011938568773e-05 0 0.034584948454709441 -1.2188860022964525e-05 0 0.034355391975522627 -5.803611981079554e-05 0 0.034447201234280356 -0.00015209397552597525 0 0.034490895984560399 -7.8236011938568773e-05 0 0.034447201234280356 -0.00015209397552597525 0 0.034567891229076622 -5.1160992996918373e-05 0 0.034490895984560399 -7.8236011938568773e-05 0 0.034567891229076622 -5.1160992996918373e-05 0 0.034608456015682409 -3.2673848283676264e-05 0 0.034609868465421433 -6.5483901778080021e-05 0 0.034613755590197109 -4.7083604061773037e-05 0 0.034737970114379069 -5.1793109838004818e-05 0 0.034641205571137514 -0.00011920130401096853 0 0.034633945350746542 -0.00014503012310716488 0 0.034609868465421433 -6.5483901778080021e-05 0 0.034584948454709441 -1.2188860022964525e-05 0 0.034821148538969941 9.231110270197166e-05 0 0.034772350888597564 8.7549401503818377e-05 0 0.034567891229076622 -5.1160992996918373e-05 0 0.034625671083416236 -9.9875790699789716e-05 0 0.034731380044016373 -0.00019687366459459238 0 0.034567891229076622 -5.1160992996918373e-05 0 0.034625671083416236 -9.9875790699789716e-05 0 0.034609868465421433 -6.5483901778080021e-05 0 0.034567891229076622 -5.1160992996918373e-05 0 0.034584948454709441 -1.2188860022964525e-05 0 0.034772350888597564 8.7549401503818377e-05 0 0.034625671083416236 -9.9875790699789716e-05 0 0.034641205571137514 -0.00011920130401096853 0 0.034609868465421433 -6.5483901778080021e-05 0 0.034641205571137514 -0.00011920130401096853 0 0.034731380044016373 -0.00019687366459459238 0 0.034633945350746542 -0.00014503012310716488 0 0.034625671083416236 -9.9875790699789716e-05 0 0.034641205571137514 -0.00011920130401096853 0 0.034731380044016373 -0.00019687366459459238 0 0.034584948454709441 -1.2188860022964525e-05 0 0.034260271742303061 0.00016029042624020903 0 0.034179160245652616 0.00061107755213825224 0 0.034595076896696907 1.1622444154645803e-05 0 0.034515720665823708 0.00030347391747470451 0 0.033928972390402504 3.0983786509401733e-05 0 0.034149727541261249 -5.2634407102094822e-06 0 0.034035549893546908 0.00028918493050595072 0 0.033801828491695954 -9.5111244923832468e-05 0 0.03396964892680384 -0.00017007007721665083 0 0.033928972390402504 3.0983786509401733e-05 0 0.03396964892680384 -0.00017007007721665083 0 0.033928972390402504 3.0983786509401733e-05 0 0.034149727541261249 -5.2634407102094822e-06 0 0.034355391975522627 -5.803611981079554e-05 0 0.034584948454709441 -1.2188860022964525e-05 0 0.034260271742303061 0.00016029042624020903 0 0.034260271742303061 0.00016029042624020903 0 0.034149727541261249 -5.2634407102094822e-06 0 0.034035549893546908 0.00028918493050595072 0 0.034355391975522627 -5.803611981079554e-05 0 0.034260271742303061 0.00016029042624020903 0 0.034149727541261249 -5.2634407102094822e-06 0 0.034260271742303061 0.00016029042624020903 0 0.034035549893546908 0.00028918493050595072 0 0.034179160245652616 0.00061107755213825224 0 0.033928972390402504 3.0983786509401733e-05 0 0.034035549893546908 0.00028918493050595072 0 0.033768322618514014 0.0001908271795702623 0 0.034035549893546908 0.00028918493050595072 0 0.033807827196641257 0.00040990421173467601 0 0.033768322618514014 0.0001908271795702623 0 0.034515720665823708 0.00030347391747470451 0 0.034338864569905751 0.00077150882271849203 0 0.033896089425565636 0.00065044444400736486 0 0.033841879917747758 0.0012710414369905031 0 0.033630524387518457 0.0006929807954240999 0 0.033896089425565636 0.00065044444400736486 0 0.034179160245652616 0.00061107755213825224 0 0.033841879917747758 0.0012710414369905031 0 0.034035549893546908 0.00028918493050595072 0 0.033896089425565636 0.00065044444400736486 0 0.034179160245652616 0.00061107755213825224 0 0.034035549893546908 0.00028918493050595072 0 0.033807827196641257 0.00040990421173467601 0 0.033896089425565636 0.00065044444400736486 0 0.034821148538969941 9.231110270197166e-05 0 0.034772350888597564 8.7549401503818377e-05 0 0.034885781163380307 3.4594281340444751e-05 0 0.034731380044016373 -0.00019687366459459238 0 0.034809488387803678 -0.00016785297746811287 0 0.034708972552374082 -0.0002420758776205618 0 0.034737970114379069 -5.1793109838004818e-05 0 0.03485853268101053 -4.7396356544533614e-05 0 0.034731380044016373 -0.00019687366459459238 0 0.034708972552374082 -0.0002420758776205618 0 0.034633945350746542 -0.00014503012310716488 0 0.034731380044016373 -0.00019687366459459238 0 0.034809488387803678 -0.00016785297746811287 0 0.034817221547140113 -0.00012701111645078652 0 0.034809488387803678 -0.00016785297746811287 0 0.034817221547140113 -0.00012701111645078652 0 0.034895797354618438 -7.9847168308715499e-05 0 0.034885781163380307 3.4594281340444751e-05 0 0.034953231503834441 3.8832182223814268e-05 0 0.034973983363375247 9.864147939100966e-06 0 0.034821148538969941 9.231110270197166e-05 0 0.034885781163380307 3.4594281340444751e-05 0 0.034953231503834441 3.8832182223814268e-05 0 0.034885781163380307 3.4594281340444751e-05 0 0.034973983363375247 9.864147939100966e-06 0 0.034999830974148785 -3.0719789637903681e-09 0 0.034973983363375247 9.864147939100966e-06 0 0.034999830974148785 -3.0719789637903681e-09 0 0.035002683242872881 7.1642974362661195e-09 0 0.034953231503834441 3.8832182223814268e-05 0 0.034973983363375247 9.864147939100966e-06 0 0.035006467305425698 3.2583516585637104e-06 0 0.034817221547140113 -0.00012701111645078652 0 0.034999615708880896 -3.8268586523078642e-08 0 0.034895797354618438 -7.9847168308715499e-05 0 0.03485853268101053 -4.7396356544533614e-05 0 0.034999930084528674 -2.9262276257597102e-08 0 0.034999615708880896 -3.8268586523078642e-08 0 0.034895797354618438 -7.9847168308715499e-05 0 0.034960682596108912 -3.0203422930392614e-05 0 0.033815277782749571 0.00080472632919378114 0 0.034570251030904858 0.00043148328028965583 0 0.032715171209498947 0.0014969813009792195 0 0.033512621322386194 0.0019928761924176285 0 0.03331740571397062 0.0014552549884268332 0 0.034981093806113563 1.0274705330921768e-05 0 0.035000058046388359 -6.9916475074767894e-08 0 0.034999818928348005 1.6238562044621522e-07 0 0.033841879917747758 0.0012710414369905031 0 0.033512621322386194 0.0019928761924176285 0 0.03331740571397062 0.0014552549884268332 0 0.034981093806113563 1.0274705330921768e-05 0 0.035000058046388359 -6.9916475074767894e-08 0 0.034999486219534359 1.4764404544291911e-07 0 0.034338864569905751 0.00077150882271849203 0 0.034570251030904858 0.00043148328028965583 0 0.03499866026712381 7.0139444313944198e-07 0 0.034570251030904858 0.00043148328028965583 0 0.034973983363375247 9.864147939100966e-06 0 0.035002683242872881 7.1642974362661195e-09 0 0.035006467305425698 3.2583516585637104e-06 0 0.034999998074840624 1.9956414702404698e-11 0 0.035002670336952098 4.1530366453332568e-10 0 0.035000081565257746 -9.8850536674126725e-07 0 0.035001735312404622 1.1871143035871075e-06 0 0.034570251030904858 0.00043148328028965583 0 0.033841879917747758 0.0012710414369905031 0 0.03331740571397062 0.0014552549884268332 0 0.033236210858483932 0.00099688825508910698 0 0.033841879917747758 0.0012710414369905031 0 0.033236210858483932 0.00099688825508910698 0 0.033630524387518457 0.0006929807954240999 0 0.032715171209498947 0.0014969813009792195 0 0.03331740571397062 0.0014552549884268332 0 0.033236210858483932 0.00099688825508910698 0 0.032715171209498947 0.0014969813009792195 0 0.033236210858483932 0.00099688825508910698 0 0.032631006316285169 0.00087557475874040541 0 0.032631006316285169 0.00087557475874040541 0 0.032914447098569305 0.00065402800574536834 0 0.032429364601714035 0.00047557861733624998 0 0.033236210858483932 0.00099688825508910698 0 0.032914447098569305 0.00065402800574536834 0 0.033266050344102266 0.00054702722439169235 0 0.033236210858483932 0.00099688825508910698 0 0.032631006316285169 0.00087557475874040541 0 0.032914447098569305 0.00065402800574536834 0 0.033266050344102266 0.00054702722439169235 0 0.033248009496254199 0.00024606551270778943 0 0.032907551651926444 0.00035962369255925256 0 0.032914447098569305 0.00065402800574536834 0 0.033266050344102266 0.00054702722439169235 0 0.032907551651926444 0.00035962369255925256 0 0.032914447098569305 0.00065402800574536834 0 0.032907551651926444 0.00035962369255925256 0 0.032429364601714035 0.00047557861733624998 0 0.033236210858483932 0.00099688825508910698 0 0.033630524387518457 0.0006929807954240999 0 0.033266050344102266 0.00054702722439169235 0 0.033630524387518457 0.0006929807954240999 0 0.033266050344102266 0.00054702722439169235 0 0.033550342275163521 0.0003691487906051062 0 0.033807827196641257 0.00040990421173467601 0 0.033896089425565636 0.00065044444400736486 0 0.033630524387518457 0.0006929807954240999 0 0.033807827196641257 0.00040990421173467601 0 0.033630524387518457 0.0006929807954240999 0 0.033550342275163521 0.0003691487906051062 0 0.033807827196641257 0.00040990421173467601 0 0.033768322618514014 0.0001908271795702623 0 0.033550342275163521 0.0003691487906051062 0 0.033768322618514014 0.0001908271795702623 0 0.033550342275163521 0.0003691487906051062 0 0.033511958151991927 0.00015557687803966028 0 0.033266050344102266 0.00054702722439169235 0 0.033550342275163521 0.0003691487906051062 0 0.033248009496254199 0.00024606551270778943 0 0.033550342275163521 0.0003691487906051062 0 0.033511958151991927 0.00015557687803966028 0 0.033248009496254199 0.00024606551270778943 0 0.033511958151991927 0.00015557687803966028 0 0.033248009496254199 0.00024606551270778943 0 0.033240894207986711 8.3695812292867705e-06 0 0.033120234421045627 -0.00023455713560050268 0 0.033240894207986711 8.3695812292867705e-06 0 0.033362158634742484 -0.00010841112703972931 0 0.033240894207986711 8.3695812292867705e-06 0 0.033362158634742484 -0.00010841112703972931 0 0.033467876022635457 -3.2387687292820218e-05 0 0.033616298495164905 -0.00017167039504932215 0 0.033362158634742484 -0.00010841112703972931 0 0.033467876022635457 -3.2387687292820218e-05 0 0.033511958151991927 0.00015557687803966028 0 0.033240894207986711 8.3695812292867705e-06 0 0.033467876022635457 -3.2387687292820218e-05 0 0.033511958151991927 0.00015557687803966028 0 0.033467876022635457 -3.2387687292820218e-05 0 0.033683599225856203 1.1956380289563781e-05 0 0.033768322618514014 0.0001908271795702623 0 0.033511958151991927 0.00015557687803966028 0 0.033683599225856203 1.1956380289563781e-05 0 0.033616298495164905 -0.00017167039504932215 0 0.033467876022635457 -3.2387687292820218e-05 0 0.033683599225856203 1.1956380289563781e-05 0 0.033616298495164905 -0.00017167039504932215 0 0.033801828491695954 -9.5111244923832468e-05 0 0.033683599225856203 1.1956380289563781e-05 0 0.033801828491695954 -9.5111244923832468e-05 0 0.033928972390402504 3.0983786509401733e-05 0 0.033683599225856203 1.1956380289563781e-05 0 0.033928972390402504 3.0983786509401733e-05 0 0.033768322618514014 0.0001908271795702623 0 0.033683599225856203 1.1956380289563781e-05 0 0.028714443796271468 0.0013278063701403725 0 0.029003082027136032 0.0011804239746538712 0 0.029218851335201426 0.00084664388505017562 0 0.031123113937938731 0.00046779458578571703 0 0.030731568972691792 0.00048896350585648325 0 0.032630153767096437 0.00020632542223879928 0 0.032911681894612695 6.0061772428520349e-05 0 0.032214389848578981 4.2472940978720713e-05 0 0.033120234421045627 -0.00023455713560050268 0 0.032911681894612695 6.0061772428520349e-05 0 0.032214389848578981 4.2472940978720713e-05 0 0.032630153767096437 0.00020632542223879928 0 0.032907551651926444 0.00035962369255925256 0 0.032911681894612695 6.0061772428520349e-05 0 0.032630153767096437 0.00020632542223879928 0 0.032907551651926444 0.00035962369255925256 0 0.032429364601714035 0.00047557861733624998 0 0.033248009496254199 0.00024606551270778943 0 0.032907551651926444 0.00035962369255925256 0 0.032911681894612695 6.0061772428520349e-05 0 0.033248009496254199 0.00024606551270778943 0 0.033240894207986711 8.3695812292867705e-06 0 0.032911681894612695 6.0061772428520349e-05 0 0.033120234421045627 -0.00023455713560050268 0 0.033240894207986711 8.3695812292867705e-06 0 0.032911681894612695 6.0061772428520349e-05 0 0.029003082027136032 0.0011804239746538712 0 0.029218851335201426 0.00084664388505017562 0 0.029156783268444206 0.0014537635186552358 0 0.029218851335201426 0.00084664388505017562 0 0.030289437550914837 0.0011556716332506596 0 0.029574570928679152 0.0013540284407381675 0 0.032214389848578981 4.2472940978720713e-05 0 0.032429364601714035 0.00047557861733624998 0 0.03200349084030682 0.00043044369171021094 0 0.032630153767096437 0.00020632542223879928 0 0.032214389848578981 4.2472940978720713e-05 0 0.032429364601714035 0.00047557861733624998 0 0.030731568972691792 0.00048896350585648325 0 0.031486185597377946 0.00035490682584225156 0 0.032214389848578981 4.2472940978720713e-05 0 0.03200349084030682 0.00043044369171021094 0 0.031569960787698477 0.00038536024967248333 0 0.029218851335201426 0.00084664388505017562 0 0.030600992447284089 0.00086535045806308006 0 0.031569960787698477 0.00038536024967248333 0 0.030600992447284089 0.00086535045806308006 0 0.030289437550914837 0.0011556716332506596 0 0.031064042264833485 0.00098061616349353459 0 0.030289437550914837 0.0011556716332506596 0 0.031064042264833485 0.00098061616349353459 0 0.030477151104131437 0.0013397104239148364 0 0.029218851335201426 0.00084664388505017562 0 0.030600992447284089 0.00086535045806308006 0 0.030289437550914837 0.0011556716332506596 0 0.030600992447284089 0.00086535045806308006 0 0.031569960787698477 0.00038536024967248333 0 0.031064042264833485 0.00098061616349353459 0 0.03200349084030682 0.00043044369171021094 0 0.031867914509931448 0.00079327946110197911 0 0.031569960787698477 0.00038536024967248333 0 0.034476576291538726 -0.00012192016542664848 0 0.033714454825655334 0.00015110446324971763 0 0.032237103759754943 0.00019612639046194313 0 0.031867914509931448 0.00079327946110197911 0 0.032237103759754943 0.00019612639046194313 0 0.031569960787698477 0.00038536024967248333 0 0.033191148793563253 0.00039563248253050859 0 0.032441703395425084 0.00022620810451464443 0 0.032631006316285169 0.00087557475874040541 0 0.032429364601714035 0.00047557861733624998 0 0.031867914509931448 0.00079327946110197911 0 0.032429364601714035 0.00047557861733624998 0 0.03200349084030682 0.00043044369171021094 0 0.031867914509931448 0.00079327946110197911 0 0.033815277782749571 0.00080472632919378114 0 0.033191148793563253 0.00039563248253050859 0 0.032715171209498947 0.0014969813009792195 0 0.032631006316285169 0.00087557475874040541 0 0.031867914509931448 0.00079327946110197911 0 0.034981093806113563 1.0274705330921768e-05 0 0.034476576291538726 -0.00012192016542664848 0 0.03465940883756588 0.00010987658543819201 0 0.034476576291538726 -0.00012192016542664848 0 0.03465940883756588 0.00010987658543819201 0 0.033714454825655334 0.00015110446324971763 0 0.03465940883756588 0.00010987658543819201 0 0.034998430375481608 2.9830531720553247e-07 0 0.033714454825655334 0.00015110446324971763 0 0.03465940883756588 0.00010987658543819201 0 0.034999818928348005 1.6238562044621522e-07 0 0.034998430375481608 2.9830531720553247e-07 0 0.034981093806113563 1.0274705330921768e-05 0 0.03465940883756588 0.00010987658543819201 0 0.034999818928348005 1.6238562044621522e-07 0 0.033910320698900459 0.00014172741666239224 0 0.033403603171655964 0.0002347859399346053 0 0.034998309151283442 3.920779770142629e-08 0 0.034998430375481608 2.9830531720553247e-07 0 0.033910320698900459 0.00014172741666239224 0 0.034998309151283442 3.920779770142629e-08 0 0.034998430375481608 2.9830531720553247e-07 0 0.033714454825655334 0.00015110446324971763 0 0.033910320698900459 0.00014172741666239224 0 0.033714454825655334 0.00015110446324971763 0 0.033910320698900459 0.00014172741666239224 0 0.032898355877047473 0.00022127580662425355 0 0.033910320698900459 0.00014172741666239224 0 0.033403603171655964 0.0002347859399346053 0 0.032898355877047473 0.00022127580662425355 0 0.033403603171655964 0.0002347859399346053 0 0.032898355877047473 0.00022127580662425355 0 0.032506944450527514 0.00048412549147244815 0 0.032898355877047473 0.00022127580662425355 0 0.032506944450527514 0.00048412549147244815 0 0.032110066530209085 0.00053750416096848611 0 0.033714454825655334 0.00015110446324971763 0 0.032898355877047473 0.00022127580662425355 0 0.032237103759754943 0.00019612639046194313 0 0.032237103759754943 0.00019612639046194313 0 0.031722954715770128 0.00059776216786947174 0 0.032110066530209085 0.00053750416096848611 0 0.032898355877047473 0.00022127580662425355 0 0.032237103759754943 0.00019612639046194313 0 0.032110066530209085 0.00053750416096848611 0 0.032237103759754943 0.00019612639046194313 0 0.031722954715770128 0.00059776216786947174 0 0.031569960787698477 0.00038536024967248333 0 0.031722954715770128 0.00059776216786947174 0 0.031569960787698477 0.00038536024967248333 0 0.031064042264833485 0.00098061616349353459 0 0.031722954715770128 0.00059776216786947174 0 0.031507401748535183 0.00090990883171808174 0 0.032110066530209085 0.00053750416096848611 0 0.031722954715770128 0.00059776216786947174 0 0.031507401748535183 0.00090990883171808174 0 0.031064042264833485 0.00098061616349353459 0 0.031507401748535183 0.00090990883171808174 0 0.031064042264833485 0.00098061616349353459 0 0.030726795728036355 0.0013705874801395756 0 0.032506944450527514 0.00048412549147244815 0 0.031774161459369697 0.00091528802097610637 0 0.032270615491775505 0.00072763348703354413 0 0.032506944450527514 0.00048412549147244815 0 0.032110066530209085 0.00053750416096848611 0 0.031774161459369697 0.00091528802097610637 0 0.031507401748535183 0.00090990883171808174 0 0.032110066530209085 0.00053750416096848611 0 0.031774161459369697 0.00091528802097610637 0 0.031507401748535183 0.00090990883171808174 0 0.031774161459369697 0.00091528802097610637 0 0.031134005435231305 0.001229103167533781 0 0.031774161459369697 0.00091528802097610637 0 0.031013277856320912 0.0013857014333123064 0 0.031401895572737322 0.0011969452500023552 0 0.031013277856320912 0.0013857014333123064 0 0.031134005435231305 0.001229103167533781 0 0.030583595581228744 0.0015875283921224629 0 0.031774161459369697 0.00091528802097610637 0 0.031013277856320912 0.0013857014333123064 0 0.031134005435231305 0.001229103167533781 0 0.031013277856320912 0.0013857014333123064 0 0.030324579756155958 0.0018076650173668087 0 0.030583595581228744 0.0015875283921224629 0 0.031013277856320912 0.0013857014333123064 0 0.030324579756155958 0.0018076650173668087 0 0.030840985382390329 0.0015626631934759381 0 0.030324579756155958 0.0018076650173668087 0 0.030030450761270797 0.0019158580007201294 0 0.030583595581228744 0.0015875283921224629 0 0.030324579756155958 0.0018076650173668087 0 0.030030450761270797 0.0019158580007201294 0 0.029693904783564234 0.0021353504706851942 0 0.030324579756155958 0.0018076650173668087 0 0.029693904783564234 0.0021353504706851942 0 0.029757765332768152 0.0021533315523777864 0 0.030030450761270797 0.0019158580007201294 0 0.029638655753319934 0.0020171835206487226 0 0.029326507687962147 0.0022791170154640283 0 0.030030450761270797 0.0019158580007201294 0 0.029693904783564234 0.0021353504706851942 0 0.029326507687962147 0.0022791170154640283 0 0.030030450761270797 0.0019158580007201294 0 0.030193949323454195 0.0017328956511646221 0 0.030583595581228744 0.0015875283921224629 0 0.030030450761270797 0.0019158580007201294 0 0.030193949323454195 0.0017328956511646221 0 0.029638655753319934 0.0020171835206487226 0 0.030193949323454195 0.0017328956511646221 0 0.030056850825583049 0.0016564424404347437 0 0.029638655753319934 0.0020171835206487226 0 0.030193949323454195 0.0017328956511646221 0 0.030726795728036355 0.0013705874801395756 0 0.030056850825583049 0.0016564424404347437 0 0.030193949323454195 0.0017328956511646221 0 0.030583595581228744 0.0015875283921224629 0 0.030726795728036355 0.0013705874801395756 0 0.031134005435231305 0.001229103167533781 0 0.030583595581228744 0.0015875283921224629 0 0.030726795728036355 0.0013705874801395756 0 0.031507401748535183 0.00090990883171808174 0 0.031134005435231305 0.001229103167533781 0 0.030726795728036355 0.0013705874801395756 0 0.031064042264833485 0.00098061616349353459 0 0.030726795728036355 0.0013705874801395756 0 0.030477151104131437 0.0013397104239148364 0 0.030726795728036355 0.0013705874801395756 0 0.030477151104131437 0.0013397104239148364 0 0.030056850825583049 0.0016564424404347437 0 0.030477151104131437 0.0013397104239148364 0 0.029926739086302865 0.0014923370769656537 0 0.030056850825583049 0.0016564424404347437 0 0.030289437550914837 0.0011556716332506596 0 0.030477151104131437 0.0013397104239148364 0 0.029926739086302865 0.0014923370769656537 0 0.030289437550914837 0.0011556716332506596 0 0.029926739086302865 0.0014923370769656537 0 0.029574570928679152 0.0013540284407381675 0 0.029926739086302865 0.0014923370769656537 0 0.029407192216497551 0.0016160650196204666 0 0.029559722890310641 0.0018434614463897141 0 0.029926739086302865 0.0014923370769656537 0 0.030056850825583049 0.0016564424404347437 0 0.029559722890310641 0.0018434614463897141 0 0.029218851335201426 0.00084664388505017562 0 0.029156783268444206 0.0014537635186552358 0 0.029574570928679152 0.0013540284407381675 0 0.029926739086302865 0.0014923370769656537 0 0.029574570928679152 0.0013540284407381675 0 0.029407192216497551 0.0016160650196204666 0 0.029156783268444206 0.0014537635186552358 0 0.029574570928679152 0.0013540284407381675 0 0.029407192216497551 0.0016160650196204666 0 0.029407192216497551 0.0016160650196204666 0 0.029004401738927033 0.0016960825268697302 0 0.029175692649794652 0.0019109663169163363 0 0.029156783268444206 0.0014537635186552358 0 0.029407192216497551 0.0016160650196204666 0 0.029004401738927033 0.0016960825268697302 0 0.02888662131286468 0.0019228662337931804 0 0.029004401738927033 0.0016960825268697302 0 0.029175692649794652 0.0019109663169163363 0 0.029407192216497551 0.0016160650196204666 0 0.029175692649794652 0.0019109663169163363 0 0.029559722890310641 0.0018434614463897141 0 0.029175692649794652 0.0019109663169163363 0 0.029559722890310641 0.0018434614463897141 0 0.029268180671471508 0.0020731298164101603 0 0.029175692649794652 0.0019109663169163363 0 0.029268180671471508 0.0020731298164101603 0 0.028967541650700049 0.0021372870005990567 0 0.02888662131286468 0.0019228662337931804 0 0.029175692649794652 0.0019109663169163363 0 0.028967541650700049 0.0021372870005990567 0 0.030056850825583049 0.0016564424404347437 0 0.029559722890310641 0.0018434614463897141 0 0.029638655753319934 0.0020171835206487226 0 0.029559722890310641 0.0018434614463897141 0 0.029268180671471508 0.0020731298164101603 0 0.029638655753319934 0.0020171835206487226 0 0.029268180671471508 0.0020731298164101603 0 0.029638655753319934 0.0020171835206487226 0 0.029103845339111083 0.0022825768765668579 0 0.029103845339111083 0.0022825768765668579 0 0.028780266042861373 0.0024644863939906505 0 0.029326507687962147 0.0022791170154640283 0 0.029638655753319934 0.0020171835206487226 0 0.029103845339111083 0.0022825768765668579 0 0.029326507687962147 0.0022791170154640283 0 0.029103845339111083 0.0022825768765668579 0 0.028967541650700049 0.0021372870005990567 0 0.028806964069595521 0.00232375076861382 0 0.029268180671471508 0.0020731298164101603 0 0.029103845339111083 0.0022825768765668579 0 0.028967541650700049 0.0021372870005990567 0 0.028755041533776522 0.002186653255854138 0 0.028967541650700049 0.0021372870005990567 0 0.028806964069595521 0.00232375076861382 0 0.028639718119831511 0.0023729258321082726 0 0.02864145269067582 0.002291745485707737 0 0.028806964069595521 0.00232375076861382 0 0.028639718119831511 0.0023729258321082726 0 0.028806964069595521 0.00232375076861382 0 0.028780266042861373 0.0024644863939906505 0 0.029103845339111083 0.0022825768765668579 0 0.028806964069595521 0.00232375076861382 0 0.028780266042861373 0.0024644863939906505 0 0.028188897583974633 0.0025330287541457264 0 0.028780266042861373 0.0024644863939906505 0 0.028805386211700982 0.0024767080643874847 0 0.028780266042861373 0.0024644863939906505 0 0.028805386211700982 0.0024767080643874847 0 0.029326507687962147 0.0022791170154640283 0 0.028188897583974633 0.0025330287541457264 0 0.028805386211700982 0.0024767080643874847 0 0.028458448164881734 0.0025896054151000893 0 0.028458448164881734 0.0025896054151000893 0 0.029120384114045526 0.002405779293334439 0 0.028933858490246437 0.0025203429341486764 0 0.028805386211700982 0.0024767080643874847 0 0.028458448164881734 0.0025896054151000893 0 0.029120384114045526 0.002405779293334439 0 0.029120384114045526 0.002405779293334439 0 0.029757765332768152 0.0021533315523777864 0 0.028933858490246437 0.0025203429341486764 0 0.029120384114045526 0.002405779293334439 0 0.029693904783564234 0.0021353504706851942 0 0.029757765332768152 0.0021533315523777864 0 0.029120384114045526 0.002405779293334439 0 0.029693904783564234 0.0021353504706851942 0 0.029326507687962147 0.0022791170154640283 0 0.028805386211700982 0.0024767080643874847 0 0.029120384114045526 0.002405779293334439 0 0.029326507687962147 0.0022791170154640283 0 0.029414515364325277 0.002372078178281781 0 0.028697449165662796 0.0026937632377841939 0 0.029403038123820068 0.0025313183632152923 0 0.029414515364325277 0.002372078178281781 0 0.029403038123820068 0.0025313183632152923 0 0.030193819756401351 0.0019700343890149664 0 0.029414515364325277 0.002372078178281781 0 0.029757765332768152 0.0021533315523777864 0 0.028933858490246437 0.0025203429341486764 0 0.029414515364325277 0.002372078178281781 0 0.029757765332768152 0.0021533315523777864 0 0.030193819756401351 0.0019700343890149664 0 0.028036471838884958 0.0027323518312655109 0 0.028933858490246437 0.0025203429341486764 0 0.028697449165662796 0.0026937632377841939 0 0.029414515364325277 0.002372078178281781 0 0.028933858490246437 0.0025203429341486764 0 0.028697449165662796 0.0026937632377841939 0 0.028036471838884958 0.0027323518312655109 0 0.028458448164881734 0.0025896054151000893 0 0.028933858490246437 0.0025203429341486764 0 0.027860785071527037 0.0032379070793951388 0 0.028697449165662796 0.0026937632377841939 0 0.029403038123820068 0.0025313183632152923 0 0.028139008793749771 0.0039055297002006046 0 0.027860785071527037 0.0032379070793951388 0 0.029403038123820068 0.0025313183632152923 0 0.028139008793749771 0.0039055297002006046 0 0.029403038123820068 0.0025313183632152923 0 0.030655873563646279 0.002376483507558699 0 0.029403038123820068 0.0025313183632152923 0 0.031100894842221935 0.0017308082440251572 0 0.030655873563646279 0.002376483507558699 0 0.029403038123820068 0.0025313183632152923 0 0.030848638533021222 0.0016684231977224934 0 0.031100894842221935 0.0017308082440251572 0 0.030848638533021222 0.0016684231977224934 0 0.031100894842221935 0.0017308082440251572 0 0.031844602943651164 0.0012619316749394778 0 0.031100894842221935 0.0017308082440251572 0 0.031844602943651164 0.0012619316749394778 0 0.031763681194055711 0.0015616183327336259 0 0.031844602943651164 0.0012619316749394778 0 0.032488323125609599 0.00087690678323366672 0 0.032661121204115927 0.00090154208681226882 0 0.030848638533021222 0.0016684231977224934 0 0.031844602943651164 0.0012619316749394778 0 0.031668799789079737 0.00121356970055643 0 0.031844602943651164 0.0012619316749394778 0 0.031668799789079737 0.00121356970055643 0 0.032488323125609599 0.00087690678323366672 0 0.030848638533021222 0.0016684231977224934 0 0.031668799789079737 0.00121356970055643 0 0.031044809864002491 0.0014994005663355578 0 0.031668799789079737 0.00121356970055643 0 0.031669722247520134 0.0011447557891601614 0 0.032348401239094875 0.00085064406379602164 0 0.031669722247520134 0.0011447557891601614 0 0.031044809864002491 0.0014994005663355578 0 0.030840985382390329 0.0015626631934759381 0 0.031668799789079737 0.00121356970055643 0 0.031669722247520134 0.0011447557891601614 0 0.031044809864002491 0.0014994005663355578 0 0.029403038123820068 0.0025313183632152923 0 0.030848638533021222 0.0016684231977224934 0 0.030193819756401351 0.0019700343890149664 0 0.030848638533021222 0.0016684231977224934 0 0.031044809864002491 0.0014994005663355578 0 0.030193819756401351 0.0019700343890149664 0 0.031044809864002491 0.0014994005663355578 0 0.030193819756401351 0.0019700343890149664 0 0.030840985382390329 0.0015626631934759381 0 0.029757765332768152 0.0021533315523777864 0 0.030193819756401351 0.0019700343890149664 0 0.030840985382390329 0.0015626631934759381 0 0.030324579756155958 0.0018076650173668087 0 0.029757765332768152 0.0021533315523777864 0 0.030840985382390329 0.0015626631934759381 0 0.031013277856320912 0.0013857014333123064 0 0.030840985382390329 0.0015626631934759381 0 0.031401895572737322 0.0011969452500023552 0 0.031669722247520134 0.0011447557891601614 0 0.030840985382390329 0.0015626631934759381 0 0.031765877943806926 0.001039044338886167 0 0.030840985382390329 0.0015626631934759381 0 0.031401895572737322 0.0011969452500023552 0 0.031765877943806926 0.001039044338886167 0 0.031774161459369697 0.00091528802097610637 0 0.031765877943806926 0.001039044338886167 0 0.032270615491775505 0.00072763348703354413 0 0.031774161459369697 0.00091528802097610637 0 0.031401895572737322 0.0011969452500023552 0 0.031765877943806926 0.001039044338886167 0 0.031765877943806926 0.001039044338886167 0 0.032270615491775505 0.00072763348703354413 0 0.032356535344911674 0.00076685841042440207 0 0.031669722247520134 0.0011447557891601614 0 0.032356535344911674 0.00076685841042440207 0 0.032348401239094875 0.00085064406379602164 0 0.031669722247520134 0.0011447557891601614 0 0.031765877943806926 0.001039044338886167 0 0.032356535344911674 0.00076685841042440207 0 0.032356535344911674 0.00076685841042440207 0 0.032973130735147974 0.000534329986213792 0 0.032348401239094875 0.00085064406379602164 0 0.032973130735147974 0.000534329986213792 0 0.032870493957146092 0.00047950233399096095 0 0.033756539275279454 0.00021860233404590154 0 0.032356535344911674 0.00076685841042440207 0 0.032973130735147974 0.000534329986213792 0 0.032870493957146092 0.00047950233399096095 0 0.032506944450527514 0.00048412549147244815 0 0.032270615491775505 0.00072763348703354413 0 0.032870493957146092 0.00047950233399096095 0 0.032270615491775505 0.00072763348703354413 0 0.032356535344911674 0.00076685841042440207 0 0.032870493957146092 0.00047950233399096095 0 0.033403603171655964 0.0002347859399346053 0 0.032506944450527514 0.00048412549147244815 0 0.032870493957146092 0.00047950233399096095 0 0.033403603171655964 0.0002347859399346053 0 0.033756539275279454 0.00021860233404590154 0 0.034998309151283442 3.920779770142629e-08 0 0.033403603171655964 0.0002347859399346053 0 0.032870493957146092 0.00047950233399096095 0 0.033756539275279454 0.00021860233404590154 0 0.032973130735147974 0.000534329986213792 0 0.033756539275279454 0.00021860233404590154 0 0.033742516204034456 0.00028075913814036232 0 0.033756539275279454 0.00021860233404590154 0 0.034998593551294137 9.1673205560022231e-08 0 0.033742516204034456 0.00028075913814036232 0 0.033756539275279454 0.00021860233404590154 0 0.034998593551294137 9.1673205560022231e-08 0 0.034998309151283442 3.920779770142629e-08 0 0.034998849397235132 9.5261001583201043e-08 0 0.034031659467937452 0.00022357514719376529 0 0.034458751512990105 0.00013034370514595592 0 0.034998593551294137 9.1673205560022231e-08 0 0.034998849397235132 9.5261001583201043e-08 0 0.034031659467937452 0.00022357514719376529 0 0.034998593551294137 9.1673205560022231e-08 0 0.033742516204034456 0.00028075913814036232 0 0.034031659467937452 0.00022357514719376529 0 0.033742516204034456 0.00028075913814036232 0 0.034031659467937452 0.00022357514719376529 0 0.033086056223248624 0.00056330481271362951 0 0.034031659467937452 0.00022357514719376529 0 0.033283617756943662 0.00060224487021447463 0 0.033086056223248624 0.00056330481271362951 0 0.034031659467937452 0.00022357514719376529 0 0.033283617756943662 0.00060224487021447463 0 0.033899927586915055 0.00037074458383926074 0 0.032973130735147974 0.000534329986213792 0 0.033086056223248624 0.00056330481271362951 0 0.032348401239094875 0.00085064406379602164 0 0.032973130735147974 0.000534329986213792 0 0.033742516204034456 0.00028075913814036232 0 0.033086056223248624 0.00056330481271362951 0 0.031668799789079737 0.00121356970055643 0 0.032348401239094875 0.00085064406379602164 0 0.032488323125609599 0.00087690678323366672 0 0.033086056223248624 0.00056330481271362951 0 0.032348401239094875 0.00085064406379602164 0 0.032488323125609599 0.00087690678323366672 0 0.033283617756943662 0.00060224487021447463 0 0.033086056223248624 0.00056330481271362951 0 0.032488323125609599 0.00087690678323366672 0 0.033283617756943662 0.00060224487021447463 0 0.032488323125609599 0.00087690678323366672 0 0.032661121204115927 0.00090154208681226882 0 0.032661121204115927 0.00090154208681226882 0 0.032840656682036867 0.00088057952404093861 0 0.032438531888494528 0.0010924285734815885 0 0.032661121204115927 0.00090154208681226882 0 0.032840656682036867 0.00088057952404093861 0 0.033093522801668419 0.00075491409848750242 0 0.033283617756943662 0.00060224487021447463 0 0.032661121204115927 0.00090154208681226882 0 0.033093522801668419 0.00075491409848750242 0 0.032840656682036867 0.00088057952404093861 0 0.033006942421306855 0.00079730532437550063 0 0.032438531888494528 0.0010924285734815885 0 0.032840656682036867 0.00088057952404093861 0 0.033006942421306855 0.00079730532437550063 0 0.033080052097582739 0.00079997415428433895 0 0.033093522801668419 0.00075491409848750242 0 0.033080052097582739 0.00079997415428433895 0 0.03350994728335209 0.00059376535665880688 0 0.032840656682036867 0.00088057952404093861 0 0.033093522801668419 0.00075491409848750242 0 0.033080052097582739 0.00079997415428433895 0 0.034542904759309837 0.0011598755493690287 0 0.034289253858029722 0.001026874476859344 0 0.034558951653212738 0.00066272463255734543 0 0.030582668558918846 4.6558574166562775e-05 0 0.034099035713458827 0.00050524543342004441 0 0.030582668558918846 4.6558574166562775e-05 0 0.031882553954747206 0.0011630451687866688 0 0.031882553954747206 0.0011630451687866688 0 0.032230787149308153 0.0012296878360490025 0 0.031882553954747206 0.0011630451687866688 0 0.034419299871701906 0.00033233851692395953 0 0.033024858757125963 0.00083211668421431621 0 0.033080052097582739 0.00079997415428433895 0 0.034156294324365774 0.00038279625866979167 0 0.034289253858029722 0.001026874476859344 0 0.034558951653212738 0.00066272463255734543 0 0.034156294324365774 0.00038279625866979167 0 0.033080052097582739 0.00079997415428433895 0 0.03350994728335209 0.00059376535665880688 0 0.034156294324365774 0.00038279625866979167 0 0.033283617756943662 0.00060224487021447463 0 0.033093522801668419 0.00075491409848750242 0 0.03350994728335209 0.00059376535665880688 0 0.03350994728335209 0.00059376535665880688 0 0.033899927586915055 0.00037074458383926074 0 0.034156294324365774 0.00038279625866979167 0 0.033283617756943662 0.00060224487021447463 0 0.03350994728335209 0.00059376535665880688 0 0.033899927586915055 0.00037074458383926074 0 0.034031659467937452 0.00022357514719376529 0 0.033899927586915055 0.00037074458383926074 0 0.034458751512990105 0.00013034370514595592 0 0.033899927586915055 0.00037074458383926074 0 0.034458751512990105 0.00013034370514595592 0 0.034156294324365774 0.00038279625866979167 0 0.034458751512990105 0.00013034370514595592 0 0.034156294324365774 0.00038279625866979167 0 0.034651441623357822 0.00016113655232599119 0 0.034099035713458827 0.00050524543342004441 0 0.034367683830368159 0.00015749361718613499 0 0.034558951653212738 0.00066272463255734543 0 0.034156294324365774 0.00038279625866979167 0 0.034651441623357822 0.00016113655232599119 0 0.034458751512990105 0.00013034370514595592 0 0.034651441623357822 0.00016113655232599119 0 0.034999585502149461 -5.6706258735463787e-08 0 0.034367683830368159 0.00015749361718613499 0 0.034999681125863602 1.6302434127972028e-07 0 0.034998849397235132 9.5261001583201043e-08 0 0.034458751512990105 0.00013034370514595592 0 0.034999585502149461 -5.6706258735463787e-08 0 0.03499788862732886 2.9664734045781478e-07 0 0.034998865301602962 -3.2602121662839729e-08 0 0.033483599037025844 0.00013876932994786304 0 0.034998865301602962 -3.2602121662839729e-08 0 0.033483599037025844 0.00013876932994786304 0 0.03186206567227208 1.0427449262533955e-06 0 0.034040806893336328 9.7686859119494024e-05 0 0.03499788862732886 2.9664734045781478e-07 0 0.033483599037025844 0.00013876932994786304 0 0.03326664772807543 7.690145123075922e-05 0 0.034040806893336328 9.7686859119494024e-05 0 0.033483599037025844 0.00013876932994786304 0 0.033483599037025844 0.00013876932994786304 0 0.03186206567227208 1.0427449262533955e-06 0 0.032600435449763494 -3.0019406511180673e-05 0 0.03326664772807543 7.690145123075922e-05 0 0.033483599037025844 0.00013876932994786304 0 0.032600435449763494 -3.0019406511180673e-05 0 0.032762306058569585 -0.00029939707126288906 0 0.032600435449763494 -3.0019406511180673e-05 0 0.031632949400258022 -0.00030636592897146406 0 0.032762306058569585 -0.00029939707126288906 0 0.03326664772807543 7.690145123075922e-05 0 0.032600435449763494 -3.0019406511180673e-05 0 0.03186206567227208 1.0427449262533955e-06 0 0.032600435449763494 -3.0019406511180673e-05 0 0.031632949400258022 -0.00030636592897146406 0 0.03186206567227208 1.0427449262533955e-06 0 0.029577004133834274 -2.3145369588227109e-06 0 0.031632949400258022 -0.00030636592897146406 0 0.02957102958111214 -1.5784206899889234e-06 0 0.028026123913114979 -8.1262700096510138e-05 0 0.028053632161590583 -0.00094635798092133536 0 0.029574469734107836 -1.818846026617667e-07 0 0.029742277800771513 -0.00060868962277204665 0 0.02957102958111214 -1.5784206899889234e-06 0 0.028023912395513613 0.00013040500698821323 0 0.027588805551969048 9.6890529463179943e-07 0 0.02957102958111214 -1.5784206899889234e-06 0 0.028026123913114979 -8.1262700096510138e-05 0 0.028023912395513613 0.00013040500698821323 0 0.028026123913114979 -8.1262700096510138e-05 0 0.028023912395513613 0.00013040500698821323 0 0.027655986873994495 0.00014197901672740389 0 0.027594050200600927 -6.6249736618591721e-05 0 0.027268349967969115 -0.00038870114124193734 0 0.027403953759288679 0.00025046990932705242 0 0.027392821179641546 -5.5578227736103266e-05 0 0.027407832084800295 0.00024142367213491578 0 0.027655986873994495 0.00014197901672740389 0 0.027594050200600927 -6.6249736618591721e-05 0 0.027403953759288679 0.00025046990932705242 0 0.028026123913114979 -8.1262700096510138e-05 0 0.027655986873994495 0.00014197901672740389 0 0.027594050200600927 -6.6249736618591721e-05 0 0.028026123913114979 -8.1262700096510138e-05 0 0.027594050200600927 -6.6249736618591721e-05 0 0.027739235375307442 -0.00043995788550751057 0 0.027594050200600927 -6.6249736618591721e-05 0 0.027268349967969115 -0.00038870114124193734 0 0.027739235375307442 -0.00043995788550751057 0 0.030582668558918846 4.6558574166562775e-05 0 0.029742277800771513 -0.00060868962277204665 0 0.027192935521227271 -0.0013385765372120786 0 0.027268349967969115 -0.00038870114124193734 0 0.027739235375307442 -0.00043995788550751057 0 0.027192935521227271 -0.0013385765372120786 0 0.027739235375307442 -0.00043995788550751057 0 0.028053632161590583 -0.00094635798092133536 0 0.028026123913114979 -8.1262700096510138e-05 0 0.027739235375307442 -0.00043995788550751057 0 0.028053632161590583 -0.00094635798092133536 0 0.033006942421306855 0.00079730532437550063 0 0.032438531888494528 0.0010924285734815885 0 0.032542952302308116 0.001299031174673015 0 0.027606495207179196 0.00090444900668842085 0 0.027920640647017263 0.0010558325787055015 0 0.02767483930609425 0.00044006036846193299 0 0.027606495207179196 0.00090444900668842085 0 0.027533915571084425 0.00047485244151285292 0 0.02767483930609425 0.00044006036846193299 0 0.030582668558918846 4.6558574166562775e-05 0 0.027392821179641546 -5.5578227736103266e-05 0 0.031882553954747206 0.0011630451687866688 0 0.02996069068337185 0.00079154381223639101 0 0.031844602943651164 0.0012619316749394778 0 0.032661121204115927 0.00090154208681226882 0 0.032438531888494528 0.0010924285734815885 0 0.031844602943651164 0.0012619316749394778 0 0.032438531888494528 0.0010924285734815885 0 0.031763681194055711 0.0015616183327336259 0 0.032438531888494528 0.0010924285734815885 0 0.031763681194055711 0.0015616183327336259 0 0.032542952302308116 0.001299031174673015 0 0.031100894842221935 0.0017308082440251572 0 0.031763681194055711 0.0015616183327336259 0 0.030655873563646279 0.002376483507558699 0 0.031763681194055711 0.0015616183327336259 0 0.032542952302308116 0.001299031174673015 0 0.032579211939978661 0.0023094069366774283 0 0.027533915571084425 0.00047485244151285292 0 0.02767483930609425 0.00044006036846193299 0 0.027403953759288679 0.00025046990932705242 0 0.02767483930609425 0.00044006036846193299 0 0.027342345934244616 0.00018715595978665452 0 0.027403953759288679 0.00025046990932705242 0 0.02996069068337185 0.00079154381223639101 0 0.02992518710260321 0.0012338399374439172 0 0.031763681194055711 0.0015616183327336259 0 0.032579211939978661 0.0023094069366774283 0 0.030655873563646279 0.002376483507558699 0 0.028139008793749771 0.0039055297002006046 0 0.030655873563646279 0.002376483507558699 0 0.031313116591172016 0.003387762254706805 0 0.032579211939978661 0.0023094069366774283 0 0.030655873563646279 0.002376483507558699 0 0.031313116591172016 0.003387762254706805 0 0.032962100769717791 0.0041197641262222303 0 0.032579211939978661 0.0023094069366774283 0 0.031313116591172016 0.003387762254706805 0 0.026691174978065071 0.00013892037789880684 0 0.026658281273961488 0.00014983962646130232 0 0.027307618142785744 0.00020431238227840148 0 0.030242441282126321 0.0024409291542146663 0 0.02992518710260321 0.0012338399374439172 0 0.026691174978065071 0.00013892037789880684 0 0.027342345934244616 0.00018715595978665452 0 0.027307618142785744 0.00020431238227840148 0 0.026658281273961488 0.00014983962646130232 0 0.027588805551969048 9.6890529463179943e-07 0 0.027307618142785744 0.00020431238227840148 0 0.025602299827792663 6.825898408788794e-07 0 0.026658281273961488 0.00014983962646130232 0 0.027588805551969048 9.6890529463179943e-07 0 0.028023912395513613 0.00013040500698821323 0 0.027588805551969048 9.6890529463179943e-07 0 0.027307618142785744 0.00020431238227840148 0 0.028023912395513613 0.00013040500698821323 0 0.027655986873994495 0.00014197901672740389 0 0.027307618142785744 0.00020431238227840148 0 0.027655986873994495 0.00014197901672740389 0 0.027403953759288679 0.00025046990932705242 0 0.027307618142785744 0.00020431238227840148 0 0.027342345934244616 0.00018715595978665452 0 0.027403953759288679 0.00025046990932705242 0 0.027307618142785744 0.00020431238227840148 0 0.028626038182443993 0.00069897388221476346 0 0.028078194005677945 0.00076619051922816798 0 0.028401376759958068 0.001390318846618097 0 0.028626038182443993 0.00069897388221476346 0 0.029485790108264048 0.001081139968200512 0 0.029043121081365409 0.0014402480438938838 0 0.02868521956150882 0.0010955187017485954 0 0.030044499014456917 0.0019024386338049447 0 0.02987541313827512 0.00069115437320494788 0 0.028715369957877192 0.00091006418230381335 0 0.02949894979984586 0.0014984696898389779 0 0.030044499014456917 0.0019024386338049447 0 0.02987541313827512 0.00069115437320494788 0 0.030930909867884326 0.0015779178633038174 0 0.02987541313827512 0.00069115437320494788 0 0.028605261188627995 0.00020357974709350613 0 0.029078697566513149 -0.00033405468293722551 0 0.02868521956150882 0.0010955187017485954 0 0.02987541313827512 0.00069115437320494788 0 0.028605261188627995 0.00020357974709350613 0 0.02868521956150882 0.0010955187017485954 0 0.028605261188627995 0.00020357974709350613 0 0.028023204952076913 0.00035299873039527745 0 0.028626038182443993 0.00069897388221476346 0 0.027771248166345221 0.00038228217909417022 0 0.028078194005677945 0.00076619051922816798 0 0.02868521956150882 0.0010955187017485954 0 0.028023204952076913 0.00035299873039527745 0 0.027771248166345221 0.00038228217909417022 0 0.028605261188627995 0.00020357974709350613 0 0.028023204952076913 0.00035299873039527745 0 0.028178658595902135 7.4223032768031267e-06 0 0.028715369957877192 0.00091006418230381335 0 0.027823483469048452 0.0004241892116510927 0 0.028023204952076913 0.00035299873039527745 0 0.027898283738531315 -0.00015510528039302008 0 0.028178658595902135 7.4223032768031267e-06 0 0.027771248166345221 0.00038228217909417022 0 0.027714305704480708 0.00063368559145487492 0 0.028078194005677945 0.00076619051922816798 0 0.027771248166345221 0.00038228217909417022 0 0.027430786390568136 0.00052292540072085909 0 0.027332462992976141 -4.3804232743404806e-05 0 0.027430786390568136 0.00052292540072085909 0 0.027332462992976141 -4.3804232743404806e-05 0 0.027042900490295924 0.00043370294441680897 0 0.028023204952076913 0.00035299873039527745 0 0.027771248166345221 0.00038228217909417022 0 0.027332462992976141 -4.3804232743404806e-05 0 0.027994147636387988 0.00032778445877628656 0 0.027341827943040086 -0.00012416219069649105 0 0.027771248166345221 0.00038228217909417022 0 0.027714305704480708 0.00063368559145487492 0 0.027430786390568136 0.00052292540072085909 0 0.027430786390568136 0.00052292540072085909 0 0.027158195249374854 0.00080552530503871138 0 0.027042900490295924 0.00043370294441680897 0 0.027430786390568136 0.00052292540072085909 0 0.027585137469267676 0.00086919012558661309 0 0.027158195249374854 0.00080552530503871138 0 0.027714305704480708 0.00063368559145487492 0 0.027430786390568136 0.00052292540072085909 0 0.027585137469267676 0.00086919012558661309 0 0.027585137469267676 0.00086919012558661309 0 0.02782917658343733 0.0012395077723539962 0 0.027292108213869414 0.0012447351194693874 0 0.027585137469267676 0.00086919012558661309 0 0.027292108213869414 0.0012447351194693874 0 0.027158195249374854 0.00080552530503871138 0 0.028078194005677945 0.00076619051922816798 0 0.02782917658343733 0.0012395077723539962 0 0.028401376759958068 0.001390318846618097 0 0.027714305704480708 0.00063368559145487492 0 0.027585137469267676 0.00086919012558661309 0 0.028078194005677945 0.00076619051922816798 0 0.027585137469267676 0.00086919012558661309 0 0.028078194005677945 0.00076619051922816798 0 0.02782917658343733 0.0012395077723539962 0 0.027992187281246951 0.0017119075626488094 0 0.028375113265093718 0.0019957665444696234 0 0.028401376759958068 0.001390318846618097 0 0.02782917658343733 0.0012395077723539962 0 0.027992187281246951 0.0017119075626488094 0 0.028401376759958068 0.001390318846618097 0 0.02782917658343733 0.0012395077723539962 0 0.027992187281246951 0.0017119075626488094 0 0.027560982210783559 0.0016341442630764941 0 0.02782917658343733 0.0012395077723539962 0 0.027292108213869414 0.0012447351194693874 0 0.027560982210783559 0.0016341442630764941 0 0.027292108213869414 0.0012447351194693874 0 0.027560982210783559 0.0016341442630764941 0 0.027206509129385735 0.0016092201087796645 0 0.027560982210783559 0.0016341442630764941 0 0.027300656629225629 0.0018461065719621039 0 0.027206509129385735 0.0016092201087796645 0 0.027982845968530162 0.0021526495197925666 0 0.0271570350207328 0.0022295266104944578 0 0.028203351077147876 0.0025208553898123593 0 0.027692794383536865 0.0019513668807863026 0 0.027982845968530162 0.0021526495197925666 0 0.0271570350207328 0.0022295266104944578 0 0.027300656629225629 0.0018461065719621039 0 0.027692794383536865 0.0019513668807863026 0 0.0271570350207328 0.0022295266104944578 0 0.027560982210783559 0.0016341442630764941 0 0.027300656629225629 0.0018461065719621039 0 0.027692794383536865 0.0019513668807863026 0 0.027992187281246951 0.0017119075626488094 0 0.027560982210783559 0.0016341442630764941 0 0.027692794383536865 0.0019513668807863026 0 0.027992187281246951 0.0017119075626488094 0 0.028375113265093718 0.0019957665444696234 0 0.027982845968530162 0.0021526495197925666 0 0.027992187281246951 0.0017119075626488094 0 0.027692794383536865 0.0019513668807863026 0 0.027982845968530162 0.0021526495197925666 0 0.028375113265093718 0.0019957665444696234 0 0.027982845968530162 0.0021526495197925666 0 0.028203351077147876 0.0025208553898123593 0 0.028375113265093718 0.0019957665444696234 0 0.028703616434700551 0.0023259213149270522 0 0.028203351077147876 0.0025208553898123593 0 0.028375113265093718 0.0019957665444696234 0 0.028873510144603917 0.0019443538368968758 0 0.028401376759958068 0.001390318846618097 0 0.028375113265093718 0.0019957665444696234 0 0.028703616434700551 0.0023259213149270522 0 0.028873510144603917 0.0019443538368968758 0 0.028703616434700551 0.0023259213149270522 0 0.028873510144603917 0.0019443538368968758 0 0.029139555558839514 0.0023288069038389916 0 0.028873510144603917 0.0019443538368968758 0 0.028401376759958068 0.001390318846618097 0 0.029043121081365409 0.0014402480438938838 0 0.028626038182443993 0.00069897388221476346 0 0.028401376759958068 0.001390318846618097 0 0.029043121081365409 0.0014402480438938838 0 0.029485790108264048 0.001081139968200512 0 0.029043121081365409 0.0014402480438938838 0 0.029612917876667672 0.0016385176119498052 0 0.029043121081365409 0.0014402480438938838 0 0.029612917876667672 0.0016385176119498052 0 0.02929848639704917 0.0018994563112569713 0 0.02929848639704917 0.0018994563112569713 0 0.029139555558839514 0.0023288069038389916 0 0.029824731464565692 0.0021455051309212389 0 0.029612917876667672 0.0016385176119498052 0 0.02929848639704917 0.0018994563112569713 0 0.029824731464565692 0.0021455051309212389 0 0.028873510144603917 0.0019443538368968758 0 0.029043121081365409 0.0014402480438938838 0 0.02929848639704917 0.0018994563112569713 0 0.028873510144603917 0.0019443538368968758 0 0.02929848639704917 0.0018994563112569713 0 0.029139555558839514 0.0023288069038389916 0 0.032143448600933613 0.0015472690203090186 0 0.03258814344607374 0.0012949638040988705 0 0.034610740621524749 0.00076671143922265076 0 0.034582062442968381 0.00077856008371401237 0 0.034573348663245899 0.00085011695850729636 0 0.029612917876667672 0.0016385176119498052 0 0.029824731464565692 0.0021455051309212389 0 0.030346827220744624 0.0015003910711411752 0 0.034610740621524749 0.00076671143922265076 0 0.034582062442968381 0.00077856008371401237 0 0.034600493319632365 0.00073320477656363338 0 0.034582062442968381 0.00077856008371401237 0 0.034573025154375082 0.00074970336573898792 0 0.034600493319632365 0.00073320477656363338 0 0.034582062442968381 0.00077856008371401237 0 0.034552651806110377 0.00079988793693580259 0 0.034573025154375082 0.00074970336573898792 0 0.034533316236110202 0.00078744871749368084 0 0.034552651806110377 0.00079988793693580259 0 0.034573025154375082 0.00074970336573898792 0 0.034533316236110202 0.00078744871749368084 0 0.034519174279110922 0.0008301603800318617 0 0.034552651806110377 0.00079988793693580259 0 0.034519174279110922 0.0008301603800318617 0 0.034552651806110377 0.00079988793693580259 0 0.034573348663245899 0.00085011695850729636 0 0.034533316236110202 0.00078744871749368084 0 0.034519174279110922 0.0008301603800318617 0 0.03451791543805615 0.00083180045637282858 0 0.034582062442968381 0.00077856008371401237 0 0.034552651806110377 0.00079988793693580259 0 0.034573348663245899 0.00085011695850729636 0 0.034519174279110922 0.0008301603800318617 0 0.034480709667988968 0.00082912211014084844 0 0.03449502570557373 0.00081627566671109799 0 0.034369765806799561 0.00079472576492517781 0 0.0332885015089215 0.0014754606038854922 0 0.034801156662487953 0.0011692661444498093 0 0.03258814344607374 0.0012949638040988705 0 0.034519174279110922 0.0008301603800318617 0 0.03451791543805615 0.00083180045637282858 0 0.03449502570557373 0.00081627566671109799 0 0.034183081569958688 0.00085990952041245733 0 0.034128978161987837 0.00086501119831852876 0 0.034040474191172287 0.00089566933510113844 0 0.031472643382263098 0.0026430557923345609 0 0.030930909867884326 0.0015779178633038174 0 0.031978074327842124 0.0019950025869239292 0 0.03258814344607374 0.0012949638040988705 0 0.0332885015089215 0.0014754606038854922 0 0.029485790108264048 0.001081139968200512 0 0.029612917876667672 0.0016385176119498052 0 0.030346827220744624 0.0015003910711411752 0 0.02949894979984586 0.0014984696898389779 0 0.03258814344607374 0.0012949638040988705 0 0.030044499014456917 0.0019024386338049447 0 0.031472643382263098 0.0026430557923345609 0 0.030930909867884326 0.0015779178633038174 0 0.034301143196014891 0.00081025916933857433 0 0.034297723485707747 0.0008271752259888228 0 0.034391180133906199 0.00074328482967389391 0 0.034297723485707747 0.0008271752259888228 0 0.034391180133906199 0.00074328482967389391 0 0.034436637204707632 0.00076034409509804189 0 0.034301143196014891 0.00081025916933857433 0 0.034297723485707747 0.0008271752259888228 0 0.034245013764091309 0.00084501985251200275 0 0.034369765806799561 0.00079472576492517781 0 0.03439900157332694 0.00076750722142102275 0 0.034251761609948847 0.00084279421594905129 0 0.034183081569958688 0.00085990952041245733 0 0.034436637204707632 0.00076034409509804189 0 0.034533316236110202 0.00078744871749368084 0 0.03451791543805615 0.00083180045637282858 0 0.034436637204707632 0.00076034409509804189 0 0.034297723485707747 0.0008271752259888228 0 0.034251761609948847 0.00084279421594905129 0 0.034216673827741635 0.00085196804801297319 0 0.034297723485707747 0.0008271752259888228 0 0.034251761609948847 0.00084279421594905129 0 0.034436637204707632 0.00076034409509804189 0 0.034251761609948847 0.00084279421594905129 0 0.034183081569958688 0.00085990952041245733 0 0.034189475156004782 0.00085602970513402237 0 0.034183081569958688 0.00085990952041245733 0 0.034189475156004782 0.00085602970513402237 0 0.034128978161987837 0.00086501119831852876 0 0.034128978161987837 0.00086501119831852876 0 0.034137791822416788 0.00086325864957020719 0 0.034187586779270168 0.00085624281903612853 0 0.034189475156004782 0.00085602970513402237 0 0.034128978161987837 0.00086501119831852876 0 0.034187586779270168 0.00085624281903612853 0 0.034128978161987837 0.00086501119831852876 0 0.034072099886629896 0.00087105322192022026 0 0.034040474191172287 0.00089566933510113844 0 0.034128978161987837 0.00086501119831852876 0 0.034072099886629896 0.00087105322192022026 0 0.034137791822416788 0.00086325864957020719 0 0.034169905048743621 0.00085767278077392714 0 0.03416548143660255 0.00084726374435121338 0 0.034093816229343439 0.00086205721604287928 0 0.034072099886629896 0.00087105322192022026 0 0.034137791822416788 0.00086325864957020719 0 0.034093816229343439 0.00086205721604287928 0 0.034137791822416788 0.00086325864957020719 0 0.034169905048743621 0.00085767278077392714 0 0.034093816229343439 0.00086205721604287928 0 0.034137791822416788 0.00086325864957020719 0 0.034169905048743621 0.00085767278077392714 0 0.034216673827741635 0.00085196804801297319 0 0.034137791822416788 0.00086325864957020719 0 0.034187586779270168 0.00085624281903612853 0 0.034216673827741635 0.00085196804801297319 0 0.034251761609948847 0.00084279421594905129 0 0.034187586779270168 0.00085624281903612853 0 0.034216673827741635 0.00085196804801297319 0 0.034251761609948847 0.00084279421594905129 0 0.034189475156004782 0.00085602970513402237 0 0.034187586779270168 0.00085624281903612853 0 0.034297723485707747 0.0008271752259888228 0 0.034216673827741635 0.00085196804801297319 0 0.034245013764091309 0.00084501985251200275 0 0.034169905048743621 0.00085767278077392714 0 0.034216673827741635 0.00085196804801297319 0 0.034245013764091309 0.00084501985251200275 0 0.034169905048743621 0.00085767278077392714 0 0.034213783713188214 0.00084332788178142907 0 0.03416548143660255 0.00084726374435121338 0 0.034169905048743621 0.00085767278077392714 0 0.034245013764091309 0.00084501985251200275 0 0.034213783713188214 0.00084332788178142907 0 0.034213783713188214 0.00084332788178142907 0 0.034258264845119242 0.00083320436779700069 0 0.034237647392134668 0.00082870586270212545 0 0.034301143196014891 0.00081025916933857433 0 0.034245013764091309 0.00084501985251200275 0 0.034258264845119242 0.00083320436779700069 0 0.034245013764091309 0.00084501985251200275 0 0.034213783713188214 0.00084332788178142907 0 0.034258264845119242 0.00083320436779700069 0 0.034199056262398997 0.00077605658893859137 0 0.03419771350919483 0.00081866830648969673 0 0.034151753211462341 0.00078732420262727536 0 0.034199056262398997 0.00077605658893859137 0 0.03419771350919483 0.00081866830648969673 0 0.034231894987334997 0.00080094771380369929 0 0.034213783713188214 0.00084332788178142907 0 0.03419771350919483 0.00081866830648969673 0 0.03416548143660255 0.00084726374435121338 0 0.034213783713188214 0.00084332788178142907 0 0.03419771350919483 0.00081866830648969673 0 0.034237647392134668 0.00082870586270212545 0 0.03419771350919483 0.00081866830648969673 0 0.034117373867124344 0.00083666199475602445 0 0.03416548143660255 0.00084726374435121338 0 0.034117373867124344 0.00083666199475602445 0 0.03416548143660255 0.00084726374435121338 0 0.034093816229343439 0.00086205721604287928 0 0.03419771350919483 0.00081866830648969673 0 0.034117373867124344 0.00083666199475602445 0 0.034151753211462341 0.00078732420262727536 0 0.033804833195023441 0.00085331000832455765 0 0.0332885015089215 0.0014754606038854922 0 0.03393144824572452 0.00083967774641540707 0 0.033820063954265296 0.00073542381385312001 0 0.034040474191172287 0.00089566933510113844 0 0.034117373867124344 0.00083666199475602445 0 0.034151753211462341 0.00078732420262727536 0 0.03393144824572452 0.00083967774641540707 0 0.034117373867124344 0.00083666199475602445 0 0.034093816229343439 0.00086205721604287928 0 0.03393144824572452 0.00083967774641540707 0 0.034072099886629896 0.00087105322192022026 0 0.034093816229343439 0.00086205721604287928 0 0.03393144824572452 0.00083967774641540707 0 0.034072099886629896 0.00087105322192022026 0 0.03393144824572452 0.00083967774641540707 0 0.034040474191172287 0.00089566933510113844 0 0.03393144824572452 0.00083967774641540707 0 0.033820063954265296 0.00073542381385312001 0 0.03414847265980743 0.00046286851883873805 0 0.0338694271339725 0.00087346677200226836 0 0.034346314169764303 0.00049862465504920328 0 0.033820063954265296 0.00073542381385312001 0 0.033237266173771714 5.6187984273777353e-05 0 0.032729972538630317 0.00054382981100207204 0 0.033820063954265296 0.00073542381385312001 0 0.033237266173771714 5.6187984273777353e-05 0 0.033823638374765264 0.00014480618206502469 0 0.033820063954265296 0.00073542381385312001 0 0.033823638374765264 0.00014480618206502469 0 0.03414847265980743 0.00046286851883873805 0 0.034199056262398997 0.00077605658893859137 0 0.034161449040465988 0.00070560171333381284 0 0.03423374068226074 0.0007578458283846283 0 0.034151753211462341 0.00078732420262727536 0 0.03393144824572452 0.00083967774641540707 0 0.034161449040465988 0.00070560171333381284 0 0.033823638374765264 0.00014480618206502469 0 0.03414847265980743 0.00046286851883873805 0 0.034111466346792761 -9.2556316849727675e-05 0 0.034199056262398997 0.00077605658893859137 0 0.034151753211462341 0.00078732420262727536 0 0.034161449040465988 0.00070560171333381284 0 0.02987541313827512 0.00069115437320494788 0 0.030930909867884326 0.0015779178633038174 0 0.031272788658746602 0.00066545984757274362 0 0.032598139150195479 0.0024154794615621833 0 0.032716616464568013 0.001254434526307655 0 0.031701144544063434 0.00078751649560047921 0 0.0332885015089215 0.0014754606038854922 0 0.031397014513395105 0.00078010320990038536 0 0.030930909867884326 0.0015779178633038174 0 0.031978074327842124 0.0019950025869239292 0 0.031272788658746602 0.00066545984757274362 0 0.033820063954265296 0.00073542381385312001 0 0.032598139150195479 0.0024154794615621833 0 0.032716616464568013 0.001254434526307655 0 0.032716616464568013 0.001254434526307655 0 0.032729972538630317 0.00054382981100207204 0 0.031701144544063434 0.00078751649560047921 0 0.033820063954265296 0.00073542381385312001 0 0.032716616464568013 0.001254434526307655 0 0.032729972538630317 0.00054382981100207204 0 0.033237266173771714 5.6187984273777353e-05 0 0.032729972538630317 0.00054382981100207204 0 0.032147005357215375 -0.00013237805386404994 0 0.032729972538630317 0.00054382981100207204 0 0.031701144544063434 0.00078751649560047921 0 0.032147005357215375 -0.00013237805386404994 0 0.031397014513395105 0.00078010320990038536 0 0.03072674878953208 -0.0006331383716168227 0 0.031701144544063434 0.00078751649560047921 0 0.030659078133511215 -0.00069504721557232308 0 0.032147005357215375 -0.00013237805386404994 0 0.02987541313827512 0.00069115437320494788 0 0.031272788658746602 0.00066545984757274362 0 0.030659078133511215 -0.00069504721557232308 0 0.030659078133511215 -0.00069504721557232308 0 0.032147005357215375 -0.00013237805386404994 0 0.032246353059904323 -0.0013130763095535708 0 0.033237266173771714 5.6187984273777353e-05 0 0.032147005357215375 -0.00013237805386404994 0 0.032246353059904323 -0.0013130763095535708 0 0.032246353059904323 -0.0013130763095535708 0 0.032049569740574262 -0.0025530391784869644 0 0.033174416715135456 -0.0021770159278913389 0 0.032246353059904323 -0.0013130763095535708 0 0.032049569740574262 -0.0025530391784869644 0 0.030693994854791674 -0.0022077586552108593 0 0.030659078133511215 -0.00069504721557232308 0 0.032246353059904323 -0.0013130763095535708 0 0.030693994854791674 -0.0022077586552108593 0 0.034346314169764303 0.00049862465504920328 0 0.033251064948519649 0.00023162060128548484 0 0.034111466346792761 -9.2556316849727675e-05 0 0.034086839093236065 -0.00056026637633031361 0 0.034857719461030792 -0.00023049734365512017 0 0.03414847265980743 0.00046286851883873805 0 0.034111466346792761 -9.2556316849727675e-05 0 0.034857719461030792 -0.00023049734365512017 0 0.034111466346792761 -9.2556316849727675e-05 0 0.033732533554713236 -0.00044174420400211673 0 0.034086839093236065 -0.00056026637633031361 0 0.033237266173771714 5.6187984273777353e-05 0 0.032246353059904323 -0.0013130763095535708 0 0.033899300451299401 -0.0010617287556711674 0 0.033237266173771714 5.6187984273777353e-05 0 0.033823638374765264 0.00014480618206502469 0 0.033732533554713236 -0.00044174420400211673 0 0.033823638374765264 0.00014480618206502469 0 0.034111466346792761 -9.2556316849727675e-05 0 0.033732533554713236 -0.00044174420400211673 0 0.033238472200739909 6.6212653546461546e-05 0 0.033972747573290538 -0.0010383459033069548 0 0.033899300451299401 -0.0010617287556711674 0 0.033174416715135456 -0.0021770159278913389 0 0.034613003447990613 -0.0021642457472613977 0 0.032246353059904323 -0.0013130763095535708 0 0.033899300451299401 -0.0010617287556711674 0 0.033174416715135456 -0.0021770159278913389 0 0.033972747573290538 -0.0010383459033069548 0 0.031583302071637002 -0.00095612514817280849 0 0.031733017291523724 -0.00049514048925214664 0 0.033251064948519649 0.00023162060128548484 0 0.031733017291523724 -0.00049514048925214664 0 0.028983059726429033 0.00072740831767967187 0 0.034086839093236065 -0.00056026637633031361 0 0.034169419130030625 -0.00093824655619330355 0 0.034857719461030792 -0.00023049734365512017 0 0.034086839093236065 -0.00056026637633031361 0 0.034103217334801317 -0.0010045081730385924 0 0.034169419130030625 -0.00093824655619330355 0 0.033732533554713236 -0.00044174420400211673 0 0.034086839093236065 -0.00056026637633031361 0 0.034103217334801317 -0.0010045081730385924 0 0.031583302071637002 -0.00095612514817280849 0 0.031733017291523724 -0.00049514048925214664 0 0.027902394561159845 -0.0010419741373741342 0 0.028641717920870717 -0.00025309884049252952 0 0.027403829180267288 -0.00034096671881257273 0 0.029857153863574629 8.9874002629398544e-05 0 0.029765671937572482 -5.9890923206175447e-06 0 0.029128723452175206 0.0011299172100326673 0 0.031583302071637002 -0.00095612514817280849 0 0.026721907617739415 0.0010573772717057241 0 0.031583302071637002 -0.00095612514817280849 0 0.028172111734900716 -0.0015558695477652339 0 0.033174416715135456 -0.0021770159278913389 0 0.034613003447990613 -0.0021642457472613977 0 0.03305198221982017 -0.0037946169051861372 0 0.025107098051546747 -0.00019374624746456974 0 0.025161311468015674 -0.0015047427653597891 0 0.024195861444003552 -0.00063694762941032845 0 0.028172111734900716 -0.0015558695477652339 0 0.024511802176846939 0.00044058235267973748 0 0.028641717920870717 -0.00025309884049252952 0 0.027513133287675642 -3.4412232048764151e-05 0 0.027403829180267288 -0.00034096671881257273 0 0.025161311468015674 -0.0015047427653597891 0 0.024195861444003552 -0.00063694762941032845 0 0.023490406770897587 -0.0012029995248740103 0 0.021680172755791892 0.0026421637923526942 0 0.021661485306735267 0.0023714476284104236 0 0.021543126785565178 0.00255287996927559 0 0.024511802176846939 0.00044058235267973748 0 0.026721907617739415 0.0010573772717057241 0 0.032049569740574262 -0.0025530391784869644 0 0.030693994854791674 -0.0022077586552108593 0 0.031217511031648063 -0.0034796863869357578 0 0.030693994854791674 -0.0022077586552108593 0 0.031217511031648063 -0.0034796863869357578 0 0.029355364889678721 -0.0031355212123899707 0 0.032049569740574262 -0.0025530391784869644 0 0.033174416715135456 -0.0021770159278913389 0 0.03305198221982017 -0.0037946169051861372 0 0.028172111734900716 -0.0015558695477652339 0 0.029094810638837624 -0.0027662319309707671 0 0.032049569740574262 -0.0025530391784869644 0 0.03305198221982017 -0.0037946169051861372 0 0.031217511031648063 -0.0034796863869357578 0 0.026207704135104287 -0.00042415878165660376 0 0.025282835083101057 -0.0014825876150655443 0 0.026495623527968762 -0.001718745366714519 0 0.026207704135104287 -0.00042415878165660376 0 0.025107098051546747 -0.00019374624746456974 0 0.025161311468015674 -0.0015047427653597891 0 0.025218168008184452 -0.00073816544381482554 0 0.028172111734900716 -0.0015558695477652339 0 0.026207704135104287 -0.00042415878165660376 0 0.026495623527968762 -0.001718745366714519 0 0.026894891515911689 -0.00087158594244080879 0 0.026495623527968762 -0.001718745366714519 0 0.026894891515911689 -0.00087158594244080879 0 0.027202973190204701 -0.0013765400363338492 0 0.027610268460666002 -0.00069656386476710621 0 0.027202973190204701 -0.0013765400363338492 0 0.027753890900424388 -0.0019567010454955092 0 0.027653227389168512 -0.00058677540743190526 0 0.028517434195987911 -0.0019296966923566053 0 0.026894891515911689 -0.00087158594244080879 0 0.027610268460666002 -0.00069656386476710621 0 0.027202973190204701 -0.0013765400363338492 0 0.027789005080745211 -0.00072954396639521464 0 0.028140865773396483 -0.0010254296199776111 0 0.028167967251048733 -0.0012733818490512864 0 0.027789005080745211 -0.00072954396639521464 0 0.02810918804290987 -0.0007149298501871222 0 0.028147036233635219 -0.00089746468850838404 0 0.027789005080745211 -0.00072954396639521464 0 0.028147036233635219 -0.00089746468850838404 0 0.028140865773396483 -0.0010254296199776111 0 0.02806934589958196 -0.00030707247500483221 0 0.028566774485871263 -0.0008857992417774616 0 0.028369897444255512 -0.00078326539925002649 0 0.019733490638901813 2.9660700013179615e-05 0 0.019659234504121881 -0.00012640772167763943 0 0.019810391284167984 -4.5801258777409329e-05 0 0.025518130343818314 -0.00057912055073177206 0 0.02680547971086222 -0.00097837405850474506 0 0.028409310678643399 -0.00091039787551407082 0 0.028369897444255512 -0.00078326539925002649 0 0.028311016173748066 -0.00095881917014236544 0 0.028235770841932371 -0.00084460664234304228 0 0.028147036233635219 -0.00089746468850838404 0 0.028311016173748066 -0.00095881917014236544 0 0.028369897444255512 -0.00078326539925002649 0 0.028235770841932371 -0.00084460664234304228 0 0.028311016173748066 -0.00095881917014236544 0 0.028369897444255512 -0.00078326539925002649 0 0.028235770841932371 -0.00084460664234304228 0 0.02810918804290987 -0.0007149298501871222 0 0.028235770841932371 -0.00084460664234304228 0 0.02810918804290987 -0.0007149298501871222 0 0.028147036233635219 -0.00089746468850838404 0 0.028147036233635219 -0.00089746468850838404 0 0.028140865773396483 -0.0010254296199776111 0 0.028268878398099797 -0.0010541572188126906 0 0.028140865773396483 -0.0010254296199776111 0 0.028268878398099797 -0.0010541572188126906 0 0.028284707046018685 -0.0011470954208876226 0 0.028147036233635219 -0.00089746468850838404 0 0.028268878398099797 -0.0010541572188126906 0 0.028311016173748066 -0.00095881917014236544 0 0.028409310678643399 -0.00091039787551407082 0 0.028311016173748066 -0.00095881917014236544 0 0.028327315832793201 -0.001092415624726109 0 0.028268878398099797 -0.0010541572188126906 0 0.028311016173748066 -0.00095881917014236544 0 0.028327315832793201 -0.001092415624726109 0 0.028327315832793201 -0.001092415624726109 0 0.028334464323463704 -0.0011460139923450856 0 0.028306597021051524 -0.0011519488069475009 0 0.028334464323463704 -0.0011460139923450856 0 0.028425812634203754 -0.0011976518118441699 0 0.028306597021051524 -0.0011519488069475009 0 0.028268878398099797 -0.0010541572188126906 0 0.028327315832793201 -0.001092415624726109 0 0.028334464323463704 -0.0011460139923450856 0 0.028140865773396483 -0.0010254296199776111 0 0.028284707046018685 -0.0011470954208876226 0 0.028167967251048733 -0.0012733818490512864 0 0.028284707046018685 -0.0011470954208876226 0 0.028425812634203754 -0.0011976518118441699 0 0.028167967251048733 -0.0012733818490512864 0 0.028334464323463704 -0.0011460139923450856 0 0.028284707046018685 -0.0011470954208876226 0 0.028425812634203754 -0.0011976518118441699 0 0.028268878398099797 -0.0010541572188126906 0 0.028334464323463704 -0.0011460139923450856 0 0.028284707046018685 -0.0011470954208876226 0 0.028352114608825838 -0.0015887051242684967 0 0.028517434195987911 -0.0019296966923566053 0 0.028425812634203754 -0.0011976518118441699 0 0.028689751936199871 -0.0012397160580524379 0 0.028536035685988264 -0.00095437740553480567 0 0.028425812634203754 -0.0011976518118441699 0 0.028341952093030288 -0.0010358261600360817 0 0.028536035685988264 -0.00095437740553480567 0 0.028425812634203754 -0.0011976518118441699 0 0.028306597021051524 -0.0011519488069475009 0 0.028341952093030288 -0.0010358261600360817 0 0.029094810638837624 -0.0027662319309707671 0 0.028517434195987911 -0.0019296966923566053 0 0.026495623527968762 -0.001718745366714519 0 0.027202973190204701 -0.0013765400363338492 0 0.027753890900424388 -0.0019567010454955092 0 0.030659078133511215 -0.00069504721557232308 0 0.030693994854791674 -0.0022077586552108593 0 0.029213180328121664 -0.0017544577078318067 0 0.028517434195987911 -0.0019296966923566053 0 0.029017506019647341 -0.0012881930876051338 0 0.030693994854791674 -0.0022077586552108593 0 0.029355364889678721 -0.0031355212123899707 0 0.029213180328121664 -0.0017544577078318067 0 0.028689751936199871 -0.0012397160580524379 0 0.028798983348471734 -0.00079582456855383269 0 0.028536035685988264 -0.00095437740553480567 0 0.028341952093030288 -0.0010358261600360817 0 0.028536035685988264 -0.00095437740553480567 0 0.028279988219411419 -0.00079838676541715034 0 0.028536035685988264 -0.00095437740553480567 0 0.028590270827004296 -0.00064607874176961526 0 0.028279988219411419 -0.00079838676541715034 0 0.028590270827004296 -0.00064607874176961526 0 0.028313103508179872 -0.00034591152245522493 0 0.028279988219411419 -0.00079838676541715034 0 0.028798983348471734 -0.00079582456855383269 0 0.028536035685988264 -0.00095437740553480567 0 0.028590270827004296 -0.00064607874176961526 0 0.028605261188627995 0.00020357974709350613 0 0.029078697566513149 -0.00033405468293722551 0 0.028313103508179872 -0.00034591152245522493 0 0.028590270827004296 -0.00064607874176961526 0 0.029078697566513149 -0.00033405468293722551 0 0.028313103508179872 -0.00034591152245522493 0 0.028798983348471734 -0.00079582456855383269 0 0.028590270827004296 -0.00064607874176961526 0 0.029078697566513149 -0.00033405468293722551 0 0.028605261188627995 0.00020357974709350613 0 0.028178658595902135 7.4223032768031267e-06 0 0.028313103508179872 -0.00034591152245522493 0 0.030659078133511215 -0.00069504721557232308 0 0.029213180328121664 -0.0017544577078318067 0 0.029078697566513149 -0.00033405468293722551 0 0.02987541313827512 0.00069115437320494788 0 0.030659078133511215 -0.00069504721557232308 0 0.029078697566513149 -0.00033405468293722551 0 0.029017506019647341 -0.0012881930876051338 0 0.029027332249053257 -0.00041403501347066256 0 0.027395496020442084 -0.00019159004859653237 0 0.027516703820077822 -0.00080983700802941165 0 0.026844114801010188 -0.00059396650757367658 0 0.027395496020442084 -0.00019159004859653237 0 0.02788985737818327 -0.00057092757360545701 0 0.027516703820077822 -0.00080983700802941165 0 0.027395496020442084 -0.00019159004859653237 0 0.027898283738531315 -0.00015510528039302008 0 0.02788985737818327 -0.00057092757360545701 0 0.028023204952076913 0.00035299873039527745 0 0.027395496020442084 -0.00019159004859653237 0 0.027898283738531315 -0.00015510528039302008 0 0.027898283738531315 -0.00015510528039302008 0 0.028178658595902135 7.4223032768031267e-06 0 0.028313103508179872 -0.00034591152245522493 0 0.027898283738531315 -0.00015510528039302008 0 0.028313103508179872 -0.00034591152245522493 0 0.02788985737818327 -0.00057092757360545701 0 0.02788985737818327 -0.00057092757360545701 0 0.028127801467461511 -0.00096683274946019219 0 0.027516703820077822 -0.00080983700802941165 0 0.02788985737818327 -0.00057092757360545701 0 0.028279988219411419 -0.00079838676541715034 0 0.028127801467461511 -0.00096683274946019219 0 0.028313103508179872 -0.00034591152245522493 0 0.02788985737818327 -0.00057092757360545701 0 0.028279988219411419 -0.00079838676541715034 0 0.028341952093030288 -0.0010358261600360817 0 0.028279988219411419 -0.00079838676541715034 0 0.028127801467461511 -0.00096683274946019219 0 0.027516703820077822 -0.00080983700802941165 0 0.027454795286447706 -0.0011178300174321755 0 0.026964336626458963 -0.0012301379916543757 0 0.027454795286447706 -0.0011178300174321755 0 0.02750536715396629 -0.001349266817540333 0 0.026964336626458963 -0.0012301379916543757 0 0.027516703820077822 -0.00080983700802941165 0 0.027454795286447706 -0.0011178300174321755 0 0.027631759239031172 -0.0012310736217187286 0 0.023601154055829684 -0.00097939200268817644 0 0.024173391459481025 -0.00137392650448538 0 0.027439754556795547 -0.0007053076515823179 0 0.028210764522307759 -0.0014376758297919006 0 0.027454795286447706 -0.0011178300174321755 0 0.027631759239031172 -0.0012310736217187286 0 0.02750536715396629 -0.001349266817540333 0 0.028127801467461511 -0.00096683274946019219 0 0.027516703820077822 -0.00080983700802941165 0 0.028169302982580371 -0.0012241423671382234 0 0.028306597021051524 -0.0011519488069475009 0 0.028127801467461511 -0.00096683274946019219 0 0.028169302982580371 -0.0012241423671382234 0 0.028306597021051524 -0.0011519488069475009 0 0.028341952093030288 -0.0010358261600360817 0 0.028127801467461511 -0.00096683274946019219 0 0.028327315832793201 -0.001092415624726109 0 0.028306597021051524 -0.0011519488069475009 0 0.028169302982580371 -0.0012241423671382234 0 0.019659234504121881 -0.00012640772167763943 0 0.020006597307733374 -0.0002106422718973215 0 0.02034001005067633 -0.00071446995759487093 0 0.025518130343818314 -0.00057912055073177206 0 0.023601154055829684 -0.00097939200268817644 0 0.027719623145133692 -0.00140845697590734 0 0.027631759239031172 -0.0012310736217187286 0 0.02750536715396629 -0.001349266817540333 0 0.028409310678643399 -0.00091039787551407082 0 0.028327315832793201 -0.001092415624726109 0 0.028169302982580371 -0.0012241423671382234 0 0.025518130343818314 -0.00057912055073177206 0 0.028210764522307759 -0.0014376758297919006 0 0.020006597307733374 -0.0002106422718973215 0 0.02034001005067633 -0.00071446995759487093 0 0.020285565492069724 -0.00029117116333208978 0 0.020155444889963167 3.7679436356206806e-05 0 0.020006597307733374 -0.0002106422718973215 0 0.020285565492069724 -0.00029117116333208978 0 0.019659234504121881 -0.00012640772167763943 0 0.020006597307733374 -0.0002106422718973215 0 0.019810391284167984 -4.5801258777409329e-05 0 0.019858534858796958 0.0001188572470693993 0 0.020006597307733374 -0.0002106422718973215 0 0.019810391284167984 -4.5801258777409329e-05 0 0.02034001005067633 -0.00071446995759487093 0 0.021046090450819368 -0.00060432503766431856 0 0.021355700722790479 -0.0014273015259828458 0 0.020155444889963167 3.7679436356206806e-05 0 0.020285565492069724 -0.00029117116333208978 0 0.020593304564995751 -0.00017846942524400882 0 0.02034001005067633 -0.00071446995759487093 0 0.020285565492069724 -0.00029117116333208978 0 0.020593304564995751 -0.00017846942524400882 0 0.02034001005067633 -0.00071446995759487093 0 0.020593304564995751 -0.00017846942524400882 0 0.021046090450819368 -0.00060432503766431856 0 0.021235477892646803 -6.1927102421749269e-05 0 0.020593304564995751 -0.00017846942524400882 0 0.021046090450819368 -0.00060432503766431856 0 0.021967270054881197 -4.7685124085891927e-05 0 0.021235477892646803 -6.1927102421749269e-05 0 0.021814186218063816 -0.00066380398871931229 0 0.021235477892646803 -6.1927102421749269e-05 0 0.021046090450819368 -0.00060432503766431856 0 0.021814186218063816 -0.00066380398871931229 0 0.021046090450819368 -0.00060432503766431856 0 0.021355700722790479 -0.0014273015259828458 0 0.021814186218063816 -0.00066380398871931229 0 0.024173391459481025 -0.00137392650448538 0 0.02489674615735267 -0.0010522034843572737 0 0.021355700722790479 -0.0014273015259828458 0 0.022522347151390665 -0.0011550213522157175 0 0.022631373270254225 -0.0021023177871787109 0 0.021355700722790479 -0.0014273015259828458 0 0.022522347151390665 -0.0011550213522157175 0 0.021814186218063816 -0.00066380398871931229 0 0.022522347151390665 -0.0011550213522157175 0 0.021814186218063816 -0.00066380398871931229 0 0.022773275808625759 -0.00034584644867888086 0 0.021967270054881197 -4.7685124085891927e-05 0 0.021814186218063816 -0.00066380398871931229 0 0.022773275808625759 -0.00034584644867888086 0 0.023626106115729694 -0.00011379721934602283 0 0.022773275808625759 -0.00034584644867888086 0 0.023677781749372736 -0.00062990475979871736 0 0.022773275808625759 -0.00034584644867888086 0 0.023677781749372736 -0.00062990475979871736 0 0.023091431592928632 -0.00083747472305294949 0 0.023677781749372736 -0.00062990475979871736 0 0.023091431592928632 -0.00083747472305294949 0 0.023572172476444046 -0.0015395938051418249 0 0.022522347151390665 -0.0011550213522157175 0 0.022773275808625759 -0.00034584644867888086 0 0.023091431592928632 -0.00083747472305294949 0 0.024103078777221416 0.00023678318347392145 0 0.024262916546254367 -0.00037083561971417155 0 0.024864454367063745 -0.00065569100816740861 0 0.024262916546254367 -0.00037083561971417155 0 0.024722022781242518 -0.00075885194501524428 0 0.024864454367063745 -0.00065569100816740861 0 0.023626106115729694 -0.00011379721934602283 0 0.023677781749372736 -0.00062990475979871736 0 0.024262916546254367 -0.00037083561971417155 0 0.023677781749372736 -0.00062990475979871736 0 0.024262916546254367 -0.00037083561971417155 0 0.024722022781242518 -0.00075885194501524428 0 0.023677781749372736 -0.00062990475979871736 0 0.024722022781242518 -0.00075885194501524428 0 0.023572172476444046 -0.0015395938051418249 0 0.024722022781242518 -0.00075885194501524428 0 0.024984527541744399 -0.00070272236296266592 0 0.024909952927554404 -0.00065142900904572058 0 0.024766491802484789 -0.00078511442231727583 0 0.024283684936557588 -0.0012083510436195391 0 0.024722022781242518 -0.00075885194501524428 0 0.024984527541744399 -0.00070272236296266592 0 0.025228731012003972 -0.00077852102596761229 0 0.024984527541744399 -0.00070272236296266592 0 0.025228731012003972 -0.00077852102596761229 0 0.025102761918731523 -0.00061228479175954719 0 0.024984527541744399 -0.00070272236296266592 0 0.024909952927554404 -0.00065142900904572058 0 0.025102761918731523 -0.00061228479175954719 0 0.022522347151390665 -0.0011550213522157175 0 0.023091431592928632 -0.00083747472305294949 0 0.023572172476444046 -0.0015395938051418249 0 0.022522347151390665 -0.0011550213522157175 0 0.023572172476444046 -0.0015395938051418249 0 0.022631373270254225 -0.0021023177871787109 0 0.025228731012003972 -0.00077852102596761229 0 0.025411629549085386 -0.00059452599873390389 0 0.025102761918731523 -0.00061228479175954719 0 0.025228731012003972 -0.00077852102596761229 0 0.025411629549085386 -0.00059452599873390389 0 0.025546221244272749 -0.00065951207870238067 0 0.024283684936557588 -0.0012083510436195391 0 0.02489674615735267 -0.0010522034843572737 0 0.025493441732379635 -0.00086103586259331363 0 0.02489674615735267 -0.0010522034843572737 0 0.025411629549085386 -0.00059452599873390389 0 0.025761313306419172 -0.00046978295033328296 0 0.025871901062858714 -0.00087395952610303624 0 0.025491002397436426 -0.00036423537368235033 0 0.025225817254250799 -0.00044555562623024885 0 0.025304108458998109 -0.00024810095831095399 0 0.025411629549085386 -0.00059452599873390389 0 0.025491002397436426 -0.00036423537368235033 0 0.025225817254250799 -0.00044555562623024885 0 0.025411629549085386 -0.00059452599873390389 0 0.025491002397436426 -0.00036423537368235033 0 0.025761313306419172 -0.00046978295033328296 0 0.025491002397436426 -0.00036423537368235033 0 0.025761313306419172 -0.00046978295033328296 0 0.025832513481802998 -0.00018910328705884629 0 0.024975481309614765 -0.00054183195737301615 0 0.025102761918731523 -0.00061228479175954719 0 0.025046809614861269 -0.00045335381034876561 0 0.024909952927554404 -0.00065142900904572058 0 0.024975481309614765 -0.00054183195737301615 0 0.025102761918731523 -0.00061228479175954719 0 0.025102761918731523 -0.00061228479175954719 0 0.025225817254250799 -0.00044555562623024885 0 0.025046809614861269 -0.00045335381034876561 0 0.025411629549085386 -0.00059452599873390389 0 0.025102761918731523 -0.00061228479175954719 0 0.025225817254250799 -0.00044555562623024885 0 0.025225817254250799 -0.00044555562623024885 0 0.025075043134714453 -0.00025013100283132064 0 0.025304108458998109 -0.00024810095831095399 0 0.025225817254250799 -0.00044555562623024885 0 0.025046809614861269 -0.00045335381034876561 0 0.025075043134714453 -0.00025013100283132064 0 0.024975481309614765 -0.00054183195737301615 0 0.025046809614861269 -0.00045335381034876561 0 0.024790429321612767 -0.00029194364701407228 0 0.025046809614861269 -0.00045335381034876561 0 0.025075043134714453 -0.00025013100283132064 0 0.024790429321612767 -0.00029194364701407228 0 0.025022504983014084 -2.122310319130137e-05 0 0.025398311745799818 0.00015348382920580118 0 0.02472555132103834 0.00015392419925320451 0 0.025075043134714453 -0.00025013100283132064 0 0.025022504983014084 -2.122310319130137e-05 0 0.024790429321612767 -0.00029194364701407228 0 0.025075043134714453 -0.00025013100283132064 0 0.025242536084017133 -0.00010203320967200476 0 0.025304108458998109 -0.00024810095831095399 0 0.025075043134714453 -0.00025013100283132064 0 0.025242536084017133 -0.00010203320967200476 0 0.025022504983014084 -2.122310319130137e-05 0 0.025242536084017133 -0.00010203320967200476 0 0.025022504983014084 -2.122310319130137e-05 0 0.025398311745799818 0.00015348382920580118 0 0.025915799656190716 0.00012058229177392317 0 0.026060210783540313 0.00013267457511150163 0 0.026472105640368736 5.7872061270284992e-05 0 0.025491002397436426 -0.00036423537368235033 0 0.025832513481802998 -0.00018910328705884629 0 0.025445648888462923 -0.00013629469765288608 0 0.025491002397436426 -0.00036423537368235033 0 0.025304108458998109 -0.00024810095831095399 0 0.025445648888462923 -0.00013629469765288608 0 0.025242536084017133 -0.00010203320967200476 0 0.025304108458998109 -0.00024810095831095399 0 0.025445648888462923 -0.00013629469765288608 0 0.025242536084017133 -0.00010203320967200476 0 0.025445648888462923 -0.00013629469765288608 0 0.025398311745799818 0.00015348382920580118 0 0.025832513481802998 -0.00018910328705884629 0 0.025445648888462923 -0.00013629469765288608 0 0.025398311745799818 0.00015348382920580118 0 0.025648291217665067 0.00018798833028632882 0 0.026436637969155751 4.6057888699741669e-05 0 0.026060210783540313 0.00013267457511150163 0 0.026472105640368736 5.7872061270284992e-05 0 0.026350675647972586 0.00030669437970422985 0 0.025832513481802998 -0.00018910328705884629 0 0.025398311745799818 0.00015348382920580118 0 0.026472105640368736 5.7872061270284992e-05 0 0.025832513481802998 -0.00018910328705884629 0 0.026472105640368736 5.7872061270284992e-05 0 0.026115210048791887 -0.00037882042343132162 0 0.026472105640368736 5.7872061270284992e-05 0 0.026647587990381326 -0.00043736528009217916 0 0.026115210048791887 -0.00037882042343132162 0 0.027332462992976141 -4.3804232743404806e-05 0 0.026858781648158817 8.9072206319519429e-05 0 0.026647587990381326 -0.00043736528009217916 0 0.026472105640368736 5.7872061270284992e-05 0 0.026858781648158817 8.9072206319519429e-05 0 0.026681245779247968 0.00038098123312612687 0 0.027341827943040086 -0.00012416219069649105 0 0.026942693389170456 -0.00042444312794227438 0 0.026472105640368736 5.7872061270284992e-05 0 0.026858781648158817 8.9072206319519429e-05 0 0.026647587990381326 -0.00043736528009217916 0 0.027516703820077822 -0.00080983700802941165 0 0.026964336626458963 -0.0012301379916543757 0 0.026844114801010188 -0.00059396650757367658 0 0.026964336626458963 -0.0012301379916543757 0 0.026844114801010188 -0.00059396650757367658 0 0.02628853995561781 -0.00095830517932526233 0 0.026942693389170456 -0.00042444312794227438 0 0.02489674615735267 -0.0010522034843572737 0 0.026647587990381326 -0.00043736528009217916 0 0.025871901062858714 -0.00087395952610303624 0 0.026115210048791887 -0.00037882042343132162 0 0.025761313306419172 -0.00046978295033328296 0 0.025832513481802998 -0.00018910328705884629 0 0.026115210048791887 -0.00037882042343132162 0 0.025761313306419172 -0.00046978295033328296 0 0.025871901062858714 -0.00087395952610303624 0 0.026115210048791887 -0.00037882042343132162 0 0.026703562610951952 0.00069389052550647911 0 0.02672378331590506 0.00078882846503879056 0 0.025469165760764311 -0.00044046413229260775 0 0.025342742992282591 -0.000530844094910597 0 0.025417592357580485 -0.00057689497471676596 0 0.025480822180722781 -0.00024928356536139311 0 0.025469165760764311 -0.00044046413229260775 0 0.025346228298192441 -0.00034736926236419432 0 0.026703080567604766 0.00095071493191133745 0 0.026703562610951952 0.00069389052550647911 0 0.025469165760764311 -0.00044046413229260775 0 0.025346228298192441 -0.00034736926236419432 0 0.025348131659747586 -0.00043780418198865404 0 0.025346228298192441 -0.00034736926236419432 0 0.025348131659747586 -0.00043780418198865404 0 0.025217779931353254 -0.0004316226818824401 0 0.025469165760764311 -0.00044046413229260775 0 0.025348131659747586 -0.00043780418198865404 0 0.025342742992282591 -0.000530844094910597 0 0.025342742992282591 -0.000530844094910597 0 0.025210913196661567 -0.00053798462791066891 0 0.025209160356255481 -0.00044066874054570605 0 0.025348131659747586 -0.00043780418198865404 0 0.025342742992282591 -0.000530844094910597 0 0.025217779931353254 -0.0004316226818824401 0 0.02532700493729852 -0.00052938784462626246 0 0.025250951756652252 -0.00039775542045922361 0 0.025210913196661567 -0.00053798462791066891 0 0.025209160356255481 -0.00044066874054570605 0 0.025077708611967453 -0.00052872941851768104 0 0.02552396195146911 -0.00022200698600722274 0 0.025250951756652252 -0.00039775542045922361 0 0.025981261914647731 0.00012909486636404082 0 0.025199852195018357 -0.00037482337994025887 0 0.025505986752011919 0.00027620026688178533 0 0.025142183526425627 0.00045754007267897182 0 0.025505986752011919 0.00027620026688178533 0 0.025131296130148369 0.00013378437008413382 0 0.025199852195018357 -0.00037482337994025887 0 0.025505986752011919 0.00027620026688178533 0 0.025131296130148369 0.00013378437008413382 0 0.025142183526425627 0.00045754007267897182 0 0.025131296130148369 0.00013378437008413382 0 0.024883563263278823 0.00032981121660718543 0 0.025250951756652252 -0.00039775542045922361 0 0.024474587800071439 -0.00013111606387822142 0 0.025199852195018357 -0.00037482337994025887 0 0.025131296130148369 0.00013378437008413382 0 0.024616613200111225 0.00010070720706473425 0 0.024722022781242518 -0.00075885194501524428 0 0.024909952927554404 -0.00065142900904572058 0 0.024864454367063745 -0.00065569100816740861 0 0.025295583894336452 -0.0003870089276164396 0 0.025025108118249307 -0.00016611883521401997 0 0.025077708611967453 -0.00052872941851768104 0 0.024770126002775426 0.00057836843369734334 0 0.024883563263278823 0.00032981121660718543 0 0.024616613200111225 0.00010070720706473425 0 0.025131296130148369 0.00013378437008413382 0 0.024883563263278823 0.00032981121660718543 0 0.024616613200111225 0.00010070720706473425 0 0.022340103182380628 0.00069856337425896575 0 0.024474587800071439 -0.00013111606387822142 0 0.025025108118249307 -0.00016611883521401997 0 0.025003710301626458 -0.00051196049427395184 0 0.025077708611967453 -0.00052872941851768104 0 0.024909952927554404 -0.00065142900904572058 0 0.025025108118249307 -0.00016611883521401997 0 0.025003710301626458 -0.00051196049427395184 0 0.024976556039019875 -0.00070783800214956462 0 0.024474587800071439 -0.00013111606387822142 0 0.025250951756652252 -0.00039775542045922361 0 0.02510613722653636 -0.00050563147800356456 0 0.025077708611967453 -0.00052872941851768104 0 0.024982834641030221 -0.00061283713053745441 0 0.025135357949557249 -0.00058499179180817023 0 0.025210913196661567 -0.00053798462791066891 0 0.025077708611967453 -0.00052872941851768104 0 0.025135357949557249 -0.00058499179180817023 0 0.024909952927554404 -0.00065142900904572058 0 0.025003710301626458 -0.00051196049427395184 0 0.024982834641030221 -0.00061283713053745441 0 0.025003710301626458 -0.00051196049427395184 0 0.025077708611967453 -0.00052872941851768104 0 0.024982834641030221 -0.00061283713053745441 0 0.024980933287359092 -0.00057079915731175497 0 0.024975654193264422 -0.00043922763647862397 0 0.025135357949557249 -0.00058499179180817023 0 0.025159479106244605 -0.00063509367146029696 0 0.025238219586934611 -0.00059125502512705989 0 0.025159479106244605 -0.00063509367146029696 0 0.025299833032169983 -0.00062557575067713098 0 0.025238219586934611 -0.00059125502512705989 0 0.024975481309614765 -0.00054183195737301615 0 0.024982834641030221 -0.00061283713053745441 0 0.024790429321612767 -0.00029194364701407228 0 0.024982834641030221 -0.00061283713053745441 0 0.025135357949557249 -0.00058499179180817023 0 0.025159479106244605 -0.00063509367146029696 0 0.024909952927554404 -0.00065142900904572058 0 0.024975481309614765 -0.00054183195737301615 0 0.024982834641030221 -0.00061283713053745441 0 0.025159479106244605 -0.00063509367146029696 0 0.025299833032169983 -0.00062557575067713098 0 0.025206562796181796 -0.00070277167938951853 0 0.025022504983014084 -2.122310319130137e-05 0 0.024790429321612767 -0.00029194364701407228 0 0.02472555132103834 0.00015392419925320451 0 0.024975654193264422 -0.00043922763647862397 0 0.025440737050147055 -0.00028877899181841164 0 0.025299833032169983 -0.00062557575067713098 0 0.025454811060093667 -0.00060647705445404198 0 0.025206562796181796 -0.00070277167938951853 0 0.025299833032169983 -0.00062557575067713098 0 0.025238219586934611 -0.00059125502512705989 0 0.025383501840671112 -0.00061152078051049483 0 0.025299833032169983 -0.00062557575067713098 0 0.025383501840671112 -0.00061152078051049483 0 0.025454811060093667 -0.00060647705445404198 0 0.025342742992282591 -0.000530844094910597 0 0.025210913196661567 -0.00053798462791066891 0 0.025238219586934611 -0.00059125502512705989 0 0.025210913196661567 -0.00053798462791066891 0 0.025135357949557249 -0.00058499179180817023 0 0.025238219586934611 -0.00059125502512705989 0 0.025342742992282591 -0.000530844094910597 0 0.025238219586934611 -0.00059125502512705989 0 0.025383501840671112 -0.00061152078051049483 0 0.025342742992282591 -0.000530844094910597 0 0.025383501840671112 -0.00061152078051049483 0 0.025417592357580485 -0.00057689497471676596 0 0.025383501840671112 -0.00061152078051049483 0 0.025325244225788485 -0.00056017899668191077 0 0.025454811060093667 -0.00060647705445404198 0 0.025383501840671112 -0.00061152078051049483 0 0.025417592357580485 -0.00057689497471676596 0 0.025325244225788485 -0.00056017899668191077 0 0.02672378331590506 0.00078882846503879056 0 0.026718236181388834 0.00088074827162100693 0 0.025251962864332296 -0.00030115131839270661 0 0.025325244225788485 -0.00056017899668191077 0 0.025451189563092041 -0.00037014469948482232 0 0.025251962864332296 -0.00030115131839270661 0 0.025451189563092041 -0.00037014469948482232 0 0.025452286528253269 -0.00014166422326990899 0 0.025325244225788485 -0.00056017899668191077 0 0.025454811060093667 -0.00060647705445404198 0 0.025451189563092041 -0.00037014469948482232 0 0.025454811060093667 -0.00060647705445404198 0 0.025451189563092041 -0.00037014469948482232 0 0.025649578551438058 -0.00040732317706670826 0 0.025451189563092041 -0.00037014469948482232 0 0.025649578551438058 -0.00040732317706670826 0 0.025659144064981862 -0.00015656396841463052 0 0.025649578551438058 -0.00040732317706670826 0 0.025871422888435119 -0.00029263484616880083 0 0.025659144064981862 -0.00015656396841463052 0 0.025505856437116593 -0.00070983463780864542 0 0.025440737050147055 -0.00028877899181841164 0 0.025454811060093667 -0.00060647705445404198 0 0.025649578551438058 -0.00040732317706670826 0 0.025891751239159117 -0.00067339869997457816 0 0.025893551555403006 0.00014331629405989869 0 0.025923672361905008 0.00012259787639918579 0 0.025896329094510007 0.00014558844856664256 0 0.025440737050147055 -0.00028877899181841164 0 0.025949615075930157 -8.1976336002017404e-05 0 0.025649578551438058 -0.00040732317706670826 0 0.025891751239159117 -0.00067339869997457816 0 0.025871422888435119 -0.00029263484616880083 0 0.025949615075930157 -8.1976336002017404e-05 0 0.025883379328217396 5.7175463424703445e-05 0 0.025923672361905008 0.00012259787639918579 0 0.025916074185583619 7.2217667719593352e-05 0 0.025897268652041023 5.9364598177468492e-05 0 0.025923672361905008 0.00012259787639918579 0 0.025916074185583619 7.2217667719593352e-05 0 0.025904586750534014 0.00011066401187878845 0 0.025916074185583619 7.2217667719593352e-05 0 0.025904586750534014 0.00011066401187878845 0 0.025893692077916839 7.313096961941392e-05 0 0.025916074185583619 7.2217667719593352e-05 0 0.025897268652041023 5.9364598177468492e-05 0 0.025996290503719394 6.0849650279539261e-05 0 0.025753054842648337 0.0001367062415883234 0 0.026791761508099501 0.00060648514531170454 0 0.025897268652041023 5.9364598177468492e-05 0 0.025996290503719394 6.0849650279539261e-05 0 0.025996693348888031 0.00017011924488066554 0 0.025897268652041023 5.9364598177468492e-05 0 0.025660640251949498 0.00014035609969743895 0 0.025996693348888031 0.00017011924488066554 0 0.025897268652041023 5.9364598177468492e-05 0 0.025719759056450443 1.2198074314957668e-05 0 0.025659144064981862 -0.00015656396841463052 0 0.025897268652041023 5.9364598177468492e-05 0 0.025660640251949498 0.00014035609969743895 0 0.025719759056450443 1.2198074314957668e-05 0 0.025660640251949498 0.00014035609969743895 0 0.025719759056450443 1.2198074314957668e-05 0 0.025591747961292894 -2.7851618089415649e-05 0 0.025719759056450443 1.2198074314957668e-05 0 0.025659144064981862 -0.00015656396841463052 0 0.025591747961292894 -2.7851618089415649e-05 0 0.025871422888435119 -0.00029263484616880083 0 0.025897268652041023 5.9364598177468492e-05 0 0.025659144064981862 -0.00015656396841463052 0 0.025451189563092041 -0.00037014469948482232 0 0.025659144064981862 -0.00015656396841463052 0 0.025452286528253269 -0.00014166422326990899 0 0.025659144064981862 -0.00015656396841463052 0 0.025452286528253269 -0.00014166422326990899 0 0.025591747961292894 -2.7851618089415649e-05 0 0.028175628789975805 -0.00044946558122497919 0 0.027810948958780172 0.00045222703045478532 0 0.025660640251949498 0.00014035609969743895 0 0.025591747961292894 -2.7851618089415649e-05 0 0.025469888919826326 4.3169525967085421e-06 0 0.025660640251949498 0.00014035609969743895 0 0.025469888919826326 4.3169525967085421e-06 0 0.025318531690840571 8.7184705314703761e-05 0 0.025452286528253269 -0.00014166422326990899 0 0.025591747961292894 -2.7851618089415649e-05 0 0.025469888919826326 4.3169525967085421e-06 0 0.025469888919826326 4.3169525967085421e-06 0 0.025318531690840571 8.7184705314703761e-05 0 0.025342148090292876 -7.0249092102192651e-05 0 0.027951117961603687 0.0015777262816039934 0 0.027810948958780172 0.00045222703045478532 0 0.027432942510653008 0.0011185757112500722 0 0.027810948958780172 0.00045222703045478532 0 0.028300861279469468 0.001908021258601891 0 0.028359988143633743 0.0019245028548847765 0 0.028334574807664544 0.001961510042950817 0 0.025223908002456639 8.6641444921160298e-06 0 0.025318531690840571 8.7184705314703761e-05 0 0.025342148090292876 -7.0249092102192651e-05 0 0.025251962864332296 -0.00030115131839270661 0 0.025452286528253269 -0.00014166422326990899 0 0.025342148090292876 -7.0249092102192651e-05 0 0.025251962864332296 -0.00030115131839270661 0 0.025223908002456639 8.6641444921160298e-06 0 0.025342148090292876 -7.0249092102192651e-05 0 0.025452286528253269 -0.00014166422326990899 0 0.025469888919826326 4.3169525967085421e-06 0 0.025342148090292876 -7.0249092102192651e-05 0 0.026507328325606306 0.00092511066701159292 0 0.02675686397005261 0.00071326307065835526 0 0.026425392843483334 0.00059019432582619561 0 0.026507328325606306 0.00092511066701159292 0 0.026425392843483334 0.00059019432582619561 0 0.026114633242922836 0.00087730010469540352 0 0.026425392843483334 0.00059019432582619561 0 0.026123997835474727 0.00055097295675254768 0 0.026114633242922836 0.00087730010469540352 0 0.026309760090709389 0.001158720018689381 0 0.026507328325606306 0.00092511066701159292 0 0.026114633242922836 0.00087730010469540352 0 0.026507328325606306 0.00092511066701159292 0 0.026862572843989161 0.0010601416375710718 0 0.02661728894399748 0.0012653310714094898 0 0.026309760090709389 0.001158720018689381 0 0.026507328325606306 0.00092511066701159292 0 0.02661728894399748 0.0012653310714094898 0 0.027292108213869414 0.0012447351194693874 0 0.026862572843989161 0.0010601416375710718 0 0.027158195249374854 0.00080552530503871138 0 0.026862572843989161 0.0010601416375710718 0 0.027158195249374854 0.00080552530503871138 0 0.02675686397005261 0.00071326307065835526 0 0.026507328325606306 0.00092511066701159292 0 0.026862572843989161 0.0010601416375710718 0 0.02675686397005261 0.00071326307065835526 0 0.02675686397005261 0.00071326307065835526 0 0.027042900490295924 0.00043370294441680897 0 0.026681245779247968 0.00038098123312612687 0 0.027158195249374854 0.00080552530503871138 0 0.02675686397005261 0.00071326307065835526 0 0.027042900490295924 0.00043370294441680897 0 0.027332462992976141 -4.3804232743404806e-05 0 0.026858781648158817 8.9072206319519429e-05 0 0.027042900490295924 0.00043370294441680897 0 0.026858781648158817 8.9072206319519429e-05 0 0.027042900490295924 0.00043370294441680897 0 0.026681245779247968 0.00038098123312612687 0 0.026472105640368736 5.7872061270284992e-05 0 0.026681245779247968 0.00038098123312612687 0 0.026350675647972586 0.00030669437970422985 0 0.02675686397005261 0.00071326307065835526 0 0.026681245779247968 0.00038098123312612687 0 0.026425392843483334 0.00059019432582619561 0 0.026681245779247968 0.00038098123312612687 0 0.026425392843483334 0.00059019432582619561 0 0.026350675647972586 0.00030669437970422985 0 0.026425392843483334 0.00059019432582619561 0 0.026350675647972586 0.00030669437970422985 0 0.026123997835474727 0.00055097295675254768 0 0.026060210783540313 0.00013267457511150163 0 0.026350675647972586 0.00030669437970422985 0 0.026123997835474727 0.00055097295675254768 0 0.026092487613387959 8.9003512293793976e-05 0 0.025606825221530818 0.00064689828413393234 0 0.025915799656190716 0.00012058229177392317 0 0.026060210783540313 0.00013267457511150163 0 0.025885999190487331 0.00016235776883446107 0 0.026060210783540313 0.00013267457511150163 0 0.026123997835474727 0.00055097295675254768 0 0.025665191351119485 0.000924142012429527 0 0.025915799656190716 0.00012058229177392317 0 0.025896329094510007 0.00014558844856664256 0 0.025885999190487331 0.00016235776883446107 0 0.025648291217665067 0.00018798833028632882 0 0.025440737050147055 -0.00028877899181841164 0 0.025915799656190716 0.00012058229177392317 0 0.025893551555403006 0.00014331629405989869 0 0.025896329094510007 0.00014558844856664256 0 0.025923672361905008 0.00012259787639918579 0 0.025896329094510007 0.00014558844856664256 0 0.025885999190487331 0.00016235776883446107 0 0.025923672361905008 0.00012259787639918579 0 0.025885999190487331 0.00016235776883446107 0 0.025904586750534014 0.00011066401187878845 0 0.025665191351119485 0.000924142012429527 0 0.026114633242922836 0.00087730010469540352 0 0.025875564603200091 0.0014529037608019088 0 0.026309760090709389 0.001158720018689381 0 0.026114633242922836 0.00087730010469540352 0 0.025875564603200091 0.0014529037608019088 0 0.026123997835474727 0.00055097295675254768 0 0.025665191351119485 0.000924142012429527 0 0.026114633242922836 0.00087730010469540352 0 0.026309760090709389 0.001158720018689381 0 0.025875564603200091 0.0014529037608019088 0 0.026256035315135408 0.001498807889408923 0 0.025875564603200091 0.0014529037608019088 0 0.02621846082720232 0.0019507767746097058 0 0.026256035315135408 0.001498807889408923 0 0.025665191351119485 0.000924142012429527 0 0.025875564603200091 0.0014529037608019088 0 0.025328538499699613 0.0017236327176397988 0 0.025885999190487331 0.00016235776883446107 0 0.025904586750534014 0.00011066401187878845 0 0.025893692077916839 7.313096961941392e-05 0 0.025606825221530818 0.00064689828413393234 0 0.026791761508099501 0.00060648514531170454 0 0.026791761508099501 0.00060648514531170454 0 0.029873100929481755 0.00020609287534346829 0 0.029091666716937303 0.00014905250919151081 0 0.029406480889437793 0.0004548587912075431 0 0.028892681695784524 0.00062497590942623175 0 0.026791761508099501 0.00060648514531170454 0 0.028159483940153843 0.0011954726490297255 0 0.025875564603200091 0.0014529037608019088 0 0.025328538499699613 0.0017236327176397988 0 0.02621846082720232 0.0019507767746097058 0 0.029406480889437793 0.0004548587912075431 0 0.029928257007793193 0.00032907453190131455 0 0.029717129013234096 0.00071392528747999231 0 0.029091666716937303 0.00014905250919151081 0 0.029406480889437793 0.0004548587912075431 0 0.029928257007793193 0.00032907453190131455 0 0.028159483940153843 0.0011954726490297255 0 0.029020777331027665 0.0013598601392706554 0 0.02621846082720232 0.0019507767746097058 0 0.026580036476017768 0.0016048296843367467 0 0.026901590217116026 0.00179475336421622 0 0.02621846082720232 0.0019507767746097058 0 0.026256035315135408 0.001498807889408923 0 0.026580036476017768 0.0016048296843367467 0 0.026256035315135408 0.001498807889408923 0 0.026580036476017768 0.0016048296843367467 0 0.02661728894399748 0.0012653310714094898 0 0.026309760090709389 0.001158720018689381 0 0.026256035315135408 0.001498807889408923 0 0.02661728894399748 0.0012653310714094898 0 0.027292108213869414 0.0012447351194693874 0 0.026907923750346899 0.001425789913402089 0 0.027206509129385735 0.0016092201087796645 0 0.027292108213869414 0.0012447351194693874 0 0.026862572843989161 0.0010601416375710718 0 0.026907923750346899 0.001425789913402089 0 0.026862572843989161 0.0010601416375710718 0 0.02661728894399748 0.0012653310714094898 0 0.026907923750346899 0.001425789913402089 0 0.026580036476017768 0.0016048296843367467 0 0.02661728894399748 0.0012653310714094898 0 0.026907923750346899 0.001425789913402089 0 0.026580036476017768 0.0016048296843367467 0 0.026907923750346899 0.001425789913402089 0 0.026901590217116026 0.00179475336421622 0 0.026907923750346899 0.001425789913402089 0 0.027206509129385735 0.0016092201087796645 0 0.026901590217116026 0.00179475336421622 0 0.027300656629225629 0.0018461065719621039 0 0.027206509129385735 0.0016092201087796645 0 0.026901590217116026 0.00179475336421622 0 0.029928257007793193 0.00032907453190131455 0 0.030765450296541395 0.00050952583044796781 0 0.030550118360793656 0.00079103452377325603 0 0.027300656629225629 0.0018461065719621039 0 0.026901590217116026 0.00179475336421622 0 0.0271570350207328 0.0022295266104944578 0 0.02621846082720232 0.0019507767746097058 0 0.026901590217116026 0.00179475336421622 0 0.0271570350207328 0.0022295266104944578 0 0.032490879675739714 0.00090117483494877974 0 0.032446999955461027 0.0007556245482794147 0 0.032283503398462143 0.00076612586979007513 0 0.032446999955461027 0.0007556245482794147 0 0.03250128701438941 0.00065622320567754915 0 0.032591024222876998 0.0007648864146048164 0 0.032490879675739714 0.00090117483494877974 0 0.032446999955461027 0.0007556245482794147 0 0.032591024222876998 0.0007648864146048164 0 0.032446999955461027 0.0007556245482794147 0 0.03250128701438941 0.00065622320567754915 0 0.032354910384714775 0.00069321346391393627 0 0.03250128701438941 0.00065622320567754915 0 0.032473290190386007 0.00052862752356544853 0 0.032354910384714775 0.00069321346391393627 0 0.03250128701438941 0.00065622320567754915 0 0.032591024222876998 0.0007648864146048164 0 0.032592144770376773 0.00053996804396148836 0 0.032746549773662481 0.00063538078727678516 0 0.032591024222876998 0.0007648864146048164 0 0.032632213153382696 0.00050697444649865997 0 0.032601244893991507 0.00071899894526803755 0 0.032549813270241645 0.00059693603566740561 0 0.032746549773662481 0.00063538078727678516 0 0.032591024222876998 0.0007648864146048164 0 0.032693313451712287 0.00078034946746396321 0 0.032490879675739714 0.00090117483494877974 0 0.032693313451712287 0.00078034946746396321 0 0.032743054837226539 0.00083848116765844526 0 0.032490879675739714 0.00090117483494877974 0 0.032743054837226539 0.00083848116765844526 0 0.032818009632860363 0.00092227178100258401 0 0.029928257007793193 0.00032907453190131455 0 0.030550118360793656 0.00079103452377325603 0 0.029717129013234096 0.00071392528747999231 0 0.031504024830909916 0.00086466278993194915 0 0.031334624024609126 0.00066930595868162576 0 0.032490879675739714 0.00090117483494877974 0 0.032591024222876998 0.0007648864146048164 0 0.032693313451712287 0.00078034946746396321 0 0.032893936896386256 0.00093041895209589965 0 0.032863344218470598 0.00084250945688845152 0 0.03304518278293414 0.00069454254753703061 0 0.029406480889437793 0.0004548587912075431 0 0.029717129013234096 0.00071392528747999231 0 0.029530610596688989 0.00069391336304031786 0 0.032818009632860363 0.00092227178100258401 0 0.032893936896386256 0.00093041895209589965 0 0.032863344218470598 0.00084250945688845152 0 0.031334624024609126 0.00066930595868162576 0 0.031974613947070428 0.00041831099526545249 0 0.032743054837226539 0.00083848116765844526 0 0.032863344218470598 0.00084250945688845152 0 0.032851528912995497 0.00074965966488852094 0 0.032743054837226539 0.00083848116765844526 0 0.032818009632860363 0.00092227178100258401 0 0.032863344218470598 0.00084250945688845152 0 0.031974613947070428 0.00041831099526545249 0 0.03304459824867273 0.00067131991349946225 0 0.029406480889437793 0.0004548587912075431 0 0.029530610596688989 0.00069391336304031786 0 0.028892681695784524 0.00062497590942623175 0 0.033305883118861908 -2.1863994939241779e-06 0 0.032906974650924868 0.000228097854889405 0 0.032879208635189013 0.00071293678400259131 0 0.033305883118861908 -2.1863994939241779e-06 0 0.032906974650924868 0.000228097854889405 0 0.032581000539499028 -6.9361400802099397e-05 0 0.031974613947070428 0.00041831099526545249 0 0.029873100929481755 0.00020609287534346829 0 0.032906974650924868 0.000228097854889405 0 0.032879208635189013 0.00071293678400259131 0 0.032724981008192738 0.00054860252357246298 0 0.03304518278293414 0.00069454254753703061 0 0.032914701762214255 0.00063604347169356245 0 0.032998394860214303 0.00053679759485646009 0 0.032879208635189013 0.00071293678400259131 0 0.032724981008192738 0.00054860252357246298 0 0.032887774261395046 0.00072746692509396526 0 0.032863344218470598 0.00084250945688845152 0 0.03304518278293414 0.00069454254753703061 0 0.032851528912995497 0.00074965966488852094 0 0.03304518278293414 0.00069454254753703061 0 0.032851528912995497 0.00074965966488852094 0 0.032914701762214255 0.00063604347169356245 0 0.032746549773662481 0.00063538078727678516 0 0.032693313451712287 0.00078034946746396321 0 0.032851528912995497 0.00074965966488852094 0 0.032693313451712287 0.00078034946746396321 0 0.032743054837226539 0.00083848116765844526 0 0.032851528912995497 0.00074965966488852094 0 0.032746549773662481 0.00063538078727678516 0 0.032851528912995497 0.00074965966488852094 0 0.032914701762214255 0.00063604347169356245 0 0.032746549773662481 0.00063538078727678516 0 0.032887334659874513 0.00051682706901700227 0 0.032769413789978642 0.00042388453044192738 0 0.032746549773662481 0.00063538078727678516 0 0.032914701762214255 0.00063604347169356245 0 0.032887334659874513 0.00051682706901700227 0 0.032914701762214255 0.00063604347169356245 0 0.032887334659874513 0.00051682706901700227 0 0.032998394860214303 0.00053679759485646009 0 0.032887334659874513 0.00051682706901700227 0 0.032998394860214303 0.00053679759485646009 0 0.032930387882041688 0.00035493513934615182 0 0.032887334659874513 0.00051682706901700227 0 0.032769413789978642 0.00042388453044192738 0 0.032930387882041688 0.00035493513934615182 0 0.03304459824867273 0.00067131991349946225 0 0.033510238263294599 0.00040998801760380027 0 0.03304518278293414 0.00069454254753703061 0 0.032998394860214303 0.00053679759485646009 0 0.03319153762665264 0.00045847210572555101 0 0.032998394860214303 0.00053679759485646009 0 0.032930387882041688 0.00035493513934615182 0 0.03319153762665264 0.00045847210572555101 0 0.032879208635189013 0.00071293678400259131 0 0.032887774261395046 0.00072746692509396526 0 0.032958843740104632 0.00051227698405173353 0 0.034176116769654041 0.00011937385815326874 0 0.034066290149911513 0.00016238790765910811 0 0.034220601403351675 0.00022928095401678612 0 0.033503418788925973 0.00025876543986120144 0 0.033510238263294599 0.00040998801760380027 0 0.034176116769654041 0.00011937385815326874 0 0.034066290149911513 0.00016238790765910811 0 0.034130826628319129 6.9557623491732417e-05 0 0.034066290149911513 0.00016238790765910811 0 0.033912139346785226 9.8026374090403741e-05 0 0.033996595207411107 5.4153197673219225e-05 0 0.033503418788925973 0.00025876543986120144 0 0.033461983888350193 0.0001190824656907146 0 0.032769413789978642 0.00042388453044192738 0 0.032930387882041688 0.00035493513934615182 0 0.032675760410563977 0.000250915281258596 0 0.033461983888350193 0.0001190824656907146 0 0.032549813270241645 0.00059693603566740561 0 0.032584726465530206 0.0004558984976245975 0 0.032529969608741945 0.00048811504939347603 0 0.032592144770376773 0.00053996804396148836 0 0.032769413789978642 0.00042388453044192738 0 0.032675760410563977 0.000250915281258596 0 0.032632213153382696 0.00050697444649865997 0 0.032584726465530206 0.0004558984976245975 0 0.032529969608741945 0.00048811504939347603 0 0.032532817688102254 0.00045344965486148316 0 0.032529969608741945 0.00048811504939347603 0 0.032532817688102254 0.00045344965486148316 0 0.032493715265335579 0.00049345083364722394 0 0.032529969608741945 0.00048811504939347603 0 0.032473290190386007 0.00052862752356544853 0 0.032493715265335579 0.00049345083364722394 0 0.032529969608741945 0.00048811504939347603 0 0.032473290190386007 0.00052862752356544853 0 0.032592144770376773 0.00053996804396148836 0 0.03250128701438941 0.00065622320567754915 0 0.032473290190386007 0.00052862752356544853 0 0.032592144770376773 0.00053996804396148836 0 0.032746549773662481 0.00063538078727678516 0 0.032769413789978642 0.00042388453044192738 0 0.032632213153382696 0.00050697444649865997 0 0.028363635741759454 0.0020002623252426198 0 0.02834160510916179 0.0020118052794795317 0 0.028398305001137176 0.0019968917688053043 0 0.028363635741759454 0.0020002623252426198 0 0.028398305001137176 0.0019968917688053043 0 0.028412381603382421 0.0020164193089877137 0 0.028398305001137176 0.0019968917688053043 0 0.028469675605502228 0.0020046187475277573 0 0.028412381603382421 0.0020164193089877137 0 0.028398305001137176 0.0019968917688053043 0 0.028384954420825236 0.0019698037269972467 0 0.028437487178834299 0.0019760823245450095 0 0.02834160510916179 0.0020118052794795317 0 0.028398305001137176 0.0019968917688053043 0 0.028384954420825236 0.0019698037269972467 0 0.02834160510916179 0.0020118052794795317 0 0.028302237335207345 0.0020253409471376166 0 0.028384954420825236 0.0019698037269972467 0 0.028359988143633743 0.0019245028548847765 0 0.028384954420825236 0.0019698037269972467 0 0.028503946499289619 0.0019404750094239656 0 0.028359988143633743 0.0019245028548847765 0 0.028334574807664544 0.001961510042950817 0 0.028384954420825236 0.0019698037269972467 0 0.028302237335207345 0.0020253409471376166 0 0.028334574807664544 0.001961510042950817 0 0.028384954420825236 0.0019698037269972467 0 0.027810948958780172 0.00045222703045478532 0 0.029661128470521946 0.0011391811197304484 0 0.028384954420825236 0.0019698037269972467 0 0.028503946499289619 0.0019404750094239656 0 0.028437487178834299 0.0019760823245450095 0 0.031129456754058593 -0.00071075024524314579 0 0.029373181748488155 -0.0008795246561499727 0 0.030828007253919366 0.00023449625206966741 0 0.028398305001137176 0.0019968917688053043 0 0.028437487178834299 0.0019760823245450095 0 0.028469675605502228 0.0020046187475277573 0 0.028503946499289619 0.0019404750094239656 0 0.028437487178834299 0.0019760823245450095 0 0.028469675605502228 0.0020046187475277573 0 0.028503946499289619 0.0019404750094239656 0 0.028469675605502228 0.0020046187475277573 0 0.028568722124997125 0.0020182012261687398 0 0.030828007253919366 0.00023449625206966741 0 0.031863985136698116 0.00043066374725288128 0 0.032197247008885821 0.0011265152777165512 0 0.029661128470521946 0.0011391811197304484 0 0.031619216609992375 0.0012862790947260341 0 0.028503946499289619 0.0019404750094239656 0 0.028568722124997125 0.0020182012261687398 0 0.028723789517026959 0.0020368590000690002 0 0.031129456754058593 -0.00071075024524314579 0 0.031804695256469867 -5.9451490694643152e-05 0 0.032750152897017493 -0.00050967338679752368 0 0.030828007253919366 0.00023449625206966741 0 0.031863985136698116 0.00043066374725288128 0 0.031804695256469867 -5.9451490694643152e-05 0 0.031129456754058593 -0.00071075024524314579 0 0.030828007253919366 0.00023449625206966741 0 0.031804695256469867 -5.9451490694643152e-05 0 0.028175628789975805 -0.00044946558122497919 0 0.029873100929481755 0.00020609287534346829 0 0.031863985136698116 0.00043066374725288128 0 0.031804695256469867 -5.9451490694643152e-05 0 0.032427489794188732 0.00026417946394286272 0 0.031804695256469867 -5.9451490694643152e-05 0 0.032427489794188732 0.00026417946394286272 0 0.032750152897017493 -0.00050967338679752368 0 0.032315880044353297 -0.00034092906189175655 0 0.029873100929481755 0.00020609287534346829 0 0.032906974650924868 0.000228097854889405 0 0.032427489794188732 0.00026417946394286272 0 0.032581000539499028 -6.9361400802099397e-05 0 0.032427489794188732 0.00026417946394286272 0 0.032724981008192738 0.00054860252357246298 0 0.032430203264324282 0.00063691778088959461 0 0.032906974650924868 0.000228097854889405 0 0.032427489794188732 0.00026417946394286272 0 0.032724981008192738 0.00054860252357246298 0 0.031863985136698116 0.00043066374725288128 0 0.032427489794188732 0.00026417946394286272 0 0.032430203264324282 0.00063691778088959461 0 0.031863985136698116 0.00043066374725288128 0 0.032430203264324282 0.00063691778088959461 0 0.032197247008885821 0.0011265152777165512 0 0.032430203264324282 0.00063691778088959461 0 0.032887774261395046 0.00072746692509396526 0 0.032197247008885821 0.0011265152777165512 0 0.032724981008192738 0.00054860252357246298 0 0.032430203264324282 0.00063691778088959461 0 0.032887774261395046 0.00072746692509396526 0 0.032887774261395046 0.00072746692509396526 0 0.03326659937744026 0.00075423862821531577 0 0.033158931347330431 0.00065904353276236395 0 0.032887774261395046 0.00072746692509396526 0 0.033158931347330431 0.00065904353276236395 0 0.032958843740104632 0.00051227698405173353 0 0.033124212298511722 0.00075541769101254046 0 0.031619216609992375 0.0012862790947260341 0 0.033447134725042273 0.00079028422040080507 0 0.033158931347330431 0.00065904353276236395 0 0.033675214910622683 0.00057190528660703427 0 0.031619216609992375 0.0012862790947260341 0 0.03234639341584044 0.0013543861160333374 0 0.033510238263294599 0.00040998801760380027 0 0.03355446933307555 0.00054100055696996747 0 0.033409614787348198 0.00039155095033628726 0 0.033716606302942258 0.00037311205783937504 0 0.033675214910622683 0.00057190528660703427 0 0.033409614787348198 0.00039155095033628726 0 0.033699867533010158 0.00024024819749161389 0 0.033716606302942258 0.00037311205783937504 0 0.033158931347330431 0.00065904353276236395 0 0.032958843740104632 0.00051227698405173353 0 0.033675214910622683 0.00057190528660703427 0 0.033409614787348198 0.00039155095033628726 0 0.033699867533010158 0.00024024819749161389 0 0.033775508487151294 -3.5280861962329659e-05 0 0.034176116769654041 0.00011937385815326874 0 0.034220601403351675 0.00022928095401678612 0 0.03424463923728123 0.00010271420514987444 0 0.033510238263294599 0.00040998801760380027 0 0.034083230201092385 7.0444783970201996e-06 0 0.034220601403351675 0.00022928095401678612 0 0.03424463923728123 0.00010271420514987444 0 0.034311328926282234 9.3777016878858534e-05 0 0.033699867533010158 0.00024024819749161389 0 0.033843541986372155 0.00022753357443443321 0 0.033716606302942258 0.00037311205783937504 0 0.033843541986372155 0.00022753357443443321 0 0.033961208197029212 0.0003069809896846077 0 0.033716606302942258 0.00037311205783937504 0 0.033843541986372155 0.00022753357443443321 0 0.033854940767045934 0.00010637524007161616 0 0.033982065210382571 0.00012964141265384108 0 0.033699867533010158 0.00024024819749161389 0 0.033843541986372155 0.00022753357443443321 0 0.033854940767045934 0.00010637524007161616 0 0.033699867533010158 0.00024024819749161389 0 0.033854940767045934 0.00010637524007161616 0 0.033775508487151294 -3.5280861962329659e-05 0 0.033854940767045934 0.00010637524007161616 0 0.033969626845774648 1.6614523668636134e-05 0 0.033775508487151294 -3.5280861962329659e-05 0 0.033854940767045934 0.00010637524007161616 0 0.033969626845774648 1.6614523668636134e-05 0 0.033982065210382571 0.00012964141265384108 0 0.03411404794502481 2.6437623562536127e-05 0 0.033982065210382571 0.00012964141265384108 0 0.034211697227302218 0.00015518885883242448 0 0.03411404794502481 2.6437623562536127e-05 0 0.033969626845774648 1.6614523668636134e-05 0 0.033982065210382571 0.00012964141265384108 0 0.033982065210382571 0.00012964141265384108 0 0.033961208197029212 0.0003069809896846077 0 0.034211697227302218 0.00015518885883242448 0 0.033843541986372155 0.00022753357443443321 0 0.033982065210382571 0.00012964141265384108 0 0.033961208197029212 0.0003069809896846077 0 0.031619216609992375 0.0012862790947260341 0 0.031273874529297335 0.0012640698525154643 0 0.033447134725042273 0.00079028422040080507 0 0.033675214910622683 0.00057190528660703427 0 0.034323196144463691 0.00040599691548036393 0 0.033961208197029212 0.0003069809896846077 0 0.033675214910622683 0.00057190528660703427 0 0.034323196144463691 0.00040599691548036393 0 0.028568722124997125 0.0020182012261687398 0 0.028723789517026959 0.0020368590000690002 0 0.028497015617693796 0.0020749754734260984 0 0.033961208197029212 0.0003069809896846077 0 0.033716606302942258 0.00037311205783937504 0 0.033675214910622683 0.00057190528660703427 0 0.028469675605502228 0.0020046187475277573 0 0.028568722124997125 0.0020182012261687398 0 0.028497015617693796 0.0020749754734260984 0 0.028469675605502228 0.0020046187475277573 0 0.028497015617693796 0.0020749754734260984 0 0.028412381603382421 0.0020164193089877137 0 0.033961208197029212 0.0003069809896846077 0 0.034323196144463691 0.00040599691548036393 0 0.034211697227302218 0.00015518885883242448 0 0.03411404794502481 2.6437623562536127e-05 0 0.034211697227302218 0.00015518885883242448 0 0.03428663409425068 -1.8670643582708108e-05 0 0.034211697227302218 0.00015518885883242448 0 0.034493941827896356 5.7928808368213227e-05 0 0.03428663409425068 -1.8670643582708108e-05 0 0.034493941827896356 5.7928808368213227e-05 0 0.034448235101226694 -0.0001004564046177965 0 0.03428663409425068 -1.8670643582708108e-05 0 0.034323196144463691 0.00040599691548036393 0 0.034211697227302218 0.00015518885883242448 0 0.034493941827896356 5.7928808368213227e-05 0 0.034493941827896356 5.7928808368213227e-05 0 0.034564370711148276 -8.667191283179897e-05 0 0.034609868465421433 -6.5483901778080021e-05 0 0.034608456015682409 -3.2673848283676264e-05 0 0.034493941827896356 5.7928808368213227e-05 0 0.034609868465421433 -6.5483901778080021e-05 0 0.034624304216861031 4.8391172088818516e-06 0 0.034608456015682409 -3.2673848283676264e-05 0 0.034493941827896356 5.7928808368213227e-05 0 0.031519530377695969 0.00097961977415182352 0 0.031273874529297335 0.0012640698525154643 0 0.028368445483575255 0.0019883689317802566 0 0.028497015617693796 0.0020749754734260984 0 0.028412381603382421 0.0020164193089877137 0 0.034624304216861031 4.8391172088818516e-06 0 0.034323196144463691 0.00040599691548036393 0 0.034493941827896356 5.7928808368213227e-05 0 0.028363635741759454 0.0020002623252426198 0 0.028368445483575255 0.0019883689317802566 0 0.028412381603382421 0.0020164193089877137 0 0.034575290452958325 -0.00030291326930991479 0 0.034708972552374082 -0.0002420758776205618 0 0.034677308355637211 -0.00042812408567679156 0 0.034575290452958325 -0.00030291326930991479 0 0.034708972552374082 -0.0002420758776205618 0 0.034567181773850847 -0.00018037647482371159 0 0.034708972552374082 -0.0002420758776205618 0 0.034633945350746542 -0.00014503012310716488 0 0.034567181773850847 -0.00018037647482371159 0 0.034633945350746542 -0.00014503012310716488 0 0.034564370711148276 -8.667191283179897e-05 0 0.034567181773850847 -0.00018037647482371159 0 0.034633945350746542 -0.00014503012310716488 0 0.034564370711148276 -8.667191283179897e-05 0 0.034609868465421433 -6.5483901778080021e-05 0 0.034493941827896356 5.7928808368213227e-05 0 0.034564370711148276 -8.667191283179897e-05 0 0.034448235101226694 -0.0001004564046177965 0 0.034564370711148276 -8.667191283179897e-05 0 0.034567181773850847 -0.00018037647482371159 0 0.034448235101226694 -0.0001004564046177965 0 0.034448235101226694 -0.0001004564046177965 0 0.03429014233494581 -0.00015124027352206675 0 0.034432817977554805 -0.00022473702302539279 0 0.034567181773850847 -0.00018037647482371159 0 0.034448235101226694 -0.0001004564046177965 0 0.034432817977554805 -0.00022473702302539279 0 0.034448235101226694 -0.0001004564046177965 0 0.03428663409425068 -1.8670643582708108e-05 0 0.03429014233494581 -0.00015124027352206675 0 0.03428663409425068 -1.8670643582708108e-05 0 0.03429014233494581 -0.00015124027352206675 0 0.034095109208119194 -9.0561003341922119e-05 0 0.03429014233494581 -0.00015124027352206675 0 0.034287664672818276 -0.00023766991974983148 0 0.034432817977554805 -0.00022473702302539279 0 0.03429014233494581 -0.00015124027352206675 0 0.034287664672818276 -0.00023766991974983148 0 0.034135658520455935 -0.00017050318447879977 0 0.034266640783549671 -0.0001645158584367513 0 0.034644776517436957 -0.00034083267158200377 0 0.034287664672818276 -0.00023766991974983148 0 0.034432817977554805 -0.00022473702302539279 0 0.03439185921952008 -0.0003252317874648868 0 0.03439185921952008 -0.0003252317874648868 0 0.034170625308857824 -0.00027924693913062605 0 0.034446103171896794 -0.00047932383268473202 0 0.034287664672818276 -0.00023766991974983148 0 0.03439185921952008 -0.0003252317874648868 0 0.034170625308857824 -0.00027924693913062605 0 0.034575290452958325 -0.00030291326930991479 0 0.034567181773850847 -0.00018037647482371159 0 0.034432817977554805 -0.00022473702302539279 0 0.034575290452958325 -0.00030291326930991479 0 0.034432817977554805 -0.00022473702302539279 0 0.03439185921952008 -0.0003252317874648868 0 0.034575290452958325 -0.00030291326930991479 0 0.03439185921952008 -0.0003252317874648868 0 0.034522560212598773 -0.00037842304585334756 0 0.034367859740345889 -0.00010864780591707826 0 0.034425452804880304 -8.3768230390853166e-05 0 0.034445827680942107 -0.00028636760988624279 0 0.034345524714312903 -6.7409689789425656e-05 0 0.034738874034549463 -0.00022529540354379729 0 0.034328715341496674 -0.00012871760605016172 0 0.034352872543222585 -6.3678617874968104e-05 0 0.034411072853561771 -0.00018942170368828554 0 0.034328715341496674 -0.00012871760605016172 0 0.034352872543222585 -6.3678617874968104e-05 0 0.034302967118921696 -6.5361090035536521e-05 0 0.03429014233494581 -0.00015124027352206675 0 0.034135658520455935 -0.00017050318447879977 0 0.034095109208119194 -9.0561003341922119e-05 0 0.034170625308857824 -0.00027924693913062605 0 0.034135658520455935 -0.00017050318447879977 0 0.033775508487151294 -3.5280861962329659e-05 0 0.034367859740345889 -0.00010864780591707826 0 0.034425452804880304 -8.3768230390853166e-05 0 0.034295146616736494 5.6941057363668377e-05 0 0.034425452804880304 -8.3768230390853166e-05 0 0.034295146616736494 5.6941057363668377e-05 0 0.034311328926282234 9.3777016878858534e-05 0 0.034345524714312903 -6.7409689789425656e-05 0 0.034305791470827011 3.5310224512277265e-05 0 0.034287664672818276 -0.00023766991974983148 0 0.034170625308857824 -0.00027924693913062605 0 0.034135658520455935 -0.00017050318447879977 0 0.034266640783549671 -0.0001645158584367513 0 0.034083230201092385 7.0444783970201996e-06 0 0.03411404794502481 2.6437623562536127e-05 0 0.03428663409425068 -1.8670643582708108e-05 0 0.034095109208119194 -9.0561003341922119e-05 0 0.03411404794502481 2.6437623562536127e-05 0 0.033969626845774648 1.6614523668636134e-05 0 0.034095109208119194 -9.0561003341922119e-05 0 0.034135658520455935 -0.00017050318447879977 0 0.034095109208119194 -9.0561003341922119e-05 0 0.033775508487151294 -3.5280861962329659e-05 0 0.033969626845774648 1.6614523668636134e-05 0 0.034095109208119194 -9.0561003341922119e-05 0 0.033775508487151294 -3.5280861962329659e-05 0 0.034352872543222585 -6.3678617874968104e-05 0 0.034280586162594662 -2.150135595674402e-05 0 0.034295146616736494 5.6941057363668377e-05 0 0.034280586162594662 -2.150135595674402e-05 0 0.034254915472040834 2.6411161231680796e-05 0 0.034295146616736494 5.6941057363668377e-05 0 0.03424463923728123 0.00010271420514987444 0 0.034295146616736494 5.6941057363668377e-05 0 0.034311328926282234 9.3777016878858534e-05 0 0.034254915472040834 2.6411161231680796e-05 0 0.034295146616736494 5.6941057363668377e-05 0 0.034252941817384759 5.9336057492219375e-05 0 0.03424463923728123 0.00010271420514987444 0 0.034295146616736494 5.6941057363668377e-05 0 0.034252941817384759 5.9336057492219375e-05 0 0.034176116769654041 0.00011937385815326874 0 0.03424463923728123 0.00010271420514987444 0 0.034208041097161759 5.0613005640240165e-05 0 0.03424463923728123 0.00010271420514987444 0 0.034252941817384759 5.9336057492219375e-05 0 0.034208041097161759 5.0613005640240165e-05 0 0.034254915472040834 2.6411161231680796e-05 0 0.034252941817384759 5.9336057492219375e-05 0 0.034208041097161759 5.0613005640240165e-05 0 0.034208041097161759 5.0613005640240165e-05 0 0.034225778318302855 -5.2124902887895719e-06 0 0.03416198498599237 -5.987005969085195e-06 0 0.034225778318302855 -5.2124902887895719e-06 0 0.034211783509006811 -5.8066636433872226e-05 0 0.03416198498599237 -5.987005969085195e-06 0 0.034254915472040834 2.6411161231680796e-05 0 0.034208041097161759 5.0613005640240165e-05 0 0.034225778318302855 -5.2124902887895719e-06 0 0.034280586162594662 -2.150135595674402e-05 0 0.034254915472040834 2.6411161231680796e-05 0 0.034225778318302855 -5.2124902887895719e-06 0 0.034280586162594662 -2.150135595674402e-05 0 0.034225778318302855 -5.2124902887895719e-06 0 0.034211783509006811 -5.8066636433872226e-05 0 0.034211783509006811 -5.8066636433872226e-05 0 0.034279083334484407 -0.00011058541510988531 0 0.034258161914347281 -0.00019104429173862325 0 0.034211783509006811 -5.8066636433872226e-05 0 0.034302967118921696 -6.5361090035536521e-05 0 0.034279083334484407 -0.00011058541510988531 0 0.034352872543222585 -6.3678617874968104e-05 0 0.034280586162594662 -2.150135595674402e-05 0 0.034302967118921696 -6.5361090035536521e-05 0 0.034280586162594662 -2.150135595674402e-05 0 0.034211783509006811 -5.8066636433872226e-05 0 0.034302967118921696 -6.5361090035536521e-05 0 0.034328715341496674 -0.00012871760605016172 0 0.034302967118921696 -6.5361090035536521e-05 0 0.034279083334484407 -0.00011058541510988531 0 0.034328715341496674 -0.00012871760605016172 0 0.034279083334484407 -0.00011058541510988531 0 0.034258161914347281 -0.00019104429173862325 0 0.034996712365059329 -1.0643289838885116e-06 0 0.034999996941086041 -6.661094635077767e-10 0 0.034998372187485575 -1.1520099253424226e-07 0 0.034996712365059329 -1.0643289838885116e-06 0 0.034999996941086041 -6.661094635077767e-10 0 0.034998652262827223 -7.4750704180377176e-07 0 0.034999996941086041 -6.661094635077767e-10 0 0.034998652262827223 -7.4750704180377176e-07 0 0.034999996082764752 -1.2869221168687352e-09 0 0.034998652262827223 -7.4750704180377176e-07 0 0.034996900757628985 -1.9683939394119335e-06 0 0.034999996082764752 -1.2869221168687352e-09 0 0.034624985057721477 -8.902809524613524e-05 0 0.034738874034549463 -0.00022529540354379729 0 0.034996712365059329 -1.0643289838885116e-06 0 0.034998652262827223 -7.4750704180377176e-07 0 0.034996900757628985 -1.9683939394119335e-06 0 0.034328715341496674 -0.00012871760605016172 0 0.034258161914347281 -0.00019104429173862325 0 0.034411072853561771 -0.00018942170368828554 0 0.034425452804880304 -8.3768230390853166e-05 0 0.034445827680942107 -0.00028636760988624279 0 0.034545739257083104 -0.00028454133034051576 0 0.035153934867799698 -0.00042915081420366922 0 0.034966707237542673 -0.00044258000487001447 0 0.034823390127162165 -0.00031754596613412791 0 0.035153934867799698 -0.00042915081420366922 0 0.034823390127162165 -0.00031754596613412791 0 0.034940922875001203 -0.00021093713452783187 0 0.03439185921952008 -0.0003252317874648868 0 0.034446103171896794 -0.00047932383268473202 0 0.034522560212598773 -0.00037842304585334756 0 0.034738874034549463 -0.00022529540354379729 0 0.034644776517436957 -0.00034083267158200377 0 0.034644776517436957 -0.00034083267158200377 0 0.034686020893093528 -0.00039860318750196489 0 0.034575290452958325 -0.00030291326930991479 0 0.034522560212598773 -0.00037842304585334756 0 0.034677308355637211 -0.00042812408567679156 0 0.034446103171896794 -0.00047932383268473202 0 0.034522560212598773 -0.00037842304585334756 0 0.034677308355637211 -0.00042812408567679156 0 0.034966707237542673 -0.00044258000487001447 0 0.034823390127162165 -0.00031754596613412791 0 0.034677308355637211 -0.00042812408567679156 0 0.035153934867799698 -0.00042915081420366922 0 0.035000369745726886 -5.938018706209939e-08 0 0.034940922875001203 -0.00021093713452783187 0 0.034823390127162165 -0.00031754596613412791 0 0.034940922875001203 -0.00021093713452783187 0 0.034999404291895908 1.4242799123079396e-09 0 0.034738874034549463 -0.00022529540354379729 0 0.035000232306065485 -1.5347146732064275e-07 0 0.035000369745726886 -5.938018706209939e-08 0 0.034940922875001203 -0.00021093713452783187 0 0.034999404291895908 1.4242799123079396e-09 0 0.035000108838088101 -3.542385605466032e-08 0 0.034960682596108912 -3.0203422930392614e-05 0 0.034946071490866641 -0.00010320585975746392 0 0.034999615708880896 -3.8268586523078642e-08 0 0.035000108838088101 -3.542385605466032e-08 0 0.034960682596108912 -3.0203422930392614e-05 0 0.03499991260550276 -1.0780037100578217e-07 0 0.03481726089660666 -0.00024176927691041403 0 0.034823390127162165 -0.00031754596613412791 0 0.034999404291895908 1.4242799123079396e-09 0 0.034683455225073899 -0.00039682268602928494 0 0.034895797354618438 -7.9847168308715499e-05 0 0.034960682596108912 -3.0203422930392614e-05 0 0.034946071490866641 -0.00010320585975746392 0 0.034739139365161195 -0.00023554473991278034 0 0.03481726089660666 -0.00024176927691041403 0 0.034809488387803678 -0.00016785297746811287 0 0.034895797354618438 -7.9847168308715499e-05 0 0.034946071490866641 -0.00010320585975746392 0 0.034708972552374082 -0.0002420758776205618 0 0.034683455225073899 -0.00039682268602928494 0 0.034677308355637211 -0.00042812408567679156 0 0.034809488387803678 -0.00016785297746811287 0 0.034708972552374082 -0.0002420758776205618 0 0.034946071490866641 -0.00010320585975746392 0 0.034823390127162165 -0.00031754596613412791 0 0.034683455225073899 -0.00039682268602928494 0 0.034677308355637211 -0.00042812408567679156 0 0.034237103009723185 -0.00014694087019172843 0 0.034581966745993842 9.0633143327965888e-06 0 0.03448395173475742 -0.00012156953985165469 0 0.034622848681181755 -4.3572588229323658e-05 0 0.034459630956365395 6.8163262369581564e-05 0 0.03448395173475742 -0.00012156953985165469 0 0.034622848681181755 -4.3572588229323658e-05 0 0.034592160533300061 -0.00016602630042080455 0 0.034622848681181755 -4.3572588229323658e-05 0 0.034712195015332348 -0.00010642563065115449 0 0.034750729422479608 -3.9119023887921022e-05 0 0.034622848681181755 -4.3572588229323658e-05 0 0.034712195015332348 -0.00010642563065115449 0 0.034592160533300061 -0.00016602630042080455 0 0.034712195015332348 -0.00010642563065115449 0 0.034641137982635316 -0.00025220452605757485 0 0.034775109586837313 -0.00019618697748786788 0 0.032532817688102254 0.00045344965486148316 0 0.032503634696178056 0.0004540499403423934 0 0.032493715265335579 0.00049345083364722394 0 0.034712195015332348 -0.00010642563065115449 0 0.034592160533300061 -0.00016602630042080455 0 0.034641137982635316 -0.00025220452605757485 0 0.033534625036249932 7.8896429584532495e-05 0 0.034085996079736121 0.00021617071798061817 0 0.034501896260648333 -0.00030531772626831328 0 0.034592160533300061 -0.00016602630042080455 0 0.034641137982635316 -0.00025220452605757485 0 0.033912139346785226 9.8026374090403741e-05 0 0.033938516142403598 -4.9279270794671572e-05 0 0.033996595207411107 5.4153197673219225e-05 0 0.033461983888350193 0.0001190824656907146 0 0.034237103009723185 -0.00014694087019172843 0 0.033461983888350193 0.0001190824656907146 0 0.033534625036249932 7.8896429584532495e-05 0 0.034501896260648333 -0.00030531772626831328 0 0.03448395173475742 -0.00012156953985165469 0 0.034592160533300061 -0.00016602630042080455 0 0.033938516142403598 -4.9279270794671572e-05 0 0.033996595207411107 5.4153197673219225e-05 0 0.034069877164015223 6.2195553138176906e-06 0 0.034066290149911513 0.00016238790765910811 0 0.033996595207411107 5.4153197673219225e-05 0 0.034069877164015223 6.2195553138176906e-06 0 0.034066290149911513 0.00016238790765910811 0 0.034069877164015223 6.2195553138176906e-06 0 0.034130826628319129 6.9557623491732417e-05 0 0.034208041097161759 5.0613005640240165e-05 0 0.034130826628319129 6.9557623491732417e-05 0 0.03416198498599237 -5.987005969085195e-06 0 0.034176116769654041 0.00011937385815326874 0 0.034208041097161759 5.0613005640240165e-05 0 0.034130826628319129 6.9557623491732417e-05 0 0.034069877164015223 6.2195553138176906e-06 0 0.034130826628319129 6.9557623491732417e-05 0 0.03416198498599237 -5.987005969085195e-06 0 0.034211783509006811 -5.8066636433872226e-05 0 0.034258161914347281 -0.00019104429173862325 0 0.034120610439990859 -8.9833268824993887e-05 0 0.034211783509006811 -5.8066636433872226e-05 0 0.03416198498599237 -5.987005969085195e-06 0 0.034120610439990859 -8.9833268824993887e-05 0 0.034069877164015223 6.2195553138176906e-06 0 0.03416198498599237 -5.987005969085195e-06 0 0.034120610439990859 -8.9833268824993887e-05 0 0.034120610439990859 -8.9833268824993887e-05 0 0.034032328412854258 -0.00011080138059979235 0 0.034109509312057196 -0.00019213467526274191 0 0.033938516142403598 -4.9279270794671572e-05 0 0.034032328412854258 -0.00011080138059979235 0 0.033964635478551782 -0.00019382463059750829 0 0.034069877164015223 6.2195553138176906e-06 0 0.034120610439990859 -8.9833268824993887e-05 0 0.034032328412854258 -0.00011080138059979235 0 0.033938516142403598 -4.9279270794671572e-05 0 0.034069877164015223 6.2195553138176906e-06 0 0.034032328412854258 -0.00011080138059979235 0 0.034032328412854258 -0.00011080138059979235 0 0.034109509312057196 -0.00019213467526274191 0 0.033964635478551782 -0.00019382463059750829 0 0.034996269049444355 -1.8188610817751175e-07 0 0.03499789102373263 5.9847914962157134e-07 0 0.034996897024444494 1.2624608809266296e-06 0 0.03453412995843623 -0.00010229300897404302 0 0.034581966745993842 9.0633143327965888e-06 0 0.03499789102373263 5.9847914962157134e-07 0 0.034997834836566731 1.6400164941597067e-06 0 0.034996897024444494 1.2624608809266296e-06 0 0.034258161914347281 -0.00019104429173862325 0 0.034120610439990859 -8.9833268824993887e-05 0 0.034109509312057196 -0.00019213467526274191 0 0.034996712365059329 -1.0643289838885116e-06 0 0.034996269049444355 -1.8188610817751175e-07 0 0.034998372187485575 -1.1520099253424226e-07 0 0.034624985057721477 -8.902809524613524e-05 0 0.03453412995843623 -0.00010229300897404302 0 0.034996269049444355 -1.8188610817751175e-07 0 0.034998372187485575 -1.1520099253424226e-07 0 0.03499789102373263 5.9847914962157134e-07 0 0.034999996941086041 -6.661094635077767e-10 0 0.034998372187485575 -1.1520099253424226e-07 0 0.034999993255222676 -5.4589042559196659e-11 0 0.03499789102373263 5.9847914962157134e-07 0 0.034999993255222676 -5.4589042559196659e-11 0 0.034997834836566731 1.6400164941597067e-06 0 0.034998372187485575 -1.1520099253424226e-07 0 0.03499789102373263 5.9847914962157134e-07 0 0.034999993255222676 -5.4589042559196659e-11 0 0.034997834836566731 1.6400164941597067e-06 0 0.034998822087804554 2.7689715756660474e-06 0 0.035000008045632414 4.1099134453110421e-09 0 0.034999993255222676 -5.4589042559196659e-11 0 0.034997834836566731 1.6400164941597067e-06 0 0.035000008045632414 4.1099134453110421e-09 0 0.034581966745993842 9.0633143327965888e-06 0 0.034896639324709343 4.0082378665138308e-05 0 0.034997217167649579 1.2458472965409036e-06 0 0.034998822087804554 2.7689715756660474e-06 0 0.034999893573910187 7.3661611951989729e-06 0 0.034997834836566731 1.6400164941597067e-06 0 0.034997217167649579 1.2458472965409036e-06 0 0.034998822087804554 2.7689715756660474e-06 0 0.03465750699287521 -1.4171336063910035e-05 0 0.034581966745993842 9.0633143327965888e-06 0 0.034622848681181755 -4.3572588229323658e-05 0 0.034459630956365395 6.8163262369581564e-05 0 0.034725883926365511 6.9940124610347212e-05 0 0.034622848681181755 -4.3572588229323658e-05 0 0.034725883926365511 6.9940124610347212e-05 0 0.034750729422479608 -3.9119023887921022e-05 0 0.034998822087804554 2.7689715756660474e-06 0 0.034999893573910187 7.3661611951989729e-06 0 0.035000008045632414 4.1099134453110421e-09 0 0.034999893573910187 7.3661611951989729e-06 0 0.034999973272330696 6.141248229403426e-09 0 0.034978556851911743 2.1066252707688554e-05 0 0.034999893573910187 7.3661611951989729e-06 0 0.035000008045632414 4.1099134453110421e-09 0 0.034999973272330696 6.141248229403426e-09 0 0.034999973272330696 6.141248229403426e-09 0 0.034978556851911743 2.1066252707688554e-05 0 0.034996016927080216 1.3410240539443224e-05 0 0.034978556851911743 2.1066252707688554e-05 0 0.034998481867151945 -2.825841614986639e-07 0 0.034970035102974008 -2.5560544218735146e-05 0 0.034978556851911743 2.1066252707688554e-05 0 0.03487663943917664 -3.283365621750853e-05 0 0.034970035102974008 -2.5560544218735146e-05 0 0.034725883926365511 6.9940124610347212e-05 0 0.034750729422479608 -3.9119023887921022e-05 0 0.03487663943917664 -3.283365621750853e-05 0 0.034896639324709343 4.0082378665138308e-05 0 0.03495410851080067 2.3681198571935024e-05 0 0.034725883926365511 6.9940124610347212e-05 0 0.034978556851911743 2.1066252707688554e-05 0 0.03487663943917664 -3.283365621750853e-05 0 0.035000012692813935 2.1141066754020906e-08 0 0.035006968340551052 1.271166817265051e-05 0 0.035009377220258181 1.6872668451917144e-05 0 0.034999973272330696 6.141248229403426e-09 0 0.035000012692813935 2.1141066754020906e-08 0 0.034996016927080216 1.3410240539443224e-05 0 0.035000012692813935 2.1141066754020906e-08 0 0.035006968340551052 1.271166817265051e-05 0 0.034996016927080216 1.3410240539443224e-05 0 0.034978556851911743 2.1066252707688554e-05 0 0.034996016927080216 1.3410240539443224e-05 0 0.034998481867151945 -2.825841614986639e-07 0 0.034998481867151945 -2.825841614986639e-07 0 0.035007922963150501 8.7492041779514139e-06 0 0.035015729263113436 -1.7765038318034532e-06 0 0.035006968340551052 1.271166817265051e-05 0 0.034996016927080216 1.3410240539443224e-05 0 0.035007922963150501 8.7492041779514139e-06 0 0.034996016927080216 1.3410240539443224e-05 0 0.034998481867151945 -2.825841614986639e-07 0 0.035007922963150501 8.7492041779514139e-06 0 0.035022721811668212 2.1936305744695022e-05 0 0.035015115383815472 2.987447508673996e-05 0 0.035013922176022769 1.7878190514539387e-05 0 0.035015729263113436 -1.7765038318034532e-06 0 0.035015898422053784 3.6152210087016836e-05 0 0.035006968340551052 1.271166817265051e-05 0 0.035007922963150501 8.7492041779514139e-06 0 0.035013922176022769 1.7878190514539387e-05 0 0.035007922963150501 8.7492041779514139e-06 0 0.035013922176022769 1.7878190514539387e-05 0 0.035015729263113436 -1.7765038318034532e-06 0 0.035006968340551052 1.271166817265051e-05 0 0.035013922176022769 1.7878190514539387e-05 0 0.035009377220258181 1.6872668451917144e-05 0 0.034947381921065626 0.0001520728667618956 0 0.034991509412639885 3.965269499952512e-05 0 0.035026232844961903 5.0064408132869779e-05 0 0.035032198331521658 4.5736642800125306e-05 0 0.035015898422053784 3.6152210087016836e-05 0 0.035026232844961903 5.0064408132869779e-05 0 0.035032198331521658 4.5736642800125306e-05 0 0.035044440352493864 5.0372645490321348e-05 0 0.034865815852734336 0.00023527073729602137 0 0.034935059169875604 0.00024268061162509172 0 0.034900854053771052 0.00027046790612702241 0 0.034865815852734336 0.00023527073729602137 0 0.034900854053771052 0.00027046790612702241 0 0.034864833852341764 0.00026076455481327711 0 0.034998481867151945 -2.825841614986639e-07 0 0.035015729263113436 -1.7765038318034532e-06 0 0.034997494244315974 -4.1671664567432397e-05 0 0.034935059169875604 0.00024268061162509172 0 0.034950116480769497 0.0002750557038295095 0 0.034900854053771052 0.00027046790612702241 0 0.035022721811668212 2.1936305744695022e-05 0 0.034991509412639885 3.965269499952512e-05 0 0.034998481867151945 -2.825841614986639e-07 0 0.034997494244315974 -4.1671664567432397e-05 0 0.034970035102974008 -2.5560544218735146e-05 0 0.034940520930383405 0.00030793608276608687 0 0.034900854053771052 0.00027046790612702241 0 0.034880878820085136 0.00030463497886763877 0 0.034950116480769497 0.0002750557038295095 0 0.034940520930383405 0.00030793608276608687 0 0.034900854053771052 0.00027046790612702241 0 0.034880878820085136 0.00030463497886763877 0 0.034864833852341764 0.00026076455481327711 0 0.034811729979813119 0.00030722957834880186 0 0.034900854053771052 0.00027046790612702241 0 0.034880878820085136 0.00030463497886763877 0 0.034864833852341764 0.00026076455481327711 0 0.034868734547754729 -0.00010302860989313975 0 0.034923658637870746 -0.00013064964480914538 0 0.034788193493699111 -0.00019337537332473129 0 0.034868734547754729 -0.00010302860989313975 0 0.034812521497431047 -8.3987761730876936e-05 0 0.034788193493699111 -0.00019337537332473129 0 0.034712195015332348 -0.00010642563065115449 0 0.034812521497431047 -8.3987761730876936e-05 0 0.034788193493699111 -0.00019337537332473129 0 0.034778209612496988 -0.00029272075055580002 0 0.034085996079736121 0.00021617071798061817 0 0.034712195015332348 -0.00010642563065115449 0 0.034812521497431047 -8.3987761730876936e-05 0 0.034750729422479608 -3.9119023887921022e-05 0 0.034812521497431047 -8.3987761730876936e-05 0 0.034750729422479608 -3.9119023887921022e-05 0 0.03487663943917664 -3.283365621750853e-05 0 0.034868734547754729 -0.00010302860989313975 0 0.034812521497431047 -8.3987761730876936e-05 0 0.03487663943917664 -3.283365621750853e-05 0 0.03487663943917664 -3.283365621750853e-05 0 0.034970035102974008 -2.5560544218735146e-05 0 0.034941691471984344 -8.1489549038127982e-05 0 0.034868734547754729 -0.00010302860989313975 0 0.03487663943917664 -3.283365621750853e-05 0 0.034941691471984344 -8.1489549038127982e-05 0 0.034997494244315974 -4.1671664567432397e-05 0 0.034970035102974008 -2.5560544218735146e-05 0 0.034941691471984344 -8.1489549038127982e-05 0 0.035064586586663428 -6.8482193705578974e-05 0 0.034941691471984344 -8.1489549038127982e-05 0 0.034923658637870746 -0.00013064964480914538 0 0.034935059169875604 0.00024268061162509172 0 0.034950116480769497 0.0002750557038295095 0 0.034981630770665219 0.00026805718604602704 0 0.034991509412639885 3.965269499952512e-05 0 0.034959114244021185 -5.2223931888411636e-05 0 0.034991509412639885 3.965269499952512e-05 0 0.035055014297455424 0.00011741939542620092 0 0.034868734547754729 -0.00010302860989313975 0 0.034941691471984344 -8.1489549038127982e-05 0 0.034923658637870746 -0.00013064964480914538 0 0.034980049604778449 0.00031216840434770504 0 0.035020446613813996 0.00028642335448289752 0 0.034981429302504356 0.00036091810613865673 0 0.034981630770665219 0.00026805718604602704 0 0.034988597277463007 0.00028860786663606578 0 0.034971298745426954 0.00028812971223260653 0 0.034988597277463007 0.00028860786663606578 0 0.034971298745426954 0.00028812971223260653 0 0.034980049604778449 0.00031216840434770504 0 0.034950116480769497 0.0002750557038295095 0 0.034981630770665219 0.00026805718604602704 0 0.034971298745426954 0.00028812971223260653 0 0.034950116480769497 0.0002750557038295095 0 0.034940520930383405 0.00030793608276608687 0 0.034971298745426954 0.00028812971223260653 0 0.034940520930383405 0.00030793608276608687 0 0.034971298745426954 0.00028812971223260653 0 0.034980049604778449 0.00031216840434770504 0 0.034988597277463007 0.00028860786663606578 0 0.034980049604778449 0.00031216840434770504 0 0.035020446613813996 0.00028642335448289752 0 0.034085996079736121 0.00021617071798061817 0 0.033720512397474298 0.00045633968556134288 0 0.034981630770665219 0.00026805718604602704 0 0.034988597277463007 0.00028860786663606578 0 0.035020446613813996 0.00028642335448289752 0 0.035055014297455424 0.00011741939542620092 0 0.034085996079736121 0.00021617071798061817 0 0.032493715265335579 0.00049345083364722394 0 0.032489517618764854 0.00049953857420178042 0 0.032491921792820358 0.00049813084907207237 0 0.032503634696178056 0.0004540499403423934 0 0.032493715265335579 0.00049345083364722394 0 0.032491921792820358 0.00049813084907207237 0 0.032473290190386007 0.00052862752356544853 0 0.032493715265335579 0.00049345083364722394 0 0.032489517618764854 0.00049953857420178042 0 0.032473290190386007 0.00052862752356544853 0 0.032154782432862059 0.00057792065614810243 0 0.032354910384714775 0.00069321346391393627 0 0.032560355203580929 0.00050867448668781849 0 0.032068416153578666 0.00058200524753461609 0 0.032489517618764854 0.00049953857420178042 0 0.032491921792820358 0.00049813084907207237 0 0.032517718601408813 0.0004937722984168822 0 0.033720512397474298 0.00045633968556134288 0 0.033469748673687807 0.00049467152766403456 0 0.032068416153578666 0.00058200524753461609 0 0.033469748673687807 0.00049467152766403456 0 0.034940520930383405 0.00030793608276608687 0 0.034981429302504356 0.00036091810613865673 0 0.03493624354382955 0.00037321359806684405 0 0.034940520930383405 0.00030793608276608687 0 0.034980049604778449 0.00031216840434770504 0 0.034981429302504356 0.00036091810613865673 0 0.034940520930383405 0.00030793608276608687 0 0.034880878820085136 0.00030463497886763877 0 0.034889427608574164 0.00037105159445368052 0 0.034940520930383405 0.00030793608276608687 0 0.03493624354382955 0.00037321359806684405 0 0.034889427608574164 0.00037105159445368052 0 0.034880878820085136 0.00030463497886763877 0 0.034889427608574164 0.00037105159445368052 0 0.034811729979813119 0.00030722957834880186 0 0.034889427608574164 0.00037105159445368052 0 0.034844261742274195 0.00042244155558119603 0 0.034811729979813119 0.00030722957834880186 0 0.034889427608574164 0.00037105159445368052 0 0.034844261742274195 0.00042244155558119603 0 0.034933010895850158 0.00045848275858658246 0 0.034844261742274195 0.00042244155558119603 0 0.034933010895850158 0.00045848275858658246 0 0.034844226375414192 0.0005044641658778202 0 0.034981429302504356 0.00036091810613865673 0 0.03493624354382955 0.00037321359806684405 0 0.034933010895850158 0.00045848275858658246 0 0.03493624354382955 0.00037321359806684405 0 0.034889427608574164 0.00037105159445368052 0 0.034933010895850158 0.00045848275858658246 0 0.031886075039952458 0.00068012374261909494 0 0.031842013550895026 0.00080685328804164778 0 0.031985494489607663 0.00077585112578370716 0 0.031886075039952458 0.00068012374261909494 0 0.031893245878121257 0.00082151897662228665 0 0.031842013550895026 0.00080685328804164778 0 0.033469748673687807 0.00049467152766403456 0 0.03225217288792627 0.0011885813055682733 0 0.034063887085890705 0.00075226437012740289 0 0.034428444467852572 0.00068281194851676314 0 0.034309739037607333 0.00045803044923449873 0 0.033469748673687807 0.00049467152766403456 0 0.034850568034762268 0.00058007136811364605 0 0.032143448600933613 0.0015472690203090186 0 0.03225217288792627 0.0011885813055682733 0 0.034610740621524749 0.00076671143922265076 0 0.034602715904779209 0.00073473995780655281 0 0.034605407897205273 0.00073677988323695548 0 0.029139555558839514 0.0023288069038389916 0 0.029824731464565692 0.0021455051309212389 0 0.029326120860315191 0.0027772516535916007 0 0.028703616434700551 0.0023259213149270522 0 0.029139555558839514 0.0023288069038389916 0 0.029326120860315191 0.0027772516535916007 0 0.031893245878121257 0.00082151897662228665 0 0.031842013550895026 0.00080685328804164778 0 0.031511357993699148 0.00068228056823028548 0 0.03225217288792627 0.0011885813055682733 0 0.029501978821052825 0.0016567386292188093 0 0.028703616434700551 0.0023259213149270522 0 0.029326120860315191 0.0027772516535916007 0 0.028203351077147876 0.0025208553898123593 0 0.031842013550895026 0.00080685328804164778 0 0.03212590606760736 0.00088321447101482101 0 0.031985494489607663 0.00077585112578370716 0 0.031834564074365232 0.00081814665266702888 0 0.031732024126751503 0.00084899813917814634 0 0.031842013550895026 0.00080685328804164778 0 0.031511357993699148 0.00068228056823028548 0 0.031338037954023408 0.00083136646131274424 0 0.030765450296541395 0.00050952583044796781 0 0.031511357993699148 0.00068228056823028548 0 0.031338037954023408 0.00083136646131274424 0 0.031504024830909916 0.00086466278993194915 0 0.031732024126751503 0.00084899813917814634 0 0.030765450296541395 0.00050952583044796781 0 0.030550118360793656 0.00079103452377325603 0 0.031338037954023408 0.00083136646131274424 0 0.029020777331027665 0.0013598601392706554 0 0.029501978821052825 0.0016567386292188093 0 0.032490879675739714 0.00090117483494877974 0 0.03212590606760736 0.00088321447101482101 0 0.032283503398462143 0.00076612586979007513 0 0.03212590606760736 0.00088321447101482101 0 0.032283503398462143 0.00076612586979007513 0 0.032104781168314556 0.00073452470130344605 0 0.032446999955461027 0.0007556245482794147 0 0.032283503398462143 0.00076612586979007513 0 0.032354910384714775 0.00069321346391393627 0 0.032154782432862059 0.00057792065614810243 0 0.032283503398462143 0.00076612586979007513 0 0.032104781168314556 0.00073452470130344605 0 0.032154782432862059 0.00057792065614810243 0 0.032283503398462143 0.00076612586979007513 0 0.032354910384714775 0.00069321346391393627 0 0.032154782432862059 0.00057792065614810243 0 0.031886075039952458 0.00068012374261909494 0 0.032104781168314556 0.00073452470130344605 0 0.031886075039952458 0.00068012374261909494 0 0.031985494489607663 0.00077585112578370716 0 0.032104781168314556 0.00073452470130344605 0 0.03212590606760736 0.00088321447101482101 0 0.031985494489607663 0.00077585112578370716 0 0.032104781168314556 0.00073452470130344605 0 0.034578911013488332 0.00055770174892248031 0 0.034503721694118875 0.00059634421121862989 0 0.03451259485535732 0.00065284724914852887 0 0.034619439740571641 0.00061018958683240973 0 0.034578911013488332 0.00055770174892248031 0 0.03451259485535732 0.00065284724914852887 0 0.034619439740571641 0.00061018958683240973 0 0.034578911013488332 0.00055770174892248031 0 0.034648532037063327 0.00049517639709489446 0 0.034578911013488332 0.00055770174892248031 0 0.034503721694118875 0.00059634421121862989 0 0.03462133479083674 0.00044890404850588634 0 0.034503721694118875 0.00059634421121862989 0 0.034391180133906199 0.00074328482967389391 0 0.034335410553945699 0.00073244687444458574 0 0.034503721694118875 0.00059634421121862989 0 0.034391180133906199 0.00074328482967389391 0 0.03451259485535732 0.00065284724914852887 0 0.034301143196014891 0.00081025916933857433 0 0.034391180133906199 0.00074328482967389391 0 0.034335410553945699 0.00073244687444458574 0 0.034391180133906199 0.00074328482967389391 0 0.034436637204707632 0.00076034409509804189 0 0.03451259485535732 0.00065284724914852887 0 0.034436637204707632 0.00076034409509804189 0 0.03451259485535732 0.00065284724914852887 0 0.034554234579078254 0.00070486071710968812 0 0.034619439740571641 0.00061018958683240973 0 0.03451259485535732 0.00065284724914852887 0 0.034554234579078254 0.00070486071710968812 0 0.034533316236110202 0.00078744871749368084 0 0.034436637204707632 0.00076034409509804189 0 0.034554234579078254 0.00070486071710968812 0 0.034554234579078254 0.00070486071710968812 0 0.034573025154375082 0.00074970336573898792 0 0.034597791076690483 0.00070046475834698789 0 0.034619439740571641 0.00061018958683240973 0 0.034597791076690483 0.00070046475834698789 0 0.03460598967456583 0.0007148236409746494 0 0.034533316236110202 0.00078744871749368084 0 0.034554234579078254 0.00070486071710968812 0 0.034573025154375082 0.00074970336573898792 0 0.034573025154375082 0.00074970336573898792 0 0.034597791076690483 0.00070046475834698789 0 0.034600493319632365 0.00073320477656363338 0 0.034597791076690483 0.00070046475834698789 0 0.034600493319632365 0.00073320477656363338 0 0.03460598967456583 0.0007148236409746494 0 0.034619439740571641 0.00061018958683240973 0 0.034554234579078254 0.00070486071710968812 0 0.034597791076690483 0.00070046475834698789 0 0.03225217288792627 0.0011885813055682733 0 0.035002457400142004 0.00065212999718771499 0 0.034602715904779209 0.00073473995780655281 0 0.034605407897205273 0.00073677988323695548 0 0.03460598967456583 0.0007148236409746494 0 0.034610740621524749 0.00076671143922265076 0 0.034605407897205273 0.00073677988323695548 0 0.034600493319632365 0.00073320477656363338 0 0.034605407897205273 0.00073677988323695548 0 0.034600493319632365 0.00073320477656363338 0 0.03460598967456583 0.0007148236409746494 0 0.034428444467852572 0.00068281194851676314 0 0.034587064430580433 0.0005359998266620614 0 0.034652718184315708 0.00057857271706261075 0 0.034428444467852572 0.00068281194851676314 0 0.034309739037607333 0.00045803044923449873 0 0.034587064430580433 0.0005359998266620614 0 0.034844226375414192 0.0005044641658778202 0 0.034652718184315708 0.00057857271706261075 0 0.03471878613999263 0.00048629532273543097 0 0.034850568034762268 0.00058007136811364605 0 0.034558423551782187 0.00059354410001684311 0 0.034452574621943295 0.00058561692370281103 0 0.035002457400142004 0.00065212999718771499 0 0.034619439740571641 0.00061018958683240973 0 0.034587064430580433 0.0005359998266620614 0 0.034652718184315708 0.00057857271706261075 0 0.034619439740571641 0.00061018958683240973 0 0.034652718184315708 0.00057857271706261075 0 0.034648532037063327 0.00049517639709489446 0 0.034652718184315708 0.00057857271706261075 0 0.03471878613999263 0.00048629532273543097 0 0.034648532037063327 0.00049517639709489446 0 0.034715568312740995 0.00042679403908884553 0 0.034677841528464454 0.00039322802252446544 0 0.034648532037063327 0.00049517639709489446 0 0.03471878613999263 0.00048629532273543097 0 0.034715568312740995 0.00042679403908884553 0 0.034648532037063327 0.00049517639709489446 0 0.03471878613999263 0.00048629532273543097 0 0.034715568312740995 0.00042679403908884553 0 0.03477028609808195 0.00043509173524262869 0 0.034844226375414192 0.0005044641658778202 0 0.03471878613999263 0.00048629532273543097 0 0.03477028609808195 0.00043509173524262869 0 0.034844261742274195 0.00042244155558119603 0 0.034844226375414192 0.0005044641658778202 0 0.03477028609808195 0.00043509173524262869 0 0.034844261742274195 0.00042244155558119603 0 0.03477028609808195 0.00043509173524262869 0 0.034811729979813119 0.00030722957834880186 0 0.034715568312740995 0.00042679403908884553 0 0.03477028609808195 0.00043509173524262869 0 0.034811729979813119 0.00030722957834880186 0 0.034715568312740995 0.00042679403908884553 0 0.034811729979813119 0.00030722957834880186 0 0.034677841528464454 0.00039322802252446544 0 0.034811729979813119 0.00030722957834880186 0 0.034677841528464454 0.00039322802252446544 0 0.034692990880294906 0.00034431249139985526 0 0.034677841528464454 0.00039322802252446544 0 0.034687675499583327 0.00037118586726552828 0 0.034692990880294906 0.00034431249139985526 0 0.034677841528464454 0.00039322802252446544 0 0.03462133479083674 0.00044890404850588634 0 0.034687675499583327 0.00037118586726552828 0 0.034677841528464454 0.00039322802252446544 0 0.03462133479083674 0.00044890404850588634 0 0.034648532037063327 0.00049517639709489446 0 0.034578911013488332 0.00055770174892248031 0 0.03462133479083674 0.00044890404850588634 0 0.034648532037063327 0.00049517639709489446 0 0.034503721694118875 0.00059634421121862989 0 0.03462133479083674 0.00044890404850588634 0 0.034625208710012734 0.0004115157923850637 0 0.03462133479083674 0.00044890404850588634 0 0.034625208710012734 0.0004115157923850637 0 0.034687675499583327 0.00037118586726552828 0 0.034687675499583327 0.00037118586726552828 0 0.034692990880294906 0.00034431249139985526 0 0.034793816453096732 0.00036129197960341772 0 0.034916125831129935 0.00017299782158021723 0 0.034961548255221797 0.00013108833693926622 0 0.034871139004132821 0.00022251466169364567 0 0.034916125831129935 0.00017299782158021723 0 0.034961548255221797 0.00013108833693926622 0 0.034964940421347214 0.00013456689950042729 0 0.034813151291132473 0.00026448164372170816 0 0.034875083130815006 0.00023949529352146885 0 0.034864833852341764 0.00026076455481327711 0 0.034811729979813119 0.00030722957834880186 0 0.034848453839560159 0.00024300940584181919 0 0.034823893437041634 0.00030530993820284145 0 0.034813151291132473 0.00026448164372170816 0 0.034811729979813119 0.00030722957834880186 0 0.034916125831129935 0.00017299782158021723 0 0.034848453839560159 0.00024300940584181919 0 0.034916125831129935 0.00017299782158021723 0 0.034848453839560159 0.00024300940584181919 0 0.034871139004132821 0.00022251466169364567 0 0.034948949384785447 0.00013447586341495631 0 0.034934048136489905 0.00014235292386873504 0 0.034865815852734336 0.00023527073729602137 0 0.034848453839560159 0.00024300940584181919 0 0.034871139004132821 0.00022251466169364567 0 0.034947381921065626 0.0001520728667618956 0 0.034934048136489905 0.00014235292386873504 0 0.035026232844961903 5.0064408132869779e-05 0 0.035005621465724411 6.9920518957430002e-05 0 0.035015898422053784 3.6152210087016836e-05 0 0.034865815852734336 0.00023527073729602137 0 0.034864833852341764 0.00026076455481327711 0 0.034848453839560159 0.00024300940584181919 0 0.035015898422053784 3.6152210087016836e-05 0 0.03499944595668926 4.376497767798725e-05 0 0.035009377220258181 1.6872668451917144e-05 0 0.035013922176022769 1.7878190514539387e-05 0 0.035015898422053784 3.6152210087016836e-05 0 0.035009377220258181 1.6872668451917144e-05 0 0.035005621465724411 6.9920518957430002e-05 0 0.035015898422053784 3.6152210087016836e-05 0 0.03499944595668926 4.376497767798725e-05 0 0.034961548255221797 0.00013108833693926622 0 0.035005621465724411 6.9920518957430002e-05 0 0.03499944595668926 4.376497767798725e-05 0 0.03499944595668926 4.376497767798725e-05 0 0.035000021150092278 1.6740305588579036e-08 0 0.034999990584592716 5.1443357034666072e-08 0 0.035000012692813935 2.1141066754020906e-08 0 0.035000021150092278 1.6740305588579036e-08 0 0.035009377220258181 1.6872668451917144e-05 0 0.03499944595668926 4.376497767798725e-05 0 0.035000021150092278 1.6740305588579036e-08 0 0.035009377220258181 1.6872668451917144e-05 0 0.034961548255221797 0.00013108833693926622 0 0.034964940421347214 0.00013456689950042729 0 0.034983382547979315 7.9152536121510756e-05 0 0.034961548255221797 0.00013108833693926622 0 0.03499944595668926 4.376497767798725e-05 0 0.034983382547979315 7.9152536121510756e-05 0 0.03499944595668926 4.376497767798725e-05 0 0.034983382547979315 7.9152536121510756e-05 0 0.034999990584592716 5.1443357034666072e-08 0 0.034983382547979315 7.9152536121510756e-05 0 0.034999990584592716 5.1443357034666072e-08 0 0.034999966506571729 6.9548467494701594e-08 0 0.034964940421347214 0.00013456689950042729 0 0.034983382547979315 7.9152536121510756e-05 0 0.034943734180669102 0.00018218795293062172 0 0.034983382547979315 7.9152536121510756e-05 0 0.034999966506571729 6.9548467494701594e-08 0 0.034943734180669102 0.00018218795293062172 0 0.034999966506571729 6.9548467494701594e-08 0 0.034943734180669102 0.00018218795293062172 0 0.03499993283658602 1.0156855345998525e-07 0 0.034943734180669102 0.00018218795293062172 0 0.03499993283658602 1.0156855345998525e-07 0 0.034938976225804171 0.00018461618507525866 0 0.03499993283658602 1.0156855345998525e-07 0 0.034938976225804171 0.00018461618507525866 0 0.034999928864309582 8.5113168493959667e-08 0 0.034943734180669102 0.00018218795293062172 0 0.034938976225804171 0.00018461618507525866 0 0.034902065849140809 0.0003029884909100591 0 0.034938976225804171 0.00018461618507525866 0 0.034902065849140809 0.0003029884909100591 0 0.034895943268303649 0.00032756105718929277 0 0.034902065849140809 0.0003029884909100591 0 0.034823727390472861 0.00037127527345321164 0 0.034880995960761552 0.00038821370123923665 0 0.034902065849140809 0.0003029884909100591 0 0.034895943268303649 0.00032756105718929277 0 0.034880995960761552 0.00038821370123923665 0 0.034902065849140809 0.0003029884909100591 0 0.034823727390472861 0.00037127527345321164 0 0.03486466230873618 0.00031383777654738008 0 0.034687675499583327 0.00037118586726552828 0 0.034793816453096732 0.00036129197960341772 0 0.034823727390472861 0.00037127527345321164 0 0.034793816453096732 0.00036129197960341772 0 0.034823727390472861 0.00037127527345321164 0 0.03486466230873618 0.00031383777654738008 0 0.034875083130815006 0.00023949529352146885 0 0.034922975465414417 0.00018932291067415134 0 0.034793816453096732 0.00036129197960341772 0 0.034943734180669102 0.00018218795293062172 0 0.03486466230873618 0.00031383777654738008 0 0.034943734180669102 0.00018218795293062172 0 0.034902065849140809 0.0003029884909100591 0 0.03486466230873618 0.00031383777654738008 0 0.03499988628579042 2.4274336417195828e-08 0 0.034938528843552356 0.00011995399245318332 0 0.034852570681861247 0.00015745463415429666 0 0.03499988628579042 2.4274336417195828e-08 0 0.034852570681861247 0.00015745463415429666 0 0.03483281833943639 1.4538445111359394e-05 0 0.03499988628579042 2.4274336417195828e-08 0 0.034999645667039697 -6.5133350724032319e-08 0 0.03483281833943639 1.4538445111359394e-05 0 0.03499988628579042 2.4274336417195828e-08 0 0.034938528843552356 0.00011995399245318332 0 0.034999928864309582 8.5113168493959667e-08 0 0.034938976225804171 0.00018461618507525866 0 0.034938528843552356 0.00011995399245318332 0 0.034999928864309582 8.5113168493959667e-08 0 0.034938976225804171 0.00018461618507525866 0 0.034895943268303649 0.00032756105718929277 0 0.034895286343251543 0.00031764988979291739 0 0.034938976225804171 0.00018461618507525866 0 0.034938528843552356 0.00011995399245318332 0 0.034895286343251543 0.00031764988979291739 0 0.034895943268303649 0.00032756105718929277 0 0.034895286343251543 0.00031764988979291739 0 0.034839713390829169 0.00045961040840580402 0 0.034938528843552356 0.00011995399245318332 0 0.034895286343251543 0.00031764988979291739 0 0.034852570681861247 0.00015745463415429666 0 0.034895286343251543 0.00031764988979291739 0 0.034852570681861247 0.00015745463415429666 0 0.034726789174661293 0.00060343320497548278 0 0.034852570681861247 0.00015745463415429666 0 0.034726789174661293 0.00060343320497548278 0 0.034606879078273645 0.00025418293565162599 0 0.034852570681861247 0.00015745463415429666 0 0.034606879078273645 0.00025418293565162599 0 0.03483281833943639 1.4538445111359394e-05 0 0.034726789174661293 0.00060343320497548278 0 0.034794276746587353 0.00080380412446448112 0 0.034437062980429492 0.0012428990408019014 0 0.034895286343251543 0.00031764988979291739 0 0.034726789174661293 0.00060343320497548278 0 0.03482142786781068 0.00057752580455662169 0 0.034726789174661293 0.00060343320497548278 0 0.03482142786781068 0.00057752580455662169 0 0.034794276746587353 0.00080380412446448112 0 0.03482142786781068 0.00057752580455662169 0 0.034714539840991945 0.00055037088866488214 0 0.034794276746587353 0.00080380412446448112 0 0.03482142786781068 0.00057752580455662169 0 0.034839713390829169 0.00045961040840580402 0 0.034714539840991945 0.00055037088866488214 0 0.034895286343251543 0.00031764988979291739 0 0.03482142786781068 0.00057752580455662169 0 0.034839713390829169 0.00045961040840580402 0 0.034839713390829169 0.00045961040840580402 0 0.034714539840991945 0.00055037088866488214 0 0.034839086491347586 0.00048692045773595261 0 0.034714539840991945 0.00055037088866488214 0 0.034589347710416114 0.0008409056699497545 0 0.034757677300695969 0.00066397740428941537 0 0.034589347710416114 0.0008409056699497545 0 0.034757677300695969 0.00066397740428941537 0 0.034715279741991144 0.00091564102376125883 0 0.034589347710416114 0.0008409056699497545 0 0.034359442815165779 0.00076875847560147631 0 0.034279435043681257 0.001026243536472913 0 0.034714539840991945 0.00055037088866488214 0 0.034589347710416114 0.0008409056699497545 0 0.034359442815165779 0.00076875847560147631 0 0.03469917062241288 0.00056098007469331619 0 0.034448388668502229 0.0006634171466841837 0 0.034714539840991945 0.00055037088866488214 0 0.034359442815165779 0.00076875847560147631 0 0.03415515177994731 0.00049026524690057446 0 0.034359442815165779 0.00076875847560147631 0 0.03415515177994731 0.00049026524690057446 0 0.034091983656001926 0.00074100712646895663 0 0.034359442815165779 0.00076875847560147631 0 0.03414306426300296 0.00091265407558408385 0 0.034091983656001926 0.00074100712646895663 0 0.034359442815165779 0.00076875847560147631 0 0.03414306426300296 0.00091265407558408385 0 0.034279435043681257 0.001026243536472913 0 0.034091983656001926 0.00074100712646895663 0 0.033956754538742119 0.00085522995604947547 0 0.033896224508930817 0.00068132960907017358 0 0.03414306426300296 0.00091265407558408385 0 0.034091983656001926 0.00074100712646895663 0 0.033956754538742119 0.00085522995604947547 0 0.03414306426300296 0.00091265407558408385 0 0.033956754538742119 0.00085522995604947547 0 0.033975919192932053 0.0010007362423593528 0 0.033956754538742119 0.00085522995604947547 0 0.033975919192932053 0.0010007362423593528 0 0.033793104715400667 0.00083604904970849205 0 0.033956754538742119 0.00085522995604947547 0 0.033826145815854955 0.00081186157137157319 0 0.033793104715400667 0.00083604904970849205 0 0.033798390539687508 0.00081269362090492087 0 0.033769680649878855 0.0019204223758034142 0 0.033956754538742119 0.00085522995604947547 0 0.033896224508930817 0.00068132960907017358 0 0.033826145815854955 0.00081186157137157319 0 0.034448388668502229 0.0006634171466841837 0 0.03411695332509905 0.00081051502471444288 0 0.03415515177994731 0.00049026524690057446 0 0.033896224508930817 0.00068132960907017358 0 0.033741866395614481 0.00051043127649867909 0 0.03415515177994731 0.00049026524690057446 0 0.034091983656001926 0.00074100712646895663 0 0.033896224508930817 0.00068132960907017358 0 0.034625208710012734 0.0004115157923850637 0 0.034849784352618464 0.00042051718090535366 0 0.034853537430919478 0.00044399707493802558 0 0.034616944351475165 0.00042654079158984976 0 0.034558976252695398 0.00053637385532026365 0 0.034625208710012734 0.0004115157923850637 0 0.034687675499583327 0.00037118586726552828 0 0.034823727390472861 0.00037127527345321164 0 0.034625208710012734 0.0004115157923850637 0 0.034823727390472861 0.00037127527345321164 0 0.034849784352618464 0.00042051718090535366 0 0.034823727390472861 0.00037127527345321164 0 0.034849784352618464 0.00042051718090535366 0 0.034880995960761552 0.00038821370123923665 0 0.034895943268303649 0.00032756105718929277 0 0.034839713390829169 0.00045961040840580402 0 0.034880995960761552 0.00038821370123923665 0 0.034839713390829169 0.00045961040840580402 0 0.034880995960761552 0.00038821370123923665 0 0.034839086491347586 0.00048692045773595261 0 0.034849784352618464 0.00042051718090535366 0 0.034880995960761552 0.00038821370123923665 0 0.034839086491347586 0.00048692045773595261 0 0.034849784352618464 0.00042051718090535366 0 0.034839086491347586 0.00048692045773595261 0 0.034853537430919478 0.00044399707493802558 0 0.034839086491347586 0.00048692045773595261 0 0.034867373131442135 0.00065337452534906814 0 0.034853537430919478 0.00044399707493802558 0 0.034839086491347586 0.00048692045773595261 0 0.034757677300695969 0.00066397740428941537 0 0.034867373131442135 0.00065337452534906814 0 0.034714539840991945 0.00055037088866488214 0 0.034839086491347586 0.00048692045773595261 0 0.034757677300695969 0.00066397740428941537 0 0.034757677300695969 0.00066397740428941537 0 0.034867373131442135 0.00065337452534906814 0 0.034715279741991144 0.00091564102376125883 0 0.034528738752058072 0.00066407551106310988 0 0.034558976252695398 0.00053637385532026365 0 0.034188330903211134 0.00072667874216434422 0 0.034256496010635559 0.00072891301463663021 0 0.034276120831123587 0.00060257388364987952 0 0.034256496010635559 0.00072891301463663021 0 0.034276120831123587 0.00060257388364987952 0 0.034335410553945699 0.00073244687444458574 0 0.034503721694118875 0.00059634421121862989 0 0.034625208710012734 0.0004115157923850637 0 0.034276120831123587 0.00060257388364987952 0 0.034503721694118875 0.00059634421121862989 0 0.034276120831123587 0.00060257388364987952 0 0.034335410553945699 0.00073244687444458574 0 0.034256496010635559 0.00072891301463663021 0 0.034335410553945699 0.00073244687444458574 0 0.034281448793300015 0.00079832987759708611 0 0.034281448793300015 0.00079832987759708611 0 0.034243222015772588 0.0007939095960976751 0 0.034258035635168736 0.00082192062416920598 0 0.034301143196014891 0.00081025916933857433 0 0.034335410553945699 0.00073244687444458574 0 0.034281448793300015 0.00079832987759708611 0 0.034301143196014891 0.00081025916933857433 0 0.034281448793300015 0.00079832987759708611 0 0.034258264845119242 0.00083320436779700069 0 0.034256496010635559 0.00072891301463663021 0 0.034281448793300015 0.00079832987759708611 0 0.034243222015772588 0.0007939095960976751 0 0.034188330903211134 0.00072667874216434422 0 0.034256496010635559 0.00072891301463663021 0 0.034243222015772588 0.0007939095960976751 0 0.034243222015772588 0.0007939095960976751 0 0.034247891332089907 0.0008171973865041274 0 0.034227003675982616 0.00081525829138987145 0 0.034243222015772588 0.0007939095960976751 0 0.034247891332089907 0.0008171973865041274 0 0.034258035635168736 0.00082192062416920598 0 0.034281448793300015 0.00079832987759708611 0 0.034258264845119242 0.00083320436779700069 0 0.034258035635168736 0.00082192062416920598 0 0.034247891332089907 0.0008171973865041274 0 0.034258035635168736 0.00082192062416920598 0 0.03424755209717549 0.00081871889081889745 0 0.034258035635168736 0.00082192062416920598 0 0.034237647392134668 0.00082870586270212545 0 0.03424755209717549 0.00081871889081889745 0 0.034258264845119242 0.00083320436779700069 0 0.034258035635168736 0.00082192062416920598 0 0.034237647392134668 0.00082870586270212545 0 0.03419771350919483 0.00081866830648969673 0 0.034237647392134668 0.00082870586270212545 0 0.034231894987334997 0.00080094771380369929 0 0.034237647392134668 0.00082870586270212545 0 0.034231894987334997 0.00080094771380369929 0 0.03424755209717549 0.00081871889081889745 0 0.034199056262398997 0.00077605658893859137 0 0.034231894987334997 0.00080094771380369929 0 0.03423374068226074 0.0007578458283846283 0 0.034231894987334997 0.00080094771380369929 0 0.034247123487632258 0.00079749609100090687 0 0.03423374068226074 0.0007578458283846283 0 0.03424755209717549 0.00081871889081889745 0 0.034248706249139102 0.00081503980069927244 0 0.034247123487632258 0.00079749609100090687 0 0.034231894987334997 0.00080094771380369929 0 0.03424755209717549 0.00081871889081889745 0 0.034247123487632258 0.00079749609100090687 0 0.034246858265451083 0.00082039523024903579 0 0.034243613796364106 0.0008594974787008128 0 0.034230260705181433 0.00082988637556702177 0 0.034248706249139102 0.00081503980069927244 0 0.034246858265451083 0.00082039523024903579 0 0.034247123487632258 0.00079749609100090687 0 0.034247891332089907 0.0008171973865041274 0 0.034248706249139102 0.00081503980069927244 0 0.034246858265451083 0.00082039523024903579 0 0.034247891332089907 0.0008171973865041274 0 0.03424755209717549 0.00081871889081889745 0 0.034248706249139102 0.00081503980069927244 0 0.034246858265451083 0.00082039523024903579 0 0.034247123487632258 0.00079749609100090687 0 0.034253877781163782 0.0007644466418364141 0 0.034247891332089907 0.0008171973865041274 0 0.034246858265451083 0.00082039523024903579 0 0.034227003675982616 0.00081525829138987145 0 0.034339433099214015 0.00084050902307018717 0 0.033125755372134316 0.0010703390547754277 0 0.033125755372134316 0.0010703390547754277 0 0.034250502317041305 0.0011526126710010472 0 0.034161449040465988 0.00070560171333381284 0 0.03423374068226074 0.0007578458283846283 0 0.034219045698475191 0.00066456669803910461 0 0.034277575272699992 0.00073507755964204158 0 0.03423374068226074 0.0007578458283846283 0 0.034219045698475191 0.00066456669803910461 0 0.033125755372134316 0.0010703390547754277 0 0.034464332135319395 0.00062684009063857188 0 0.034247123487632258 0.00079749609100090687 0 0.034253877781163782 0.0007644466418364141 0 0.03423374068226074 0.0007578458283846283 0 0.03404747025893072 0.0013013032703057485 0 0.034087025246985238 0.0013221857351723523 0 0.034118315351212507 0.0013027252750553457 0 0.034118315351212507 0.0013027252750553457 0 0.034108067982386928 0.0012838101068485758 0 0.0340408695913509 0.0012652930095145109 0 0.03404747025893072 0.0013013032703057485 0 0.034118315351212507 0.0013027252750553457 0 0.0340408695913509 0.0012652930095145109 0 0.033964392775826031 0.0012849679778626456 0 0.03404747025893072 0.0013013032703057485 0 0.034021956277363014 0.0013339280389309007 0 0.033125755372134316 0.0010703390547754277 0 0.032522885466292305 0.0012269259171967385 0 0.033964392775826031 0.0012849679778626456 0 0.03404747025893072 0.0013013032703057485 0 0.0340408695913509 0.0012652930095145109 0 0.034021956277363014 0.0013339280389309007 0 0.034087025246985238 0.0013221857351723523 0 0.034076745670586987 0.00137589048202963 0 0.03404747025893072 0.0013013032703057485 0 0.034021956277363014 0.0013339280389309007 0 0.034087025246985238 0.0013221857351723523 0 0.034230260705181433 0.00082988637556702177 0 0.03418997471134437 0.00081494578213631228 0 0.034227003675982616 0.00081525829138987145 0 0.034246858265451083 0.00082039523024903579 0 0.034230260705181433 0.00082988637556702177 0 0.034227003675982616 0.00081525829138987145 0 0.034250502317041305 0.0011526126710010472 0 0.03408648838757905 0.0010736618236937702 0 0.034087025246985238 0.0013221857351723523 0 0.034180302355006353 0.0013213823192712833 0 0.034118315351212507 0.0013027252750553457 0 0.034087025246985238 0.0013221857351723523 0 0.034129830630869155 0.0013434658802465396 0 0.034180302355006353 0.0013213823192712833 0 0.034087025246985238 0.0013221857351723523 0 0.034129830630869155 0.0013434658802465396 0 0.034076745670586987 0.00137589048202963 0 0.03418997471134437 0.00081494578213631228 0 0.034199612065889375 0.00078913848608462643 0 0.034150397470827432 0.00078128275046591283 0 0.034129830630869155 0.0013434658802465396 0 0.034076745670586987 0.00137589048202963 0 0.034167541077345931 0.0013640422602078626 0 0.034076745670586987 0.00137589048202963 0 0.034146813174947534 0.0014582417595239104 0 0.034167541077345931 0.0013640422602078626 0 0.03408648838757905 0.0010736618236937702 0 0.03442827832749229 0.0010078525686335682 0 0.034243222015772588 0.0007939095960976751 0 0.034227003675982616 0.00081525829138987145 0 0.034199612065889375 0.00078913848608462643 0 0.03418997471134437 0.00081494578213631228 0 0.034227003675982616 0.00081525829138987145 0 0.034199612065889375 0.00078913848608462643 0 0.034188330903211134 0.00072667874216434422 0 0.034243222015772588 0.0007939095960976751 0 0.034199612065889375 0.00078913848608462643 0 0.034188330903211134 0.00072667874216434422 0 0.034199612065889375 0.00078913848608462643 0 0.034150397470827432 0.00078128275046591283 0 0.034528738752058072 0.00066407551106310988 0 0.03442827832749229 0.0010078525686335682 0 0.034589347710416114 0.0008409056699497545 0 0.034777496652037346 0.0010648023014761744 0 0.034427680914218529 0.0010928647375757308 0 0.03463980506095532 0.00091020862059935871 0 0.03442827832749229 0.0010078525686335682 0 0.034589347710416114 0.0008409056699497545 0 0.034279435043681257 0.001026243536472913 0 0.034427680914218529 0.0010928647375757308 0 0.034279435043681257 0.001026243536472913 0 0.034427680914218529 0.0010928647375757308 0 0.034273079712593933 0.0011909258047382812 0 0.034427680914218529 0.0010928647375757308 0 0.034273079712593933 0.0011909258047382812 0 0.034280765572479548 0.0013291936949071581 0 0.034220063191227813 0.0012926271852129515 0 0.034280765572479548 0.0013291936949071581 0 0.034210982828672895 0.0013287424000675572 0 0.034273079712593933 0.0011909258047382812 0 0.034220063191227813 0.0012926271852129515 0 0.034280765572479548 0.0013291936949071581 0 0.034280765572479548 0.0013291936949071581 0 0.034167541077345931 0.0013640422602078626 0 0.034180302355006353 0.0013213823192712833 0 0.034777496652037346 0.0010648023014761744 0 0.034427680914218529 0.0010928647375757308 0 0.034280765572479548 0.0013291936949071581 0 0.034146813174947534 0.0014582417595239104 0 0.034280765572479548 0.0013291936949071581 0 0.034167541077345931 0.0013640422602078626 0 0.03442827832749229 0.0010078525686335682 0 0.034288015666323141 0.0014018017669858412 0 0.033975919192932053 0.0010007362423593528 0 0.034115605648466905 0.0010808242097788069 0 0.033994393115308844 0.0012481025491858965 0 0.033839490154457974 0.0010833873164882058 0 0.033975919192932053 0.0010007362423593528 0 0.033771888783069887 0.00085969078089224093 0 0.033839490154457974 0.0010833873164882058 0 0.033975919192932053 0.0010007362423593528 0 0.033994393115308844 0.0012481025491858965 0 0.030719726326873673 0.0023707963292054759 0 0.030471288703177005 0.0020416477814586449 0 0.030776857194303498 0.0023287108122522428 0 0.03414306426300296 0.00091265407558408385 0 0.033975919192932053 0.0010007362423593528 0 0.034115605648466905 0.0010808242097788069 0 0.03414306426300296 0.00091265407558408385 0 0.034279435043681257 0.001026243536472913 0 0.034115605648466905 0.0010808242097788069 0 0.034279435043681257 0.001026243536472913 0 0.034115605648466905 0.0010808242097788069 0 0.034160400445257061 0.0012144863512890416 0 0.034279435043681257 0.001026243536472913 0 0.034273079712593933 0.0011909258047382812 0 0.034160400445257061 0.0012144863512890416 0 0.034273079712593933 0.0011909258047382812 0 0.034220063191227813 0.0012926271852129515 0 0.034160400445257061 0.0012144863512890416 0 0.034220063191227813 0.0012926271852129515 0 0.034160400445257061 0.0012144863512890416 0 0.034170485360418154 0.0013456411432994405 0 0.034160400445257061 0.0012144863512890416 0 0.033994393115308844 0.0012481025491858965 0 0.034170485360418154 0.0013456411432994405 0 0.031194024499123573 0.0020417895115565766 0 0.034254101050637184 0.0014761095116959237 0 0.034115605648466905 0.0010808242097788069 0 0.034160400445257061 0.0012144863512890416 0 0.033994393115308844 0.0012481025491858965 0 0.026499260239607379 0.0037495704519238827 0 0.026351821771271842 0.004221427324814348 0 0.026176011073033946 0.0038940027803620919 0 0.026499260239607379 0.0037495704519238827 0 0.026176011073033946 0.0038940027803620919 0 0.026172820875632521 0.0035043414104620882 0 0.031194024499123573 0.0020417895115565766 0 0.02807433533423152 0.0025862778316487769 0 0.032245430730069295 0.001695958435534413 0 0.031194024499123573 0.0020417895115565766 0 0.026499260239607379 0.0037495704519238827 0 0.026351821771271842 0.004221427324814348 0 0.026917914720935191 0.0041740098095344935 0 0.026351821771271842 0.004221427324814348 0 0.026064172057589007 0.0041213258804894551 0 0.026176011073033946 0.0038940027803620919 0 0.026351821771271842 0.004221427324814348 0 0.026917914720935191 0.0041740098095344935 0 0.026771252896328868 0.0046812256219134433 0 0.033718924743494805 0.0011400347003593602 0 0.033994456090385088 0.0012390267835330007 0 0.03403941515219034 0.0013055542064331791 0 0.031194024499123573 0.0020417895115565766 0 0.030323931058430231 0.0027133522072860798 0 0.034220063191227813 0.0012926271852129515 0 0.034170485360418154 0.0013456411432994405 0 0.034210982828672895 0.0013287424000675572 0 0.034254101050637184 0.0014761095116959237 0 0.034093409576626085 0.0012674703576804078 0 0.033994456090385088 0.0012390267835330007 0 0.03403941515219034 0.0013055542064331791 0 0.034169288555139357 0.001312684436186651 0 0.026917914720935191 0.0041740098095344935 0 0.026771252896328868 0.0046812256219134433 0 0.027423426552510063 0.0046940602219376487 0 0.026771252896328868 0.0046812256219134433 0 0.026212137093954632 0.0046861672158520339 0 0.026477261943839932 0.0050431940983519863 0 0.026351821771271842 0.004221427324814348 0 0.026771252896328868 0.0046812256219134433 0 0.026212137093954632 0.0046861672158520339 0 0.026351821771271842 0.004221427324814348 0 0.026212137093954632 0.0046861672158520339 0 0.025979877893202306 0.0043697593323748984 0 0.034129830630869155 0.0013434658802465396 0 0.034167541077345931 0.0013640422602078626 0 0.034180302355006353 0.0013213823192712833 0 0.034180302355006353 0.0013213823192712833 0 0.034210982828672895 0.0013287424000675572 0 0.034169288555139357 0.001312684436186651 0 0.034280765572479548 0.0013291936949071581 0 0.034180302355006353 0.0013213823192712833 0 0.034210982828672895 0.0013287424000675572 0 0.034180302355006353 0.0013213823192712833 0 0.034169288555139357 0.001312684436186651 0 0.034168924481559913 0.0013214323038882932 0 0.034170485360418154 0.0013456411432994405 0 0.034210982828672895 0.0013287424000675572 0 0.034169288555139357 0.001312684436186651 0 0.03403941515219034 0.0013055542064331791 0 0.034169288555139357 0.001312684436186651 0 0.034179319756673883 0.0013336218428509072 0 0.030323931058430231 0.0027133522072860798 0 0.03104688179556659 0.0030394334668194783 0 0.026771252896328868 0.0046812256219134433 0 0.027423426552510063 0.0046940602219376487 0 0.0271619781471257 0.0050145995670861469 0 0.034169288555139357 0.001312684436186651 0 0.034179319756673883 0.0013336218428509072 0 0.034168924481559913 0.0013214323038882932 0 0.034179319756673883 0.0013336218428509072 0 0.034118315351212507 0.0013027252750553457 0 0.034108067982386928 0.0012838101068485758 0 0.034179319756673883 0.0013336218428509072 0 0.034168924481559913 0.0013214323038882932 0 0.034118315351212507 0.0013027252750553457 0 0.034180302355006353 0.0013213823192712833 0 0.034168924481559913 0.0013214323038882932 0 0.034118315351212507 0.0013027252750553457 0 0.034179319756673883 0.0013336218428509072 0 0.034108067982386928 0.0012838101068485758 0 0.034103131253856674 0.0012601279910795593 0 0.03104688179556659 0.0030394334668194783 0 0.028859611540768725 0.0040772674870121111 0 0.034108067982386928 0.0012838101068485758 0 0.034103131253856674 0.0012601279910795593 0 0.034091298243432815 0.0012598306639815774 0 0.028859611540768725 0.0040772674870121111 0 0.029699890722844329 0.0027188556403828015 0 0.028039303362266337 0.0030369726600242828 0 0.028074118243824484 0.003075251322265589 0 0.028137938062462054 0.0030458433323632202 0 0.026958859425861809 0.0037759449747433497 0 0.029699890722844329 0.0027188556403828015 0 0.028859611540768725 0.0040772674870121111 0 0.026958859425861809 0.0037759449747433497 0 0.028859611540768725 0.0040772674870121111 0 0.027638321843551097 0.0047767616400925354 0 0.027423426552510063 0.0046940602219376487 0 0.027959262136041337 0.0052900391651768521 0 0.027565965449119663 0.0052382458683267533 0 0.027423426552510063 0.0046940602219376487 0 0.0271619781471257 0.0050145995670861469 0 0.027565965449119663 0.0052382458683267533 0 0.0271619781471257 0.0050145995670861469 0 0.027203167917451657 0.0053107321117191698 0 0.027565965449119663 0.0052382458683267533 0 0.027941892884283899 0.005290011972656633 0 0.027565965449119663 0.0052382458683267533 0 0.027402767834911083 0.0056175641248018991 0 0.027203167917451657 0.0053107321117191698 0 0.027565965449119663 0.0052382458683267533 0 0.027402767834911083 0.0056175641248018991 0 0.025058197237318183 0.0055238923692989108 0 0.023685474746281413 0.0062650328370136149 0 0.022919748321973323 0.0053226282992703388 0 0.022980217376356034 0.0052714979617889905 0 0.022842447132818685 0.0051958095041210279 0 0.027203167917451657 0.0053107321117191698 0 0.027402767834911083 0.0056175641248018991 0 0.026909777557187726 0.0055557260680022622 0 0.026958859425861809 0.0037759449747433497 0 0.025058197237318183 0.0055238923692989108 0 0.022919748321973323 0.0053226282992703388 0 0.022772630843102881 0.0052521995297775169 0 0.022842447132818685 0.0051958095041210279 0 0.027941892884283899 0.005290011972656633 0 0.027994713148759964 0.0053522528003558259 0 0.027402767834911083 0.0056175641248018991 0 0.022811298098724991 0.0053722477634027604 0 0.022919748321973323 0.0053226282992703388 0 0.022772630843102881 0.0052521995297775169 0 0.026212137093954632 0.0046861672158520339 0 0.026020448621553179 0.0052863361146731069 0 0.026477261943839932 0.0050431940983519863 0 0.026020448621553179 0.0052863361146731069 0 0.026477261943839932 0.0050431940983519863 0 0.026484142650472983 0.0054525515792823373 0 0.026477261943839932 0.0050431940983519863 0 0.02685610771792157 0.0051576885918667489 0 0.026484142650472983 0.0054525515792823373 0 0.02685610771792157 0.0051576885918667489 0 0.026909777557187726 0.0055557260680022622 0 0.026484142650472983 0.0054525515792823373 0 0.026771252896328868 0.0046812256219134433 0 0.026477261943839932 0.0050431940983519863 0 0.02685610771792157 0.0051576885918667489 0 0.026771252896328868 0.0046812256219134433 0 0.0271619781471257 0.0050145995670861469 0 0.02685610771792157 0.0051576885918667489 0 0.027203167917451657 0.0053107321117191698 0 0.02685610771792157 0.0051576885918667489 0 0.026909777557187726 0.0055557260680022622 0 0.0271619781471257 0.0050145995670861469 0 0.027203167917451657 0.0053107321117191698 0 0.02685610771792157 0.0051576885918667489 0 0.027402767834911083 0.0056175641248018991 0 0.026909777557187726 0.0055557260680022622 0 0.026798462406848411 0.0058928581938714189 0 0.022919748321973323 0.0053226282992703388 0 0.022980217376356034 0.0052714979617889905 0 0.02301822941458561 0.0052861261021603318 0 0.021330469436339997 0.006347541888063875 0 0.021552081770473193 0.0063208070661561599 0 0.021330469436339997 0.006347541888063875 0 0.021738264576252785 0.0070149900358412436 0 0.021330469436339997 0.006347541888063875 0 0.023685474746281413 0.0062650328370136149 0 0.021822873677909551 0.0065730617849435067 0 0.022476764701703789 0.0068385211766908401 0 0.022873293625625131 0.0066763139879121762 0 0.022992547569172909 0.005274025782861104 0 0.022980217376356034 0.0052714979617889905 0 0.02301822941458561 0.0052861261021603318 0 0.026909777557187726 0.0055557260680022622 0 0.026688012239946515 0.0058519080185753256 0 0.026798462406848411 0.0058928581938714189 0 0.024569565877311978 0.0064543508732773482 0 0.023685474746281413 0.0062650328370136149 0 0.026688012239946515 0.0058519080185753256 0 0.026778879651125645 0.0058960916710343271 0 0.026706989312263032 0.005932886393231797 0 0.023685474746281413 0.0062650328370136149 0 0.021738264576252785 0.0070149900358412436 0 0.021738264576252785 0.0070149900358412436 0 0.019379961916977145 0.007949727277827931 0 0.026909777557187726 0.0055557260680022622 0 0.026688012239946515 0.0058519080185753256 0 0.026484142650472983 0.0054525515792823373 0 0.026020448621553179 0.0052863361146731069 0 0.026484142650472983 0.0054525515792823373 0 0.02581795976544092 0.005910556303966941 0 0.017892222318446095 0.0083897084175712112 0 0.017994223426223324 0.0083561050220354836 0 0.018418817890861108 0.0084880438373865635 0 0.026688012239946515 0.0058519080185753256 0 0.026484142650472983 0.0054525515792823373 0 0.02581795976544092 0.005910556303966941 0 0.021738264576252785 0.0070149900358412436 0 0.0223198623075264 0.0071952636037226122 0 0.026688012239946515 0.0058519080185753256 0 0.026706989312263032 0.005932886393231797 0 0.02581795976544092 0.005910556303966941 0 0.017994223426223324 0.0083561050220354836 0 0.018235740517458555 0.00825531157863422 0 0.018418817890861108 0.0084880438373865635 0 0.018235740517458555 0.00825531157863422 0 0.018004908902274658 0.0081261228631327124 0 0.018256025076125754 0.0079912317082194723 0 0.017994223426223324 0.0083561050220354836 0 0.018235740517458555 0.00825531157863422 0 0.018004908902274658 0.0081261228631327124 0 0.018004908902274658 0.0081261228631327124 0 0.017810403475304847 0.0081585557540674435 0 0.01773531460088057 0.0078766925954167795 0 0.017994223426223324 0.0083561050220354836 0 0.018004908902274658 0.0081261228631327124 0 0.017810403475304847 0.0081585557540674435 0 0.017890960153520437 0.0083834085155158628 0 0.017994223426223324 0.0083561050220354836 0 0.017810403475304847 0.0081585557540674435 0 0.017757660052583075 0.0083527892054201976 0 0.017890960153520437 0.0083834085155158628 0 0.017810403475304847 0.0081585557540674435 0 0.01773531460088057 0.0078766925954167795 0 0.018256025076125754 0.0079912317082194723 0 0.017885646438585028 0.0075228653335993765 0 0.018004908902274658 0.0081261228631327124 0 0.01773531460088057 0.0078766925954167795 0 0.018256025076125754 0.0079912317082194723 0 0.019981487851081219 0.0066738722648010621 0 0.019668351638886663 0.0065758697596475296 0 0.022772630843102881 0.0052521995297775169 0 0.022842447132818685 0.0051958095041210279 0 0.022657382352054084 0.0051043821322836564 0 0.021330469436339997 0.006347541888063875 0 0.019981487851081219 0.0066738722648010621 0 0.017810403475304847 0.0081585557540674435 0 0.01773531460088057 0.0078766925954167795 0 0.017360727977453787 0.0081301965542624772 0 0.017757660052583075 0.0083527892054201976 0 0.017810403475304847 0.0081585557540674435 0 0.017360727977453787 0.0081301965542624772 0 0.022993686650767835 0.0052744918501553707 0 0.022980217376356034 0.0052714979617889905 0 0.022842447132818685 0.0051958095041210279 0 0.01773531460088057 0.0078766925954167795 0 0.017360727977453787 0.0081301965542624772 0 0.017358980848872562 0.0077658205578847936 0 0.017360727977453787 0.0081301965542624772 0 0.017358980848872562 0.0077658205578847936 0 0.017054693843186679 0.0079357438139947886 0 0.017358980848872562 0.0077658205578847936 0 0.017054693843186679 0.0079357438139947886 0 0.017045578445449142 0.0076276937724448646 0 0.017054693843186679 0.0079357438139947886 0 0.016797876731698268 0.0077784035135432224 0 0.017045578445449142 0.0076276937724448646 0 0.022772630843102881 0.0052521995297775169 0 0.022657382352054084 0.0051043821322836564 0 0.022630842755767305 0.0052173710085698863 0 0.022657382352054084 0.0051043821322836564 0 0.022630842755767305 0.0052173710085698863 0 0.022530495606058163 0.0051295960982524116 0 0.024659146998455606 0.0041139185361404231 0 0.024977679245050795 0.0036915123965844637 0 0.023838353431345907 0.0029226957619777972 0 0.024635438590095558 0.0030734004359990498 0 0.024450867439859452 0.0023453298794756535 0 0.024977679245050795 0.0036915123965844637 0 0.02580287574717122 0.0028068416007030177 0 0.027278822255157459 0.0031007541041675191 0 0.027269096858303008 0.0031057188823478943 0 0.027284301013524814 0.0031000057268137909 0 0.027278989862316146 0.0030991843862949136 0 0.027278822255157459 0.0031007541041675191 0 0.027269096858303008 0.0031057188823478943 0 0.023838353431345907 0.0029226957619777972 0 0.024302472390929572 0.0034754082215552496 0 0.024635438590095558 0.0030734004359990498 0 0.024977679245050795 0.0036915123965844637 0 0.020989912008505914 0.0053137464557875148 0 0.022657382352054084 0.0051043821322836564 0 0.022530495606058163 0.0051295960982524116 0 0.022406817335430599 0.0049938107805811644 0 0.019668351638886663 0.0065758697596475296 0 0.020989912008505914 0.0053137464557875148 0 0.024302472390929572 0.0034754082215552496 0 0.025121507879491359 0.0037892647373738405 0 0.024885319193727027 0.0035411631264622009 0 0.020989912008505914 0.0053137464557875148 0 0.023110830551572981 0.0033365848238705201 0 0.021361352854191107 0.0025404800178767928 0 0.021374845437398541 0.0024090450410533333 0 0.021395894019580326 0.0025898254184343701 0 0.025121507879491359 0.0037892647373738405 0 0.02512369619422342 0.0034969860616763078 0 0.024885319193727027 0.0035411631264622009 0 0.023110830551572981 0.0033365848238705201 0 0.024346296432121935 0.0032148307080193681 0 0.024346296432121935 0.0032148307080193681 0 0.024709623628440151 0.0032467301316177729 0 0.02514031427989841 0.0034956854539533854 0 0.024885319193727027 0.0035411631264622009 0 0.024635438590095558 0.0030734004359990498 0 0.024302472390929572 0.0034754082215552496 0 0.024885319193727027 0.0035411631264622009 0 0.024635438590095558 0.0030734004359990498 0 0.025958118314368218 0.0025524487746117967 0 0.026289905706417104 0.0024886592499097581 0 0.025987250645235611 0.0019362167065245029 0 0.021661485306735267 0.0023714476284104236 0 0.021543126785565178 0.00255287996927559 0 0.021506804633505589 0.0024099224178376704 0 0.02349747653894289 0.0021319436918910408 0 0.021529042926512011 0.00296953653852149 0 0.021543126785565178 0.00255287996927559 0 0.021506804633505589 0.0024099224178376704 0 0.021395894019580326 0.0025898254184343701 0 0.021374845437398541 0.0024090450410533333 0 0.021581242315122283 0.0023688361055165452 0 0.021395894019580326 0.0025898254184343701 0 0.024346296432121935 0.0032148307080193681 0 0.02349747653894289 0.0021319436918910408 0 0.024511802176846939 0.00044058235267973748 0 0.02349747653894289 0.0021319436918910408 0 0.02349747653894289 0.0021319436918910408 0 0.026721907617739415 0.0010573772717057241 0 0.02549931945895869 0.0014758033083727025 0 0.024569745250372019 0.0016489954607945001 0 0.025215786990863357 0.00071435232481906327 0 0.026529152620402917 0.0021470432913581043 0 0.025987250645235611 0.0019362167065245029 0 0.026255913409279082 0.0013685529740711316 0 0.026721907617739415 0.0010573772717057241 0 0.028983059726429033 0.00072740831767967187 0 0.026289905706417104 0.0024886592499097581 0 0.026529152620402917 0.0021470432913581043 0 0.025987250645235611 0.0019362167065245029 0 0.024346296432121935 0.0032148307080193681 0 0.025586557880661241 0.0022495448612501506 0 0.02514031427989841 0.0034956854539533854 0 0.024635438590095558 0.0030734004359990498 0 0.025180392159580935 0.0026550641065862255 0 0.024635438590095558 0.0030734004359990498 0 0.025180392159580935 0.0026550641065862255 0 0.024450867439859452 0.0023453298794756535 0 0.027284301013524814 0.0031000057268137909 0 0.027299188875301902 0.0030876038637598245 0 0.027288431665928582 0.0031016787540148688 0 0.025180392159580935 0.0026550641065862255 0 0.025072113299332958 0.0017716143647619779 0 0.025218550677599535 0.0017943296158661973 0 0.02580287574717122 0.0028068416007030177 0 0.028125436093851881 0.0021886472348778027 0 0.028125436093851881 0.0021886472348778027 0 0.02877803019325767 0.0024077549712862513 0 0.025586557880661241 0.0022495448612501506 0 0.027822706540296366 0.0016583965960263363 0 0.030672609833199409 0.0017740131718639357 0 0.030526492211998581 0.0016510812284207962 0 0.030344569022427305 0.0017332563760140303 0 0.025180392159580935 0.0026550641065862255 0 0.024450867439859452 0.0023453298794756535 0 0.025072113299332958 0.0017716143647619779 0 0.028125436093851881 0.0021886472348778027 0 0.027822706540296366 0.0016583965960263363 0 0.028409232144682276 0.0022134951226619407 0 0.028628411093756256 0.0022476256348312553 0 0.028632720434802542 0.0020033161750530482 0 0.030672609833199409 0.0017740131718639357 0 0.030715931983258359 0.001734359490261263 0 0.030646793534533839 0.0016651115311547917 0 0.027822706540296366 0.0016583965960263363 0 0.029059442187435006 0.0015915376752167094 0 0.028125436093851881 0.0021886472348778027 0 0.029059442187435006 0.0015915376752167094 0 0.025987250645235611 0.0019362167065245029 0 0.026016518231815659 0.0013319064945054671 0 0.026255913409279082 0.0013685529740711316 0 0.031352435915861343 0.00014611401700785636 0 0.031396277380072078 0.0001612584993813384 0 0.031396389393403015 0.00019830483984470399 0 0.029765671937572482 -5.9890923206175447e-06 0 0.029128723452175206 0.0011299172100326673 0 0.028647614604381855 -0.00017595918667629159 0 0.029508327572650848 0.0011279827144853195 0 0.029310312223980554 0.0010011280397917836 0 0.029400297153893529 0.0012315596139273453 0 0.028983059726429033 0.00072740831767967187 0 0.030653682212093972 0.00098324885917426249 0 0.029507972752163124 0.0010343014368805448 0 0.029508327572650848 0.0011279827144853195 0 0.029310312223980554 0.0010011280397917836 0 0.027822706540296366 0.0016583965960263363 0 0.028983059726429033 0.00072740831767967187 0 0.029059442187435006 0.0015915376752167094 0 0.030653682212093972 0.00098324885917426249 0 0.032556448387337768 0.0011983304785119667 0 0.03200241607634826 0.00061896582739096181 0 0.032240973837722231 0.00039205481240947663 0 0.031396277380072078 0.0001612584993813384 0 0.031396389393403015 0.00019830483984470399 0 0.031407548489568955 0.00018428717580979857 0 0.03071288184215493 0.0017294765891878521 0 0.030772021693421709 0.0016795612642177492 0 0.030725292102350994 0.0016100226789428666 0 0.033251064948519649 0.00023162060128548484 0 0.030653682212093972 0.00098324885917426249 0 0.033125755372134316 0.0010703390547754277 0 0.033251064948519649 0.00023162060128548484 0 0.033125755372134316 0.0010703390547754277 0 0.030653682212093972 0.00098324885917426249 0 0.030688417960511388 0.0013901167427283301 0 0.030608553055095321 0.0015505180225543107 0 0.030346290918417489 0.0015316393251144002 0 0.030688417960511388 0.0013901167427283301 0 0.030772021693421709 0.0016795612642177492 0 0.030725292102350994 0.0016100226789428666 0 0.030672609833199409 0.0017740131718639357 0 0.030526492211998581 0.0016510812284207962 0 0.030646793534533839 0.0016651115311547917 0 0.030526492211998581 0.0016510812284207962 0 0.030646793534533839 0.0016651115311547917 0 0.030608553055095321 0.0015505180225543107 0 0.030715931983258359 0.001734359490261263 0 0.030725292102350994 0.0016100226789428666 0 0.030646793534533839 0.0016651115311547917 0 0.030725292102350994 0.0016100226789428666 0 0.030646793534533839 0.0016651115311547917 0 0.030608553055095321 0.0015505180225543107 0 0.029059442187435006 0.0015915376752167094 0 0.029870504167432584 0.001639678269789623 0 0.030688417960511388 0.0013901167427283301 0 0.030725292102350994 0.0016100226789428666 0 0.030608553055095321 0.0015505180225543107 0 0.030526492211998581 0.0016510812284207962 0 0.030608553055095321 0.0015505180225543107 0 0.030346290918417489 0.0015316393251144002 0 0.030526492211998581 0.0016510812284207962 0 0.030346290918417489 0.0015316393251144002 0 0.030344569022427305 0.0017332563760140303 0 0.029699890722844329 0.0027188556403828015 0 0.032522885466292305 0.0012269259171967385 0 0.034108067982386928 0.0012838101068485758 0 0.034091298243432815 0.0012598306639815774 0 0.0340408695913509 0.0012652930095145109 0 0.029699890722844329 0.0027188556403828015 0 0.02877803019325767 0.0024077549712862513 0 0.029989958033921616 0.0016947826245658467 0 0.030346290918417489 0.0015316393251144002 0 0.030344569022427305 0.0017332563760140303 0 0.022811298098724991 0.0053722477634027604 0 0.022772630843102881 0.0052521995297775169 0 0.022630842755767305 0.0052173710085698863 0 0.026958859425861809 0.0037759449747433497 0 0.024659146998455606 0.0041139185361404231 0 0.027318055399922433 0.0031170351064727254 0 0.027315427620760193 0.0031174939986263351 0 0.027278989862316146 0.0030991843862949136 0 0.027315427620760193 0.0031174939986263351 0 0.027278989862316146 0.0030991843862949136 0 0.027288431665928582 0.0031016787540148688 0 0.027278989862316146 0.0030991843862949136 0 0.027278822255157459 0.0031007541041675191 0 0.027288431665928582 0.0031016787540148688 0 0.027278822255157459 0.0031007541041675191 0 0.027284301013524814 0.0031000057268137909 0 0.027288431665928582 0.0031016787540148688 0 0.025058810053500493 0.0053552409213813938 0 0.025495153178604638 0.0053759006347513369 0 0.025278888260863497 0.0052422182762906326 0 0.025058810053500493 0.0053552409213813938 0 0.025521560336782989 0.0054280005609072448 0 0.025069508173696717 0.0057412269583173641 0 0.025886608190440207 0.0052567085149589554 0 0.023538620277550219 0.0060350899480240633 0 0.023538620277550219 0.0060350899480240633 0 0.022547111810353928 0.006595574099709605 0 0.020053087901043914 0.0073960602984885337 0 0.020347510285818046 0.0072769307815292519 0 0.020080168819219545 0.0072646933097361872 0 0.020053087901043914 0.0073960602984885337 0 0.020080168819219545 0.0072646933097361872 0 0.019985646739032373 0.0073203421921947719 0 0.025495153178604638 0.0053759006347513369 0 0.025421829059192051 0.0052640771289808735 0 0.025476668959272412 0.0052717291155632649 0 0.025495153178604638 0.0053759006347513369 0 0.025476668959272412 0.0052717291155632649 0 0.025578775250695521 0.0052842973577554167 0 0.025495153178604638 0.0053759006347513369 0 0.025421829059192051 0.0052640771289808735 0 0.025278888260863497 0.0052422182762906326 0 0.02543647537773849 0.0051790630355906938 0 0.025578775250695521 0.0052842973577554167 0 0.025388330430876165 0.0050365521730683302 0 0.025213028999535973 0.0046791204008369662 0 0.025243738048679989 0.0048471491179666705 0 0.0254030770851894 0.0049406201116448233 0 0.024628178567611875 0.0051759038113025667 0 0.02553437958847303 0.0049828912771927242 0 0.025421829059192051 0.0052640771289808735 0 0.02543647537773849 0.0051790630355906938 0 0.025278888260863497 0.0052422182762906326 0 0.025476668959272412 0.0052717291155632649 0 0.02543647537773849 0.0051790630355906938 0 0.025578775250695521 0.0052842973577554167 0 0.025421829059192051 0.0052640771289808735 0 0.025476668959272412 0.0052717291155632649 0 0.02543647537773849 0.0051790630355906938 0 0.02543647537773849 0.0051790630355906938 0 0.02535165272637711 0.0051136869513691268 0 0.025278888260863497 0.0052422182762906326 0 0.02535165272637711 0.0051136869513691268 0 0.025278888260863497 0.0052422182762906326 0 0.025249108484736858 0.0051403739691388301 0 0.025058810053500493 0.0053552409213813938 0 0.025278888260863497 0.0052422182762906326 0 0.025249108484736858 0.0051403739691388301 0 0.025058810053500493 0.0053552409213813938 0 0.025249108484736858 0.0051403739691388301 0 0.024918524547651703 0.0051637532384935028 0 0.025249108484736858 0.0051403739691388301 0 0.024918524547651703 0.0051637532384935028 0 0.025291989037312942 0.0050871935573193472 0 0.024918524547651703 0.0051637532384935028 0 0.023978531495076932 0.0053290169239757516 0 0.024402804457262315 0.0051701461966559186 0 0.024918524547651703 0.0051637532384935028 0 0.023978531495076932 0.0053290169239757516 0 0.024576838294520356 0.0055015884905273652 0 0.025058810053500493 0.0053552409213813938 0 0.024918524547651703 0.0051637532384935028 0 0.024576838294520356 0.0055015884905273652 0 0.025058810053500493 0.0053552409213813938 0 0.024576838294520356 0.0055015884905273652 0 0.025069508173696717 0.0057412269583173641 0 0.020842225899593645 0.0071184436929457957 0 0.02032207343674116 0.0070298896784741285 0 0.020347510285818046 0.0072769307815292519 0 0.024576838294520356 0.0055015884905273652 0 0.02402565647177372 0.0060999015739560576 0 0.025069508173696717 0.0057412269583173641 0 0.022468846171059938 0.0065327038815144178 0 0.022547111810353928 0.006595574099709605 0 0.023978531495076932 0.0053290169239757516 0 0.024576838294520356 0.0055015884905273652 0 0.02402565647177372 0.0060999015739560576 0 0.023978531495076932 0.0053290169239757516 0 0.02402565647177372 0.0060999015739560576 0 0.022809692004363558 0.0055895935340117093 0 0.022468846171059938 0.0065327038815144178 0 0.022001005468921312 0.0064294355551494341 0 0.020842225899593645 0.0071184436929457957 0 0.02032207343674116 0.0070298896784741285 0 0.020403602282910351 0.0067664240226223693 0 0.02032207343674116 0.0070298896784741285 0 0.020113545149668993 0.0069011383861810266 0 0.020403602282910351 0.0067664240226223693 0 0.02032207343674116 0.0070298896784741285 0 0.020070308876378191 0.007090847230153725 0 0.020113545149668993 0.0069011383861810266 0 0.02032207343674116 0.0070298896784741285 0 0.020347510285818046 0.0072769307815292519 0 0.020070308876378191 0.007090847230153725 0 0.020347510285818046 0.0072769307815292519 0 0.020080168819219545 0.0072646933097361872 0 0.020070308876378191 0.007090847230153725 0 0.020080168819219545 0.0072646933097361872 0 0.020070308876378191 0.007090847230153725 0 0.019963709881750412 0.0072229107677560115 0 0.020080168819219545 0.0072646933097361872 0 0.019963709881750412 0.0072229107677560115 0 0.019985646739032373 0.0073203421921947719 0 0.020070308876378191 0.007090847230153725 0 0.019963709881750412 0.0072229107677560115 0 0.019920856048592187 0.0070833898397752769 0 0.020070308876378191 0.007090847230153725 0 0.020113545149668993 0.0069011383861810266 0 0.019924078991776138 0.0069397584400535794 0 0.020070308876378191 0.007090847230153725 0 0.019924078991776138 0.0069397584400535794 0 0.019920856048592187 0.0070833898397752769 0 0.020113545149668993 0.0069011383861810266 0 0.019924078991776138 0.0069397584400535794 0 0.019968551406908272 0.0068072210140256223 0 0.019832010311524036 0.0069879007492869086 0 0.019665789523765565 0.007066693258904258 0 0.019835278521405198 0.0067174685946759993 0 0.019924078991776138 0.0069397584400535794 0 0.019832010311524036 0.0069879007492869086 0 0.019835278521405198 0.0067174685946759993 0 0.019924078991776138 0.0069397584400535794 0 0.019832010311524036 0.0069879007492869086 0 0.019920856048592187 0.0070833898397752769 0 0.019832010311524036 0.0069879007492869086 0 0.019665789523765565 0.007066693258904258 0 0.019825436908242962 0.0071415546196047404 0 0.019832010311524036 0.0069879007492869086 0 0.019920856048592187 0.0070833898397752769 0 0.019825436908242962 0.0071415546196047404 0 0.019489134825759716 0.0071094077264640078 0 0.019520911295869442 0.0072886431657080576 0 0.019682765358191596 0.0069106445457569905 0 0.02017448793323668 0.0071818475369087682 0 0.019660792996957104 0.006833224043136678 0 0.021124892067543848 0.0073034726200786456 0 0.021202469582229697 0.0071561824510875992 0 0.021126964743424122 0.0071723470287493674 0 0.019229527852876311 0.0077724816424935596 0 0.019107719653715088 0.0083619657991506335 0 0.018995205859696582 0.008106670029348154 0 0.02017448793323668 0.0071818475369087682 0 0.019993843301802577 0.0077889487798334985 0 0.019489134825759716 0.0071094077264640078 0 0.019520911295869442 0.0072886431657080576 0 0.019422125417141341 0.0075216134794658359 0 0.021124892067543848 0.0073034726200786456 0 0.021126964743424122 0.0071723470287493674 0 0.021041455838401071 0.0071441807597491663 0 0.019252694477994693 0.0074880353846231741 0 0.019993843301802577 0.0077889487798334985 0 0.02017448793323668 0.0071818475369087682 0 0.020926449354183644 0.0070439272858074048 0 0.019963709881750412 0.0072229107677560115 0 0.019825436908242962 0.0071415546196047404 0 0.019807732251552735 0.0073164098119634056 0 0.019665789523765565 0.007066693258904258 0 0.019825436908242962 0.0071415546196047404 0 0.019807732251552735 0.0073164098119634056 0 0.019963709881750412 0.0072229107677560115 0 0.019985646739032373 0.0073203421921947719 0 0.019879860983911014 0.0072969634617113237 0 0.019802424909573856 0.007426980218559533 0 0.020926449354183644 0.0070439272858074048 0 0.019963709881750412 0.0072229107677560115 0 0.019920856048592187 0.0070833898397752769 0 0.019825436908242962 0.0071415546196047404 0 0.018256025076125754 0.0079912317082194723 0 0.018662770807060265 0.0079511587935117509 0 0.01856333940591557 0.0076360505753072464 0 0.019229527852876311 0.0077724816424935596 0 0.018895143001339897 0.0077880067417262543 0 0.018995205859696582 0.008106670029348154 0 0.018662770807060265 0.0079511587935117509 0 0.018895143001339897 0.0077880067417262543 0 0.018995205859696582 0.008106670029348154 0 0.018662770807060265 0.0079511587935117509 0 0.018895143001339897 0.0077880067417262543 0 0.01856333940591557 0.0076360505753072464 0 0.018995205859696582 0.008106670029348154 0 0.018594037521381383 0.0082356469750453996 0 0.018979650802353202 0.0085472280690749251 0 0.018809236909259938 0.0085701212263344217 0 0.021433795734425987 0.0074645958574629332 0 0.018662770807060265 0.0079511587935117509 0 0.018995205859696582 0.008106670029348154 0 0.018594037521381383 0.0082356469750453996 0 0.019107719653715088 0.0083619657991506335 0 0.018995205859696582 0.008106670029348154 0 0.019002818407674815 0.0084812197693005069 0 0.018256025076125754 0.0079912317082194723 0 0.018662770807060265 0.0079511587935117509 0 0.018594037521381383 0.0082356469750453996 0 0.018235740517458555 0.00825531157863422 0 0.018594037521381383 0.0082356469750453996 0 0.018418817890861108 0.0084880438373865635 0 0.018235740517458555 0.00825531157863422 0 0.018256025076125754 0.0079912317082194723 0 0.018594037521381383 0.0082356469750453996 0 0.018594037521381383 0.0082356469750453996 0 0.018418817890861108 0.0084880438373865635 0 0.018979650802353202 0.0085472280690749251 0 0.02581795976544092 0.005910556303966941 0 0.025397397272150228 0.0054984681724604646 0 0.024792746640288441 0.0058624966186933795 0 0.0223198623075264 0.0071952636037226122 0 0.021433795734425987 0.0074645958574629332 0 0.026020448621553179 0.0052863361146731069 0 0.02581795976544092 0.005910556303966941 0 0.025397397272150228 0.0054984681724604646 0 0.025397397272150228 0.0054984681724604646 0 0.024792746640288441 0.0058624966186933795 0 0.024829906538790029 0.0054152620724451268 0 0.019107719653715088 0.0083619657991506335 0 0.019002818407674815 0.0084812197693005069 0 0.019089907440599272 0.0084062500937165247 0 0.021433795734425987 0.0074645958574629332 0 0.021441567353724419 0.0071517231973242008 0 0.019002818407674815 0.0084812197693005069 0 0.019089227961700126 0.0084866558175106105 0 0.019089907440599272 0.0084062500937165247 0 0.022950896465454989 0.0069516435776431256 0 0.0222937674833136 0.0068940118099167693 0 0.022703925348693886 0.0063088082268526633 0 0.0222937674833136 0.0068940118099167693 0 0.022703925348693886 0.0063088082268526633 0 0.022516618364066002 0.0058629355830467494 0 0.021441567353724419 0.0071517231973242008 0 0.023691295959954929 0.0053884713388876425 0 0.022950896465454989 0.0069516435776431256 0 0.022703925348693886 0.0063088082268526633 0 0.023054801354194014 0.0055263865349767368 0 0.021433795734425987 0.0074645958574629332 0 0.024377525824836037 0.0051223672681035238 0 0.022703925348693886 0.0063088082268526633 0 0.022516618364066002 0.0058629355830467494 0 0.023054801354194014 0.0055263865349767368 0 0.023691295959954929 0.0053884713388876425 0 0.024377525824836037 0.0051223672681035238 0 0.025531005120387019 0.0050978943356998763 0 0.025762506229167828 0.0047332427075708087 0 0.025620919419613447 0.0045994409937952464 0 0.025531005120387019 0.0050978943356998763 0 0.025620919419613447 0.0045994409937952464 0 0.025575832217009153 0.0045671051100169124 0 0.024377525824836037 0.0051223672681035238 0 0.025825080174720374 0.0044905781270593789 0 0.024910629469445344 0.0047683337957454197 0 0.02498569395258372 0.0048600068843881071 0 0.024876441684362472 0.0049301883429901305 0 0.024888143088556452 0.0047317111788162157 0 0.024910629469445344 0.0047683337957454197 0 0.024876441684362472 0.0049301883429901305 0 0.023691295959954929 0.0053884713388876425 0 0.024205244454150843 0.0047598611562167841 0 0.024916077220935938 0.0047142415769968107 0 0.024888143088556452 0.0047317111788162157 0 0.024910629469445344 0.0047683337957454197 0 0.025531005120387019 0.0050978943356998763 0 0.025892465830526963 0.0048715288507973509 0 0.025762506229167828 0.0047332427075708087 0 0.025397397272150228 0.0054984681724604646 0 0.024829906538790029 0.0054152620724451268 0 0.025502181165639768 0.0050240804696862736 0 0.024377525824836037 0.0051223672681035238 0 0.025800591770588702 0.0048951291584922911 0 0.026212137093954632 0.0046861672158520339 0 0.026020448621553179 0.0052863361146731069 0 0.025502181165639768 0.0050240804696862736 0 0.026111578576643552 0.0047293322312563649 0 0.025800591770588702 0.0048951291584922911 0 0.026020448621553179 0.0052863361146731069 0 0.025397397272150228 0.0054984681724604646 0 0.025502181165639768 0.0050240804696862736 0 0.025064110131294975 0.0047194381724076154 0 0.025098514051559637 0.004694288623696862 0 0.025117421328928035 0.0047268966591391516 0 0.022733475765721902 0.0059339682292651082 0 0.023002960787354362 0.0061423475588481902 0 0.025064110131294975 0.0047194381724076154 0 0.025098514051559637 0.004694288623696862 0 0.025007410024536561 0.0046757253353767441 0 0.023538620277550219 0.0060350899480240633 0 0.024628178567611875 0.0051759038113025667 0 0.023723009284505658 0.0058843571078712326 0 0.023591345851412728 0.0058709675426851541 0 0.023633463367417444 0.005939563221923504 0 0.023538620277550219 0.0060350899480240633 0 0.022733475765721902 0.0059339682292651082 0 0.022733475765721902 0.0059339682292651082 0 0.024628178567611875 0.0051759038113025667 0 0.020053087901043914 0.0073960602984885337 0 0.019928147155424038 0.0073740884517171515 0 0.019985646739032373 0.0073203421921947719 0 0.019928147155424038 0.0073740884517171515 0 0.019985646739032373 0.0073203421921947719 0 0.019879860983911014 0.0072969634617113237 0 0.021991964584171526 0.0061271955309862916 0 0.02215795302351091 0.0064203072558662744 0 0.022550754089089763 0.0061744800145423547 0 0.022733475765721902 0.0059339682292651082 0 0.020926449354183644 0.0070439272858074048 0 0.021126964743424122 0.0071723470287493674 0 0.021041455838401071 0.0071441807597491663 0 0.021138964534694254 0.0070839395863777606 0 0.020926449354183644 0.0070439272858074048 0 0.023002960787354362 0.0061423475588481902 0 0.021441567353724419 0.0071517231973242008 0 0.023002960787354362 0.0061423475588481902 0 0.021202469582229697 0.0071561824510875992 0 0.021218481032318156 0.0070920865372004864 0 0.021138964534694254 0.0070839395863777606 0 0.021202469582229697 0.0071561824510875992 0 0.021126964743424122 0.0071723470287493674 0 0.021138964534694254 0.0070839395863777606 0 0.01911049886862199 0.0083614030780567415 0 0.019089227961700126 0.0084866558175106105 0 0.019089907440599272 0.0084062500937165247 0 0.019993843301802577 0.0077889487798334985 0 0.021441567353724419 0.0071517231973242008 0 0.019993843301802577 0.0077889487798334985 0 0.019862990954651136 0.0079742883803110339 0 0.023691295959954929 0.0053884713388876425 0 0.023002960787354362 0.0061423475588481902 0 0.024924314410415621 0.0047161451899050593 0 0.025007410024536561 0.0046757253353767441 0 0.024995237190239966 0.0047453229187258208 0 0.022741282524495209 0.0063628148719175265 0 0.022780015976303442 0.0061863375418888741 0 0.022533274141690578 0.0063454229854747728 0 0.025064110131294975 0.0047194381724076154 0 0.025007410024536561 0.0046757253353767441 0 0.024995237190239966 0.0047453229187258208 0 0.025064110131294975 0.0047194381724076154 0 0.024995237190239966 0.0047453229187258208 0 0.025079120173952238 0.0047668015073257641 0 0.024924314410415621 0.0047161451899050593 0 0.024910629469445344 0.0047683337957454197 0 0.024995237190239966 0.0047453229187258208 0 0.024910629469445344 0.0047683337957454197 0 0.024995237190239966 0.0047453229187258208 0 0.02498569395258372 0.0048600068843881071 0 0.025079120173952238 0.0047668015073257641 0 0.025144463777173522 0.0048930555373267477 0 0.02498569395258372 0.0048600068843881071 0 0.024995237190239966 0.0047453229187258208 0 0.025079120173952238 0.0047668015073257641 0 0.02498569395258372 0.0048600068843881071 0 0.025169437301591754 0.0047977566919929363 0 0.025079120173952238 0.0047668015073257641 0 0.025144463777173522 0.0048930555373267477 0 0.025213028999535973 0.0046791204008369662 0 0.025169437301591754 0.0047977566919929363 0 0.025243738048679989 0.0048471491179666705 0 0.024628178567611875 0.0051759038113025667 0 0.02524539849988177 0.0046814447211861558 0 0.025064110131294975 0.0047194381724076154 0 0.025117421328928035 0.0047268966591391516 0 0.025079120173952238 0.0047668015073257641 0 0.025213028999535973 0.0046791204008369662 0 0.025169437301591754 0.0047977566919929363 0 0.025079120173952238 0.0047668015073257641 0 0.025169437301591754 0.0047977566919929363 0 0.025243738048679989 0.0048471491179666705 0 0.025144463777173522 0.0048930555373267477 0 0.025144463777173522 0.0048930555373267477 0 0.025039721338163574 0.005056702570382419 0 0.025201252781600444 0.0050214992580842653 0 0.025243738048679989 0.0048471491179666705 0 0.025267954506445651 0.0049419532416546093 0 0.025144463777173522 0.0048930555373267477 0 0.025267954506445651 0.0049419532416546093 0 0.025201252781600444 0.0050214992580842653 0 0.025311458817581928 0.0050273682067952415 0 0.025267954506445651 0.0049419532416546093 0 0.025144463777173522 0.0048930555373267477 0 0.025201252781600444 0.0050214992580842653 0 0.025144463777173522 0.0048930555373267477 0 0.02498569395258372 0.0048600068843881071 0 0.025039721338163574 0.005056702570382419 0 0.026040436948982552 0.0046755170986209202 0 0.025825080174720374 0.0044905781270593789 0 0.02498569395258372 0.0048600068843881071 0 0.025039721338163574 0.005056702570382419 0 0.024876441684362472 0.0049301883429901305 0 0.027072041980688358 0.0043277528864897382 0 0.026648681545591829 0.004673070295644597 0 0.027252666780114339 0.0047581492479436445 0 0.025039721338163574 0.005056702570382419 0 0.025201252781600444 0.0050214992580842653 0 0.025229289440008056 0.0052034148339396005 0 0.027072041980688358 0.0043277528864897382 0 0.027461662030858879 0.0046060876933877483 0 0.027252666780114339 0.0047581492479436445 0 0.026040436948982552 0.0046755170986209202 0 0.026345649355935273 0.0050601360550532664 0 0.025201252781600444 0.0050214992580842653 0 0.025229289440008056 0.0052034148339396005 0 0.025311458817581928 0.0050273682067952415 0 0.026212137093954632 0.0046861672158520339 0 0.0259130775060008 0.0046235137599667953 0 0.025979877893202306 0.0043697593323748984 0 0.026212137093954632 0.0046861672158520339 0 0.025892465830526963 0.0048715288507973509 0 0.0259130775060008 0.0046235137599667953 0 0.0259130775060008 0.0046235137599667953 0 0.025765010878403882 0.0045397644006338065 0 0.025762506229167828 0.0047332427075708087 0 0.025892465830526963 0.0048715288507973509 0 0.0259130775060008 0.0046235137599667953 0 0.025762506229167828 0.0047332427075708087 0 0.025765010878403882 0.0045397644006338065 0 0.025753271577097114 0.0043398227470423803 0 0.025979877893202306 0.0043697593323748984 0 0.0259130775060008 0.0046235137599667953 0 0.025765010878403882 0.0045397644006338065 0 0.025979877893202306 0.0043697593323748984 0 0.025765010878403882 0.0045397644006338065 0 0.025573737609593181 0.0045671719284635657 0 0.025753271577097114 0.0043398227470423803 0 0.025765010878403882 0.0045397644006338065 0 0.025762506229167828 0.0047332427075708087 0 0.025620919419613447 0.0045994409937952464 0 0.025765010878403882 0.0045397644006338065 0 0.025620919419613447 0.0045994409937952464 0 0.025573737609593181 0.0045671719284635657 0 0.025799454055561014 0.0044858781043222405 0 0.025825080174720374 0.0044905781270593789 0 0.025573737609593181 0.0045671719284635657 0 0.025753271577097114 0.0043398227470423803 0 0.025652139709736371 0.0038838246091321706 0 0.025825080174720374 0.0044905781270593789 0 0.026794147689376911 0.0040517297101925849 0 0.025753271577097114 0.0043398227470423803 0 0.025831932618663948 0.0041306198100821258 0 0.025652139709736371 0.0038838246091321706 0 0.027072041980688358 0.0043277528864897382 0 0.026680808995247305 0.0040548063964305709 0 0.026648681545591829 0.004673070295644597 0 0.025831932618663948 0.0041306198100821258 0 0.025788006412288175 0.0038974739704800915 0 0.025652139709736371 0.0038838246091321706 0 0.025753271577097114 0.0043398227470423803 0 0.025831932618663948 0.0041306198100821258 0 0.025979877893202306 0.0043697593323748984 0 0.025831932618663948 0.0041306198100821258 0 0.026064172057589007 0.0041213258804894551 0 0.025979877893202306 0.0043697593323748984 0 0.025964315274546425 0.0039681899053877123 0 0.025831932618663948 0.0041306198100821258 0 0.026064172057589007 0.0041213258804894551 0 0.025964315274546425 0.0039681899053877123 0 0.025831932618663948 0.0041306198100821258 0 0.025788006412288175 0.0038974739704800915 0 0.025964315274546425 0.0039681899053877123 0 0.026064172057589007 0.0041213258804894551 0 0.026176011073033946 0.0038940027803620919 0 0.026351821771271842 0.004221427324814348 0 0.026064172057589007 0.0041213258804894551 0 0.025979877893202306 0.0043697593323748984 0 0.026176011073033946 0.0038940027803620919 0 0.025977772417933261 0.003773740054917334 0 0.026172820875632521 0.0035043414104620882 0 0.025964315274546425 0.0039681899053877123 0 0.026176011073033946 0.0038940027803620919 0 0.025977772417933261 0.003773740054917334 0 0.025964315274546425 0.0039681899053877123 0 0.025977772417933261 0.003773740054917334 0 0.025788006412288175 0.0038974739704800915 0 0.025977772417933261 0.003773740054917334 0 0.02583231013654929 0.0037882952108014923 0 0.025788006412288175 0.0038974739704800915 0 0.025977772417933261 0.003773740054917334 0 0.025886187757503221 0.0036034862006956072 0 0.026172820875632521 0.0035043414104620882 0 0.025977772417933261 0.003773740054917334 0 0.025886187757503221 0.0036034862006956072 0 0.02583231013654929 0.0037882952108014923 0 0.025886187757503221 0.0036034862006956072 0 0.025683589309487297 0.00387955940688669 0 0.025767600553285041 0.0033506595988211144 0 0.026794147689376911 0.0040517297101925849 0 0.029975165214455438 0.0041896872906150998 0 0.029016314654438047 0.004323329031101688 0 0.029018337818060271 0.004529615390417162 0 0.02913761612513855 0.0044458110633146513 0 0.025886187757503221 0.0036034862006956072 0 0.02583231013654929 0.0037882952108014923 0 0.025683589309487297 0.00387955940688669 0 0.02583231013654929 0.0037882952108014923 0 0.025788006412288175 0.0038974739704800915 0 0.025683589309487297 0.00387955940688669 0 0.026143875620356312 0.003960366307677504 0 0.026794147689376911 0.0040517297101925849 0 0.029975165214455438 0.0041896872906150998 0 0.031168845791343259 0.0049025032942855602 0 0.033155941318757043 0.0047102499482522533 0 0.033728250322330261 0.0049981819438842954 0 0.03281045762930155 0.0056821164840560349 0 0.033155941318757043 0.0047102499482522533 0 0.033728250322330261 0.0049981819438842954 0 0.033771168265273294 0.0044410023396017125 0 0.030898236911420483 0.0038581149411368557 0 0.030958217029115245 0.0038146633238470163 0 0.030908984383226257 0.0037714098336844031 0 0.029975165214455438 0.0041896872906150998 0 0.032184576006492958 0.0043088441019058857 0 0.029975165214455438 0.0041896872906150998 0 0.030233326473528506 0.0033904950536728347 0 0.025767600553285041 0.0033506595988211144 0 0.025908034823164887 0.0034296910208763405 0 0.025892319771288003 0.003265868845658403 0 0.025886187757503221 0.0036034862006956072 0 0.025767600553285041 0.0033506595988211144 0 0.025908034823164887 0.0034296910208763405 0 0.033839490154457974 0.0010833873164882058 0 0.033771888783069887 0.00085969078089224093 0 0.033685656163716854 0.00092249822402490518 0 0.025886187757503221 0.0036034862006956072 0 0.025908034823164887 0.0034296910208763405 0 0.026172820875632521 0.0035043414104620882 0 0.030233326473528506 0.0033904950536728347 0 0.02807433533423152 0.0025862778316487769 0 0.025908034823164887 0.0034296910208763405 0 0.025892319771288003 0.003265868845658403 0 0.026172820875632521 0.0035043414104620882 0 0.031139175946308238 0.0026448852216793902 0 0.030776857194303498 0.0023287108122522428 0 0.031016759375187629 0.0027335431732585947 0 0.032245430730069295 0.001695958435534413 0 0.032590733472077235 0.00249215329660829 0 0.030719726326873673 0.0023707963292054759 0 0.030776857194303498 0.0023287108122522428 0 0.031016759375187629 0.0027335431732585947 0 0.031869979642995691 0.0063953806217464581 0 0.031199024454369836 0.0054682043266897264 0 0.030205815962892544 0.0062348243928534138 0 0.028166927200631558 0.005347455173541845 0 0.02819561266824137 0.005327328184825811 0 0.028134104087049593 0.0053291970755139561 0 0.029389437576241857 0.005057900298505503 0 0.028563352295180526 0.0057411445617761708 0 0.031869979642995691 0.0063953806217464581 0 0.032030232666134979 0.0054916038010942346 0 0.031199024454369836 0.0054682043266897264 0 0.026345649355935273 0.0050601360550532664 0 0.029389437576241857 0.005057900298505503 0 0.026794147689376911 0.0040517297101925849 0 0.029389437576241857 0.005057900298505503 0 0.029016314654438047 0.004323329031101688 0 0.02926209127936287 0.0043618113142181647 0 0.02913761612513855 0.0044458110633146513 0 0.029389437576241857 0.005057900298505503 0 0.031168845791343259 0.0049025032942855602 0 0.031869979642995691 0.0063953806217464581 0 0.032030232666134979 0.0054916038010942346 0 0.03281045762930155 0.0056821164840560349 0 0.032030232666134979 0.0054916038010942346 0 0.03281045762930155 0.0056821164840560349 0 0.032546856447545056 0.004720026813073752 0 0.033155941318757043 0.0047102499482522533 0 0.03281045762930155 0.0056821164840560349 0 0.032546856447545056 0.004720026813073752 0 0.032030232666134979 0.0054916038010942346 0 0.032546856447545056 0.004720026813073752 0 0.031903932784963437 0.0047266630504582711 0 0.032030232666134979 0.0054916038010942346 0 0.031903932784963437 0.0047266630504582711 0 0.031199024454369836 0.0054682043266897264 0 0.031903932784963437 0.0047266630504582711 0 0.031199024454369836 0.0054682043266897264 0 0.031031784063175236 0.0047291983910031079 0 0.031199024454369836 0.0054682043266897264 0 0.030163926781267513 0.0049832289119975913 0 0.030205815962892544 0.0062348243928534138 0 0.030163926781267513 0.0049832289119975913 0 0.02877194806621243 0.0052125442344375401 0 0.030205815962892544 0.0062348243928534138 0 0.031199024454369836 0.0054682043266897264 0 0.031031784063175236 0.0047291983910031079 0 0.030163926781267513 0.0049832289119975913 0 0.031031784063175236 0.0047291983910031079 0 0.030163926781267513 0.0049832289119975913 0 0.030489456040755022 0.0044683141003304038 0 0.030163926781267513 0.0049832289119975913 0 0.02877194806621243 0.0052125442344375401 0 0.029340763481553008 0.0045694854958754872 0 0.029383129093999375 0.0055896479573570978 0 0.028563352295180526 0.0057411445617761708 0 0.02877194806621243 0.0052125442344375401 0 0.028484956820339795 0.0044089666789046481 0 0.029340763481553008 0.0045694854958754872 0 0.02877194806621243 0.0052125442344375401 0 0.027692491320639598 0.0049466130353746736 0 0.028484956820339795 0.0044089666789046481 0 0.02877194806621243 0.0052125442344375401 0 0.028788921475531262 0.0060271020788566707 0 0.027692491320639598 0.0049466130353746736 0 0.027098106890710422 0.0056778085410970564 0 0.028563352295180526 0.0057411445617761708 0 0.02877194806621243 0.0052125442344375401 0 0.028788921475531262 0.0060271020788566707 0 0.030044155565235736 0.0061965828524467885 0 0.02565129541803253 0.0054662907995896414 0 0.02567462308773899 0.0052118568547289334 0 0.025476157776925818 0.0052092036117425081 0 0.02565129541803253 0.0054662907995896414 0 0.02567462308773899 0.0052118568547289334 0 0.026054021265622226 0.0052069849156048259 0 0.02567462308773899 0.0052118568547289334 0 0.025739636733055321 0.0050938308943281234 0 0.026054021265622226 0.0052069849156048259 0 0.025241648866671535 0.0052038485762371861 0 0.025412395231256699 0.0053549666749038811 0 0.025476157776925818 0.0052092036117425081 0 0.02565129541803253 0.0054662907995896414 0 0.025412395231256699 0.0053549666749038811 0 0.025476157776925818 0.0052092036117425081 0 0.026345649355935273 0.0050601360550532664 0 0.028563352295180526 0.0057411445617761708 0 0.025229289440008056 0.0052034148339396005 0 0.025311458817581928 0.0050273682067952415 0 0.025451208267793041 0.0050456128413628081 0 0.025241648866671535 0.0052038485762371861 0 0.025476157776925818 0.0052092036117425081 0 0.025451208267793041 0.0050456128413628081 0 0.026345649355935273 0.0050601360550532664 0 0.025084297663379992 0.0052228678395639418 0 0.02567462308773899 0.0052118568547289334 0 0.025476157776925818 0.0052092036117425081 0 0.025451208267793041 0.0050456128413628081 0 0.02567462308773899 0.0052118568547289334 0 0.025451208267793041 0.0050456128413628081 0 0.0254030770851894 0.0049406201116448233 0 0.025605487968186236 0.0051989068110744555 0 0.02553437958847303 0.0049828912771927242 0 0.02567462308773899 0.0052118568547289334 0 0.025534780501783413 0.0050832523593995673 0 0.025739636733055321 0.0050938308943281234 0 0.02567462308773899 0.0052118568547289334 0 0.025534780501783413 0.0050832523593995673 0 0.025388330430876165 0.0050365521730683302 0 0.025534780501783413 0.0050832523593995673 0 0.025492568214768918 0.0050709139890097394 0 0.025739636733055321 0.0050938308943281234 0 0.025534780501783413 0.0050832523593995673 0 0.025407872869315055 0.0050668624563633986 0 0.025388330430876165 0.0050365521730683302 0 0.025534780501783413 0.0050832523593995673 0 0.025407872869315055 0.0050668624563633986 0 0.025492568214768918 0.0050709139890097394 0 0.025407872869315055 0.0050668624563633986 0 0.025291989037312942 0.0050871935573193472 0 0.025492568214768918 0.0050709139890097394 0 0.025249108484736858 0.0051403739691388301 0 0.025407872869315055 0.0050668624563633986 0 0.025291989037312942 0.0050871935573193472 0 0.02535165272637711 0.0051136869513691268 0 0.025407872869315055 0.0050668624563633986 0 0.025388330430876165 0.0050365521730683302 0 0.02535165272637711 0.0051136869513691268 0 0.025249108484736858 0.0051403739691388301 0 0.025407872869315055 0.0050668624563633986 0 0.02543647537773849 0.0051790630355906938 0 0.02535165272637711 0.0051136869513691268 0 0.025388330430876165 0.0050365521730683302 0 0.025243738048679989 0.0048471491179666705 0 0.025267954506445651 0.0049419532416546093 0 0.0254030770851894 0.0049406201116448233 0 0.025267954506445651 0.0049419532416546093 0 0.025311458817581928 0.0050273682067952415 0 0.0254030770851894 0.0049406201116448233 0 0.025311458817581928 0.0050273682067952415 0 0.025451208267793041 0.0050456128413628081 0 0.0254030770851894 0.0049406201116448233 0 0.025127167773562938 0.0051132661351478235 0 0.02519682713679848 0.0051526872412256683 0 0.024402804457262315 0.0051701461966559186 0 0.024918524547651703 0.0051637532384935028 0 0.025127167773562938 0.0051132661351478235 0 0.024402804457262315 0.0051701461966559186 0 0.024918524547651703 0.0051637532384935028 0 0.025127167773562938 0.0051132661351478235 0 0.025291989037312942 0.0050871935573193472 0 0.025127167773562938 0.0051132661351478235 0 0.025291989037312942 0.0050871935573193472 0 0.025504421049801964 0.0050873281654291447 0 0.025291989037312942 0.0050871935573193472 0 0.025492568214768918 0.0050709139890097394 0 0.025504421049801964 0.0050873281654291447 0 0.025492568214768918 0.0050709139890097394 0 0.025504421049801964 0.0050873281654291447 0 0.025739636733055321 0.0050938308943281234 0 0.025739636733055321 0.0050938308943281234 0 0.026054021265622226 0.0052069849156048259 0 0.026014276775598141 0.0051657332570147147 0 0.025504421049801964 0.0050873281654291447 0 0.025739636733055321 0.0050938308943281234 0 0.026014276775598141 0.0051657332570147147 0 0.025504421049801964 0.0050873281654291447 0 0.025587459308753679 0.0051372154851628713 0 0.026014276775598141 0.0051657332570147147 0 0.025587459308753679 0.0051372154851628713 0 0.025965464178313108 0.0051511151791423264 0 0.026014276775598141 0.0051657332570147147 0 0.025127167773562938 0.0051132661351478235 0 0.025504421049801964 0.0050873281654291447 0 0.025587459308753679 0.0051372154851628713 0 0.025127167773562938 0.0051132661351478235 0 0.025587459308753679 0.0051372154851628713 0 0.02519682713679848 0.0051526872412256683 0 0.025587459308753679 0.0051372154851628713 0 0.025965464178313108 0.0051511151791423264 0 0.02519682713679848 0.0051526872412256683 0 0.025965464178313108 0.0051511151791423264 0 0.026553514455639027 0.0049019329042113346 0 0.025530916043759934 0.0050169314726096828 0 0.025965464178313108 0.0051511151791423264 0 0.026807301780366926 0.0054518213262763409 0 0.026553514455639027 0.0049019329042113346 0 0.025965464178313108 0.0051511151791423264 0 0.026014276775598141 0.0051657332570147147 0 0.026807301780366926 0.0054518213262763409 0 0.027098106890710422 0.0056778085410970564 0 0.02690640925398545 0.0055503164547466627 0 0.02565129541803253 0.0054662907995896414 0 0.026054021265622226 0.0052069849156048259 0 0.026807301780366926 0.0054518213262763409 0 0.026054021265622226 0.0052069849156048259 0 0.026014276775598141 0.0051657332570147147 0 0.026807301780366926 0.0054518213262763409 0 0.026807301780366926 0.0054518213262763409 0 0.027692491320639598 0.0049466130353746736 0 0.026553514455639027 0.0049019329042113346 0 0.027692491320639598 0.0049466130353746736 0 0.026553514455639027 0.0049019329042113346 0 0.027667448937807582 0.0043687166693020096 0 0.028788921475531262 0.0060271020788566707 0 0.026807301780366926 0.0054518213262763409 0 0.027692491320639598 0.0049466130353746736 0 0.027692491320639598 0.0049466130353746736 0 0.027667448937807582 0.0043687166693020096 0 0.028484956820339795 0.0044089666789046481 0 0.026553514455639027 0.0049019329042113346 0 0.027667448937807582 0.0043687166693020096 0 0.02669187172599544 0.0043133428445946307 0 0.027768242887629226 0.0037849154025213806 0 0.027667448937807582 0.0043687166693020096 0 0.02669187172599544 0.0043133428445946307 0 0.027768242887629226 0.0037849154025213806 0 0.027752660236356887 0.0032410836232138252 0 0.026707096657206424 0.0035096462484026196 0 0.027768242887629226 0.0037849154025213806 0 0.02899929904358068 0.0032734549652937107 0 0.027752660236356887 0.0032410836232138252 0 0.02899929904358068 0.0032734549652937107 0 0.028522964929152853 0.0037483485363823247 0 0.029434202636746214 0.0031383804543233893 0 0.027768242887629226 0.0037849154025213806 0 0.02899929904358068 0.0032734549652937107 0 0.028522964929152853 0.0037483485363823247 0 0.027768242887629226 0.0037849154025213806 0 0.028522964929152853 0.0037483485363823247 0 0.027667448937807582 0.0043687166693020096 0 0.028522964929152853 0.0037483485363823247 0 0.027667448937807582 0.0043687166693020096 0 0.028484956820339795 0.0044089666789046481 0 0.028484956820339795 0.0044089666789046481 0 0.029340763481553008 0.0045694854958754872 0 0.029258996549243587 0.0038675881808946776 0 0.029340763481553008 0.0045694854958754872 0 0.029258996549243587 0.0038675881808946776 0 0.029914630886037089 0.0041744383850269035 0 0.029258996549243587 0.0038675881808946776 0 0.029914630886037089 0.0041744383850269035 0 0.030216040182252785 0.0034183182043049593 0 0.028522964929152853 0.0037483485363823247 0 0.028484956820339795 0.0044089666789046481 0 0.029258996549243587 0.0038675881808946776 0 0.031031784063175236 0.0047291983910031079 0 0.030489456040755022 0.0044683141003304038 0 0.030833012642424381 0.0039927369540716778 0 0.030489456040755022 0.0044683141003304038 0 0.029914630886037089 0.0041744383850269035 0 0.030833012642424381 0.0039927369540716778 0 0.030163926781267513 0.0049832289119975913 0 0.030489456040755022 0.0044683141003304038 0 0.029914630886037089 0.0041744383850269035 0 0.030163926781267513 0.0049832289119975913 0 0.029340763481553008 0.0045694854958754872 0 0.029914630886037089 0.0041744383850269035 0 0.029914630886037089 0.0041744383850269035 0 0.030833012642424381 0.0039927369540716778 0 0.030216040182252785 0.0034183182043049593 0 0.030833012642424381 0.0039927369540716778 0 0.030216040182252785 0.0034183182043049593 0 0.031210544754898546 0.0033873126436973367 0 0.030216040182252785 0.0034183182043049593 0 0.029434202636746214 0.0031383804543233893 0 0.030285750132474466 0.0026611497798417049 0 0.030216040182252785 0.0034183182043049593 0 0.031026193680462891 0.0027994374420172215 0 0.030285750132474466 0.0026611497798417049 0 0.030216040182252785 0.0034183182043049593 0 0.031026193680462891 0.0027994374420172215 0 0.031210544754898546 0.0033873126436973367 0 0.028522964929152853 0.0037483485363823247 0 0.029258996549243587 0.0038675881808946776 0 0.029434202636746214 0.0031383804543233893 0 0.029258996549243587 0.0038675881808946776 0 0.030216040182252785 0.0034183182043049593 0 0.029434202636746214 0.0031383804543233893 0 0.02899929904358068 0.0032734549652937107 0 0.029434202636746214 0.0031383804543233893 0 0.029758736576319538 0.0018117327722852303 0 0.029235995206671413 0.0031875307233330476 0 0.030913579397915364 0.002238100557477995 0 0.029434202636746214 0.0031383804543233893 0 0.029758736576319538 0.0018117327722852303 0 0.030285750132474466 0.0026611497798417049 0 0.029758736576319538 0.0018117327722852303 0 0.030285750132474466 0.0026611497798417049 0 0.031038768008466607 0.0019779347815670738 0 0.031026193680462891 0.0027994374420172215 0 0.030285750132474466 0.0026611497798417049 0 0.031038768008466607 0.0019779347815670738 0 0.030913579397915364 0.002238100557477995 0 0.032809671278153964 0.0010031482165063403 0 0.032027222983571489 0.0027693032455516652 0 0.03409194763912559 0.0015127698492942339 0 0.033155343317744404 0.00084760951429713475 0 0.029758736576319538 0.0018117327722852303 0 0.031038768008466607 0.0019779347815670738 0 0.03160926097931506 0.00043868159818726303 0 0.032027222983571489 0.0027693032455516652 0 0.031193996901952965 0.0016511442168025358 0 0.033155343317744404 0.00084760951429713475 0 0.032027222983571489 0.0027693032455516652 0 0.031193996901952965 0.0016511442168025358 0 0.029426035454522388 0.0025400048083030731 0 0.031193996901952965 0.0016511442168025358 0 0.029426035454522388 0.0025400048083030731 0 0.029783957653121956 0.0015667763367930186 0 0.029783957653121956 0.0015667763367930186 0 0.02840677204269838 0.0006274900446358912 0 0.027822350363478542 0.0025002942644980074 0 0.029426035454522388 0.0025400048083030731 0 0.029783957653121956 0.0015667763367930186 0 0.027822350363478542 0.0025002942644980074 0 0.02899929904358068 0.0032734549652937107 0 0.029426035454522388 0.0025400048083030731 0 0.027752660236356887 0.0032410836232138252 0 0.029426035454522388 0.0025400048083030731 0 0.027752660236356887 0.0032410836232138252 0 0.027822350363478542 0.0025002942644980074 0 0.02899929904358068 0.0032734549652937107 0 0.032027222983571489 0.0027693032455516652 0 0.029426035454522388 0.0025400048083030731 0 0.033896224508930817 0.00068132960907017358 0 0.033752057207865449 0.00064325550453834754 0 0.033741866395614481 0.00051043127649867909 0 0.033752057207865449 0.00064325550453834754 0 0.033586819474521863 0.00066142796567853098 0 0.033741866395614481 0.00051043127649867909 0 0.033752057207865449 0.00064325550453834754 0 0.033774063607106719 0.00071800777725999573 0 0.033586819474521863 0.00066142796567853098 0 0.033896224508930817 0.00068132960907017358 0 0.033752057207865449 0.00064325550453834754 0 0.033774063607106719 0.00071800777725999573 0 0.033774063607106719 0.00071800777725999573 0 0.033795497254577853 0.0008343966676453142 0 0.033586819474521863 0.00066142796567853098 0 0.033896224508930817 0.00068132960907017358 0 0.033774063607106719 0.00071800777725999573 0 0.033826145815854955 0.00081186157137157319 0 0.034039596432193786 0.0039142685144913109 0 0.033478566686218167 0.0036255395795205606 0 0.033601006089116231 0.0038322069364404199 0 0.033774063607106719 0.00071800777725999573 0 0.033826145815854955 0.00081186157137157319 0 0.033795497254577853 0.0008343966676453142 0 0.034039596432193786 0.0039142685144913109 0 0.033478566686218167 0.0036255395795205606 0 0.03345344784254254 0.0033614540425321144 0 0.033769680649878855 0.0019204223758034142 0 0.033547572304968881 0.0020465710048992473 0 0.033886231588027872 0.0017466388611344196 0 0.033769680649878855 0.0019204223758034142 0 0.033769680649878855 0.0019204223758034142 0 0.032590733472077235 0.00249215329660829 0 0.034039596432193786 0.0039142685144913109 0 0.033807082822192344 0.0040738292814228895 0 0.033601006089116231 0.0038322069364404199 0 0.033602660739898114 0.0041071075793134319 0 0.033725329335964747 0.0040207625497348997 0 0.03357835083712056 0.0039711160821259851 0 0.030233326473528506 0.0033904950536728347 0 0.032590733472077235 0.00249215329660829 0 0.032590733472077235 0.00249215329660829 0 0.03370422265033643 0.0038842948379124225 0 0.033725329335964747 0.0040207625497348997 0 0.033601006089116231 0.0038322069364404199 0 0.03357835083712056 0.0039711160821259851 0 0.033478566686218167 0.0036255395795205606 0 0.033476277965183127 0.0038828298924372326 0 0.033601006089116231 0.0038322069364404199 0 0.033476277965183127 0.0038828298924372326 0 0.03357835083712056 0.0039711160821259851 0 0.033473995293236365 0.0040015280316750912 0 0.033476277965183127 0.0038828298924372326 0 0.033601006089116231 0.0038322069364404199 0 0.03357835083712056 0.0039711160821259851 0 0.032443127474985886 0.004069213804208569 0 0.032184576006492958 0.0043088441019058857 0 0.030233326473528506 0.0033904950536728347 0 0.032184576006492958 0.0043088441019058857 0 0.033602660739898114 0.0041071075793134319 0 0.03357835083712056 0.0039711160821259851 0 0.033473995293236365 0.0040015280316750912 0 0.033155941318757043 0.0047102499482522533 0 0.033771168265273294 0.0044410023396017125 0 0.032918013431528573 0.0037010025489074886 0 0.032184576006492958 0.0043088441019058857 0 0.033235200226617016 0.0040005182244078324 0 0.033478566686218167 0.0036255395795205606 0 0.033476277965183127 0.0038828298924372326 0 0.032918013431528573 0.0037010025489074886 0 0.033476277965183127 0.0038828298924372326 0 0.033464731185619566 0.0040687750129483656 0 0.032918013431528573 0.0037010025489074886 0 0.03345344784254254 0.0033614540425321144 0 0.032717724773239254 0.003174954729596073 0 0.032918013431528573 0.0037010025489074886 0 0.033586819474521863 0.00066142796567853098 0 0.033383300630185707 0.00051311736279131544 0 0.033741866395614481 0.00051043127649867909 0 0.033547572304968881 0.0020465710048992473 0 0.033054760496911056 0.0016665629030371688 0 0.033478566686218167 0.0036255395795205606 0 0.03345344784254254 0.0033614540425321144 0 0.032918013431528573 0.0037010025489074886 0 0.03345344784254254 0.0033614540425321144 0 0.032717724773239254 0.003174954729596073 0 0.032651927982392193 0.0025582319466165072 0 0.032717724773239254 0.003174954729596073 0 0.032391272326244613 0.0028549070292523118 0 0.032651927982392193 0.0025582319466165072 0 0.032391272326244613 0.0028549070292523118 0 0.032300791444362438 0.0031761668172801032 0 0.031889585072259238 0.0029033462318667921 0 0.032391272326244613 0.0028549070292523118 0 0.031889585072259238 0.0029033462318667921 0 0.032345766821339689 0.0024851429254261412 0 0.032717724773239254 0.003174954729596073 0 0.032391272326244613 0.0028549070292523118 0 0.032300791444362438 0.0031761668172801032 0 0.032717724773239254 0.003174954729596073 0 0.032300791444362438 0.0031761668172801032 0 0.032440529187543587 0.0035203255459370425 0 0.032300791444362438 0.0031761668172801032 0 0.032440529187543587 0.0035203255459370425 0 0.031921336261749658 0.0034711992393241698 0 0.032717724773239254 0.003174954729596073 0 0.032440529187543587 0.0035203255459370425 0 0.032918013431528573 0.0037010025489074886 0 0.032440529187543587 0.0035203255459370425 0 0.032918013431528573 0.0037010025489074886 0 0.032210211045703895 0.004024642367386669 0 0.033155941318757043 0.0047102499482522533 0 0.032546856447545056 0.004720026813073752 0 0.032918013431528573 0.0037010025489074886 0 0.032546856447545056 0.004720026813073752 0 0.032918013431528573 0.0037010025489074886 0 0.032210211045703895 0.004024642367386669 0 0.032546856447545056 0.004720026813073752 0 0.031903932784963437 0.0047266630504582711 0 0.032210211045703895 0.004024642367386669 0 0.032440529187543587 0.0035203255459370425 0 0.032210211045703895 0.004024642367386669 0 0.031921336261749658 0.0034711992393241698 0 0.032210211045703895 0.004024642367386669 0 0.031565163715968771 0.0040843598857625944 0 0.031921336261749658 0.0034711992393241698 0 0.031903932784963437 0.0047266630504582711 0 0.031031784063175236 0.0047291983910031079 0 0.031565163715968771 0.0040843598857625944 0 0.031903932784963437 0.0047266630504582711 0 0.032210211045703895 0.004024642367386669 0 0.031565163715968771 0.0040843598857625944 0 0.031031784063175236 0.0047291983910031079 0 0.030833012642424381 0.0039927369540716778 0 0.031565163715968771 0.0040843598857625944 0 0.030833012642424381 0.0039927369540716778 0 0.031565163715968771 0.0040843598857625944 0 0.031210544754898546 0.0033873126436973367 0 0.031565163715968771 0.0040843598857625944 0 0.031210544754898546 0.0033873126436973367 0 0.031921336261749658 0.0034711992393241698 0 0.031210544754898546 0.0033873126436973367 0 0.031921336261749658 0.0034711992393241698 0 0.031889585072259238 0.0029033462318667921 0 0.032300791444362438 0.0031761668172801032 0 0.031921336261749658 0.0034711992393241698 0 0.031889585072259238 0.0029033462318667921 0 0.031026193680462891 0.0027994374420172215 0 0.031210544754898546 0.0033873126436973367 0 0.031889585072259238 0.0029033462318667921 0 0.031026193680462891 0.0027994374420172215 0 0.031889585072259238 0.0029033462318667921 0 0.031682661584840344 0.0023583946645831383 0 0.031026193680462891 0.0027994374420172215 0 0.031038768008466607 0.0019779347815670738 0 0.031682661584840344 0.0023583946645831383 0 0.031889585072259238 0.0029033462318667921 0 0.031682661584840344 0.0023583946645831383 0 0.032345766821339689 0.0024851429254261412 0 0.031682661584840344 0.0023583946645831383 0 0.032005923628620619 0.001507069703561468 0 0.032345766821339689 0.0024851429254261412 0 0.031038768008466607 0.0019779347815670738 0 0.031682661584840344 0.0023583946645831383 0 0.032005923628620619 0.001507069703561468 0 0.031038768008466607 0.0019779347815670738 0 0.032005923628620619 0.001507069703561468 0 0.03160926097931506 0.00043868159818726303 0 0.032618621046917366 0.00068760946695393553 0 0.032005923628620619 0.001507069703561468 0 0.033285956298325599 0.0010385089010189448 0 0.032618621046917366 0.00068760946695393553 0 0.032005923628620619 0.001507069703561468 0 0.03160926097931506 0.00043868159818726303 0 0.032005923628620619 0.001507069703561468 0 0.032345766821339689 0.0024851429254261412 0 0.032649168146582787 0.0025683552842545466 0 0.032005923628620619 0.001507069703561468 0 0.033285956298325599 0.0010385089010189448 0 0.033318871629498002 0.0018298562137004297 0 0.033285956298325599 0.0010385089010189448 0 0.033575486484023198 0.0013192207675703422 0 0.033318871629498002 0.0018298562137004297 0 0.032070722758230613 0.0016149452229560959 0 0.033054760496911056 0.0016665629030371688 0 0.032614274413722562 0.0019182390932997028 0 0.033054760496911056 0.0016665629030371688 0 0.032391272326244613 0.0028549070292523118 0 0.032345766821339689 0.0024851429254261412 0 0.032651927982392193 0.0025582319466165072 0 0.033575486484023198 0.0013192207675703422 0 0.033318871629498002 0.0018298562137004297 0 0.033973420885629046 0.0012243007658284313 0 0.033318871629498002 0.0018298562137004297 0 0.033973420885629046 0.0012243007658284313 0 0.034437062980429492 0.0012428990408019014 0 0.033054760496911056 0.0016665629030371688 0 0.03411695332509905 0.00081051502471444288 0 0.033285956298325599 0.0010385089010189448 0 0.033575486484023198 0.0013192207675703422 0 0.03404110794402123 0.00075284691986826136 0 0.033575486484023198 0.0013192207675703422 0 0.033973420885629046 0.0012243007658284313 0 0.03404110794402123 0.00075284691986826136 0 0.033973420885629046 0.0012243007658284313 0 0.03404110794402123 0.00075284691986826136 0 0.034404540817148145 0.00085587179105833084 0 0.034726789174661293 0.00060343320497548278 0 0.034404540817148145 0.00085587179105833084 0 0.034606879078273645 0.00025418293565162599 0 0.03404110794402123 0.00075284691986826136 0 0.034404540817148145 0.00085587179105833084 0 0.034606879078273645 0.00025418293565162599 0 0.034726789174661293 0.00060343320497548278 0 0.034404540817148145 0.00085587179105833084 0 0.034437062980429492 0.0012428990408019014 0 0.033973420885629046 0.0012243007658284313 0 0.034404540817148145 0.00085587179105833084 0 0.034437062980429492 0.0012428990408019014 0 0.03404110794402123 0.00075284691986826136 0 0.034606879078273645 0.00025418293565162599 0 0.033418131395007551 -7.7538860685743272e-05 0 0.034606879078273645 0.00025418293565162599 0 0.033418131395007551 -7.7538860685743272e-05 0 0.034626822915739153 -3.9635203047469398e-05 0 0.034606879078273645 0.00025418293565162599 0 0.034626822915739153 -3.9635203047469398e-05 0 0.03483281833943639 1.4538445111359394e-05 0 0.034043899340428875 0.00019568666800341095 0 0.034545638163500252 -2.270880813190177e-05 0 0.034784511870509037 0.00034992443229773975 0 0.034678825352655082 -8.1223473460852478e-05 0 0.034626822915739153 -3.9635203047469398e-05 0 0.033285956298325599 0.0010385089010189448 0 0.03404110794402123 0.00075284691986826136 0 0.033418131395007551 -7.7538860685743272e-05 0 0.032618621046917366 0.00068760946695393553 0 0.033285956298325599 0.0010385089010189448 0 0.033418131395007551 -7.7538860685743272e-05 0 0.034043899340428875 0.00019568666800341095 0 0.032809671278153964 0.0010031482165063403 0 0.034784511870509037 0.00034992443229773975 0 0.03409194763912559 0.0015127698492942339 0 0.034299426175979399 0.00049825251783062335 0 0.032618621046917366 0.00068760946695393553 0 0.033418131395007551 -7.7538860685743272e-05 0 0.03160926097931506 0.00043868159818726303 0 0.034784511870509037 0.00034992443229773975 0 0.034299426175979399 0.00049825251783062335 0 0.034678825352655082 -8.1223473460852478e-05 0 0.034299426175979399 0.00049825251783062335 0 0.034678825352655082 -8.1223473460852478e-05 0 0.034169660735724798 6.2505553718385771e-05 0 0.034678825352655082 -8.1223473460852478e-05 0 0.034169660735724798 6.2505553718385771e-05 0 0.034389455593710386 -0.00024587432355648779 0 0.034678825352655082 -8.1223473460852478e-05 0 0.034389455593710386 -0.00024587432355648779 0 0.034998731521184913 -7.646864744927806e-07 0 0.034678825352655082 -8.1223473460852478e-05 0 0.034999823473331387 1.3976755250036097e-07 0 0.034998731521184913 -7.646864744927806e-07 0 0.034678825352655082 -8.1223473460852478e-05 0 0.034999823473331387 1.3976755250036097e-07 0 0.034626822915739153 -3.9635203047469398e-05 0 0.034999823473331387 1.3976755250036097e-07 0 0.034626822915739153 -3.9635203047469398e-05 0 0.034999645667039697 -6.5133350724032319e-08 0 0.034626822915739153 -3.9635203047469398e-05 0 0.034999645667039697 -6.5133350724032319e-08 0 0.03483281833943639 1.4538445111359394e-05 0 0.030247852769394276 0.00025017375622909304 0 0.031970996879791456 0.00065785736907948819 0 0.032142387729720424 -0.00019545420607533035 0 0.030247852769394276 0.00025017375622909304 0 0.028572323772670563 -0.00041443328967683576 0 0.02840677204269838 0.0006274900446358912 0 0.030247852769394276 0.00025017375622909304 0 0.029783957653121956 0.0015667763367930186 0 0.02840677204269838 0.0006274900446358912 0 0.030247852769394276 0.00025017375622909304 0 0.029783957653121956 0.0015667763367930186 0 0.031970996879791456 0.00065785736907948819 0 0.031193996901952965 0.0016511442168025358 0 0.029783957653121956 0.0015667763367930186 0 0.031970996879791456 0.00065785736907948819 0 0.031193996901952965 0.0016511442168025358 0 0.033155343317744404 0.00084760951429713475 0 0.031970996879791456 0.00065785736907948819 0 0.03409194763912559 0.0015127698492942339 0 0.034299426175979399 0.00049825251783062335 0 0.033155343317744404 0.00084760951429713475 0 0.034299426175979399 0.00049825251783062335 0 0.033155343317744404 0.00084760951429713475 0 0.034169660735724798 6.2505553718385771e-05 0 0.033155343317744404 0.00084760951429713475 0 0.034169660735724798 6.2505553718385771e-05 0 0.033411817216584448 -1.5362036332614505e-05 0 0.033155343317744404 0.00084760951429713475 0 0.033411817216584448 -1.5362036332614505e-05 0 0.031970996879791456 0.00065785736907948819 0 0.033411817216584448 -1.5362036332614505e-05 0 0.031970996879791456 0.00065785736907948819 0 0.032142387729720424 -0.00019545420607533035 0 0.033411817216584448 -1.5362036332614505e-05 0 0.034050316509710722 -0.0006591842915063805 0 0.034389455593710386 -0.00024587432355648779 0 0.033411817216584448 -1.5362036332614505e-05 0 0.034050316509710722 -0.0006591842915063805 0 0.032142387729720424 -0.00019545420607533035 0 0.034169660735724798 6.2505553718385771e-05 0 0.033411817216584448 -1.5362036332614505e-05 0 0.034389455593710386 -0.00024587432355648779 0 0.034050316509710722 -0.0006591842915063805 0 0.034389455593710386 -0.00024587432355648779 0 0.034998731521184913 -7.646864744927806e-07 0 0.034050316509710722 -0.0006591842915063805 0 0.034998731521184913 -7.646864744927806e-07 0 0.034998693448743803 -6.7800095539873666e-08 0 0.034050316509710722 -0.0006591842915063805 0 0.034998693448743803 -6.7800095539873666e-08 0 0.0350558684161624 -0.00019165529760928787 0 0.034050316509710722 -0.0006591842915063805 0 0.032142387729720424 -0.00019545420607533035 0 0.029919556516744859 -0.0015057166117821222 0 0.030247852769394276 0.00025017375622909304 0 0.032142387729720424 -0.00019545420607533035 0 0.029919556516744859 -0.0015057166117821222 0 0.03385483260249917 -0.00070897674902329906 0 0.032499840253280857 -0.0007926335268610441 0 0.030247852769394276 0.00025017375622909304 0 0.029919556516744859 -0.0015057166117821222 0 0.028572323772670563 -0.00041443328967683576 0 0.034998693448743803 -6.7800095539873666e-08 0 0.0350558684161624 -0.00019165529760928787 0 0.035000502254618725 -1.7668244123512529e-07 0 0.0350558684161624 -0.00019165529760928787 0 0.035000502254618725 -1.7668244123512529e-07 0 0.034988907081035032 -3.8351181258997435e-05 0 0.035000502254618725 -1.7668244123512529e-07 0 0.034999845243710977 1.1862735291950952e-08 0 0.034988907081035032 -3.8351181258997435e-05 0 0.02759428699079149 -0.0010661725009807931 0 0.028572323772670563 -0.00041443328967683576 0 0.027092569349982585 -0.00019295808093048043 0 0.029919556516744859 -0.0015057166117821222 0 0.02759428699079149 -0.0010661725009807931 0 0.028572323772670563 -0.00041443328967683576 0 0.032499840253280857 -0.0007926335268610441 0 0.031206231505940589 -0.000593769190306666 0 0.028572323772670563 -0.00041443328967683576 0 0.027092569349982585 -0.00019295808093048043 0 0.02840677204269838 0.0006274900446358912 0 0.027092569349982585 -0.00019295808093048043 0 0.027195506042876249 0.00072404506074529777 0 0.02840677204269838 0.0006274900446358912 0 0.026354673681782653 0.00077683525724181696 0 0.026853798952836596 0.0017740929348546096 0 0.025727742703457204 0.0017630841794152113 0 0.026354673681782653 0.00077683525724181696 0 0.02840677204269838 0.0006274900446358912 0 0.026853798952836596 0.0017740929348546096 0 0.026868838696363077 0.00076404638383816492 0 0.02824099288269814 0.00061309233017450946 0 0.02601626793324607 0.00089147526749065904 0 0.025435393030430922 0.00019219457013100469 0 0.024876942436670303 0.0010880826867859185 0 0.025293824210392203 0.0010651099369256272 0 0.025523027904939131 0.0011186603150274961 0 0.027195506042876249 0.00072404506074529777 0 0.02601626793324607 0.00089147526749065904 0 0.026258218167054002 8.0647186158164637e-05 0 0.026354673681782653 0.00077683525724181696 0 0.025000668618995213 0.0011739336187786406 0 0.025727742703457204 0.0017630841794152113 0 0.026868838696363077 0.00076404638383816492 0 0.025293824210392203 0.0010651099369256272 0 0.027092569349982585 -0.00019295808093048043 0 0.027195506042876249 0.00072404506074529777 0 0.026258218167054002 8.0647186158164637e-05 0 0.027092569349982585 -0.00019295808093048043 0 0.026258218167054002 8.0647186158164637e-05 0 0.026001440713475477 -0.00073962454051616213 0 0.026258218167054002 8.0647186158164637e-05 0 0.025435393030430922 0.00019219457013100469 0 0.026001440713475477 -0.00073962454051616213 0 0.029231761586136443 0.00061445084573689892 0 0.029958136158782518 -0.00050041123788478856 0 0.028640651482328437 -0.00034013806479372738 0 0.027198645703954045 0.00048580895670801604 0 0.030926921049281138 -0.00013469495797028194 0 0.02601626793324607 0.00089147526749065904 0 0.026258218167054002 8.0647186158164637e-05 0 0.025435393030430922 0.00019219457013100469 0 0.030926921049281138 -0.00013469495797028194 0 0.031749023956834224 0.00026782677769973293 0 0.034970778036038722 3.2134291035944433e-06 0 0.03496171469491869 -2.23612811052667e-06 0 0.034967486292719938 6.5417652977287249e-06 0 0.03496171469491869 -2.23612811052667e-06 0 0.034976517116975053 7.5349037761871214e-07 0 0.034967440273278298 -4.4799863724561438e-06 0 0.034970778036038722 3.2134291035944433e-06 0 0.03496171469491869 -2.23612811052667e-06 0 0.034976517116975053 7.5349037761871214e-07 0 0.034970778036038722 3.2134291035944433e-06 0 0.034976517116975053 7.5349037761871214e-07 0 0.03498020012128971 4.3560513696015151e-06 0 0.034988907081035032 -3.8351181258997435e-05 0 0.034958886866010362 2.0827632910691621e-06 0 0.034967440273278298 -4.4799863724561438e-06 0 0.031206231505940589 -0.000593769190306666 0 0.030926921049281138 -0.00013469495797028194 0 0.02759428699079149 -0.0010661725009807931 0 0.027092569349982585 -0.00019295808093048043 0 0.026001440713475477 -0.00073962454051616213 0 0.030926921049281138 -0.00013469495797028194 0 0.031956654740783887 -0.00068667482731113981 0 0.034999845243710977 1.1862735291950952e-08 0 0.034988907081035032 -3.8351181258997435e-05 0 0.034967440273278298 -4.4799863724561438e-06 0 0.034999845243710977 1.1862735291950952e-08 0 0.034967440273278298 -4.4799863724561438e-06 0 0.035000002487053178 7.1555529535850466e-09 0 0.034976517116975053 7.5349037761871214e-07 0 0.035000002487053178 7.1555529535850466e-09 0 0.03498020012128971 4.3560513696015151e-06 0 0.034976517116975053 7.5349037761871214e-07 0 0.034967440273278298 -4.4799863724561438e-06 0 0.035000002487053178 7.1555529535850466e-09 0 0.035000002487053178 7.1555529535850466e-09 0 0.03498020012128971 4.3560513696015151e-06 0 0.034983742530701523 9.6351829768882375e-06 0 0.035000002487053178 7.1555529535850466e-09 0 0.034999954130242421 -2.7293866118539994e-09 0 0.034983742530701523 9.6351829768882375e-06 0 0.034999954130242421 -2.7293866118539994e-09 0 0.034983742530701523 9.6351829768882375e-06 0 0.034978513975509835 3.2554078042822632e-05 0 0.034967486292719938 6.5417652977287249e-06 0 0.034983742530701523 9.6351829768882375e-06 0 0.034978513975509835 3.2554078042822632e-05 0 0.031749023956834224 0.00026782677769973293 0 0.0325738921486734 0.00036055370754344544 0 0.034970778036038722 3.2134291035944433e-06 0 0.034967486292719938 6.5417652977287249e-06 0 0.03498020012128971 4.3560513696015151e-06 0 0.034967486292719938 6.5417652977287249e-06 0 0.03498020012128971 4.3560513696015151e-06 0 0.034983742530701523 9.6351829768882375e-06 0 0.034999954130242421 -2.7293866118539994e-09 0 0.035000058409551407 6.9814349239417543e-08 0 0.034978513975509835 3.2554078042822632e-05 0 0.035000058409551407 6.9814349239417543e-08 0 0.034978513975509835 3.2554078042822632e-05 0 0.034972259982581966 7.2677131165804505e-05 0 0.029976505279524283 0.00057224219545006893 0 0.030131349156447836 0.00067348299682637664 0 0.030156914416322709 0.00036399432672022073 0 0.0325738921486734 0.00036055370754344544 0 0.03251555520897171 0.00037617710601860394 0 0.02989933293394122 0.00067703642820987132 0 0.029976505279524283 0.00057224219545006893 0 0.030131349156447836 0.00067348299682637664 0 0.02989933293394122 0.00067703642820987132 0 0.029976505279524283 0.00057224219545006893 0 0.029846270135817945 0.00054913968401995681 0 0.029976505279524283 0.00057224219545006893 0 0.029846270135817945 0.00054913968401995681 0 0.029925194711347258 0.00042382582376062868 0 0.029976505279524283 0.00057224219545006893 0 0.029925194711347258 0.00042382582376062868 0 0.030156914416322709 0.00036399432672022073 0 0.029231761586136443 0.00061445084573689892 0 0.028640651482328437 -0.00034013806479372738 0 0.028327631712000253 0.00073632160512793546 0 0.031749023956834224 0.00026782677769973293 0 0.029008157753521037 0.00074075661002440596 0 0.02989933293394122 0.00067703642820987132 0 0.029719297171466787 0.00058656093958912446 0 0.029846270135817945 0.00054913968401995681 0 0.029710279648331197 0.00068867065052847772 0 0.02989933293394122 0.00067703642820987132 0 0.029719297171466787 0.00058656093958912446 0 0.029719297171466787 0.00058656093958912446 0 0.029846270135817945 0.00054913968401995681 0 0.029725571476384011 0.00047648371698237401 0 0.029846270135817945 0.00054913968401995681 0 0.029725571476384011 0.00047648371698237401 0 0.029925194711347258 0.00042382582376062868 0 0.029231761586136443 0.00061445084573689892 0 0.028327631712000253 0.00073632160512793546 0 0.028501866779536769 0.0017273723591057148 0 0.027198645703954045 0.00048580895670801604 0 0.025523027904939131 0.0011186603150274961 0 0.028327631712000253 0.00073632160512793546 0 0.028014602560131989 0.0018112637910382217 0 0.028501866779536769 0.0017273723591057148 0 0.029008157753521037 0.00074075661002440596 0 0.026985081915997251 0.0007189932714247913 0 0.026985081915997251 0.0007189932714247913 0 0.025523027904939131 0.0011186603150274961 0 0.023960050921774008 0.0014666241986683911 0 0.023445905463207913 0.0024325642912249707 0 0.02470513618026858 0.0021477255051466511 0 0.025523027904939131 0.0011186603150274961 0 0.02422419922072979 0.0014552776913751891 0 0.025385222916936123 0.00067462481195115884 0 0.02579298693222019 0.00060301699053833674 0 0.025105881393558658 0.0016732837359827327 0 0.026985081915997251 0.0007189932714247913 0 0.02422419922072979 0.0014552776913751891 0 0.026985081915997251 0.0007189932714247913 0 0.027276327397920946 0.00059218710994544304 0 0.024342070596334128 0.0008130633109030759 0 0.024359716290707812 0.00065203492962876439 0 0.024586462276393283 0.00078346892829704508 0 0.02422419922072979 0.0014552776913751891 0 0.024535810915619214 0.00028641713748235749 0 0.024277852027224753 0.0007048370511780911 0 0.02442036405707235 0.00048829299522956736 0 0.02438447944490198 0.00036227046217781386 0 0.02422419922072979 0.0014552776913751891 0 0.023857653074942666 0.0020386190184477865 0 0.024359716290707812 0.00065203492962876439 0 0.024493706076870205 0.00061674517221573769 0 0.02442036405707235 0.00048829299522956736 0 0.023445905463207913 0.0024325642912249707 0 0.024526376724098038 0.0031590350476727218 0 0.02470513618026858 0.0021477255051466511 0 0.027276327397920946 0.00059218710994544304 0 0.027504574007916196 0.00057686356958895548 0 0.024586462276393283 0.00078346892829704508 0 0.024614891536550814 0.000539370701517982 0 0.024895908125684124 0.00077706391958485004 0 0.024359716290707812 0.00065203492962876439 0 0.024586462276393283 0.00078346892829704508 0 0.024493706076870205 0.00061674517221573769 0 0.024493706076870205 0.00061674517221573769 0 0.024614891536550814 0.000539370701517982 0 0.02442036405707235 0.00048829299522956736 0 0.024586462276393283 0.00078346892829704508 0 0.024493706076870205 0.00061674517221573769 0 0.024614891536550814 0.000539370701517982 0 0.024614891536550814 0.000539370701517982 0 0.024895908125684124 0.00077706391958485004 0 0.024851020018570109 0.00044518687221290805 0 0.024614891536550814 0.000539370701517982 0 0.024596457730836716 0.00029519764795447634 0 0.024851020018570109 0.00044518687221290805 0 0.024614891536550814 0.000539370701517982 0 0.024500734892744194 0.0003750074708942708 0 0.02442036405707235 0.00048829299522956736 0 0.024614891536550814 0.000539370701517982 0 0.024596457730836716 0.00029519764795447634 0 0.024500734892744194 0.0003750074708942708 0 0.024596457730836716 0.00029519764795447634 0 0.024500734892744194 0.0003750074708942708 0 0.024442589555486449 0.00013564752832087416 0 0.024596457730836716 0.00029519764795447634 0 0.024612398983035071 -3.0673557725406824e-06 0 0.024459449802828267 3.0318689503288944e-05 0 0.024500734892744194 0.0003750074708942708 0 0.02438447944490198 0.00036227046217781386 0 0.024442589555486449 0.00013564752832087416 0 0.024828649531517182 -0.00024771696753994642 0 0.023115042673363929 0.0018696701578213488 0 0.024596457730836716 0.00029519764795447634 0 0.024764619129654563 -4.1512338193402141e-05 0 0.024612398983035071 -3.0673557725406824e-06 0 0.024596457730836716 0.00029519764795447634 0 0.024868202119128654 0.00017541776994779034 0 0.024764619129654563 -4.1512338193402141e-05 0 0.023445905463207913 0.0024325642912249707 0 0.023916195672657181 0.003730532279131595 0 0.024526376724098038 0.0031590350476727218 0 0.023445905463207913 0.0024325642912249707 0 0.023916195672657181 0.003730532279131595 0 0.023274899742576821 0.0035314546723235387 0 0.024500734892744194 0.0003750074708942708 0 0.02442036405707235 0.00048829299522956736 0 0.02438447944490198 0.00036227046217781386 0 0.023916195672657181 0.003730532279131595 0 0.02377468523425252 0.0045552347067061728 0 0.023139219452455156 0.0044196069291097644 0 0.023857653074942666 0.0020386190184477865 0 0.023115042673363929 0.0018696701578213488 0 0.023916195672657181 0.003730532279131595 0 0.023274899742576821 0.0035314546723235387 0 0.023139219452455156 0.0044196069291097644 0 0.023916195672657181 0.003730532279131595 0 0.024208579084358257 0.0043412239562137106 0 0.02377468523425252 0.0045552347067061728 0 0.023916195672657181 0.003730532279131595 0 0.024622305798553113 0.0039427653010441531 0 0.024208579084358257 0.0043412239562137106 0 0.024622305798553113 0.0039427653010441531 0 0.02465589803756112 0.0045682714488563978 0 0.024208579084358257 0.0043412239562137106 0 0.024622305798553113 0.0039427653010441531 0 0.024526376724098038 0.0031590350476727218 0 0.025478406260180598 0.0036461970307830206 0 0.023916195672657181 0.003730532279131595 0 0.024622305798553113 0.0039427653010441531 0 0.024526376724098038 0.0031590350476727218 0 0.024526376724098038 0.0031590350476727218 0 0.025478406260180598 0.0036461970307830206 0 0.025820246842996594 0.0027288847258811213 0 0.024622305798553113 0.0039427653010441531 0 0.025276840503870461 0.004283776765459912 0 0.02465589803756112 0.0045682714488563978 0 0.024622305798553113 0.0039427653010441531 0 0.025478406260180598 0.0036461970307830206 0 0.025276840503870461 0.004283776765459912 0 0.025478406260180598 0.0036461970307830206 0 0.025276840503870461 0.004283776765459912 0 0.026003833363259114 0.0041007195384463692 0 0.025276840503870461 0.004283776765459912 0 0.026003833363259114 0.0041007195384463692 0 0.025833510356012269 0.0046200528614015312 0 0.026003833363259114 0.0041007195384463692 0 0.02669187172599544 0.0043133428445946307 0 0.026707096657206424 0.0035096462484026196 0 0.026003833363259114 0.0041007195384463692 0 0.02669187172599544 0.0043133428445946307 0 0.025833510356012269 0.0046200528614015312 0 0.027768242887629226 0.0037849154025213806 0 0.02669187172599544 0.0043133428445946307 0 0.026707096657206424 0.0035096462484026196 0 0.025478406260180598 0.0036461970307830206 0 0.026707096657206424 0.0035096462484026196 0 0.025820246842996594 0.0027288847258811213 0 0.025478406260180598 0.0036461970307830206 0 0.026003833363259114 0.0041007195384463692 0 0.026707096657206424 0.0035096462484026196 0 0.027752660236356887 0.0032410836232138252 0 0.026707096657206424 0.0035096462484026196 0 0.027822350363478542 0.0025002942644980074 0 0.026707096657206424 0.0035096462484026196 0 0.025820246842996594 0.0027288847258811213 0 0.027822350363478542 0.0025002942644980074 0 0.02840677204269838 0.0006274900446358912 0 0.027822350363478542 0.0025002942644980074 0 0.026853798952836596 0.0017740929348546096 0 0.025820246842996594 0.0027288847258811213 0 0.027822350363478542 0.0025002942644980074 0 0.026853798952836596 0.0017740929348546096 0 0.025820246842996594 0.0027288847258811213 0 0.026853798952836596 0.0017740929348546096 0 0.025727742703457204 0.0017630841794152113 0 0.025000668618995213 0.0011739336187786406 0 0.025727742703457204 0.0017630841794152113 0 0.02470513618026858 0.0021477255051466511 0 0.025820246842996594 0.0027288847258811213 0 0.025727742703457204 0.0017630841794152113 0 0.02470513618026858 0.0021477255051466511 0 0.025000668618995213 0.0011739336187786406 0 0.023960050921774008 0.0014666241986683911 0 0.02470513618026858 0.0021477255051466511 0 0.024526376724098038 0.0031590350476727218 0 0.025820246842996594 0.0027288847258811213 0 0.02470513618026858 0.0021477255051466511 0 0.031004050108159011 -8.0064115202156826e-05 0 0.031427578482382312 -4.3211948158362751e-11 0 0.029672365912402996 1.0098624101415014e-08 0 0.03221999264433608 0.0004153350532498465 0 0.031431650911638832 4.296597461488135e-07 0 0.031428335416603968 0.00056326647050979083 0 0.03123983951146575 0.00046569279883914108 0 0.031131348160784365 0.00059127019979730259 0 0.031428335416603968 0.00056326647050979083 0 0.03123983951146575 0.00046569279883914108 0 0.031315254734880921 0.00023853196392573518 0 0.03221999264433608 0.0004153350532498465 0 0.03299307583472233 0.00053185059932678628 0 0.030940147615256014 0.00081719236072374298 0 0.03299307583472233 0.00053185059932678628 0 0.033916366554466663 0.0011461401862913794 0 0.034520121011473497 0.00040254533267311825 0 0.034923232267629722 0.00079072716640614263 0 0.03221999264433608 0.0004153350532498465 0 0.033297924919171655 9.374764984867415e-08 0 0.031509407098774041 1.0583854842745504e-06 0 0.031433456799140412 7.7924102037134334e-09 0 0.033296152640125164 -3.2276937503302957e-09 0 0.033916366554466663 0.0011461401862913794 0 0.034520121011473497 0.00040254533267311825 0 0.033302254323893159 1.0479031519624188e-06 0 0.034520121011473497 0.00040254533267311825 0 0.033302254323893159 1.0479031519624188e-06 0 0.034618843670317083 -9.0396807941679928e-05 0 0.034997542384898939 -6.1857540254784007e-07 0 0.034618843670317083 -9.0396807941679928e-05 0 0.035000267607076793 7.7430782194463972e-08 0 0.033302254323893159 1.0479031519624188e-06 0 0.034997542384898939 -6.1857540254784007e-07 0 0.034618843670317083 -9.0396807941679928e-05 0 0.034520121011473497 0.00040254533267311825 0 0.034618843670317083 -9.0396807941679928e-05 0 0.03478394390187875 9.208784548818035e-05 0 0.034520121011473497 0.00040254533267311825 0 0.03478394390187875 9.208784548818035e-05 0 0.034900484938475203 0.00033173698500122773 0 0.034900484938475203 0.00033173698500122773 0 0.034985688280411244 0.00012135170565241559 0 0.035096199100926276 0.0002441141752381593 0 0.03478394390187875 9.208784548818035e-05 0 0.034900484938475203 0.00033173698500122773 0 0.034985688280411244 0.00012135170565241559 0 0.034618843670317083 -9.0396807941679928e-05 0 0.03478394390187875 9.208784548818035e-05 0 0.035000267607076793 7.7430782194463972e-08 0 0.03478394390187875 9.208784548818035e-05 0 0.034985688280411244 0.00012135170565241559 0 0.035000267607076793 7.7430782194463972e-08 0 0.035000267607076793 7.7430782194463972e-08 0 0.035055931842526214 6.3931629756427733e-05 0 0.035029095884388795 3.0152801474851552e-05 0 0.034985688280411244 0.00012135170565241559 0 0.035000267607076793 7.7430782194463972e-08 0 0.035055931842526214 6.3931629756427733e-05 0 0.035055931842526214 6.3931629756427733e-05 0 0.035096199100926276 0.0002441141752381593 0 0.035117737982933592 1.9236939296119574e-06 0 0.034985688280411244 0.00012135170565241559 0 0.035055931842526214 6.3931629756427733e-05 0 0.035096199100926276 0.0002441141752381593 0 0.034500118128215039 0.0001209598490099201 0 0.034251146033512619 0.00035322187698997714 0 0.03462974477421038 0.00028757302925860298 0 0.03299307583472233 0.00053185059932678628 0 0.032603086846323723 0.00046398463218777839 0 0.034900484938475203 0.00033173698500122773 0 0.035096199100926276 0.0002441141752381593 0 0.034923232267629722 0.00079072716640614263 0 0.035039083952564498 0.00012116778669628079 0 0.03299307583472233 0.00053185059932678628 0 0.034520121011473497 0.00040254533267311825 0 0.034900484938475203 0.00033173698500122773 0 0.034923232267629722 0.00079072716640614263 0 0.03123983951146575 0.00046569279883914108 0 0.031092605720698416 0.00062076285821775269 0 0.031064406676081055 0.00045497266098776528 0 0.031092605720698416 0.00062076285821775269 0 0.031064406676081055 0.00045497266098776528 0 0.030891862029296051 0.00043303132285928473 0 0.031092605720698416 0.00062076285821775269 0 0.030891862029296051 0.00043303132285928473 0 0.030729330902794741 0.00065088116909522639 0 0.030891862029296051 0.00043303132285928473 0 0.030582130994871937 0.00045636908730335908 0 0.030729330902794741 0.00065088116909522639 0 0.030582130994871937 0.00045636908730335908 0 0.030405817232479461 0.00066397576213497907 0 0.030331261336532973 0.00048153482378570701 0 0.030582130994871937 0.00045636908730335908 0 0.030729330902794741 0.00065088116909522639 0 0.030405817232479461 0.00066397576213497907 0 0.03462974477421038 0.00028757302925860298 0 0.034739627249003806 0.00012636271758022143 0 0.034892655487358336 0.00017675081525332474 0 0.032603086846323723 0.00046398463218777839 0 0.032668615608065422 0.00041972060753927795 0 0.034500118128215039 0.0001209598490099201 0 0.03462974477421038 0.00028757302925860298 0 0.034739627249003806 0.00012636271758022143 0 0.035039083952564498 0.00012116778669628079 0 0.034914751504340744 3.9486844290811635e-05 0 0.034500118128215039 0.0001209598490099201 0 0.034739627249003806 0.00012636271758022143 0 0.034721389235746476 -2.9827711938523021e-05 0 0.035000267607076793 7.7430782194463972e-08 0 0.035029095884388795 3.0152801474851552e-05 0 0.035000000049068516 1.9330306866996938e-08 0 0.035083974520448626 2.6133921792887289e-05 0 0.034914751504340744 3.9486844290811635e-05 0 0.034914751504340744 3.9486844290811635e-05 0 0.035000022553157553 -2.5048476469262834e-08 0 0.034721389235746476 -2.9827711938523021e-05 0 0.034883739017497084 6.0614843000534456e-05 0 0.034999694480252135 -1.2370463185130972e-07 0 0.034999520868087677 4.5374059491961443e-07 0 0.034999996410022487 1.7437483391834041e-09 0 0.03500000225604611 -1.1187205710233704e-09 0 0.034914751504340744 3.9486844290811635e-05 0 0.034999873694429029 -2.4022210892492285e-08 0 0.034739627249003806 0.00012636271758022143 0 0.034883739017497084 6.0614843000534456e-05 0 0.034892655487358336 0.00017675081525332474 0 0.034739627249003806 0.00012636271758022143 0 0.034721389235746476 -2.9827711938523021e-05 0 0.034883739017497084 6.0614843000534456e-05 0 0.035000058409551407 6.9814349239417543e-08 0 0.03496522486241227 4.8317493775729355e-05 0 0.034972259982581966 7.2677131165804505e-05 0 0.034883739017497084 6.0614843000534456e-05 0 0.03496522486241227 4.8317493775729355e-05 0 0.034892655487358336 0.00017675081525332474 0 0.034883739017497084 6.0614843000534456e-05 0 0.03496522486241227 4.8317493775729355e-05 0 0.034999694480252135 -1.2370463185130972e-07 0 0.035000058409551407 6.9814349239417543e-08 0 0.03496522486241227 4.8317493775729355e-05 0 0.034999694480252135 -1.2370463185130972e-07 0 0.030131349156447836 0.00067348299682637664 0 0.030331261336532973 0.00048153482378570701 0 0.030156914416322709 0.00036399432672022073 0 0.03251555520897171 0.00037617710601860394 0 0.032668615608065422 0.00041972060753927795 0 0.03496522486241227 4.8317493775729355e-05 0 0.034972259982581966 7.2677131165804505e-05 0 0.034892655487358336 0.00017675081525332474 0 0.030131349156447836 0.00067348299682637664 0 0.030405817232479461 0.00066397576213497907 0 0.030331261336532973 0.00048153482378570701 0 0.027504574007916196 0.00057686356958895548 0 0.027999113962263702 0.00053079811755172939 0 0.030331261336532973 0.00048153482378570701 0 0.030156914416322709 0.00036399432672022073 0 0.030432033643386376 0.00028659792435548677 0 0.024895908125684124 0.00077706391958485004 0 0.025096856032887343 0.00057323711200974381 0 0.025330275974892669 0.00080887798189403532 0 0.024895908125684124 0.00077706391958485004 0 0.025096856032887343 0.00057323711200974381 0 0.024851020018570109 0.00044518687221290805 0 0.024851020018570109 0.00044518687221290805 0 0.024868202119128654 0.00017541776994779034 0 0.025128294320033367 0.00024684556390681218 0 0.024596457730836716 0.00029519764795447634 0 0.024851020018570109 0.00044518687221290805 0 0.024868202119128654 0.00017541776994779034 0 0.024868202119128654 0.00017541776994779034 0 0.025042377988356439 -4.7408459971977794e-05 0 0.024764619129654563 -4.1512338193402141e-05 0 0.024868202119128654 0.00017541776994779034 0 0.025128294320033367 0.00024684556390681218 0 0.025042377988356439 -4.7408459971977794e-05 0 0.025096856032887343 0.00057323711200974381 0 0.025128294320033367 0.00024684556390681218 0 0.025330893616240635 0.00056993200451054308 0 0.025096856032887343 0.00057323711200974381 0 0.024851020018570109 0.00044518687221290805 0 0.025128294320033367 0.00024684556390681218 0 0.025128294320033367 0.00024684556390681218 0 0.025491525700022388 9.5254972606050148e-06 0 0.025628009292510218 0.00041079756655119454 0 0.025128294320033367 0.00024684556390681218 0 0.025628009292510218 0.00041079756655119454 0 0.025330893616240635 0.00056993200451054308 0 0.025128294320033367 0.00024684556390681218 0 0.025491525700022388 9.5254972606050148e-06 0 0.025042377988356439 -4.7408459971977794e-05 0 0.025491525700022388 9.5254972606050148e-06 0 0.025939752550584824 0.0001440762915441675 0 0.026241559176276859 -0.00034562034484613411 0 0.025491525700022388 9.5254972606050148e-06 0 0.025628009292510218 0.00041079756655119454 0 0.025939752550584824 0.0001440762915441675 0 0.025628009292510218 0.00041079756655119454 0 0.02611799015179796 0.00045660976561356979 0 0.025939752550584824 0.0001440762915441675 0 0.025615270942165855 0.00074001818235917903 0 0.025330275974892669 0.00080887798189403532 0 0.025953285446624379 0.00081587763941094878 0 0.025628009292510218 0.00041079756655119454 0 0.025987001874518179 0.00083229491386794727 0 0.02611799015179796 0.00045660976561356979 0 0.027999113962263702 0.00053079811755172939 0 0.027883139065385708 0.00056689436865918063 0 0.025628009292510218 0.00041079756655119454 0 0.025615270942165855 0.00074001818235917903 0 0.025987001874518179 0.00083229491386794727 0 0.025128049327525256 0.00068531930200763764 0 0.027883139065385708 0.00056689436865918063 0 0.025628009292510218 0.00041079756655119454 0 0.025615270942165855 0.00074001818235917903 0 0.025330893616240635 0.00056993200451054308 0 0.025096856032887343 0.00057323711200974381 0 0.025330893616240635 0.00056993200451054308 0 0.025330275974892669 0.00080887798189403532 0 0.025615270942165855 0.00074001818235917903 0 0.025330893616240635 0.00056993200451054308 0 0.025330275974892669 0.00080887798189403532 0 0.030582130994871937 0.00045636908730335908 0 0.030331261336532973 0.00048153482378570701 0 0.030432033643386376 0.00028659792435548677 0 0.030891862029296051 0.00043303132285928473 0 0.030582130994871937 0.00045636908730335908 0 0.030756639958660632 0.00020615796643660736 0 0.030582130994871937 0.00045636908730335908 0 0.030432033643386376 0.00028659792435548677 0 0.030756639958660632 0.00020615796643660736 0 0.030891862029296051 0.00043303132285928473 0 0.031040816587870709 0.00021529637113147206 0 0.030756639958660632 0.00020615796643660736 0 0.03123983951146575 0.00046569279883914108 0 0.031064406676081055 0.00045497266098776528 0 0.031040816587870709 0.00021529637113147206 0 0.031064406676081055 0.00045497266098776528 0 0.030891862029296051 0.00043303132285928473 0 0.031040816587870709 0.00021529637113147206 0 0.028725320445780689 0.00051401815677578385 0 0.028672380009893101 0.00036286760768174738 0 0.029244122905096908 0.00026379980363473406 0 0.02661644871112212 0.00079453434875329106 0 0.02670914812132659 0.00034540931932027251 0 0.02739290012172637 0.00067894732597526203 0 0.02661644871112212 0.00079453434875329106 0 0.02611799015179796 0.00045660976561356979 0 0.02670914812132659 0.00034540931932027251 0 0.02661644871112212 0.00079453434875329106 0 0.025987001874518179 0.00083229491386794727 0 0.02611799015179796 0.00045660976561356979 0 0.027482802682859877 0.00060722913823587699 0 0.027883139065385708 0.00056689436865918063 0 0.030269728735192493 0.00038080651842140251 0 0.027883139065385708 0.00056689436865918063 0 0.028725320445780689 0.00051401815677578385 0 0.028672380009893101 0.00036286760768174738 0 0.028085085237172406 0.00046093406301192145 0 0.02611799015179796 0.00045660976561356979 0 0.026363772649290115 0.0001180093689473552 0 0.02670914812132659 0.00034540931932027251 0 0.02611799015179796 0.00045660976561356979 0 0.026363772649290115 0.0001180093689473552 0 0.025939752550584824 0.0001440762915441675 0 0.026363772649290115 0.0001180093689473552 0 0.025939752550584824 0.0001440762915441675 0 0.026241559176276859 -0.00034562034484613411 0 0.026241559176276859 -0.00034562034484613411 0 0.026768463330882005 -7.4580514037379197e-06 0 0.02725437320074689 -0.00022156193024279797 0 0.026363772649290115 0.0001180093689473552 0 0.026241559176276859 -0.00034562034484613411 0 0.026768463330882005 -7.4580514037379197e-06 0 0.025360105282749439 -0.00020822626344681156 0 0.026229081977506088 9.2419663367358468e-07 0 0.026768463330882005 -7.4580514037379197e-06 0 0.02670914812132659 0.00034540931932027251 0 0.027215298315050516 7.6685964053240383e-05 0 0.026363772649290115 0.0001180093689473552 0 0.026768463330882005 -7.4580514037379197e-06 0 0.02670914812132659 0.00034540931932027251 0 0.027317984786806755 0.00011225654264063976 0 0.028357340033723408 0.00031884615869611356 0 0.024398004671619528 -0.00010838145048589723 0 0.025204028468205509 0.00034925849669154545 0 0.025315945292351455 -0.00017415161004357584 0 0.02670914812132659 0.00034540931932027251 0 0.027215298315050516 7.6685964053240383e-05 0 0.02739290012172637 0.00067894732597526203 0 0.027215298315050516 7.6685964053240383e-05 0 0.027668890207639629 4.0758479900680018e-05 0 0.027372450726631213 0.00054324657591286487 0 0.027215298315050516 7.6685964053240383e-05 0 0.02725437320074689 -0.00022156193024279797 0 0.027668890207639629 4.0758479900680018e-05 0 0.026768463330882005 -7.4580514037379197e-06 0 0.027215298315050516 7.6685964053240383e-05 0 0.02725437320074689 -0.00022156193024279797 0 0.025204028468205509 0.00034925849669154545 0 0.026237833696002539 1.5110968087326914e-05 0 0.025315945292351455 -0.00017415161004357584 0 0.026237833696002539 1.5110968087326914e-05 0 0.026149716363989193 -4.9980575977514134e-07 0 0.025315945292351455 -0.00017415161004357584 0 0.025204028468205509 0.00034925849669154545 0 0.026237833696002539 1.5110968087326914e-05 0 0.028003476198372301 1.6437680390556982e-06 0 0.026237833696002539 1.5110968087326914e-05 0 0.028003476198372301 1.6437680390556982e-06 0 0.026149716363989193 -4.9980575977514134e-07 0 0.02725437320074689 -0.00022156193024279797 0 0.027668890207639629 4.0758479900680018e-05 0 0.028009399902288925 -8.6799965900181765e-07 0 0.026229081977506088 9.2419663367358468e-07 0 0.028005533591657777 3.9110442581248996e-08 0 0.027668890207639629 4.0758479900680018e-05 0 0.028009399902288925 -8.6799965900181765e-07 0 0.028576474595524849 1.1863383403369803e-06 0 0.02858292557100247 -5.0537282754560288e-09 0 0.029118930066098461 -0.00010170748472376669 0 0.029341805457855353 2.971011919387125e-05 0 0.028579804038105408 1.2058206035369745e-07 0 0.028357340033723408 0.00031884615869611356 0 0.029118930066098461 -0.00010170748472376669 0 0.029059924371465325 -2.8225189710505949e-05 0 0.029665230689983144 1.1068994806734818e-08 0 0.027668890207639629 4.0758479900680018e-05 0 0.028576474595524849 1.1863383403369803e-06 0 0.027372450726631213 0.00054324657591286487 0 0.02858292557100247 -5.0537282754560288e-09 0 0.029118930066098461 -0.00010170748472376669 0 0.029665230689983144 1.1068994806734818e-08 0 0.030269728735192493 0.00038080651842140251 0 0.029873837214575004 0.00022227384158022054 0 0.028725320445780689 0.00051401815677578385 0 0.029244122905096908 0.00026379980363473406 0 0.029347603319747114 0.00056149223742725637 0 0.027482802682859877 0.00060722913823587699 0 0.028357340033723408 0.00031884615869611356 0 0.029118930066098461 -0.00010170748472376669 0 0.029341805457855353 2.971011919387125e-05 0 0.029059924371465325 -2.8225189710505949e-05 0 0.028357340033723408 0.00031884615869611356 0 0.029873837214575004 0.00022227384158022054 0 0.03123983951146575 0.00046569279883914108 0 0.031040816587870709 0.00021529637113147206 0 0.031315254734880921 0.00023853196392573518 0 0.03221999264433608 0.0004153350532498465 0 0.029873837214575004 0.00022227384158022054 0 0.029873837214575004 0.00022227384158022054 0 0.029668022028842465 -7.2193696701933254e-09 0 0.031004050108159011 -8.0064115202156826e-05 0 0.030168216617969569 8.5149646939586816e-05 0 0.029672365912402996 1.0098624101415014e-08 0 0.0224380789552261 2.0989552212211481e-07 0 0.023502354493764952 -9.2662395153625575e-05 0 0.021852065961050087 3.1443638065188654e-05 0 0.023502354493764952 -9.2662395153625575e-05 0 0.02395479224716399 3.2714308960588618e-05 0 0.02350844285936363 0.00032252583492693205 0 0.023319269689399017 -0.0001935086670465816 0 0.022695363535437749 8.9937686440947896e-05 0 0.023502354493764952 -9.2662395153625575e-05 0 0.024209383610324667 -0.00020091975980185674 0 0.02395479224716399 3.2714308960588618e-05 0 0.023502354493764952 -9.2662395153625575e-05 0 0.024128602141651793 -0.00015527413867660466 0 0.024209383610324667 -0.00020091975980185674 0 0.0224380789552261 2.0989552212211481e-07 0 0.023502354493764952 -9.2662395153625575e-05 0 0.024293723407221659 -7.4991504653998738e-07 0 0.023502354493764952 -9.2662395153625575e-05 0 0.024128602141651793 -0.00015527413867660466 0 0.024293723407221659 -7.4991504653998738e-07 0 0.024293723407221659 -7.4991504653998738e-07 0 0.025315945292351455 -0.00017415161004357584 0 0.02467665732358558 -0.00026765927482542566 0 0.024293723407221659 -7.4991504653998738e-07 0 0.026149716363989193 -4.9980575977514134e-07 0 0.025315945292351455 -0.00017415161004357584 0 0.024128602141651793 -0.00015527413867660466 0 0.02467665732358558 -0.00026765927482542566 0 0.024209383610324667 -0.00020091975980185674 0 0.024128602141651793 -0.00015527413867660466 0 0.024293723407221659 -7.4991504653998738e-07 0 0.02467665732358558 -0.00026765927482542566 0 0.02467665732358558 -0.00026765927482542566 0 0.024362902764886434 -0.00025748257246451786 0 0.024209383610324667 -0.00020091975980185674 0 0.024398004671619528 -0.00010838145048589723 0 0.025315945292351455 -0.00017415161004357584 0 0.02467665732358558 -0.00026765927482542566 0 0.024398004671619528 -0.00010838145048589723 0 0.02467665732358558 -0.00026765927482542566 0 0.024362902764886434 -0.00025748257246451786 0 0.024398004671619528 -0.00010838145048589723 0 0.024362902764886434 -0.00025748257246451786 0 0.024492229424377183 -0.00029081877645313489 0 0.024362902764886434 -0.00025748257246451786 0 0.024218731268288461 -3.498539178708905e-05 0 0.024426854370362787 -0.00013126281293482074 0 0.024362902764886434 -0.00025748257246451786 0 0.024209383610324667 -0.00020091975980185674 0 0.024218731268288461 -3.498539178708905e-05 0 0.024209383610324667 -0.00020091975980185674 0 0.02395479224716399 3.2714308960588618e-05 0 0.024218731268288461 -3.498539178708905e-05 0 0.02395479224716399 3.2714308960588618e-05 0 0.024218731268288461 -3.498539178708905e-05 0 0.023928681073853743 0.00029045425703158975 0 0.024305336213208677 0.00014481634826727109 0 0.024218731268288461 -3.498539178708905e-05 0 0.023928681073853743 0.00029045425703158975 0 0.024305336213208677 0.00014481634826727109 0 0.024218731268288461 -3.498539178708905e-05 0 0.024426854370362787 -0.00013126281293482074 0 0.024305336213208677 0.00014481634826727109 0 0.024588493509110604 -6.9081221910684176e-05 0 0.024426854370362787 -0.00013126281293482074 0 0.024558033434370404 -2.5330292245294225e-05 0 0.024681621693160325 8.508285040124207e-05 0 0.024305336213208677 0.00014481634826727109 0 0.024588493509110604 -6.9081221910684176e-05 0 0.024538251675012161 0.00030259677590301618 0 0.024588493509110604 -6.9081221910684176e-05 0 0.024700028600918605 -0.00010899083688196596 0 0.024624313472905772 -5.9466218765702903e-05 0 0.024566335924813162 -0.00018478677666273737 0 0.024838357490989876 -0.0002550630591882129 0 0.024700028600918605 -0.00010899083688196596 0 0.024588493509110604 -6.9081221910684176e-05 0 0.024566335924813162 -0.00018478677666273737 0 0.024700028600918605 -0.00010899083688196596 0 0.024588493509110604 -6.9081221910684176e-05 0 0.024566335924813162 -0.00018478677666273737 0 0.024426854370362787 -0.00013126281293482074 0 0.024362902764886434 -0.00025748257246451786 0 0.024566335924813162 -0.00018478677666273737 0 0.024426854370362787 -0.00013126281293482074 0 0.024362902764886434 -0.00025748257246451786 0 0.024566335924813162 -0.00018478677666273737 0 0.024492229424377183 -0.00029081877645313489 0 0.025360105282749439 -0.00020822626344681156 0 0.025018671262601946 -0.00030485505579267146 0 0.025491525700022388 9.5254972606050148e-06 0 0.026241559176276859 -0.00034562034484613411 0 0.02551436684260561 -0.00035581673531175458 0 0.02551436684260561 -0.00035581673531175458 0 0.024838357490989876 -0.0002550630591882129 0 0.025042377988356439 -4.7408459971977794e-05 0 0.025491525700022388 9.5254972606050148e-06 0 0.02551436684260561 -0.00035581673531175458 0 0.025042377988356439 -4.7408459971977794e-05 0 0.024566335924813162 -0.00018478677666273737 0 0.024492229424377183 -0.00029081877645313489 0 0.024838357490989876 -0.0002550630591882129 0 0.025018671262601946 -0.00030485505579267146 0 0.024874748418932644 -0.00026381293889553639 0 0.024838357490989876 -0.0002550630591882129 0 0.025042377988356439 -4.7408459971977794e-05 0 0.024764619129654563 -4.1512338193402141e-05 0 0.024838357490989876 -0.0002550630591882129 0 0.024764619129654563 -4.1512338193402141e-05 0 0.024728965652944111 -0.0001458011698966052 0 0.024838357490989876 -0.0002550630591882129 0 0.024728965652944111 -0.0001458011698966052 0 0.02471095844262328 -0.00015377038325447572 0 0.024728965652944111 -0.0001458011698966052 0 0.02471095844262328 -0.00015377038325447572 0 0.024676706757949449 -0.00013647098336008463 0 0.024838357490989876 -0.0002550630591882129 0 0.02471095844262328 -0.00015377038325447572 0 0.024700028600918605 -0.00010899083688196596 0 0.024700028600918605 -0.00010899083688196596 0 0.024667049602986522 -0.00010545837437359306 0 0.024656522768233147 -8.4504912917101048e-05 0 0.024700028600918605 -0.00010899083688196596 0 0.024656522768233147 -8.4504912917101048e-05 0 0.024624313472905772 -5.9466218765702903e-05 0 0.02471095844262328 -0.00015377038325447572 0 0.024667049602986522 -0.00010545837437359306 0 0.0246672335101932 -0.0001270086834705603 0 0.02471095844262328 -0.00015377038325447572 0 0.024700028600918605 -0.00010899083688196596 0 0.024667049602986522 -0.00010545837437359306 0 0.024667049602986522 -0.00010545837437359306 0 0.024659814902896142 -0.00010426704576050894 0 0.0246672335101932 -0.0001270086834705603 0 0.024667049602986522 -0.00010545837437359306 0 0.024659814902896142 -0.00010426704576050894 0 0.024658814902163945 -9.1904986474067248e-05 0 0.0247154919422722 9.9828989960476184e-06 0 0.024626456649967411 -8.9694504187692476e-05 0 0.024362274173193692 0.0002444539302415922 0 0.0247154919422722 9.9828989960476184e-06 0 0.024669866902011478 -6.5099646168413747e-05 0 0.024626456649967411 -8.9694504187692476e-05 0 0.0247154919422722 9.9828989960476184e-06 0 0.024669866902011478 -6.5099646168413747e-05 0 0.02465955548008059 -7.8823191308203519e-05 0 0.024669866902011478 -6.5099646168413747e-05 0 0.024658814902163945 -9.1904986474067248e-05 0 0.024626456649967411 -8.9694504187692476e-05 0 0.024667049602986522 -0.00010545837437359306 0 0.024658814902163945 -9.1904986474067248e-05 0 0.024626456649967411 -8.9694504187692476e-05 0 0.024659814902896142 -0.00010426704576050894 0 0.024658814902163945 -9.1904986474067248e-05 0 0.02465955548008059 -7.8823191308203519e-05 0 0.024669866902011478 -6.5099646168413747e-05 0 0.024658814902163945 -9.1904986474067248e-05 0 0.02465955548008059 -7.8823191308203519e-05 0 0.024667049602986522 -0.00010545837437359306 0 0.024626456649967411 -8.9694504187692476e-05 0 0.024656522768233147 -8.4504912917101048e-05 0 0.024626456649967411 -8.9694504187692476e-05 0 0.024641623770041612 -6.9818443000899217e-05 0 0.024656522768233147 -8.4504912917101048e-05 0 0.024641623770041612 -6.9818443000899217e-05 0 0.024656522768233147 -8.4504912917101048e-05 0 0.024624313472905772 -5.9466218765702903e-05 0 0.02463234052462113 -5.0841051225693172e-05 0 0.024602891157782133 -3.1822597694035806e-05 0 0.024624313472905772 -5.9466218765702903e-05 0 0.024641623770041612 -6.9818443000899217e-05 0 0.02463234052462113 -5.0841051225693172e-05 0 0.024624313472905772 -5.9466218765702903e-05 0 0.024626456649967411 -8.9694504187692476e-05 0 0.024641623770041612 -6.9818443000899217e-05 0 0.02463234052462113 -5.0841051225693172e-05 0 0.024487649577747978 -5.5680884472879065e-07 0 0.024609429876199473 0.0001246034306016619 0 0.024626456649967411 -8.9694504187692476e-05 0 0.023943057652506441 0.00043683472350518256 0 0.024362274173193692 0.0002444539302415922 0 0.024626456649967411 -8.9694504187692476e-05 0 0.02463234052462113 -5.0841051225693172e-05 0 0.024633882271050674 -6.9965537327245202e-06 0 0.02463234052462113 -5.0841051225693172e-05 0 0.024621614676535428 -3.0646214048059263e-05 0 0.024602891157782133 -3.1822597694035806e-05 0 0.02463234052462113 -5.0841051225693172e-05 0 0.024621614676535428 -3.0646214048059263e-05 0 0.024633882271050674 -6.9965537327245202e-06 0 0.024621614676535428 -3.0646214048059263e-05 0 0.024633882271050674 -6.9965537327245202e-06 0 0.024595025388209714 -1.1788587149191248e-06 0 0.023943057652506441 0.00043683472350518256 0 0.024145159218528226 0.00063886355343859382 0 0.024362274173193692 0.0002444539302415922 0 0.024009083022392793 0.00043254384926058652 0 0.023501744653918404 0.001330956066590352 0 0.023403769795574542 0.00082487019018077782 0 0.022292218362631948 0.0018451070626077236 0 0.022939291500323523 0.0015837453169341451 0 0.0247154919422722 9.9828989960476184e-06 0 0.024145159218528226 0.00063886355343859382 0 0.024362274173193692 0.0002444539302415922 0 0.022292218362631948 0.0018451070626077236 0 0.022939291500323523 0.0015837453169341451 0 0.022852166957406224 0.0020849359931098266 0 0.022939291500323523 0.0015837453169341451 0 0.023209123748809839 0.0015785434292390757 0 0.022852166957406224 0.0020849359931098266 0 0.023403769795574542 0.00082487019018077782 0 0.022939291500323523 0.0015837453169341451 0 0.023209123748809839 0.0015785434292390757 0 0.023403769795574542 0.00082487019018077782 0 0.023574050627966008 0.001272180500581464 0 0.023209123748809839 0.0015785434292390757 0 0.023403769795574542 0.00082487019018077782 0 0.023574050627966008 0.001272180500581464 0 0.023821136239559962 0.00099063291744542993 0 0.023209123748809839 0.0015785434292390757 0 0.023485257236228345 0.0020088212261189543 0 0.022852166957406224 0.0020849359931098266 0 0.023574050627966008 0.001272180500581464 0 0.023209123748809839 0.0015785434292390757 0 0.023485257236228345 0.0020088212261189543 0 0.023485257236228345 0.0020088212261189543 0 0.022770757977760254 0.0027519278231220544 0 0.023779839662142366 0.0032518736327412372 0 0.022852166957406224 0.0020849359931098266 0 0.022770757977760254 0.0027519278231220544 0 0.022501495828947157 0.0023296144449731358 0 0.023485257236228345 0.0020088212261189543 0 0.022852166957406224 0.0020849359931098266 0 0.022770757977760254 0.0027519278231220544 0 0.022770757977760254 0.0027519278231220544 0 0.023779839662142366 0.0032518736327412372 0 0.022868028031593397 0.0040772343391345918 0 0.02053076875275783 0.0050556111729362944 0 0.020530176655334777 0.0051049843054663943 0 0.020488671009941967 0.0050967463436870546 0 0.022386212277377901 0.0040750394570140932 0 0.020088701740751953 0.0027944570079563961 0 0.022770757977760254 0.0027519278231220544 0 0.022034149033894595 0.0034737957069553953 0 0.022868028031593397 0.0040772343391345918 0 0.018930932518400577 0.0011580239479495546 0 0.020088701740751953 0.0027944570079563961 0 0.022770757977760254 0.0027519278231220544 0 0.022034149033894595 0.0034737957069553953 0 0.022090578556134274 0.0026352769679095249 0 0.022034149033894595 0.0034737957069553953 0 0.022090578556134274 0.0026352769679095249 0 0.021191027140098118 0.0028645342064384893 0 0.023943057652506441 0.00043683472350518256 0 0.024145159218528226 0.00063886355343859382 0 0.023172412389628159 0.0015310395724809011 0 0.022292218362631948 0.0018451070626077236 0 0.022090578556134274 0.0026352769679095249 0 0.021191027140098118 0.0028645342064384893 0 0.023501744653918404 0.001330956066590352 0 0.019618265622872735 0.00057453881747042141 0 0.022770757977760254 0.0027519278231220544 0 0.022090578556134274 0.0026352769679095249 0 0.022501495828947157 0.0023296144449731358 0 0.022292218362631948 0.0018451070626077236 0 0.022852166957406224 0.0020849359931098266 0 0.022501495828947157 0.0023296144449731358 0 0.022292218362631948 0.0018451070626077236 0 0.022090578556134274 0.0026352769679095249 0 0.022501495828947157 0.0023296144449731358 0 0.023943057652506441 0.00043683472350518256 0 0.023002912942806483 0.0014099340910456348 0 0.023172412389628159 0.0015310395724809011 0 0.024609429876199473 0.0001246034306016619 0 0.021518895472718878 0.00050766830980797622 0 0.024551749740291822 7.5357412359244275e-05 0 0.02456014888821274 -6.8011027265149079e-07 0 0.024595025388209714 -1.1788587149191248e-06 0 0.024633882271050674 -6.9965537327245202e-06 0 0.024551749740291822 7.5357412359244275e-05 0 0.024595025388209714 -1.1788587149191248e-06 0 0.021518895472718878 0.00050766830980797622 0 0.019618265622872735 0.00057453881747042141 0 0.016224411481654995 -0.00086216227420151401 0 0.014508927451630181 -0.0020820379174863626 0 0.014491326710287515 -0.00050489457742447909 0 0.018930932518400577 0.0011580239479495546 0 0.019618265622872735 0.00057453881747042141 0 0.019063870298065316 -0.00059038695305154137 0 0.019469539368964568 -0.00029893786808920354 0 0.017809352221398397 0.0012827658578411791 0 0.014508927451630181 -0.0020820379174863626 0 0.014491326710287515 -0.00050489457742447909 0 0.012899648446149103 -0.00055037898624770635 0 0.019618265622872735 0.00057453881747042141 0 0.015136047205374138 0.00054807174578339296 0 0.013583064744272082 -5.9409430872495032e-05 0 0.014491326710287515 -0.00050489457742447909 0 0.013950099322816377 0.00064544008539430301 0 0.013583064744272082 -5.9409430872495032e-05 0 0.014491326710287515 -0.00050489457742447909 0 0.012899648446149103 -0.00055037898624770635 0 0.016224411481654995 -0.00086216227420151401 0 0.014491326710287515 -0.00050489457742447909 0 0.015158915851874318 0.00052238135325886415 0 0.020795277667536465 0.00021352155694498909 0 0.019366388386319634 0.001832149177053191 0 0.018836477223724585 0.00043647014986112649 0 0.021518895472718878 0.00050766830980797622 0 0.017655577461630746 0.0015512247662052175 0 0.019063870298065316 -0.00059038695305154137 0 0.016935488374502386 0.0018134289169877995 0 0.017809352221398397 0.0012827658578411791 0 0.019366388386319634 0.001832149177053191 0 0.018836477223724585 0.00043647014986112649 0 0.018397476324110311 0.0017913051496977336 0 0.013583064744272082 -5.9409430872495032e-05 0 0.012899648446149103 -0.00055037898624770635 0 0.012916307833779455 0.00032373780811419497 0 0.020795277667536465 0.00021352155694498909 0 0.019243056811528568 -0.00089997431251759871 0 0.018836477223724585 0.00043647014986112649 0 0.024551749740291822 7.5357412359244275e-05 0 0.024497201108660476 2.3127578484413719e-05 0 0.02456014888821274 -6.8011027265149079e-07 0 0.021518895472718878 0.00050766830980797622 0 0.022975644645619277 0.00034718690490374507 0 0.022975644645619277 0.00034718690490374507 0 0.021425159063991606 0.00068380853262760635 0 0.024497201108660476 2.3127578484413719e-05 0 0.02456014888821274 -6.8011027265149079e-07 0 0.024553965542737918 -4.7891581920742238e-05 0 0.022975644645619277 0.00034718690490374507 0 0.024681621693160325 8.508285040124207e-05 0 0.024404513297918894 0.00074010951805892353 0 0.024538251675012161 0.00030259677590301618 0 0.024076877158235633 0.00050707084489442047 0 0.02456014888821274 -6.8011027265149079e-07 0 0.024602891157782133 -3.1822597694035806e-05 0 0.024553965542737918 -4.7891581920742238e-05 0 0.024621614676535428 -3.0646214048059263e-05 0 0.024595025388209714 -1.1788587149191248e-06 0 0.024602891157782133 -3.1822597694035806e-05 0 0.02456014888821274 -6.8011027265149079e-07 0 0.024595025388209714 -1.1788587149191248e-06 0 0.024602891157782133 -3.1822597694035806e-05 0 0.024588493509110604 -6.9081221910684176e-05 0 0.024624313472905772 -5.9466218765702903e-05 0 0.024553965542737918 -4.7891581920742238e-05 0 0.024602891157782133 -3.1822597694035806e-05 0 0.024624313472905772 -5.9466218765702903e-05 0 0.024553965542737918 -4.7891581920742238e-05 0 0.024305336213208677 0.00014481634826727109 0 0.023928681073853743 0.00029045425703158975 0 0.024076877158235633 0.00050707084489442047 0 0.024305336213208677 0.00014481634826727109 0 0.024538251675012161 0.00030259677590301618 0 0.024076877158235633 0.00050707084489442047 0 0.023821497847368655 0.00061428421179671026 0 0.024076877158235633 0.00050707084489442047 0 0.024004504953389325 0.00073940717034144774 0 0.023928681073853743 0.00029045425703158975 0 0.023821497847368655 0.00061428421179671026 0 0.023639822796220712 0.00049356660574150369 0 0.023928681073853743 0.00029045425703158975 0 0.023821497847368655 0.00061428421179671026 0 0.024076877158235633 0.00050707084489442047 0 0.024205117804911289 0.00068677627091820004 0 0.024076877158235633 0.00050707084489442047 0 0.024004504953389325 0.00073940717034144774 0 0.022975644645619277 0.00034718690490374507 0 0.02452042579329872 0.00076700974474700921 0 0.024205117804911289 0.00068677627091820004 0 0.024004504953389325 0.00073940717034144774 0 0.024128539395561158 0.00088394551163606156 0 0.024004504953389325 0.00073940717034144774 0 0.024128539395561158 0.00088394551163606156 0 0.023907321199003198 0.00089770934240771233 0 0.024128539395561158 0.00088394551163606156 0 0.024037310009535528 0.0010863973431959335 0 0.023907321199003198 0.00089770934240771233 0 0.021425159063991606 0.00068380853262760635 0 0.018803678766310734 0.00041135434172681211 0 0.013005003369707977 0.00043511480861265091 0 0.011724250130199579 7.3348883392573491e-05 0 0.012197939058209461 0.00085686699236782926 0 0.018803678766310734 0.00041135434172681211 0 0.017689802157003661 0.00050043049985630463 0 0.024037310009535528 0.0010863973431959335 0 0.023907321199003198 0.00089770934240771233 0 0.023696483042885845 0.0010008605737243559 0 0.023907321199003198 0.00089770934240771233 0 0.023696483042885845 0.0010008605737243559 0 0.023728074205531614 0.00088893728066291296 0 0.017689802157003661 0.00050043049985630463 0 0.020785586356909004 0.0005911259075892535 0 0.023728074205531614 0.00088893728066291296 0 0.02383361718540656 0.00078142367334063407 0 0.023702757592595988 0.00075255377909723279 0 0.023907321199003198 0.00089770934240771233 0 0.023728074205531614 0.00088893728066291296 0 0.02383361718540656 0.00078142367334063407 0 0.024004504953389325 0.00073940717034144774 0 0.023907321199003198 0.00089770934240771233 0 0.02383361718540656 0.00078142367334063407 0 0.023821497847368655 0.00061428421179671026 0 0.024004504953389325 0.00073940717034144774 0 0.02383361718540656 0.00078142367334063407 0 0.023821497847368655 0.00061428421179671026 0 0.02383361718540656 0.00078142367334063407 0 0.023702757592595988 0.00075255377909723279 0 0.023702757592595988 0.00075255377909723279 0 0.023535505044487259 0.00081194572118324616 0 0.023625904263630679 0.000658857253322814 0 0.023535505044487259 0.00081194572118324616 0 0.023434789409652358 0.00062224188140171132 0 0.023625904263630679 0.000658857253322814 0 0.021897596839070471 0.00056367189200174966 0 0.018621323755940819 0.00048469213497073457 0 0.023535505044487259 0.00081194572118324616 0 0.023478449001822697 0.00097836953380540351 0 0.023328413640830954 0.0009345364519481379 0 0.023728074205531614 0.00088893728066291296 0 0.023535505044487259 0.00081194572118324616 0 0.023481559397600615 0.00096927821683370037 0 0.023728074205531614 0.00088893728066291296 0 0.023702757592595988 0.00075255377909723279 0 0.023535505044487259 0.00081194572118324616 0 0.017689802157003661 0.00050043049985630463 0 0.018621323755940819 0.00048469213497073457 0 0.023686895597856951 0.0010252309273138629 0 0.023728074205531614 0.00088893728066291296 0 0.023481559397600615 0.00096927821683370037 0 0.013936945006052874 -0.00051760690063146848 0 0.013995802022767101 -0.00050195164296609751 0 0.013940966359569236 -0.00055645590841489449 0 0.018595298531228932 0.0006613042009574109 0 0.015171319907146773 -9.9178640892751634e-05 0 0.01831485220676491 -8.6009898979637384e-06 0 0.018723071757719811 2.3518568910952253e-07 0 0.016785554097084165 -2.0865220132459647e-07 0 0.01449121310075141 0.00026925560830913823 0 0.014521875815874802 0.00027798075404059016 0 0.014422643565228698 0.00019669798298646395 0 0.018621323755940819 0.00048469213497073457 0 0.018595298531228932 0.0006613042009574109 0 0.023535505044487259 0.00081194572118324616 0 0.023328413640830954 0.0009345364519481379 0 0.023434789409652358 0.00062224188140171132 0 0.018595298531228932 0.0006613042009574109 0 0.018724973551030144 4.851236246228669e-07 0 0.018595298531228932 0.0006613042009574109 0 0.02211110746085097 0.00015702796998847028 0 0.019287235089779437 0.00022322168935698733 0 0.018727300120488764 8.771507250120262e-07 0 0.020363390837065815 -3.3761157772547845e-05 0 0.018727300120488764 8.771507250120262e-07 0 0.020581168205974984 -3.2093660515638593e-07 0 0.020363390837065815 -3.3761157772547845e-05 0 0.020581168205974984 -3.2093660515638593e-07 0 0.020363390837065815 -3.3761157772547845e-05 0 0.021852065961050087 3.1443638065188654e-05 0 0.02211110746085097 0.00015702796998847028 0 0.022695363535437749 8.9937686440947896e-05 0 0.023434789409652358 0.00062224188140171132 0 0.023625904263630679 0.000658857253322814 0 0.023639822796220712 0.00049356660574150369 0 0.023434789409652358 0.00062224188140171132 0 0.023639822796220712 0.00049356660574150369 0 0.02350844285936363 0.00032252583492693205 0 0.023821497847368655 0.00061428421179671026 0 0.023625904263630679 0.000658857253322814 0 0.023639822796220712 0.00049356660574150369 0 0.023821497847368655 0.00061428421179671026 0 0.023702757592595988 0.00075255377909723279 0 0.023625904263630679 0.000658857253322814 0 0.02395479224716399 3.2714308960588618e-05 0 0.023928681073853743 0.00029045425703158975 0 0.02350844285936363 0.00032252583492693205 0 0.023928681073853743 0.00029045425703158975 0 0.023639822796220712 0.00049356660574150369 0 0.02350844285936363 0.00032252583492693205 0 0.0224380789552261 2.0989552212211481e-07 0 0.020581168205974984 -3.2093660515638593e-07 0 0.021852065961050087 3.1443638065188654e-05 0 0.02421884019067793 0.0052346571839614687 0 0.024201929472885048 0.0052480476854615031 0 0.024780204914770822 0.0051208974449364073 0 0.02421884019067793 0.0052346571839614687 0 0.024780204914770822 0.0051208974449364073 0 0.024555738695580281 0.0049659560233087548 0 0.02421884019067793 0.0052346571839614687 0 0.024157912560708483 0.0050962970952233124 0 0.024029465224001834 0.0052806588239660895 0 0.02421884019067793 0.0052346571839614687 0 0.024157912560708483 0.0050962970952233124 0 0.024555738695580281 0.0049659560233087548 0 0.022662370860022641 0.0044441264731549246 0 0.022744270499690539 0.0048223849186688319 0 0.02421884019067793 0.0052346571839614687 0 0.024029465224001834 0.0052806588239660895 0 0.023738284276490201 0.005268754678588645 0 0.02421884019067793 0.0052346571839614687 0 0.024201929472885048 0.0052480476854615031 0 0.023738284276490201 0.005268754678588645 0 0.024201929472885048 0.0052480476854615031 0 0.02519682713679848 0.0051526872412256683 0 0.024402804457262315 0.0051701461966559186 0 0.02519682713679848 0.0051526872412256683 0 0.024780204914770822 0.0051208974449364073 0 0.025530916043759934 0.0050169314726096828 0 0.024201929472885048 0.0052480476854615031 0 0.02519682713679848 0.0051526872412256683 0 0.024780204914770822 0.0051208974449364073 0 0.024780204914770822 0.0051208974449364073 0 0.025100556371567554 0.0048295561134978869 0 0.025530916043759934 0.0050169314726096828 0 0.025965464178313108 0.0051511151791423264 0 0.02519682713679848 0.0051526872412256683 0 0.025530916043759934 0.0050169314726096828 0 0.026553514455639027 0.0049019329042113346 0 0.02669187172599544 0.0043133428445946307 0 0.025833510356012269 0.0046200528614015312 0 0.026553514455639027 0.0049019329042113346 0 0.025530916043759934 0.0050169314726096828 0 0.025833510356012269 0.0046200528614015312 0 0.025276840503870461 0.004283776765459912 0 0.025100556371567554 0.0048295561134978869 0 0.025833510356012269 0.0046200528614015312 0 0.025100556371567554 0.0048295561134978869 0 0.025530916043759934 0.0050169314726096828 0 0.025833510356012269 0.0046200528614015312 0 0.025276840503870461 0.004283776765459912 0 0.025100556371567554 0.0048295561134978869 0 0.02465589803756112 0.0045682714488563978 0 0.024780204914770822 0.0051208974449364073 0 0.025100556371567554 0.0048295561134978869 0 0.024555738695580281 0.0049659560233087548 0 0.025100556371567554 0.0048295561134978869 0 0.02465589803756112 0.0045682714488563978 0 0.024555738695580281 0.0049659560233087548 0 0.024157912560708483 0.0050962970952233124 0 0.024555738695580281 0.0049659560233087548 0 0.024185053553866683 0.0047913878044550696 0 0.02465589803756112 0.0045682714488563978 0 0.024555738695580281 0.0049659560233087548 0 0.024185053553866683 0.0047913878044550696 0 0.02465589803756112 0.0045682714488563978 0 0.024185053553866683 0.0047913878044550696 0 0.024208579084358257 0.0043412239562137106 0 0.024185053553866683 0.0047913878044550696 0 0.024208579084358257 0.0043412239562137106 0 0.02377468523425252 0.0045552347067061728 0 0.02377468523425252 0.0045552347067061728 0 0.023699915875180659 0.0050244522548751119 0 0.023139219452455156 0.0044196069291097644 0 0.020944720099258674 0.0031258717070481272 0 0.020591847811608069 0.0025389620119469283 0 0.020395107882751264 0.0031619255539170345 0 0.02220199818666219 0.0043097937688752388 0 0.023115042673363929 0.0018696701578213488 0 0.024185053553866683 0.0047913878044550696 0 0.02377468523425252 0.0045552347067061728 0 0.023699915875180659 0.0050244522548751119 0 0.024157912560708483 0.0050962970952233124 0 0.024185053553866683 0.0047913878044550696 0 0.023699915875180659 0.0050244522548751119 0 0.024764619129654563 -4.1512338193402141e-05 0 0.024612398983035071 -3.0673557725406824e-06 0 0.024666055162187225 -9.3173816687688177e-05 0 0.024612398983035071 -3.0673557725406824e-06 0 0.024459449802828267 3.0318689503288944e-05 0 0.024594705375529827 -0.0001075236486726446 0 0.023115042673363929 0.0018696701578213488 0 0.022286829395931056 0.0016293903803315541 0 0.024459449802828267 3.0318689503288944e-05 0 0.024577860267400366 -0.00010208731590683345 0 0.024594705375529827 -0.0001075236486726446 0 0.024612398983035071 -3.0673557725406824e-06 0 0.024594705375529827 -0.0001075236486726446 0 0.024666055162187225 -9.3173816687688177e-05 0 0.024764619129654563 -4.1512338193402141e-05 0 0.024728965652944111 -0.0001458011698966052 0 0.024666055162187225 -9.3173816687688177e-05 0 0.024594705375529827 -0.0001075236486726446 0 0.024676706757949449 -0.00013647098336008463 0 0.024666055162187225 -9.3173816687688177e-05 0 0.024728965652944111 -0.0001458011698966052 0 0.024676706757949449 -0.00013647098336008463 0 0.024666055162187225 -9.3173816687688177e-05 0 0.024594705375529827 -0.0001075236486726446 0 0.02466006052502933 -0.00014594389567710637 0 0.024665953766024502 -0.00016064058514934554 0 0.024594705375529827 -0.0001075236486726446 0 0.024676706757949449 -0.00013647098336008463 0 0.02466006052502933 -0.00014594389567710637 0 0.02471095844262328 -0.00015377038325447572 0 0.024672617420517913 -0.0001430193340174021 0 0.02466006052502933 -0.00014594389567710637 0 0.02471095844262328 -0.00015377038325447572 0 0.024672617420517913 -0.0001430193340174021 0 0.0246672335101932 -0.0001270086834705603 0 0.024672617420517913 -0.0001430193340174021 0 0.02466006052502933 -0.00014594389567710637 0 0.024651042824640715 -0.00013972593343639374 0 0.02471095844262328 -0.00015377038325447572 0 0.024676706757949449 -0.00013647098336008463 0 0.02466006052502933 -0.00014594389567710637 0 0.024906154534597214 -0.00059666884984037945 0 0.023445016772239331 0.0010576276390835133 0 0.024577860267400366 -0.00010208731590683345 0 0.024594705375529827 -0.0001075236486726446 0 0.024501141910748831 -5.4598705651926999e-06 0 0.020395107882751264 0.0031619255539170345 0 0.020203061090644014 0.003794291592477711 0 0.020700941317477826 0.0035415875039664967 0 0.022286829395931056 0.0016293903803315541 0 0.023445016772239331 0.0010576276390835133 0 0.020203061090644014 0.003794291592477711 0 0.020700941317477826 0.0035415875039664967 0 0.020694629951229178 0.0040455096620038477 0 0.023445016772239331 0.0010576276390835133 0 0.024054501569103066 -3.0732090514071041e-05 0 0.02466006052502933 -0.00014594389567710637 0 0.024665953766024502 -0.00016064058514934554 0 0.024651042824640715 -0.00013972593343639374 0 0.024651042824640715 -0.00013972593343639374 0 0.024598730662870442 -0.00012021341984941067 0 0.024648338739419472 -0.00011250257432526291 0 0.024665953766024502 -0.00016064058514934554 0 0.024651042824640715 -0.00013972593343639374 0 0.024598730662870442 -0.00012021341984941067 0 0.024665953766024502 -0.00016064058514934554 0 0.024598730662870442 -0.00012021341984941067 0 0.024711209191191786 -0.00010594786890253335 0 0.024598730662870442 -0.00012021341984941067 0 0.024648338739419472 -0.00011250257432526291 0 0.02465955548008059 -7.8823191308203519e-05 0 0.024659814902896142 -0.00010426704576050894 0 0.024648338739419472 -0.00011250257432526291 0 0.02465955548008059 -7.8823191308203519e-05 0 0.024659814902896142 -0.00010426704576050894 0 0.024648338739419472 -0.00011250257432526291 0 0.0246672335101932 -0.0001270086834705603 0 0.024651042824640715 -0.00013972593343639374 0 0.024648338739419472 -0.00011250257432526291 0 0.0246672335101932 -0.0001270086834705603 0 0.024672617420517913 -0.0001430193340174021 0 0.024651042824640715 -0.00013972593343639374 0 0.0246672335101932 -0.0001270086834705603 0 0.02220199818666219 0.0043097937688752388 0 0.022662370860022641 0.0044441264731549246 0 0.024157912560708483 0.0050962970952233124 0 0.023699915875180659 0.0050244522548751119 0 0.024029465224001834 0.0052806588239660895 0 0.020944720099258674 0.0031258717070481272 0 0.020395107882751264 0.0031619255539170345 0 0.020700941317477826 0.0035415875039664967 0 0.020944720099258674 0.0031258717070481272 0 0.020700941317477826 0.0035415875039664967 0 0.021302170270030688 0.0036930003458027247 0 0.020700941317477826 0.0035415875039664967 0 0.020694629951229178 0.0040455096620038477 0 0.021302170270030688 0.0036930003458027247 0 0.020694629951229178 0.0040455096620038477 0 0.021302170270030688 0.0036930003458027247 0 0.021131404928700477 0.0042597309996659054 0 0.021131404928700477 0.0042597309996659054 0 0.021086556287738964 0.0049187879013727811 0 0.021775251424070087 0.0042525010541934107 0 0.020694629951229178 0.0040455096620038477 0 0.021131404928700477 0.0042597309996659054 0 0.020689052960915531 0.0045728224673910233 0 0.020689052960915531 0.0045728224673910233 0 0.021086556287738964 0.0049187879013727811 0 0.020680538874866126 0.0049936354700402599 0 0.021131404928700477 0.0042597309996659054 0 0.020689052960915531 0.0045728224673910233 0 0.021086556287738964 0.0049187879013727811 0 0.0247154919422722 9.9828989960476184e-06 0 0.024598730662870442 -0.00012021341984941067 0 0.02465955548008059 -7.8823191308203519e-05 0 0.024009083022392793 0.00043254384926058652 0 0.024564077343936366 -7.7689237816152141e-05 0 0.023403769795574542 0.00082487019018077782 0 0.024598730662870442 -0.00012021341984941067 0 0.024247412933523706 0.00060101640159288829 0 0.024711209191191786 -0.00010594786890253335 0 0.024247412933523706 0.00060101640159288829 0 0.024749883048631134 0.00092646594172092131 0 0.024247412933523706 0.00060101640159288829 0 0.024056295921352749 0.0012610862665559043 0 0.023821136239559962 0.00099063291744542993 0 0.023403769795574542 0.00082487019018077782 0 0.024247412933523706 0.00060101640159288829 0 0.023821136239559962 0.00099063291744542993 0 0.024598730662870442 -0.00012021341984941067 0 0.024711209191191786 -0.00010594786890253335 0 0.024247412933523706 0.00060101640159288829 0 0.024247412933523706 0.00060101640159288829 0 0.024749883048631134 0.00092646594172092131 0 0.024056295921352749 0.0012610862665559043 0 0.024822530500603266 -0.00047693948147161362 0 0.024711209191191786 -0.00010594786890253335 0 0.024749883048631134 0.00092646594172092131 0 0.023445016772239331 0.0010576276390835133 0 0.022486155545616435 0.0027087666398136695 0 0.020203061090644014 0.003794291592477711 0 0.020694629951229178 0.0040455096620038477 0 0.020189542502434543 0.0044512379645745455 0 0.020694629951229178 0.0040455096620038477 0 0.020689052960915531 0.0045728224673910233 0 0.020189542502434543 0.0044512379645745455 0 0.020689052960915531 0.0045728224673910233 0 0.020189542502434543 0.0044512379645745455 0 0.020199893257996128 0.0049913183935460861 0 0.022486155545616435 0.0027087666398136695 0 0.021342818508797129 0.0041882004367523162 0 0.020249931228103316 0.0049610890993098096 0 0.021342818508797129 0.0041882004367523162 0 0.020689052960915531 0.0045728224673910233 0 0.020440204085679332 0.005032984217251112 0 0.020680538874866126 0.0049936354700402599 0 0.024749883048631134 0.00092646594172092131 0 0.02414993093360205 0.0019747214694291436 0 0.024679244918130141 0.0024253118152565444 0 0.024749883048631134 0.00092646594172092131 0 0.024056295921352749 0.0012610862665559043 0 0.02414993093360205 0.0019747214694291436 0 0.023574050627966008 0.001272180500581464 0 0.023485257236228345 0.0020088212261189543 0 0.024056295921352749 0.0012610862665559043 0 0.023485257236228345 0.0020088212261189543 0 0.024056295921352749 0.0012610862665559043 0 0.02414993093360205 0.0019747214694291436 0 0.023574050627966008 0.001272180500581464 0 0.024056295921352749 0.0012610862665559043 0 0.023821136239559962 0.00099063291744542993 0 0.02414993093360205 0.0019747214694291436 0 0.024679244918130141 0.0024253118152565444 0 0.023779839662142366 0.0032518736327412372 0 0.023485257236228345 0.0020088212261189543 0 0.02414993093360205 0.0019747214694291436 0 0.023779839662142366 0.0032518736327412372 0 0.021342818508797129 0.0041882004367523162 0 0.022386212277377901 0.0040750394570140932 0 0.020440204085679332 0.005032984217251112 0 0.020578640565759112 0.0051311446729637835 0 0.020680538874866126 0.0049936354700402599 0 0.020440204085679332 0.005032984217251112 0 0.020578640565759112 0.0051311446729637835 0 0.020571335188737341 0.0051364193638782658 0 0.021342818508797129 0.0041882004367523162 0 0.020375794972988765 0.0054628819225502837 0 0.020578640565759112 0.0051311446729637835 0 0.020598143082439516 0.005179246584723649 0 0.020571335188737341 0.0051364193638782658 0 0.020612623221884601 0.0049728734521300886 0 0.02053076875275783 0.0050556111729362944 0 0.020571335188737341 0.0051364193638782658 0 0.02053076875275783 0.0050556111729362944 0 0.020530176655334777 0.0051049843054663943 0 0.020571335188737341 0.0051364193638782658 0 0.021086556287738964 0.0049187879013727811 0 0.020680538874866126 0.0049936354700402599 0 0.020758825657803272 0.0052508752005243544 0 0.021086556287738964 0.0049187879013727811 0 0.020758825657803272 0.0052508752005243544 0 0.021241470587104547 0.0055084172533270545 0 0.020578640565759112 0.0051311446729637835 0 0.020680538874866126 0.0049936354700402599 0 0.020758825657803272 0.0052508752005243544 0 0.020578640565759112 0.0051311446729637835 0 0.020758825657803272 0.0052508752005243544 0 0.020598143082439516 0.005179246584723649 0 0.020758825657803272 0.0052508752005243544 0 0.020598143082439516 0.005179246584723649 0 0.020650494164100891 0.0052118052455941951 0 0.020758825657803272 0.0052508752005243544 0 0.021241470587104547 0.0055084172533270545 0 0.020851929269734549 0.0054247352334671354 0 0.021086556287738964 0.0049187879013727811 0 0.021241470587104547 0.0055084172533270545 0 0.022519182067110871 0.0051972193105935746 0 0.021241470587104547 0.0055084172533270545 0 0.021683217978607432 0.0057838581492411795 0 0.020753814128175094 0.0056386609959826412 0 0.021241470587104547 0.0055084172533270545 0 0.022519182067110871 0.0051972193105935746 0 0.021683217978607432 0.0057838581492411795 0 0.021086556287738964 0.0049187879013727811 0 0.022519182067110871 0.0051972193105935746 0 0.021775251424070087 0.0042525010541934107 0 0.022519182067110871 0.0051972193105935746 0 0.023738284276490201 0.005268754678588645 0 0.023481693862260938 0.0052029450348276985 0 0.022615002940790333 0.0051821901235928509 0 0.022744270499690539 0.0048223849186688319 0 0.024201929472885048 0.0052480476854615031 0 0.023738284276490201 0.005268754678588645 0 0.023481693862260938 0.0052029450348276985 0 0.021302170270030688 0.0036930003458027247 0 0.021131404928700477 0.0042597309996659054 0 0.021775251424070087 0.0042525010541934107 0 0.023978531495076932 0.0053290169239757516 0 0.024402804457262315 0.0051701461966559186 0 0.023481693862260938 0.0052029450348276985 0 0.024201929472885048 0.0052480476854615031 0 0.024402804457262315 0.0051701461966559186 0 0.023481693862260938 0.0052029450348276985 0 0.022519182067110871 0.0051972193105935746 0 0.023481693862260938 0.0052029450348276985 0 0.022809692004363558 0.0055895935340117093 0 0.023978531495076932 0.0053290169239757516 0 0.023481693862260938 0.0052029450348276985 0 0.022809692004363558 0.0055895935340117093 0 0.022519182067110871 0.0051972193105935746 0 0.022809692004363558 0.0055895935340117093 0 0.021683217978607432 0.0057838581492411795 0 0.022809692004363558 0.0055895935340117093 0 0.021683217978607432 0.0057838581492411795 0 0.021914730013662318 0.0063726129594874753 0 0.02402565647177372 0.0060999015739560576 0 0.022809692004363558 0.0055895935340117093 0 0.021914730013662318 0.0063726129594874753 0 0.021683217978607432 0.0057838581492411795 0 0.021914730013662318 0.0063726129594874753 0 0.021053245775042157 0.0060294371912511151 0 0.021053245775042157 0.0060294371912511151 0 0.020915035703774062 0.0062313015666207701 0 0.020640663217332971 0.0062747265015905352 0 0.021914730013662318 0.0063726129594874753 0 0.021053245775042157 0.0060294371912511151 0 0.020915035703774062 0.0062313015666207701 0 0.021914730013662318 0.0063726129594874753 0 0.020915035703774062 0.0062313015666207701 0 0.02089284227884837 0.0062757249547638425 0 0.020915035703774062 0.0062313015666207701 0 0.02089284227884837 0.0062757249547638425 0 0.020564876640456174 0.006278822666997563 0 0.020915035703774062 0.0062313015666207701 0 0.020516146119875144 0.0063344518233347151 0 0.020564876640456174 0.006278822666997563 0 0.020915035703774062 0.0062313015666207701 0 0.020640663217332971 0.0062747265015905352 0 0.020516146119875144 0.0063344518233347151 0 0.020640663217332971 0.0062747265015905352 0 0.020516146119875144 0.0063344518233347151 0 0.020466580743643051 0.0064240889183308529 0 0.020516146119875144 0.0063344518233347151 0 0.020564876640456174 0.006278822666997563 0 0.020288410648474253 0.0062544075949647745 0 0.018875191096288019 0.0060469428894266109 0 0.018317635548163274 0.0059390001958785407 0 0.018361370783369805 0.0057889930161958408 0 0.018875191096288019 0.0060469428894266109 0 0.018690229114032543 0.0058172566927476238 0 0.018361370783369805 0.0057889930161958408 0 0.018875191096288019 0.0060469428894266109 0 0.018690229114032543 0.0058172566927476238 0 0.019944622357070806 0.0060974373938281704 0 0.019600213362878163 0.0060802698994055276 0 0.019848634892562601 0.0060369128710472649 0 0.020640663217332971 0.0062747265015905352 0 0.020466580743643051 0.0064240889183308529 0 0.019944622357070806 0.0060974373938281704 0 0.018875191096288019 0.0060469428894266109 0 0.019944622357070806 0.0060974373938281704 0 0.019022451611859167 0.0058292458565065066 0 0.020610756921543166 0.005578428610920459 0 0.019912858700374444 0.0055409477279278292 0 0.019944622357070806 0.0060974373938281704 0 0.020753814128175094 0.0056386609959826412 0 0.019022451611859167 0.0058292458565065066 0 0.021053245775042157 0.0060294371912511151 0 0.019944622357070806 0.0060974373938281704 0 0.020753814128175094 0.0056386609959826412 0 0.021053245775042157 0.0060294371912511151 0 0.020640663217332971 0.0062747265015905352 0 0.019944622357070806 0.0060974373938281704 0 0.021683217978607432 0.0057838581492411795 0 0.021053245775042157 0.0060294371912511151 0 0.020753814128175094 0.0056386609959826412 0 0.020753814128175094 0.0056386609959826412 0 0.020851929269734549 0.0054247352334671354 0 0.020709151042183328 0.005167862273036017 0 0.021241470587104547 0.0055084172533270545 0 0.020753814128175094 0.0056386609959826412 0 0.020851929269734549 0.0054247352334671354 0 0.020851929269734549 0.0054247352334671354 0 0.020650494164100891 0.0052118052455941951 0 0.020709151042183328 0.005167862273036017 0 0.020758825657803272 0.0052508752005243544 0 0.020851929269734549 0.0054247352334671354 0 0.020650494164100891 0.0052118052455941951 0 0.020598143082439516 0.005179246584723649 0 0.020558127597718436 0.0051459680158196294 0 0.020650494164100891 0.0052118052455941951 0 0.020558127597718436 0.0051459680158196294 0 0.020650494164100891 0.0052118052455941951 0 0.020442339834357455 0.0049915750667276805 0 0.020540322052361688 0.0049889273228858784 0 0.020709151042183328 0.005167862273036017 0 0.020556448166596148 0.0050679049486040831 0 0.020650494164100891 0.0052118052455941951 0 0.020442339834357455 0.0049915750667276805 0 0.020540322052361688 0.0049889273228858784 0 0.020442339834357455 0.0049915750667276805 0 0.020540322052361688 0.0049889273228858784 0 0.020222296909602665 0.0046094343070184861 0 0.020650494164100891 0.0052118052455941951 0 0.020540322052361688 0.0049889273228858784 0 0.020709151042183328 0.005167862273036017 0 0.020542387447436087 0.0051314376865674166 0 0.020571335188737341 0.0051364193638782658 0 0.020581336000926979 0.0051122697220283243 0 0.019544561665239102 0.0033374581187318913 0 0.021008664194707514 0.0052592556960169247 0 0.020542387447436087 0.0051314376865674166 0 0.020530176655334777 0.0051049843054663943 0 0.020571335188737341 0.0051364193638782658 0 0.020598143082439516 0.005179246584723649 0 0.020571335188737341 0.0051364193638782658 0 0.020581336000926979 0.0051122697220283243 0 0.020598143082439516 0.005179246584723649 0 0.020558127597718436 0.0051459680158196294 0 0.020581336000926979 0.0051122697220283243 0 0.020558127597718436 0.0051459680158196294 0 0.020442339834357455 0.0049915750667276805 0 0.020581336000926979 0.0051122697220283243 0 0.020442339834357455 0.0049915750667276805 0 0.020581336000926979 0.0051122697220283243 0 0.020689965675198527 0.0049257187022348561 0 0.020442339834357455 0.0049915750667276805 0 0.020689965675198527 0.0049257187022348561 0 0.020222296909602665 0.0046094343070184861 0 0.019027012630656683 0.003018019440014228 0 0.019099398779875456 0.0043626432516922454 0 0.020222296909602665 0.0046094343070184861 0 0.019795049946639703 0.0039496130405555323 0 0.020182388663087324 0.0044369659290138296 0 0.020877055436860466 0.0050565551428466936 0 0.020581336000926979 0.0051122697220283243 0 0.020689965675198527 0.0049257187022348561 0 0.0176831939317539 0.0016987561646212089 0 0.019027012630656683 0.003018019440014228 0 0.017754627584244124 0.0037024363095624355 0 0.019544561665239102 0.0033374581187318913 0 0.019795049946639703 0.0039496130405555323 0 0.019027012630656683 0.003018019440014228 0 0.017754627584244124 0.0037024363095624355 0 0.019099398779875456 0.0043626432516922454 0 0.018500780759560954 0.0052041238715317892 0 0.018143481536896662 0.0062496446454900403 0 0.017148399970958697 0.0047783879670999915 0 0.017754627584244124 0.0037024363095624355 0 0.018500780759560954 0.0052041238715317892 0 0.017148399970958697 0.0047783879670999915 0 0.017754627584244124 0.0037024363095624355 0 0.018500780759560954 0.0052041238715317892 0 0.019099398779875456 0.0043626432516922454 0 0.019465709383425133 0.0050801841961507742 0 0.020222296909602665 0.0046094343070184861 0 0.020556448166596148 0.0050679049486040831 0 0.019465709383425133 0.0050801841961507742 0 0.018733809870976777 0.0060309684888521691 0 0.020556448166596148 0.0050679049486040831 0 0.018500780759560954 0.0052041238715317892 0 0.019465709383425133 0.0050801841961507742 0 0.019099398779875456 0.0043626432516922454 0 0.019465709383425133 0.0050801841961507742 0 0.019099398779875456 0.0043626432516922454 0 0.020222296909602665 0.0046094343070184861 0 0.018500780759560954 0.0052041238715317892 0 0.019465709383425133 0.0050801841961507742 0 0.018733809870976777 0.0060309684888521691 0 0.018733809870976777 0.0060309684888521691 0 0.018513063519708887 0.0060474659755404524 0 0.018612794391652688 0.006017970503051826 0 0.018733809870976777 0.0060309684888521691 0 0.018143481536896662 0.0062496446454900403 0 0.018811650722970679 0.0058156995448482114 0 0.018822670972588891 0.0059930198359535274 0 0.019514796522309242 0.0055643823178961197 0 0.018500780759560954 0.0052041238715317892 0 0.018733809870976777 0.0060309684888521691 0 0.018143481536896662 0.0062496446454900403 0 0.019022451611859167 0.0058292458565065066 0 0.018513063519708887 0.0060474659755404524 0 0.018588258445684215 0.0060406090843187566 0 0.018875191096288019 0.0060469428894266109 0 0.019022451611859167 0.0058292458565065066 0 0.018588258445684215 0.0060406090843187566 0 0.019912858700374444 0.0055409477279278292 0 0.019514796522309242 0.0055643823178961197 0 0.020540322052361688 0.0049889273228858784 0 0.020222296909602665 0.0046094343070184861 0 0.020556448166596148 0.0050679049486040831 0 0.018513063519708887 0.0060474659755404524 0 0.018390895880611581 0.0060284892410571332 0 0.018588258445684215 0.0060406090843187566 0 0.018513063519708887 0.0060474659755404524 0 0.018612794391652688 0.006017970503051826 0 0.018390895880611581 0.0060284892410571332 0 0.018390895880611581 0.0060284892410571332 0 0.018588258445684215 0.0060406090843187566 0 0.018317635548163274 0.0059390001958785407 0 0.018875191096288019 0.0060469428894266109 0 0.018588258445684215 0.0060406090843187566 0 0.018317635548163274 0.0059390001958785407 0 0.018390895880611581 0.0060284892410571332 0 0.018317635548163274 0.0059390001958785407 0 0.017563579708370223 0.0056444293575289356 0 0.018390895880611581 0.0060284892410571332 0 0.017563579708370223 0.0056444293575289356 0 0.018811650722970679 0.0058156995448482114 0 0.018612794391652688 0.006017970503051826 0 0.018390895880611581 0.0060284892410571332 0 0.018811650722970679 0.0058156995448482114 0 0.016926332171721074 0.0048325683150907944 0 0.016793832138646245 0.0045438046787333363 0 0.015276997572119469 0.0045237583369994215 0 0.016895228324860317 0.004881666975025031 0 0.014875818454610749 0.003194898363354006 0 0.017563579708370223 0.0056444293575289356 0 0.016895228324860317 0.004881666975025031 0 0.015992350935730034 0.0048401124964404874 0 0.017563579708370223 0.0056444293575289356 0 0.016895228324860317 0.004881666975025031 0 0.018811650722970679 0.0058156995448482114 0 0.013476227893061172 0.0024160717117533972 0 0.013763987086209354 0.0034079613908848307 0 0.014875818454610749 0.003194898363354006 0 0.013763987086209354 0.0034079613908848307 0 0.013281489283639472 0.0029927246923813094 0 0.01274625435387877 0.0032134404358374487 0 0.013476227893061172 0.0024160717117533972 0 0.013763987086209354 0.0034079613908848307 0 0.013281489283639472 0.0029927246923813094 0 0.015763305517186264 0.0043036372597904217 0 0.016793832138646245 0.0045438046787333363 0 0.018733809870976777 0.0060309684888521691 0 0.018612794391652688 0.006017970503051826 0 0.018811650722970679 0.0058156995448482114 0 0.015276997572119469 0.0045237583369994215 0 0.014875818454610749 0.003194898363354006 0 0.014224855042340702 0.0042032006469991494 0 0.013763987086209354 0.0034079613908848307 0 0.014875818454610749 0.003194898363354006 0 0.014224855042340702 0.0042032006469991494 0 0.013763987086209354 0.0034079613908848307 0 0.014224855042340702 0.0042032006469991494 0 0.013194855016312651 0.0041332034762907128 0 0.014224855042340702 0.0042032006469991494 0 0.013824660731794454 0.0047378331382754227 0 0.013194855016312651 0.0041332034762907128 0 0.013824660731794454 0.0047378331382754227 0 0.014680913176111556 0.0049018067523292743 0 0.013977440186031436 0.0053003667090518493 0 0.015276997572119469 0.0045237583369994215 0 0.014224855042340702 0.0042032006469991494 0 0.014680913176111556 0.0049018067523292743 0 0.014224855042340702 0.0042032006469991494 0 0.013824660731794454 0.0047378331382754227 0 0.014680913176111556 0.0049018067523292743 0 0.014680913176111556 0.0049018067523292743 0 0.013977440186031436 0.0053003667090518493 0 0.014829258347266323 0.0054244899727485842 0 0.013977440186031436 0.0053003667090518493 0 0.014829258347266323 0.0054244899727485842 0 0.014180495752398957 0.0056276942088211677 0 0.013824660731794454 0.0047378331382754227 0 0.013977440186031436 0.0053003667090518493 0 0.013022120992111119 0.0050876558130675213 0 0.013977440186031436 0.0053003667090518493 0 0.013022120992111119 0.0050876558130675213 0 0.013521836567642701 0.0058719033984448252 0 0.016001668788306157 0.00497342661478236 0 0.015492265880933999 0.005301617081150861 0 0.015992350935730034 0.0048401124964404874 0 0.016895228324860317 0.004881666975025031 0 0.016001668788306157 0.00497342661478236 0 0.015564968940387428 0.0050597074068137243 0 0.016895228324860317 0.004881666975025031 0 0.016001668788306157 0.00497342661478236 0 0.015992350935730034 0.0048401124964404874 0 0.015276997572119469 0.0045237583369994215 0 0.016895228324860317 0.004881666975025031 0 0.015564968940387428 0.0050597074068137243 0 0.015276997572119469 0.0045237583369994215 0 0.014680913176111556 0.0049018067523292743 0 0.015564968940387428 0.0050597074068137243 0 0.014680913176111556 0.0049018067523292743 0 0.015564968940387428 0.0050597074068137243 0 0.014829258347266323 0.0054244899727485842 0 0.015564968940387428 0.0050597074068137243 0 0.014829258347266323 0.0054244899727485842 0 0.015492265880933999 0.005301617081150861 0 0.016001668788306157 0.00497342661478236 0 0.015564968940387428 0.0050597074068137243 0 0.015492265880933999 0.005301617081150861 0 0.015492265880933999 0.005301617081150861 0 0.015992350935730034 0.0048401124964404874 0 0.015482999162535512 0.0055182084046331483 0 0.016882759608520696 0.0056828625058272719 0 0.016247155596472457 0.0061054791927869839 0 0.017760849220227796 0.0065507682210613509 0 0.017418169843190258 0.0066514754854654825 0 0.017008455028650921 0.0066925701395118553 0 0.017760849220227796 0.0065507682210613509 0 0.018170520409778151 0.0063660745233235904 0 0.017418169843190258 0.0066514754854654825 0 0.017760849220227796 0.0065507682210613509 0 0.018170520409778151 0.0063660745233235904 0 0.017983041005922608 0.0061166868483749273 0 0.017418169843190258 0.0066514754854654825 0 0.01663987578263584 0.0068250738023783539 0 0.017008455028650921 0.0066925701395118553 0 0.018075505617392712 0.0063064648004836658 0 0.017910360544414007 0.0066134324595231216 0 0.018170520409778151 0.0063660745233235904 0 0.017418169843190258 0.0066514754854654825 0 0.01663987578263584 0.0068250738023783539 0 0.01923964491938264 0.0065930298945999933 0 0.019556727406673999 0.0063142630499649311 0 0.01947441562984278 0.0064619892623428363 0 0.019594261767362755 0.0063628934267810485 0 0.019556727406673999 0.0063142630499649311 0 0.019730518996181206 0.0062714284004758468 0 0.019594261767362755 0.0063628934267810485 0 0.019556727406673999 0.0063142630499649311 0 0.01947441562984278 0.0064619892623428363 0 0.019556727406673999 0.0063142630499649311 0 0.019965418870570469 0.0061848807203049279 0 0.019730518996181206 0.0062714284004758468 0 0.018170520409778151 0.0063660745233235904 0 0.01923964491938264 0.0065930298945999933 0 0.019556727406673999 0.0063142630499649311 0 0.018170520409778151 0.0063660745233235904 0 0.019556727406673999 0.0063142630499649311 0 0.018819833911961469 0.0058416947904572488 0 0.019574835112704043 0.0063467253454426607 0 0.019506968749625472 0.0060965763210820024 0 0.020159840696892035 0.0062425898121361628 0 0.020288410648474253 0.0062544075949647745 0 0.019965418870570469 0.0061848807203049279 0 0.019556727406673999 0.0063142630499649311 0 0.020159840696892035 0.0062425898121361628 0 0.019965418870570469 0.0061848807203049279 0 0.020516146119875144 0.0063344518233347151 0 0.020159840696892035 0.0062425898121361628 0 0.020288410648474253 0.0062544075949647745 0 0.019600213362878163 0.0060802698994055276 0 0.019506968749625472 0.0060965763210820024 0 0.020516146119875144 0.0063344518233347151 0 0.020466580743643051 0.0064240889183308529 0 0.020159840696892035 0.0062425898121361628 0 0.018690229114032543 0.0058172566927476238 0 0.01834940498282368 0.0058608263757184836 0 0.018361370783369805 0.0057889930161958408 0 0.018690229114032543 0.0058172566927476238 0 0.018819833911961469 0.0058416947904572488 0 0.01834940498282368 0.0058608263757184836 0 0.017563579708370223 0.0056444293575289356 0 0.01834940498282368 0.0058608263757184836 0 0.018361370783369805 0.0057889930161958408 0 0.018317635548163274 0.0059390001958785407 0 0.017563579708370223 0.0056444293575289356 0 0.018361370783369805 0.0057889930161958408 0 0.017563579708370223 0.0056444293575289356 0 0.01834940498282368 0.0058608263757184836 0 0.017983041005922608 0.0061166868483749273 0 0.018170520409778151 0.0063660745233235904 0 0.01834940498282368 0.0058608263757184836 0 0.017983041005922608 0.0061166868483749273 0 0.017563579708370223 0.0056444293575289356 0 0.017760849220227796 0.0065507682210613509 0 0.017983041005922608 0.0061166868483749273 0 0.017440966487149299 0.0056054498506380931 0 0.016882759608520696 0.0056828625058272719 0 0.018170520409778151 0.0063660745233235904 0 0.018819833911961469 0.0058416947904572488 0 0.01834940498282368 0.0058608263757184836 0 0.013524339219981623 -0.0001193204551490268 0 0.014027084208599458 -0.00024383471802928063 0 0.013388212695017934 -7.9381920810131382e-05 0 0.014366591129733619 5.9231155444235641e-07 0 0.012905305612753232 -4.0182419472322155e-08 0 0.014366591129733619 5.9231155444235641e-07 0 0.014842629487880118 1.584548836996905e-07 0 0.012905305612753232 -4.0182419472322155e-08 0 0.013388212695017934 -7.9381920810131382e-05 0 0.014366591129733619 5.9231155444235641e-07 0 0.01433037066828622 7.2851904631872732e-05 0 0.013388212695017934 -7.9381920810131382e-05 0 0.013788868730925746 -0.00030800256158256434 0 0.013756662104925118 -0.00054359867793860419 0 0.013388212695017934 -7.9381920810131382e-05 0 0.014058869834805541 4.0292630899537067e-05 0 0.013788868730925746 -0.00030800256158256434 0 0.011426748160843193 0.002006975221256751 0 0.011334167936044704 0.0023141550370855981 0 0.011338034712968504 0.0023108096339735902 0 0.014058869834805541 4.0292630899537067e-05 0 0.013788868730925746 -0.00030800256158256434 0 0.013940317640645751 -0.00052423069715757406 0 0.011856545172648749 0.0012214489684673449 0 0.012774334595558519 0.00084570688033888935 0 0.011426748160843193 0.002006975221256751 0 0.011334167936044704 0.0023141550370855981 0 0.011194915915926163 0.0021891531787693497 0 0.013788868730925746 -0.00030800256158256434 0 0.013940317640645751 -0.00052423069715757406 0 0.013756662104925118 -0.00054359867793860419 0 0.013940317640645751 -0.00052423069715757406 0 0.013756662104925118 -0.00054359867793860419 0 0.013884412078717729 -0.0005778880505623883 0 0.014366591129733619 5.9231155444235641e-07 0 0.014842629487880118 1.584548836996905e-07 0 0.016594160968229233 6.1661988979253073e-06 0 0.014366591129733619 5.9231155444235641e-07 0 0.01433037066828622 7.2851904631872732e-05 0 0.014445880242383149 0.00018835601371065171 0 0.01433037066828622 7.2851904631872732e-05 0 0.014445880242383149 0.00018835601371065171 0 0.014422643565228698 0.00019669798298646395 0 0.014842629487880118 1.584548836996905e-07 0 0.016785554097084165 -2.0865220132459647e-07 0 0.016594160968229233 6.1661988979253073e-06 0 0.014645848704668459 -2.6145768947097373e-05 0 0.015171319907146773 -9.9178640892751634e-05 0 0.014027084208599458 -0.00024383471802928063 0 0.013731558378249041 -0.00024847322441782626 0 0.014521875815874802 0.00027798075404059016 0 0.014445880242383149 0.00018835601371065171 0 0.014422643565228698 0.00019669798298646395 0 0.01831485220676491 -8.6009898979637384e-06 0 0.016785554097084165 -2.0865220132459647e-07 0 0.016594160968229233 6.1661988979253073e-06 0 0.013936945006052874 -0.00051760690063146848 0 0.013940966359569236 -0.00055645590841489449 0 0.013909927662216029 -0.00059621109169509848 0 0.013995802022767101 -0.00050195164296609751 0 0.013924893833453935 -0.00059742544632054916 0 0.013940966359569236 -0.00055645590841489449 0 0.017689802157003661 0.00050043049985630463 0 0.012283687774100089 0.00026099634105664749 0 0.018621323755940819 0.00048469213497073457 0 0.013731558378249041 -0.00024847322441782626 0 0.013924893833453935 -0.00059742544632054916 0 0.013940966359569236 -0.00055645590841489449 0 0.013909927662216029 -0.00059621109169509848 0 0.013756662104925118 -0.00054359867793860419 0 0.013924893833453935 -0.00059742544632054916 0 0.013884412078717729 -0.0005778880505623883 0 0.013940317640645751 -0.00052423069715757406 0 0.013909927662216029 -0.00059621109169509848 0 0.013884412078717729 -0.0005778880505623883 0 0.012774334595558519 0.00084570688033888935 0 0.012283687774100089 0.00026099634105664749 0 0.013924893833453935 -0.00059742544632054916 0 0.013909927662216029 -0.00059621109169509848 0 0.013884412078717729 -0.0005778880505623883 0 0.011338034712968504 0.0023108096339735902 0 0.011529624516384887 0.0012488049490303524 0 0.012023815105567907 0.0019906272663350621 0 0.012023815105567907 0.0019906272663350621 0 0.012104360256835214 0.0013687832614321799 0 0.012687195678484713 0.0013726646845030959 0 0.011529624516384887 0.0012488049490303524 0 0.012023815105567907 0.0019906272663350621 0 0.012104360256835214 0.0013687832614321799 0 0.011724250130199579 7.3348883392573491e-05 0 0.011529624516384887 0.0012488049490303524 0 0.012197939058209461 0.00085686699236782926 0 0.011529624516384887 0.0012488049490303524 0 0.012104360256835214 0.0013687832614321799 0 0.012197939058209461 0.00085686699236782926 0 0.012104360256835214 0.0013687832614321799 0 0.012197939058209461 0.00085686699236782926 0 0.012687195678484713 0.0013726646845030959 0 0.018397476324110311 0.0017913051496977336 0 0.018757370201283163 0.002528866313926883 0 0.017814132181697681 0.003546474504112255 0 0.018803678766310734 0.00041135434172681211 0 0.013122911836593665 0.0025420006105335543 0 0.013005003369707977 0.00043511480861265091 0 0.012197939058209461 0.00085686699236782926 0 0.012687195678484713 0.0013726646845030959 0 0.011277808534488598 0.00086901669714063224 0 0.010833255157404411 0.0016811025439607977 0 0.010497774354764892 0.0018650564076263571 0 0.015355173894024705 0.0019767527313127413 0 0.013122911836593665 0.0025420006105335543 0 0.010833255157404411 0.0016811025439607977 0 0.01081745683269034 0.001931188073323562 0 0.010984702069938459 0.0017506109624429553 0 0.010497774354764892 0.0018650564076263571 0 0.010721207746560983 0.0020914958895985598 0 0.01066453072845105 0.0022098174312703217 0 0.010833255157404411 0.0016811025439607977 0 0.01081745683269034 0.001931188073323562 0 0.010497774354764892 0.0018650564076263571 0 0.011060362292651478 0.0025766641615351947 0 0.01093341571013412 0.0027466697181322041 0 0.010969008072832964 0.0024861409331506006 0 0.013122911836593665 0.0025420006105335543 0 0.010733473913951224 0.0023635876155015103 0 0.011499128828806217 0.0023268944335558968 0 0.013122911836593665 0.0025420006105335543 0 0.01081745683269034 0.001931188073323562 0 0.010497774354764892 0.0018650564076263571 0 0.010721207746560983 0.0020914958895985598 0 0.01081745683269034 0.001931188073323562 0 0.010721207746560983 0.0020914958895985598 0 0.01089194543144777 0.0020710217374524222 0 0.01066453072845105 0.0022098174312703217 0 0.010964641283439736 0.0021093526193476379 0 0.010724550952202795 0.0021967553110928324 0 0.010721207746560983 0.0020914958895985598 0 0.010713221712289469 0.0021936905745728063 0 0.01089194543144777 0.0020710217374524222 0 0.010713221712289469 0.0021936905745728063 0 0.01066453072845105 0.0022098174312703217 0 0.010724550952202795 0.0021967553110928324 0 0.010721207746560983 0.0020914958895985598 0 0.010713221712289469 0.0021936905745728063 0 0.01066453072845105 0.0022098174312703217 0 0.011060362292651478 0.0025766641615351947 0 0.010969008072832964 0.0024861409331506006 0 0.011062988136381241 0.0024526112372267191 0 0.011060362292651478 0.0025766641615351947 0 0.011062988136381241 0.0024526112372267191 0 0.011151053047260185 0.002379179131572953 0 0.010969008072832964 0.0024861409331506006 0 0.011065213609501787 0.0022687805762325792 0 0.010964641283439736 0.0021093526193476379 0 0.010733473913951224 0.0023635876155015103 0 0.010952901254643576 0.002084166818183659 0 0.010969008072832964 0.0024861409331506006 0 0.011062988136381241 0.0024526112372267191 0 0.011081898501056727 0.0023663128542861797 0 0.011334167936044704 0.0023141550370855981 0 0.011338034712968504 0.0023108096339735902 0 0.012023815105567907 0.0019906272663350621 0 0.011416851133797614 0.0022904174176066345 0 0.011499128828806217 0.0023268944335558968 0 0.011334167936044704 0.0023141550370855981 0 0.011060362292651478 0.0025766641615351947 0 0.011151053047260185 0.002379179131572953 0 0.011334167936044704 0.0023141550370855981 0 0.011151053047260185 0.002379179131572953 0 0.011178646410571156 0.0023001501346972602 0 0.011151053047260185 0.002379179131572953 0 0.011178646410571156 0.0023001501346972602 0 0.011081898501056727 0.0023663128542861797 0 0.011178646410571156 0.0023001501346972602 0 0.011081898501056727 0.0023663128542861797 0 0.011065213609501787 0.0022687805762325792 0 0.011334167936044704 0.0023141550370855981 0 0.011178646410571156 0.0023001501346972602 0 0.011194915915926163 0.0021891531787693497 0 0.010969008072832964 0.0024861409331506006 0 0.011081898501056727 0.0023663128542861797 0 0.011065213609501787 0.0022687805762325792 0 0.011062988136381241 0.0024526112372267191 0 0.011151053047260185 0.002379179131572953 0 0.011081898501056727 0.0023663128542861797 0 0.010964641283439736 0.0021093526193476379 0 0.010904660240464213 0.0020123361120379327 0 0.010724550952202795 0.0021967553110928324 0 0.011856545172648749 0.0012214489684673449 0 0.010090187896645359 0.0024381025442119036 0 0.010313007511159039 0.0028779287379718842 0 0.0095914340336848685 0.0026666273280026151 0 0.009810170669801551 0.002652144244976892 0 0.011426748160843193 0.002006975221256751 0 0.010964641283439736 0.0021093526193476379 0 0.011194915915926163 0.0021891531787693497 0 0.011426748160843193 0.002006975221256751 0 0.010964641283439736 0.0021093526193476379 0 0.010904660240464213 0.0020123361120379327 0 0.011065213609501787 0.0022687805762325792 0 0.010964641283439736 0.0021093526193476379 0 0.011194915915926163 0.0021891531787693497 0 0.011178646410571156 0.0023001501346972602 0 0.011065213609501787 0.0022687805762325792 0 0.011194915915926163 0.0021891531787693497 0 0.010090187896645359 0.0024381025442119036 0 0.010537594512230077 0.0022456352522911534 0 0.010904660240464213 0.0020123361120379327 0 0.010724550952202795 0.0021967553110928324 0 0.010456548578740026 0.0022531154332680625 0 0.0095914340336848685 0.0026666273280026151 0 0.010456548578740026 0.0022531154332680625 0 0.0098154053060038587 0.0026447455273110893 0 0.010456548578740026 0.0022531154332680625 0 0.01031234483527505 0.0027021261655207733 0 0.0098154053060038587 0.0026447455273110893 0 0.010713221712289469 0.0021936905745728063 0 0.010724550952202795 0.0021967553110928324 0 0.010456548578740026 0.0022531154332680625 0 0.010456548578740026 0.0022531154332680625 0 0.011321560659830025 0.0022225918076731808 0 0.010952404340260813 0.0021238208900155016 0 0.010456548578740026 0.0022531154332680625 0 0.011321560659830025 0.0022225918076731808 0 0.011089314586531967 0.0026534151146994926 0 0.010456548578740026 0.0022531154332680625 0 0.011089314586531967 0.0026534151146994926 0 0.01031234483527505 0.0027021261655207733 0 0.011321560659830025 0.0022225918076731808 0 0.011922666304060107 0.0025884338377269557 0 0.011089314586531967 0.0026534151146994926 0 0.011321560659830025 0.0022225918076731808 0 0.011364055609286982 0.0020560303533061178 0 0.010952404340260813 0.0021238208900155016 0 0.011321560659830025 0.0022225918076731808 0 0.011364055609286982 0.0020560303533061178 0 0.012059972887413948 0.0018868792896312367 0 0.011499917645334784 0.0021420758474418179 0 0.013443513585258752 0.0033233995011455707 0 0.011364055609286982 0.0020560303533061178 0 0.011370910235347404 0.0020559350235489862 0 0.012059972887413948 0.0018868792896312367 0 0.011364055609286982 0.0020560303533061178 0 0.010952404340260813 0.0021238208900155016 0 0.011137371937921879 0.0020053917485624681 0 0.010713221712289469 0.0021936905745728063 0 0.010456548578740026 0.0022531154332680625 0 0.010952404340260813 0.0021238208900155016 0 0.010952404340260813 0.0021238208900155016 0 0.01089194543144777 0.0020710217374524222 0 0.011137371937921879 0.0020053917485624681 0 0.010713221712289469 0.0021936905745728063 0 0.010952404340260813 0.0021238208900155016 0 0.01089194543144777 0.0020710217374524222 0 0.01089194543144777 0.0020710217374524222 0 0.010967668133957614 0.0019510958145138322 0 0.011137371937921879 0.0020053917485624681 0 0.01081745683269034 0.001931188073323562 0 0.01089194543144777 0.0020710217374524222 0 0.010967668133957614 0.0019510958145138322 0 0.010833255157404411 0.0016811025439607977 0 0.010984702069938459 0.0017506109624429553 0 0.011479143721627659 0.001370131020835187 0 0.011209030560781177 0.0017930651589851459 0 0.010984702069938459 0.0017506109624429553 0 0.011479143721627659 0.001370131020835187 0 0.010967668133957614 0.0019510958145138322 0 0.011137371937921879 0.0020053917485624681 0 0.011074827105267322 0.0018543409176532298 0 0.011137371937921879 0.0020053917485624681 0 0.011209030560781177 0.0017930651589851459 0 0.011074827105267322 0.0018543409176532298 0 0.011137371937921879 0.0020053917485624681 0 0.011209030560781177 0.0017930651589851459 0 0.011370910235347404 0.0020559350235489862 0 0.011209030560781177 0.0017930651589851459 0 0.011074827105267322 0.0018543409176532298 0 0.010984702069938459 0.0017506109624429553 0 0.01081745683269034 0.001931188073323562 0 0.010967668133957614 0.0019510958145138322 0 0.010984702069938459 0.0017506109624429553 0 0.010967668133957614 0.0019510958145138322 0 0.011074827105267322 0.0018543409176532298 0 0.010984702069938459 0.0017506109624429553 0 0.011277808534488598 0.00086901669714063224 0 0.010833255157404411 0.0016811025439607977 0 0.012682213158905551 0.00095282241091745553 0 0.010957887432673719 0.0016739381130264203 0 0.012685999522262358 0.0016564230964786252 0 0.010833255157404411 0.0016811025439607977 0 0.012682213158905551 0.00095282241091745553 0 0.013741279917841531 0.0019085527905376228 0 0.012899648446149103 -0.00055037898624770635 0 0.011277808534488598 0.00086901669714063224 0 0.012916307833779455 0.00032373780811419497 0 0.012682213158905551 0.00095282241091745553 0 0.012916307833779455 0.00032373780811419497 0 0.013950099322816377 0.00064544008539430301 0 0.016935488374502386 0.0018134289169877995 0 0.017809352221398397 0.0012827658578411791 0 0.016068700206705051 0.0027923570584396816 0 0.011277808534488598 0.00086901669714063224 0 0.012682213158905551 0.00095282241091745553 0 0.012916307833779455 0.00032373780811419497 0 0.019366388386319634 0.001832149177053191 0 0.018397476324110311 0.0017913051496977336 0 0.018757370201283163 0.002528866313926883 0 0.015136047205374138 0.00054807174578339296 0 0.015355173894024705 0.0019767527313127413 0 0.017655577461630746 0.0015512247662052175 0 0.015355173894024705 0.0019767527313127413 0 0.013741279917841531 0.0019085527905376228 0 0.015160732302384889 0.0011838149318037249 0 0.016901825143096856 0.0019267783754868867 0 0.012685999522262358 0.0016564230964786252 0 0.015622656973545037 0.0015096624265105607 0 0.015158915851874318 0.00052238135325886415 0 0.013950099322816377 0.00064544008539430301 0 0.015160732302384889 0.0011838149318037249 0 0.014491326710287515 -0.00050489457742447909 0 0.015158915851874318 0.00052238135325886415 0 0.013950099322816377 0.00064544008539430301 0 0.013583064744272082 -5.9409430872495032e-05 0 0.012916307833779455 0.00032373780811419497 0 0.013950099322816377 0.00064544008539430301 0 0.012682213158905551 0.00095282241091745553 0 0.013950099322816377 0.00064544008539430301 0 0.013741279917841531 0.0019085527905376228 0 0.013950099322816377 0.00064544008539430301 0 0.013741279917841531 0.0019085527905376228 0 0.015160732302384889 0.0011838149318037249 0 0.011479143721627659 0.001370131020835187 0 0.013070626896632992 0.0020014930226798181 0 0.014674896114135798 0.0013382056210097173 0 0.013070626896632992 0.0020014930226798181 0 0.011370910235347404 0.0020559350235489862 0 0.014794262244077431 0.0048155314882203691 0 0.011209030560781177 0.0017930651589851459 0 0.011479143721627659 0.001370131020835187 0 0.011370910235347404 0.0020559350235489862 0 0.011479143721627659 0.001370131020835187 0 0.013070626896632992 0.0020014930226798181 0 0.011370910235347404 0.0020559350235489862 0 0.011364055609286982 0.0020560303533061178 0 0.011137371937921879 0.0020053917485624681 0 0.011370910235347404 0.0020559350235489862 0 0.013070626896632992 0.0020014930226798181 0 0.014979820045832221 0.002946258522047883 0 0.014794262244077431 0.0048155314882203691 0 0.013070626896632992 0.0020014930226798181 0 0.014979820045832221 0.002946258522047883 0 0.014674896114135798 0.0013382056210097173 0 0.015160732302384889 0.0011838149318037249 0 0.016901825143096856 0.0019267783754868867 0 0.016070287327972527 0.00093381697831911926 0 0.016901825143096856 0.0019267783754868867 0 0.017204158328851509 0.001115822628946573 0 0.016070287327972527 0.00093381697831911926 0 0.016224411481654995 -0.00086216227420151401 0 0.017204158328851509 0.001115822628946573 0 0.016070287327972527 0.00093381697831911926 0 0.016224411481654995 -0.00086216227420151401 0 0.017204158328851509 0.001115822628946573 0 0.017983724757708475 0.0003939513992960607 0 0.016224411481654995 -0.00086216227420151401 0 0.015158915851874318 0.00052238135325886415 0 0.016070287327972527 0.00093381697831911926 0 0.015158915851874318 0.00052238135325886415 0 0.015160732302384889 0.0011838149318037249 0 0.016070287327972527 0.00093381697831911926 0 0.020045100785678515 0.0018871846582099298 0 0.016901825143096856 0.0019267783754868867 0 0.017204158328851509 0.001115822628946573 0 0.019544561665239102 0.0033374581187318913 0 0.015622656973545037 0.0015096624265105607 0 0.020045100785678515 0.0018871846582099298 0 0.017204158328851509 0.001115822628946573 0 0.017980006917400333 0.00039532934582997564 0 0.020542387447436087 0.0051314376865674166 0 0.020530176655334777 0.0051049843054663943 0 0.020488671009941967 0.0050967463436870546 0 0.018699864422286425 0.0021335357950740597 0 0.020088701740751953 0.0027944570079563961 0 0.019544561665239102 0.0033374581187318913 0 0.020088701740751953 0.0027944570079563961 0 0.0176831939317539 0.0016987561646212089 0 0.017754627584244124 0.0037024363095624355 0 0.016187670042416481 0.0027362332868199743 0 0.0176831939317539 0.0016987561646212089 0 0.014674896114135798 0.0013382056210097173 0 0.016187670042416481 0.0027362332868199743 0 0.014979820045832221 0.002946258522047883 0 0.014674896114135798 0.0013382056210097173 0 0.016187670042416481 0.0027362332868199743 0 0.014979820045832221 0.002946258522047883 0 0.016187670042416481 0.0027362332868199743 0 0.01623856341879196 0.0038596715278012284 0 0.017754627584244124 0.0037024363095624355 0 0.016187670042416481 0.0027362332868199743 0 0.01623856341879196 0.0038596715278012284 0 0.018143481536896662 0.0062496446454900403 0 0.017148399970958697 0.0047783879670999915 0 0.014794262244077431 0.0048155314882203691 0 0.017148399970958697 0.0047783879670999915 0 0.01623856341879196 0.0038596715278012284 0 0.014794262244077431 0.0048155314882203691 0 0.017754627584244124 0.0037024363095624355 0 0.017148399970958697 0.0047783879670999915 0 0.01623856341879196 0.0038596715278012284 0 0.014979820045832221 0.002946258522047883 0 0.01623856341879196 0.0038596715278012284 0 0.014794262244077431 0.0048155314882203691 0 0.012059972887413948 0.0018868792896312367 0 0.011922666304060107 0.0025884338377269557 0 0.012682331673599022 0.002601823443944364 0 0.011321560659830025 0.0022225918076731808 0 0.012059972887413948 0.0018868792896312367 0 0.011922666304060107 0.0025884338377269557 0 0.013476227893061172 0.0024160717117533972 0 0.012059972887413948 0.0018868792896312367 0 0.012682331673599022 0.002601823443944364 0 0.015763305517186264 0.0043036372597904217 0 0.013443513585258752 0.0033233995011455707 0 0.013476227893061172 0.0024160717117533972 0 0.013281489283639472 0.0029927246923813094 0 0.012682331673599022 0.002601823443944364 0 0.011922666304060107 0.0025884338377269557 0 0.012682331673599022 0.002601823443944364 0 0.01274625435387877 0.0032134404358374487 0 0.013281489283639472 0.0029927246923813094 0 0.012682331673599022 0.002601823443944364 0 0.01274625435387877 0.0032134404358374487 0 0.011922666304060107 0.0025884338377269557 0 0.01274625435387877 0.0032134404358374487 0 0.011717684019016862 0.0032787806746087315 0 0.01274625435387877 0.0032134404358374487 0 0.012342024510370756 0.0037212765344955333 0 0.011717684019016862 0.0032787806746087315 0 0.011916971275237198 0.003862691476112685 0 0.012301323196424321 0.0043667856574032462 0 0.011289645348228379 0.00408647279171783 0 0.012342024510370756 0.0037212765344955333 0 0.011916971275237198 0.003862691476112685 0 0.011717684019016862 0.0032787806746087315 0 0.012342024510370756 0.0037212765344955333 0 0.011916971275237198 0.003862691476112685 0 0.012301323196424321 0.0043667856574032462 0 0.013763987086209354 0.0034079613908848307 0 0.01274625435387877 0.0032134404358374487 0 0.013194855016312651 0.0041332034762907128 0 0.01274625435387877 0.0032134404358374487 0 0.012342024510370756 0.0037212765344955333 0 0.013194855016312651 0.0041332034762907128 0 0.012342024510370756 0.0037212765344955333 0 0.013194855016312651 0.0041332034762907128 0 0.012301323196424321 0.0043667856574032462 0 0.013194855016312651 0.0041332034762907128 0 0.013022120992111119 0.0050876558130675213 0 0.012301323196424321 0.0043667856574032462 0 0.013824660731794454 0.0047378331382754227 0 0.013194855016312651 0.0041332034762907128 0 0.013022120992111119 0.0050876558130675213 0 0.013022120992111119 0.0050876558130675213 0 0.012369225288705776 0.0049968983206214743 0 0.012350800283734004 0.0055802285240311254 0 0.012369225288705776 0.0049968983206214743 0 0.011745905301037132 0.0050060229123946847 0 0.012350800283734004 0.0055802285240311254 0 0.013022120992111119 0.0050876558130675213 0 0.012369225288705776 0.0049968983206214743 0 0.012301323196424321 0.0043667856574032462 0 0.012369225288705776 0.0049968983206214743 0 0.012301323196424321 0.0043667856574032462 0 0.011745905301037132 0.0050060229123946847 0 0.011745905301037132 0.0050060229123946847 0 0.010813877567319014 0.0045546613314118144 0 0.011289645348228379 0.00408647279171783 0 0.012301323196424321 0.0043667856574032462 0 0.011745905301037132 0.0050060229123946847 0 0.011289645348228379 0.00408647279171783 0 0.011745905301037132 0.0050060229123946847 0 0.010568394367984599 0.0052014942022951156 0 0.010930681387828345 0.0063270519442890534 0 0.012706081579050578 0.0053808346886791269 0 0.0070211423164821644 0.0043944284181763093 0 0.011745905301037132 0.0050060229123946847 0 0.010568394367984599 0.0052014942022951156 0 0.010813877567319014 0.0045546613314118144 0 0.0087306573449256065 0.0025969569336774115 0 0.0088578161854193805 0.0026331333544007988 0 0.0067286582447406281 0.00029948305883979612 0 0.0075598434327899802 0.0011012696672483098 0 0.0074421128356821362 0.0006435898612964934 0 0.010568394367984599 0.0052014942022951156 0 0.010813877567319014 0.0045546613314118144 0 0.010108526396046851 0.0042323723409431833 0 0.010813877567319014 0.0045546613314118144 0 0.01070846550136813 0.0040491959240121726 0 0.011289645348228379 0.00408647279171783 0 0.010813877567319014 0.0045546613314118144 0 0.010108526396046851 0.0042323723409431833 0 0.01070846550136813 0.0040491959240121726 0 0.010108526396046851 0.0042323723409431833 0 0.010639048593306406 0.0033961358245393671 0 0.01070846550136813 0.0040491959240121726 0 0.010108526396046851 0.0042323723409431833 0 0.010639048593306406 0.0033961358245393671 0 0.0093760905018717144 0.002814007897755 0 0.010639048593306406 0.0033961358245393671 0 0.01070846550136813 0.0040491959240121726 0 0.011289645348228379 0.00408647279171783 0 0.010639048593306406 0.0033961358245393671 0 0.011289645348228379 0.00408647279171783 0 0.011717684019016862 0.0032787806746087315 0 0.011916971275237198 0.003862691476112685 0 0.011289645348228379 0.00408647279171783 0 0.011717684019016862 0.0032787806746087315 0 0.011922666304060107 0.0025884338377269557 0 0.011089314586531967 0.0026534151146994926 0 0.011717684019016862 0.0032787806746087315 0 0.010639048593306406 0.0033961358245393671 0 0.011089314586531967 0.0026534151146994926 0 0.011717684019016862 0.0032787806746087315 0 0.010639048593306406 0.0033961358245393671 0 0.011089314586531967 0.0026534151146994926 0 0.01031234483527505 0.0027021261655207733 0 0.010639048593306406 0.0033961358245393671 0 0.01031234483527505 0.0027021261655207733 0 0.0093760905018717144 0.002814007897755 0 0.01031234483527505 0.0027021261655207733 0 0.0093760905018717144 0.002814007897755 0 0.0098154053060038587 0.0026447455273110893 0 0.0095914340336848685 0.0026666273280026151 0 0.0098154053060038587 0.0026447455273110893 0 0.0096337779745130549 0.0026791164160514754 0 0.0093760905018717144 0.002814007897755 0 0.0098154053060038587 0.0026447455273110893 0 0.0096337779745130549 0.0026791164160514754 0 0.0093760905018717144 0.002814007897755 0 0.0096337779745130549 0.0026791164160514754 0 0.0098265117341023583 0.0023213007871702952 0 0.010313007511159039 0.0028779287379718842 0 0.009810170669801551 0.002652144244976892 0 0.0098265117341023583 0.0023213007871702952 0 0.0095914340336848685 0.0026666273280026151 0 0.0096337779745130549 0.0026791164160514754 0 0.009810170669801551 0.002652144244976892 0 0.0096337779745130549 0.0026791164160514754 0 0.009810170669801551 0.002652144244976892 0 0.0098265117341023583 0.0023213007871702952 0 0.0098265117341023583 0.0023213007871702952 0 0.0090843218810689307 0.0012509695998716337 0 0.010122929600661579 0.00094992009712257738 0 0.0088578161854193805 0.0026331333544007988 0 0.0092186057654912272 0.0027280167756454287 0 0.0075598434327899802 0.0011012696672483098 0 0.0093760905018717144 0.002814007897755 0 0.0090843218810689307 0.0012509695998716337 0 0.0093760905018717144 0.002814007897755 0 0.0098265117341023583 0.0023213007871702952 0 0.0090843218810689307 0.0012509695998716337 0 0.0075598434327899802 0.0011012696672483098 0 0.0090843218810689307 0.0012509695998716337 0 0.0074421128356821362 0.0006435898612964934 0 0.0090843218810689307 0.0012509695998716337 0 0.0074421128356821362 0.0006435898612964934 0 0.0096233875053324085 0.0001652417213590955 0 0.0074592077704908116 0.0006037301302308784 0 0.0081596905107632952 0.00037070722132564966 0 0.0067286582447406281 0.00029948305883979612 0 0.0074421128356821362 0.0006435898612964934 0 0.0069144129540001081 0.00040721105027805639 0 0.0074421128356821362 0.0006435898612964934 0 0.0069144129540001081 0.00040721105027805639 0 0.0067382133191158482 0.00044406872441944668 0 0.0069144129540001081 0.00040721105027805639 0 0.006664276723631804 0.00029197570577810879 0 0.0066016574859667715 0.00020678791611241924 0 0.0067286582447406281 0.00029948305883979612 0 0.0069144129540001081 0.00040721105027805639 0 0.0066016574859667715 0.00020678791611241924 0 0.006664276723631804 0.00029197570577810879 0 0.0067382133191158482 0.00044406872441944668 0 0.0067639897476315589 0.0002432318440562931 0 0.0069144129540001081 0.00040721105027805639 0 0.006664276723631804 0.00029197570577810879 0 0.0067382133191158482 0.00044406872441944668 0 0.0090843218810689307 0.0012509695998716337 0 0.0096233875053324085 0.0001652417213590955 0 0.010122929600661579 0.00094992009712257738 0 0.010122929600661579 0.00094992009712257738 0 0.010653659988377149 0.00012920547429189481 0 0.01065592615485909 0.0018253329985297646 0 0.0096233875053324085 0.0001652417213590955 0 0.010122929600661579 0.00094992009712257738 0 0.010653659988377149 0.00012920547429189481 0 0.010772508120857147 0.00010630057294049512 0 0.01085815525366517 0.00089089689411953131 0 0.0081596905107632952 0.00037070722132564966 0 0.008811351957960227 0.00033151667848117637 0 0.0096233875053324085 0.0001652417213590955 0 0.010653659988377149 0.00012920547429189481 0 0.010564205070425443 0.00015621509977869751 0 0.0067382133191158482 0.00044406872441944668 0 0.0070706262071597963 0.00067769596218107111 0 0.0067639897476315589 0.0002432318440562931 0 0.0070706262071597963 0.00067769596218107111 0 0.0067639897476315589 0.0002432318440562931 0 0.0072983792229080365 0.00020000910467037078 0 0.0070706262071597963 0.00067769596218107111 0 0.0089588149964176435 1.807095880369578e-06 0 0.0072983792229080365 0.00020000910467037078 0 0.008811351957960227 0.00033151667848117637 0 0.0089623044209543434 1.6483213939326705e-07 0 0.010653659988377149 0.00012920547429189481 0 0.010564205070425443 0.00015621509977869751 0 0.0089649319819220565 1.4052304298393316e-06 0 0.010653659988377149 0.00012920547429189481 0 0.01093288713126577 -1.1410612206782579e-06 0 0.011353754883562385 -0.00021912683545612631 0 0.010653659988377149 0.00012920547429189481 0 0.0089649319819220565 1.4052304298393316e-06 0 0.01093288713126577 -1.1410612206782579e-06 0 0.01093288713126577 -1.1410612206782579e-06 0 0.011353754883562385 -0.00021912683545612631 0 0.012900142582825746 1.2471283985665721e-06 0 0.0098265117341023583 0.0023213007871702952 0 0.010122929600661579 0.00094992009712257738 0 0.01065592615485909 0.0018253329985297646 0 0.010313007511159039 0.0028779287379718842 0 0.0098265117341023583 0.0023213007871702952 0 0.01065592615485909 0.0018253329985297646 0 0.011856545172648749 0.0012214489684673449 0 0.01085815525366517 0.00089089689411953131 0 0.011486136924760785 0.00055236311323519861 0 0.011353754883562385 -0.00021912683545612631 0 0.012900142582825746 1.2471283985665721e-06 0 0.011856545172648749 0.0012214489684673449 0 0.012904589726028971 -4.6862834566858504e-07 0 0.013388212695017934 -7.9381920810131382e-05 0 0.014058869834805541 4.0292630899537067e-05 0 0.012905305612753232 -4.0182419472322155e-08 0 0.0052293167340188036 1.4599380043264702e-08 0 0.0056423748804937199 -0.00017215834670282259 0 0.0043946285677457586 2.1132665769909854e-06 0 0.0056423748804937199 -0.00017215834670282259 0 0.0055081196434978146 -4.5563520754910962e-06 0 0.0043946285677457586 2.1132665769909854e-06 0 0.0056423748804937199 -0.00017215834670282259 0 0.0063600396047980819 -8.78731021628326e-05 0 0.0060665786441433779 -0.00010043462549040068 0 0.0052293167340188036 1.4599380043264702e-08 0 0.0056423748804937199 -0.00017215834670282259 0 0.0070957923440478606 -9.6454881276952231e-07 0 0.0070957923440478606 -9.6454881276952231e-07 0 0.0069664044359209832 -4.3895931287599825e-05 0 0.0063600396047980819 -8.78731021628326e-05 0 0.0089588149964176435 1.807095880369578e-06 0 0.0072983792229080365 0.00020000910467037078 0 0.0069664044359209832 -4.3895931287599825e-05 0 0.0089588149964176435 1.807095880369578e-06 0 0.0070957923440478606 -9.6454881276952231e-07 0 0.0069664044359209832 -4.3895931287599825e-05 0 0.0067639897476315589 0.0002432318440562931 0 0.0069664044359209832 -4.3895931287599825e-05 0 0.0064393467300465114 5.0654932935493066e-05 0 0.0067639897476315589 0.0002432318440562931 0 0.0072983792229080365 0.00020000910467037078 0 0.0069664044359209832 -4.3895931287599825e-05 0 0.0069664044359209832 -4.3895931287599825e-05 0 0.0063600396047980819 -8.78731021628326e-05 0 0.0064393467300465114 5.0654932935493066e-05 0 0.0056423748804937199 -0.00017215834670282259 0 0.0070957923440478606 -9.6454881276952231e-07 0 0.0063600396047980819 -8.78731021628326e-05 0 0.0063600396047980819 -8.78731021628326e-05 0 0.0064393467300465114 5.0654932935493066e-05 0 0.0060665786441433779 -0.00010043462549040068 0 0.0064393467300465114 5.0654932935493066e-05 0 0.0063745111283378111 3.9235214813396014e-05 0 0.0060665786441433779 -0.00010043462549040068 0 0.006664276723631804 0.00029197570577810879 0 0.0064393467300465114 5.0654932935493066e-05 0 0.0066016574859667715 0.00020678791611241924 0 0.006664276723631804 0.00029197570577810879 0 0.0067639897476315589 0.0002432318440562931 0 0.0064393467300465114 5.0654932935493066e-05 0 0.0064393467300465114 5.0654932935493066e-05 0 0.0066016574859667715 0.00020678791611241924 0 0.0063745111283378111 3.9235214813396014e-05 0 0.0063745111283378111 3.9235214813396014e-05 0 0.0062154025132098072 -2.5987568510579982e-05 0 0.0060665786441433779 -0.00010043462549040068 0 0.0062154025132098072 -2.5987568510579982e-05 0 0.0060665786441433779 -0.00010043462549040068 0 0.0055081196434978146 -4.5563520754910962e-06 0 0.0056423748804937199 -0.00017215834670282259 0 0.0060665786441433779 -0.00010043462549040068 0 0.0055081196434978146 -4.5563520754910962e-06 0 0.0015312726591152979 0.0043348488925022896 0 0.002607440450230879 0.0026746137568621812 0 0.0013540700714963208 0.0025988017023368297 0 0.0033713602075669206 0.0019825810791195119 0 0.0041312247239391033 0.0012879316121082241 0 0.0015312726591152979 0.0043348488925022896 0 0.0013540700714963208 0.0025988017023368297 0 0.00033824234176244695 0.0029459773916531368 0 -8.0550340093642152e-05 0.00307129476450386 0 0.0058315326578305474 0.0056810285097079818 0 5.8303374511556784e-05 0.0031087620400654997 0 -0.00043927572638809034 0.0046725915397361944 0 -0.001224323398288507 0.0024942728570662826 0 0.0058315326578305474 0.0056810285097079818 0 0.0057720401881640026 0.0045096369234852475 0 0.0015312726591152979 0.0043348488925022896 0 0.00033824234176244695 0.0029459773916531368 0 2.3482326778720355e-05 0.004130166803033508 0 0.0063745111283378111 3.9235214813396014e-05 0 0.0062154025132098072 -2.5987568510579982e-05 0 0.0064517079784322286 0.00016799027129506424 0 0.0033713602075669206 0.0019825810791195119 0 0.0070211423164821644 0.0043944284181763093 0 0.0015312726591152979 0.0043348488925022896 0 2.3482326778720355e-05 0.004130166803033508 0 0.00071474909531306168 0.005857635157032806 0 0.0087306573449256065 0.0025969569336774115 0 0.0070211423164821644 0.0043944284181763093 0 0.0066016574859667715 0.00020678791611241924 0 0.0063745111283378111 3.9235214813396014e-05 0 0.0064517079784322286 0.00016799027129506424 0 0.0067286582447406281 0.00029948305883979612 0 0.0066016574859667715 0.00020678791611241924 0 0.0064517079784322286 0.00016799027129506424 0 0.011217928957823163 0.0059278884217901099 0 0.011960712466470317 0.0063918186356597614 0 0.012350800283734004 0.0055802285240311254 0 0.011745905301037132 0.0050060229123946847 0 0.011217928957823163 0.0059278884217901099 0 0.012350800283734004 0.0055802285240311254 0 0.011603409527585351 0.0071889903945328276 0 0.011217928957823163 0.0059278884217901099 0 0.011960712466470317 0.0063918186356597614 0 0.0058315326578305474 0.0056810285097079818 0 0.012506768442972474 0.0060554050274312533 0 0.0058315326578305474 0.0056810285097079818 0 0.0070211423164821644 0.0043944284181763093 0 0.01246108083809218 0.0060350294915650794 0 0.012870348801393552 0.0059577471362249126 0 0.012731300988794379 0.0062705103262589252 0 0.012455790620944743 0.0063548538395756084 0 0.01246108083809218 0.0060350294915650794 0 0.012731300988794379 0.0062705103262589252 0 0.013022120992111119 0.0050876558130675213 0 0.012350800283734004 0.0055802285240311254 0 0.012870348801393552 0.0059577471362249126 0 0.012506768442972474 0.0060554050274312533 0 0.012317244634653394 0.0056945654631254915 0 0.01246108083809218 0.0060350294915650794 0 0.012350800283734004 0.0055802285240311254 0 0.012870348801393552 0.0059577471362249126 0 0.013022120992111119 0.0050876558130675213 0 0.012870348801393552 0.0059577471362249126 0 0.013521836567642701 0.0058719033984448252 0 0.013302718644079064 0.0062807700758293226 0 0.013496176659378087 0.0058742148330962118 0 0.012870348801393552 0.0059577471362249126 0 0.013093103900855071 0.0064612476675560259 0 0.012731300988794379 0.0062705103262589252 0 0.012870348801393552 0.0059577471362249126 0 0.013093103900855071 0.0064612476675560259 0 0.013521836567642701 0.0058719033984448252 0 0.013093103900855071 0.0064612476675560259 0 0.012731300988794379 0.0062705103262589252 0 0.012782553300247673 0.0064717693025547205 0 0.012455790620944743 0.0063548538395756084 0 0.012731300988794379 0.0062705103262589252 0 0.012782553300247673 0.0064717693025547205 0 0.012782553300247673 0.0064717693025547205 0 0.01296659073297478 0.0066594684630988587 0 0.012725256999047162 0.0066190609610515885 0 0.012455790620944743 0.0063548538395756084 0 0.012782553300247673 0.0064717693025547205 0 0.012725256999047162 0.0066190609610515885 0 0.013093103900855071 0.0064612476675560259 0 0.012782553300247673 0.0064717693025547205 0 0.01296659073297478 0.0066594684630988587 0 0.013302718644079064 0.0062807700758293226 0 0.013135536647643817 0.006545737384382134 0 0.0057720401881640026 0.0045096369234852475 0 0.0056412655798456753 0.0035222165306733845 0 0.01296659073297478 0.0066594684630988587 0 0.012725256999047162 0.0066190609610515885 0 0.012978247927195694 0.0067065689427732514 0 -0.0017657076239139423 0.00029980132976790036 0 -0.0010449806317881529 0.00010217521309563659 0 -0.00069001789388851271 0.0011172746018523777 0 -0.001224323398288507 0.0024942728570662826 0 -0.0017657076239139423 0.00029980132976790036 0 -0.00069001789388851271 0.0011172746018523777 0 0.013135536647643817 0.006545737384382134 0 0.013106561212023127 0.0067077696830004484 0 0.01328432269544828 0.0064043543850270087 0 0.013113475515542551 0.0067048151960657585 0 0.013286055597198034 0.0065756537751280658 0 0.01296659073297478 0.0066594684630988587 0 0.012978247927195694 0.0067065689427732514 0 0.013113475515542551 0.0067048151960657585 0 0.013113475515542551 0.0067048151960657585 0 0.013286055597198034 0.0065756537751280658 0 0.013119838860082743 0.0067548688340094637 0 0.013113475515542551 0.0067048151960657585 0 0.013395419840371108 0.0066054827218754372 0 0.013119838860082743 0.0067548688340094637 0 0.012978247927195694 0.0067065689427732514 0 0.013113475515542551 0.0067048151960657585 0 0.013395419840371108 0.0066054827218754372 0 0.013395419840371108 0.0066054827218754372 0 0.013119838860082743 0.0067548688340094637 0 0.013064626637097485 0.0063980530196303294 0 -0.00141186020737507 -0.00067832753031148347 0 -0.0014311391043068113 -0.00064796083563261231 0 -0.0013788365857423724 -0.0005274646024626715 0 -0.0017657076239139423 0.00029980132976790036 0 -0.0013788365857423724 -0.0005274646024626715 0 -0.0010449806317881529 0.00010217521309563659 0 0.0056412655798456753 0.0035222165306733845 0 0.0059744205643038652 0.0029756211740420155 0 -0.0017657076239139423 0.00029980132976790036 0 -0.00141186020737507 -0.00067832753031148347 0 -0.0013788365857423724 -0.0005274646024626715 0 -0.0010449806317881529 0.00010217521309563659 0 -0.0012019574558825563 -0.00082657315973502419 0 0.00018047396100089738 0.00042587352057235422 0 -0.0013788365857423724 -0.0005274646024626715 0 -0.0010449806317881529 0.00010217521309563659 0 -0.0012019574558825563 -0.00082657315973502419 0 -0.0014311391043068113 -0.00064796083563261231 0 -0.0013788365857423724 -0.0005274646024626715 0 -0.0012019574558825563 -0.00082657315973502419 0 -0.0022695323248897448 -0.00050257981033457457 0 -0.0014311391043068113 -0.00064796083563261231 0 -0.0012019574558825563 -0.00082657315973502419 0 -0.0022695323248897448 -0.00050257981033457457 0 -0.0012019574558825563 -0.00082657315973502419 0 -0.0025175626648550496 -0.0006858833651544545 0 -0.0012019574558825563 -0.00082657315973502419 0 0.00018047396100089738 0.00042587352057235422 0 0.0019839214497554079 -0.00083232739260788457 0 -0.001140864039831217 -0.00084330449371148946 0 -0.00025093271844550176 -0.00067655311611277997 0 0.00018047396100089738 0.00042587352057235422 0 0.00056315530817609269 0.0015911972188656671 0 0.0017559746115401254 0.0011258232187820753 0 0.00018047396100089738 0.00042587352057235422 0 0.0017559746115401254 0.0011258232187820753 0 0.0019839214497554079 -0.00083232739260788457 0 -0.0010449806317881529 0.00010217521309563659 0 0.00018047396100089738 0.00042587352057235422 0 -0.00069001789388851271 0.0011172746018523777 0 0.00018047396100089738 0.00042587352057235422 0 -0.00069001789388851271 0.0011172746018523777 0 0.00056315530817609269 0.0015911972188656671 0 -0.001224323398288507 0.0024942728570662826 0 -0.00069001789388851271 0.0011172746018523777 0 -0.00032438387205658252 0.0020795947889683288 0 5.8303374511556784e-05 0.0031087620400654997 0 -0.00032438387205658252 0.0020795947889683288 0 0.00056315530817609269 0.0015911972188656671 0 -0.00069001789388851271 0.0011172746018523777 0 -0.00032438387205658252 0.0020795947889683288 0 0.00056315530817609269 0.0015911972188656671 0 5.8303374511556784e-05 0.0031087620400654997 0 -0.001224323398288507 0.0024942728570662826 0 -0.00032438387205658252 0.0020795947889683288 0 0.0013540700714963208 0.0025988017023368297 0 0.00056315530817609269 0.0015911972188656671 0 0.0017559746115401254 0.0011258232187820753 0 0.0013540700714963208 0.0025988017023368297 0 0.00033824234176244695 0.0029459773916531368 0 0.00056315530817609269 0.0015911972188656671 0 -8.0550340093642152e-05 0.00307129476450386 0 0.00059972921059942529 0.001672176924788068 0 0.002607440450230879 0.0026746137568621812 0 0.0013540700714963208 0.0025988017023368297 0 0.0017559746115401254 0.0011258232187820753 0 0.0041312247239391033 0.0012879316121082241 0 0.0040197714396251654 0.00043805264991245553 0 0.0055081196434978146 -4.5563520754910962e-06 0 0.0039553487483959633 0.00040993595296632483 0 0.0043946285677457586 2.1132665769909854e-06 0 0.002607440450230879 0.0026746137568621812 0 0.0039553487483959633 0.00040993595296632483 0 0.0017559746115401254 0.0011258232187820753 0 0.0039553487483959633 0.00040993595296632483 0 0.0017559746115401254 0.0011258232187820753 0 0.0019839214497554079 -0.00083232739260788457 0 -0.0022695323248897448 -0.00050257981033457457 0 -0.0025175626648550496 -0.0006858833651544545 0 -0.0025464740428837933 -0.00046977062935338386 0 -0.0025175626648550496 -0.0006858833651544545 0 -0.0025464740428837933 -0.00046977062935338386 0 -0.0020362228789228749 0.00031385842203285585 0 -0.0025464740428837933 -0.00046977062935338386 0 -0.0020362228789228749 0.00031385842203285585 0 -0.0017148658148513414 -6.3924401807884104e-05 0 -0.00025093271844550176 -0.00067655311611277997 0 0.00087309106933149356 7.8275762133668748e-05 0 0.0039553487483959633 0.00040993595296632483 0 0.0019839214497554079 -0.00083232739260788457 0 0.0038348799510454796 3.3668152287917699e-05 0 -0.0020362228789228749 0.00031385842203285585 0 -0.0017148658148513414 -6.3924401807884104e-05 0 0.0014927891674959809 2.3456362435234006e-06 0 0.0039553487483959633 0.00040993595296632483 0 0.0038348799510454796 3.3668152287917699e-05 0 0.0032240759360107358 -8.8056442576075301e-06 0 -0.001169341552338382 -0.00034151746026489017 0 -0.0017148658148513414 -6.3924401807884104e-05 0 -0.00062950551033711321 -0.00025679666090973129 0 -0.0022401195290367871 -0.00038561073325662322 0 -0.0017945300937861819 6.1851852113401069e-06 0 -0.0031823054085989059 -0.00057040971410805298 0 -0.0025464740428837933 -0.00046977062935338386 0 -0.0017148658148513414 -6.3924401807884104e-05 0 -0.00050759570038874592 -1.6237990723775504e-06 0 -0.00062950551033711321 -0.00025679666090973129 0 0.0014927891674959809 2.3456362435234006e-06 0 -0.0017148658148513414 -6.3924401807884104e-05 0 -0.00062950551033711321 -0.00025679666090973129 0 0.0014927891674959809 2.3456362435234006e-06 0 0.0038348799510454796 3.3668152287917699e-05 0 0.0015002464593575123 1.896263748498593e-06 0 0.0032240759360107358 -8.8056442576075301e-06 0 0.00087309106933149356 7.8275762133668748e-05 0 0.0014960464465209799 1.2023133684787976e-07 0 0.0015002464593575123 1.896263748498593e-06 0 0.0032240759360107358 -8.8056442576075301e-06 0 0.0033625532828371121 -7.3034260810165348e-07 0 0.0032240759360107358 -8.8056442576075301e-06 0 0.0043946285677457586 2.1132665769909854e-06 0 0.0033625532828371121 -7.3034260810165348e-07 0 0.0039553487483959633 0.00040993595296632483 0 0.0032240759360107358 -8.8056442576075301e-06 0 0.0043946285677457586 2.1132665769909854e-06 0 0.0052293167340188036 1.4599380043264702e-08 0 0.0043946285677457586 2.1132665769909854e-06 0 0.0033625532828371121 -7.3034260810165348e-07 0 0.015064030173124129 0.00591158471675043 0 0.014763829723461373 0.0060653139577428088 0 0.01485502705843317 0.0061766746633825391 0 0.015501602744184008 0.0061275832045083476 0 0.014961607599902838 0.0061820203785020291 0 0.014763829723461373 0.0060653139577428088 0 0.015061968395261693 0.0058128795294375285 0 0.014779819534077308 0.0058767879971269761 0 0.015064030173124129 0.00591158471675043 0 0.014763829723461373 0.0060653139577428088 0 0.015061968395261693 0.0058128795294375285 0 0.014763829723461373 0.0060653139577428088 0 0.014428431981542837 0.0062679441161812973 0 0.014610023881556813 0.006267781283631195 0 0.014763829723461373 0.0060653139577428088 0 0.01485502705843317 0.0061766746633825391 0 0.014610023881556813 0.006267781283631195 0 0.01485502705843317 0.0061766746633825391 0 0.015149921891997003 0.0062383614328442548 0 0.014579354286189027 0.0061828681932256414 0 0.014699449112537524 0.0062207244521724717 0 0.015149921891997003 0.0062383614328442548 0 0.014579354286189027 0.0061828681932256414 0 0.014699449112537524 0.0062207244521724717 0 0.015149921891997003 0.0062383614328442548 0 0.015428537506301491 0.0064506483645061152 0 0.019334171728921452 0.0057212268505388237 0 0.019578855372649116 0.0063350803999331646 0 0.019353585416344899 0.0062394830020985849 0 0.017025603957163991 0.005967378359680235 0 0.017482485703525022 0.0063588159547923332 0 0.015938318698334664 0.0062849720360765842 0 0.01485502705843317 0.0061766746633825391 0 0.015149921891997003 0.0062383614328442548 0 0.015938318698334664 0.0062849720360765842 0 0.015149921891997003 0.0062383614328442548 0 0.015428537506301491 0.0064506483645061152 0 0.015938318698334664 0.0062849720360765842 0 0.015428537506301491 0.0064506483645061152 0 0.016255691508185142 0.006564898433608011 0 0.019578855372649116 0.0063350803999331646 0 0.019353585416344899 0.0062394830020985849 0 0.019508630291813316 0.00636265556499571 0 0.019594261767362755 0.0063628934267810485 0 0.019508630291813316 0.00636265556499571 0 0.019658021160471686 0.0062679530327312263 0 0.019578855372649116 0.0063350803999331646 0 0.019508630291813316 0.00636265556499571 0 0.01947441562984278 0.0064619892623428363 0 0.019594261767362755 0.0063628934267810485 0 0.019508630291813316 0.00636265556499571 0 0.01947441562984278 0.0064619892623428363 0 0.017910360544414007 0.0066134324595231216 0 0.017482485703525022 0.0063588159547923332 0 0.01663987578263584 0.0068250738023783539 0 0.015428537506301491 0.0064506483645061152 0 0.016255691508185142 0.006564898433608011 0 0.01923964491938264 0.0065930298945999933 0 0.019578855372649116 0.0063350803999331646 0 0.01947441562984278 0.0064619892623428363 0 0.01663987578263584 0.0068250738023783539 0 0.016255691508185142 0.006564898433608011 0 0.017008455028650921 0.0066925701395118553 0 0.015501602744184008 0.0061275832045083476 0 0.016247155596472457 0.0061054791927869839 0 0.015938318698334664 0.0062849720360765842 0 0.016255691508185142 0.006564898433608011 0 0.017008455028650921 0.0066925701395118553 0 0.015064030173124129 0.00591158471675043 0 0.015061968395261693 0.0058128795294375285 0 0.015482999162535512 0.0055182084046331483 0 0.015492265880933999 0.005301617081150861 0 0.015482999162535512 0.0055182084046331483 0 0.015179925253031676 0.0056347024465755839 0 0.015061968395261693 0.0058128795294375285 0 0.015482999162535512 0.0055182084046331483 0 0.015179925253031676 0.0056347024465755839 0 0.015492265880933999 0.005301617081150861 0 0.015179925253031676 0.0056347024465755839 0 0.0149181820931042 0.0056391027407275141 0 0.014829258347266323 0.0054244899727485842 0 0.0149181820931042 0.0056391027407275141 0 0.014413661166248405 0.0058408419578715211 0 0.014829258347266323 0.0054244899727485842 0 0.015492265880933999 0.005301617081150861 0 0.0149181820931042 0.0056391027407275141 0 0.014413661166248405 0.0058408419578715211 0 0.014779819534077308 0.0058767879971269761 0 0.014425052755148233 0.0060937780686800029 0 0.0149181820931042 0.0056391027407275141 0 0.014413661166248405 0.0058408419578715211 0 0.014779819534077308 0.0058767879971269761 0 0.015061968395261693 0.0058128795294375285 0 0.015179925253031676 0.0056347024465755839 0 0.014779819534077308 0.0058767879971269761 0 0.015179925253031676 0.0056347024465755839 0 0.0149181820931042 0.0056391027407275141 0 0.014779819534077308 0.0058767879971269761 0 0.013977440186031436 0.0053003667090518493 0 0.013521836567642701 0.0058719033984448252 0 0.014180495752398957 0.0056276942088211677 0 0.014413661166248405 0.0058408419578715211 0 0.013521836567642701 0.0058719033984448252 0 0.014180495752398957 0.0056276942088211677 0 0.014829258347266323 0.0054244899727485842 0 0.014413661166248405 0.0058408419578715211 0 0.014180495752398957 0.0056276942088211677 0 0.014413661166248405 0.0058408419578715211 0 0.013521836567642701 0.0058719033984448252 0 0.01400040365399537 0.0061130372149302828 0 0.013499919042383592 0.0061332103263270973 0 0.013521836567642701 0.0058719033984448252 0 0.01400040365399537 0.0061130372149302828 0 0.01400040365399537 0.0061130372149302828 0 0.014151152018319259 0.0062772103312529123 0 0.013622611827383004 0.006363535445777376 0 0.013499919042383592 0.0061332103263270973 0 0.01328432269544828 0.0064043543850270087 0 0.013622611827383004 0.006363535445777376 0 0.013499919042383592 0.0061332103263270973 0 0.01400040365399537 0.0061130372149302828 0 0.013622611827383004 0.006363535445777376 0 0.014763829723461373 0.0060653139577428088 0 0.014779819534077308 0.0058767879971269761 0 0.014425052755148233 0.0060937780686800029 0 0.014413661166248405 0.0058408419578715211 0 0.01400040365399537 0.0061130372149302828 0 0.014425052755148233 0.0060937780686800029 0 0.01400040365399537 0.0061130372149302828 0 0.014425052755148233 0.0060937780686800029 0 0.014151152018319259 0.0062772103312529123 0 0.014763829723461373 0.0060653139577428088 0 0.014425052755148233 0.0060937780686800029 0 0.014428431981542837 0.0062679441161812973 0 0.014425052755148233 0.0060937780686800029 0 0.014428431981542837 0.0062679441161812973 0 0.014151152018319259 0.0062772103312529123 0 0.014428431981542837 0.0062679441161812973 0 0.014151152018319259 0.0062772103312529123 0 0.014088603539607891 0.0064253403541294878 0 0.014151152018319259 0.0062772103312529123 0 0.014088603539607891 0.0064253403541294878 0 0.013782077809871398 0.0064346085121334655 0 0.014088603539607891 0.0064253403541294878 0 0.013782077809871398 0.0064346085121334655 0 0.013584127242161676 0.0066017155326229737 0 0.014088603539607891 0.0064253403541294878 0 0.014225309307153468 0.0065395652523678105 0 0.014438858924877269 0.0063724914204593332 0 0.014428431981542837 0.0062679441161812973 0 0.014088603539607891 0.0064253403541294878 0 0.014438858924877269 0.0063724914204593332 0 0.01328432269544828 0.0064043543850270087 0 0.013622611827383004 0.006363535445777376 0 0.013286055597198034 0.0065756537751280658 0 0.014151152018319259 0.0062772103312529123 0 0.013622611827383004 0.006363535445777376 0 0.013782077809871398 0.0064346085121334655 0 0.013782077809871398 0.0064346085121334655 0 0.013360758260352849 0.0065950250732712701 0 0.013584127242161676 0.0066017155326229737 0 0.013622611827383004 0.006363535445777376 0 0.013782077809871398 0.0064346085121334655 0 0.013360758260352849 0.0065950250732712701 0 0.013622611827383004 0.006363535445777376 0 0.013286055597198034 0.0065756537751280658 0 0.013360758260352849 0.0065950250732712701 0 0.013360758260352849 0.0065950250732712701 0 0.013119838860082743 0.0067548688340094637 0 0.012668397783575213 0.0068197554107610851 0 0.013286055597198034 0.0065756537751280658 0 0.013360758260352849 0.0065950250732712701 0 0.013119838860082743 0.0067548688340094637 0 0.013360758260352849 0.0065950250732712701 0 0.013584127242161676 0.0066017155326229737 0 0.012668397783575213 0.0068197554107610851 0 0.013584127242161676 0.0066017155326229737 0 0.012668397783575213 0.0068197554107610851 0 0.013755794812343475 0.0069192003209527482 0 0.011740330325939021 0.0056427952575146311 0 0.012668397783575213 0.0068197554107610851 0 0.010035074776937502 0.0072795953193793448 0 0.012619838872069414 0.0068792835916903416 0 0.011911411562168933 0.0070215910937958112 0 0.011740330325939021 0.0056427952575146311 0 0.012668397783575213 0.0068197554107610851 0 0.013064626637097485 0.0063980530196303294 0 0.013119838860082743 0.0067548688340094637 0 0.012668397783575213 0.0068197554107610851 0 0.013064626637097485 0.0063980530196303294 0 0.014225309307153468 0.0065395652523678105 0 0.013755794812343475 0.0069192003209527482 0 0.014270572226289614 0.0066864305356386169 0 0.014088603539607891 0.0064253403541294878 0 0.014225309307153468 0.0065395652523678105 0 0.013755794812343475 0.0069192003209527482 0 0.014088603539607891 0.0064253403541294878 0 0.013584127242161676 0.0066017155326229737 0 0.013755794812343475 0.0069192003209527482 0 0.0098653547585655834 0.0058646621996326503 0 0.010035074776937502 0.0072795953193793448 0 0.0088361380496047876 0.0064501050223022358 0 0.010035074776937502 0.0072795953193793448 0 0.0088361380496047876 0.0064501050223022358 0 0.0079661772192052161 0.0067622944964148496 0 0.0088361380496047876 0.0064501050223022358 0 0.0079661772192052161 0.0067622944964148496 0 0.0081078195411151393 0.0065515405512155426 0 0.011911411562168933 0.0070215910937958112 0 0.011187391648050795 0.0067186994712367379 0 0.0079661772192052161 0.0067622944964148496 0 0.0081078195411151393 0.0065515405512155426 0 0.0089796940668042096 0.0063452492423602376 0 0.011187391648050795 0.0067186994712367379 0 0.0120178481382668 0.0062412546077556131 0 0.0079661772192052161 0.0067622944964148496 0 0.0089796940668042096 0.0063452492423602376 0 0.0096147536176947185 0.0060867534346171273 0 0.0081078195411151393 0.0065515405512155426 0 0.0089796940668042096 0.0063452492423602376 0 0.0084377635003471101 0.0064248085702339128 0 0.0080097994849412553 0.0063967458427825656 0 0.0081078195411151393 0.0065515405512155426 0 0.0084377635003471101 0.0064248085702339128 0 0.0080097994849412553 0.0063967458427825656 0 0.0084377635003471101 0.0064248085702339128 0 0.0082969763324217075 0.006438856990742853 0 0.009030861431615949 0.0063719702507737388 0 0.010266144950511044 0.0070440685956068309 0 0.0089796940668042096 0.0063452492423602376 0 0.0084377635003471101 0.0064248085702339128 0 0.0082969763324217075 0.006438856990742853 0 0.0089796940668042096 0.0063452492423602376 0 0.0096147536176947185 0.0060867534346171273 0 0.012380032179190936 0.0078309325450030502 0 0.014365979073370146 0.0062576924549104015 0 0.014382268258604227 0.0063566961898230499 0 0.013673650777264706 0.0061505242555138125 0 0.014365979073370146 0.0062576924549104015 0 0.014382268258604227 0.0063566961898230499 0 0.014376201292023834 0.0064389726348475585 0 0.014270572226289614 0.0066864305356386169 0 0.014365979073370146 0.0062576924549104015 0 0.014376201292023834 0.0064389726348475585 0 0.014225309307153468 0.0065395652523678105 0 0.014270572226289614 0.0066864305356386169 0 0.014376201292023834 0.0064389726348475585 0 0.014382268258604227 0.0063566961898230499 0 0.014376201292023834 0.0064389726348475585 0 0.014438858924877269 0.0063724914204593332 0 0.014225309307153468 0.0065395652523678105 0 0.014376201292023834 0.0064389726348475585 0 0.014438858924877269 0.0063724914204593332 0 0.014382268258604227 0.0063566961898230499 0 0.014438858924877269 0.0063724914204593332 0 0.014477970736992928 0.006321080743490839 0 0.014438858924877269 0.0063724914204593332 0 0.014610023881556813 0.006267781283631195 0 0.014477970736992928 0.006321080743490839 0 0.01485502705843317 0.0061766746633825391 0 0.014610023881556813 0.006267781283631195 0 0.014477970736992928 0.006321080743490839 0 0.014428431981542837 0.0062679441161812973 0 0.014438858924877269 0.0063724914204593332 0 0.014610023881556813 0.006267781283631195 0 0.014579354286189027 0.0061828681932256414 0 0.014221074966578319 0.0062158497018937149 0 0.014371960599602582 0.0061453401024631213 0 0.014699449112537524 0.0062207244521724717 0 0.014579354286189027 0.0061828681932256414 0 0.014371960599602582 0.0061453401024631213 0 0.014579354286189027 0.0061828681932256414 0 0.014477970736992928 0.006321080743490839 0 0.014221074966578319 0.0062158497018937149 0 0.01485502705843317 0.0061766746633825391 0 0.014579354286189027 0.0061828681932256414 0 0.014477970736992928 0.006321080743490839 0 0.014477970736992928 0.006321080743490839 0 0.014221074966578319 0.0062158497018937149 0 0.013673650777264706 0.0061505242555138125 0 0.014382268258604227 0.0063566961898230499 0 0.014477970736992928 0.006321080743490839 0 0.013673650777264706 0.0061505242555138125 0 0.013673650777264706 0.0061505242555138125 0 0.014178537738115907 0.0066997620951908064 0 0.014219637845275222 0.006338033953717564 0 0.014221074966578319 0.0062158497018937149 0 0.013673650777264706 0.0061505242555138125 0 0.014219637845275222 0.006338033953717564 0 0.0120178481382668 0.0062412546077556131 0 0.013497258717638124 0.0061198722909213271 0 0.0096147536176947185 0.0060867534346171273 0 0.013673650777264706 0.0061505242555138125 0 0.012380032179190936 0.0078309325450030502 0 0.013673650777264706 0.0061505242555138125 0 0.012380032179190936 0.0078309325450030502 0 0.013794727423414204 0.0070944622842689167 0 0.013673650777264706 0.0061505242555138125 0 0.013794727423414204 0.0070944622842689167 0 0.014178537738115907 0.0066997620951908064 0 0.013794727423414204 0.0070944622842689167 0 0.014147073755745237 0.0071649330819836187 0 0.014178537738115907 0.0066997620951908064 0 0.014178537738115907 0.0066997620951908064 0 0.014309263319210459 0.0070198709489947622 0 0.014507447979781634 0.0066142084564653845 0 0.014147073755745237 0.0071649330819836187 0 0.014178537738115907 0.0066997620951908064 0 0.014309263319210459 0.0070198709489947622 0 0.014322347894653562 0.0071790561605780834 0 0.014309263319210459 0.0070198709489947622 0 0.014507447979781634 0.0066142084564653845 0 0.013667730825935238 0.0057939469391297621 0 0.016956046007834617 0.005753286688076821 0 0.014322347894653562 0.0071790561605780834 0 0.014362101357142779 0.0072419503218920682 0 0.014507447979781634 0.0066142084564653845 0 0.018604076546444106 0.0047575332608735038 0 0.01823353615310281 0.0047744745845570398 0 0.018468136676909615 0.0050543483077089158 0 0.014178537738115907 0.0066997620951908064 0 0.014507447979781634 0.0066142084564653845 0 0.014219637845275222 0.006338033953717564 0 0.0046660228877166048 0.0049312140091745402 0 0.0050428599786922768 0.0050930075803459303 0 0.0048650249143691307 0.0054280418319297367 0 0.0049154949196967539 0.0047766965677316928 0 0.0046660228877166048 0.0049312140091745402 0 0.0050428599786922768 0.0050930075803459303 0 0.018219063581264173 0.0041668549845522967 0 0.018604076546444106 0.0047575332608735038 0 0.01803308944389681 0.0044775811230879283 0 0.013667730825935238 0.0057939469391297621 0 0.011410205250326797 0.0050420723366599854 0 0.01823353615310281 0.0047744745845570398 0 0.01779792450984664 0.0048131859894624558 0 0.018468136676909615 0.0050543483077089158 0 0.01803308944389681 0.0044775811230879283 0 0.01823353615310281 0.0047744745845570398 0 0.01779792450984664 0.0048131859894624558 0 0.014083459273800263 0.0048203371441364988 0 0.019917987694876207 0.0053629088320758366 0 0.018604076546444106 0.0047575332608735038 0 0.01803308944389681 0.0044775811230879283 0 0.01823353615310281 0.0047744745845570398 0 0.011410205250326797 0.0050420723366599854 0 0.014083459273800263 0.0048203371441364988 0 0.018211614111306739 0.0051065558981968013 0 0.018273649547835252 0.0053139287042674281 0 0.017974945054031924 0.0051668549443755355 0 0.018130717770249351 0.0048951422878419897 0 0.018211614111306739 0.0051065558981968013 0 0.017974945054031924 0.0051668549443755355 0 0.014083459273800263 0.0048203371441364988 0 0.018331817719643352 0.0044607422103134136 0 0.018130717770249351 0.0048951422878419897 0 0.018211614111306739 0.0051065558981968013 0 0.018468136676909615 0.0050543483077089158 0 0.018211614111306739 0.0051065558981968013 0 0.018273649547835252 0.0053139287042674281 0 0.018468136676909615 0.0050543483077089158 0 0.018273649547835252 0.0053139287042674281 0 0.018468136676909615 0.0050543483077089158 0 0.018593965797835531 0.0053592953713079133 0 0.018273649547835252 0.0053139287042674281 0 0.018593965797835531 0.0053592953713079133 0 0.018471662223157336 0.0056480547185538132 0 0.018273649547835252 0.0053139287042674281 0 0.018108810489555476 0.0055526005540319241 0 0.017974945054031924 0.0051668549443755355 0 0.014221074966578319 0.0062158497018937149 0 0.014219637845275222 0.006338033953717564 0 0.014371960599602582 0.0061453401024631213 0 0.014507447979781634 0.0066142084564653845 0 0.014219637845275222 0.006338033953717564 0 0.014371960599602582 0.0061453401024631213 0 0.018604076546444106 0.0047575332608735038 0 0.018468136676909615 0.0050543483077089158 0 0.018928100697779345 0.0052143031809995972 0 0.016956046007834617 0.005753286688076821 0 0.016593076955215592 0.0056537079931937581 0 0.018468136676909615 0.0050543483077089158 0 0.018593965797835531 0.0053592953713079133 0 0.018928100697779345 0.0052143031809995972 0 0.018593965797835531 0.0053592953713079133 0 0.018928100697779345 0.0052143031809995972 0 0.018825039982975845 0.0055645015622086819 0 0.017025603957163991 0.005967378359680235 0 0.016593076955215592 0.0056537079931937581 0 0.019334171728921452 0.0057212268505388237 0 0.018928100697779345 0.0052143031809995972 0 0.018825039982975845 0.0055645015622086819 0 0.019334171728921452 0.0057212268505388237 0 0.018862737814650293 0.0058915029422857701 0 0.018825039982975845 0.0055645015622086819 0 0.019334171728921452 0.0057212268505388237 0 0.019353585416344899 0.0062394830020985849 0 0.018862737814650293 0.0058915029422857701 0 0.018862737814650293 0.0058915029422857701 0 0.018471662223157336 0.0056480547185538132 0 0.018546504731299783 0.0059374488671468219 0 0.018593965797835531 0.0053592953713079133 0 0.018825039982975845 0.0055645015622086819 0 0.018471662223157336 0.0056480547185538132 0 0.018862737814650293 0.0058915029422857701 0 0.018825039982975845 0.0055645015622086819 0 0.018471662223157336 0.0056480547185538132 0 0.018273649547835252 0.0053139287042674281 0 0.018471662223157336 0.0056480547185538132 0 0.018108810489555476 0.0055526005540319241 0 0.018108810489555476 0.0055526005540319241 0 0.018210070960338547 0.0059357572503588116 0 0.017941800503527776 0.0057753776738825981 0 0.018471662223157336 0.0056480547185538132 0 0.018108810489555476 0.0055526005540319241 0 0.018210070960338547 0.0059357572503588116 0 0.018471662223157336 0.0056480547185538132 0 0.018546504731299783 0.0059374488671468219 0 0.018210070960338547 0.0059357572503588116 0 0.018210070960338547 0.0059357572503588116 0 0.018257758655476457 0.0062338921312465618 0 0.018669812969680052 0.0062601229620271809 0 0.018546504731299783 0.0059374488671468219 0 0.018210070960338547 0.0059357572503588116 0 0.018669812969680052 0.0062601229620271809 0 0.018210070960338547 0.0059357572503588116 0 0.018257758655476457 0.0062338921312465618 0 0.017970311718416631 0.0060423805686279086 0 0.019766636882742526 0.0060112808497778036 0 0.019709351675183891 0.0062587017943955634 0 0.019793191067572821 0.0061079522063206227 0 0.019002322294020726 0.006123613556957396 0 0.019198101430691384 0.0062431709167842658 0 0.019658021160471686 0.0062679530327312263 0 0.019709351675183891 0.0062587017943955634 0 0.019793191067572821 0.0061079522063206227 0 0.019353585416344899 0.0062394830020985849 0 0.019508630291813316 0.00636265556499571 0 0.019658021160471686 0.0062679530327312263 0 0.019353585416344899 0.0062394830020985849 0 0.018862737814650293 0.0058915029422857701 0 0.018669812969680052 0.0062601229620271809 0 0.019353585416344899 0.0062394830020985849 0 0.019658021160471686 0.0062679530327312263 0 0.019709351675183891 0.0062587017943955634 0 0.019364927807601087 0.0062273430605395809 0 0.019198101430691384 0.0062431709167842658 0 0.018862737814650293 0.0058915029422857701 0 0.018546504731299783 0.0059374488671468219 0 0.018669812969680052 0.0062601229620271809 0 0.017671881272494333 0.0058583012610565321 0 0.017782237443828619 0.0059237357521329873 0 0.017805170122515791 0.0058389290202359358 0 0.017299158325771429 0.0059125073677244186 0 0.017783901674642871 0.0058528133871262513 0 0.017671881272494333 0.0058583012610565321 0 0.017684627096788884 0.0059341637878572552 0 0.017782237443828619 0.0059237357521329873 0 0.017299158325771429 0.0059125073677244186 0 0.016735623088947174 0.005867047214101459 0 0.016473473554225643 0.006050027008353282 0 0.01619144860228388 0.0059952986100871661 0 0.01629018310467395 0.0058442513433127896 0 0.016473473554225643 0.006050027008353282 0 0.01619144860228388 0.0059952986100871661 0 0.016138337265478624 0.0060370388823378918 0 0.017776706878169648 0.0055285331589002068 0 0.017562246402555024 0.0058539961337322199 0 0.017345314222590676 0.005688233989283367 0 0.01619144860228388 0.0059952986100871661 0 0.01629018310467395 0.0058442513433127896 0 0.016126570723331287 0.0059402156511374794 0 0.017299158325771429 0.0059125073677244186 0 0.017650909098367182 0.0057333733223294244 0 0.017562246402555024 0.0058539961337322199 0 0.017345314222590676 0.005688233989283367 0 0.017355675756021885 0.005929758309028409 0 0.017562246402555024 0.0058539961337322199 0 0.017684627096788884 0.0059341637878572552 0 0.017595091753216014 0.0060725532027818387 0 0.017562246402555024 0.0058539961337322199 0 0.017355675756021885 0.005929758309028409 0 0.017595091753216014 0.0060725532027818387 0 0.017684627096788884 0.0059341637878572552 0 0.017791153764589163 0.0060602806493527265 0 0.017595091753216014 0.0060725532027818387 0 0.017684627096788884 0.0059341637878572552 0 0.017791153764589163 0.0060602806493527265 0 0.017782237443828619 0.0059237357521329873 0 0.017671881272494333 0.0058583012610565321 0 0.017562246402555024 0.0058539961337322199 0 0.017684627096788884 0.0059341637878572552 0 0.017791153764589163 0.0060602806493527265 0 0.017970311718416631 0.0060423805686279086 0 0.017782237443828619 0.0059237357521329873 0 0.017791153764589163 0.0060602806493527265 0 0.017970311718416631 0.0060423805686279086 0 0.017957212520669827 0.006195461699382683 0 0.018257758655476457 0.0062338921312465618 0 0.017970311718416631 0.0060423805686279086 0 0.017957212520669827 0.006195461699382683 0 0.018210070960338547 0.0059357572503588116 0 0.017970311718416631 0.0060423805686279086 0 0.017921105205217641 0.0058985063974279122 0 0.017970311718416631 0.0060423805686279086 0 0.017921105205217641 0.0058985063974279122 0 0.017782237443828619 0.0059237357521329873 0 0.017921105205217641 0.0058985063974279122 0 0.017782237443828619 0.0059237357521329873 0 0.017805170122515791 0.0058389290202359358 0 0.017783901674642871 0.0058528133871262513 0 0.017908646514614459 0.0057914585955969496 0 0.01768738877525642 0.0059046807018557539 0 0.017629272820992591 0.0057371937909466127 0 0.017941800503527776 0.0057753776738825981 0 0.017921105205217641 0.0058985063974279122 0 0.017805170122515791 0.0058389290202359358 0 0.017941800503527776 0.0057753776738825981 0 0.018210070960338547 0.0059357572503588116 0 0.017921105205217641 0.0058985063974279122 0 0.017941800503527776 0.0057753776738825981 0 0.018108810489555476 0.0055526005540319241 0 0.017941800503527776 0.0057753776738825981 0 0.017812160624906911 0.0054569115420792192 0 0.016853134652713649 0.0056195150982641792 0 0.016783618956355356 0.0052753443355270753 0 0.017267904151522386 0.0050257914282338762 0 0.017629272820992591 0.0057371937909466127 0 0.017941800503527776 0.0057753776738825981 0 0.017812160624906911 0.0054569115420792192 0 0.017205907231544682 0.0056951499222117003 0 0.017462747389252433 0.0053120925356094579 0 0.016783618956355356 0.0052753443355270753 0 0.016788981711502657 0.0049509263558922779 0 0.017267904151522386 0.0050257914282338762 0 0.016783618956355356 0.0052753443355270753 0 0.016547537868582637 0.0051730296275435787 0 0.016788981711502657 0.0049509263558922779 0 0.016783618956355356 0.0052753443355270753 0 0.016547537868582637 0.0051730296275435787 0 0.016504174254197364 0.0055826007930687782 0 0.016547537868582637 0.0051730296275435787 0 0.016504174254197364 0.0055826007930687782 0 0.016344895146791293 0.0053534800280965224 0 0.016853134652713649 0.0056195150982641792 0 0.016783618956355356 0.0052753443355270753 0 0.016504174254197364 0.0055826007930687782 0 0.016473473554225643 0.006050027008353282 0 0.016504174254197364 0.0055826007930687782 0 0.01629018310467395 0.0058442513433127896 0 0.016473473554225643 0.006050027008353282 0 0.016853134652713649 0.0056195150982641792 0 0.016504174254197364 0.0055826007930687782 0 0.017299158325771429 0.0059125073677244186 0 0.017205907231544682 0.0056951499222117003 0 0.01743135256108768 0.006030677268057897 0 0.01768738877525642 0.0059046807018557539 0 0.017629272820992591 0.0057371937909466127 0 0.01629018310467395 0.0058442513433127896 0 0.016180056956436401 0.0055945469442721133 0 0.016126570723331287 0.0059402156511374794 0 0.016504174254197364 0.0055826007930687782 0 0.01629018310467395 0.0058442513433127896 0 0.016180056956436401 0.0055945469442721133 0 0.016180056956436401 0.0055945469442721133 0 0.016344895146791293 0.0053534800280965224 0 0.015979789137078849 0.0051787366334579846 0 0.016504174254197364 0.0055826007930687782 0 0.016180056956436401 0.0055945469442721133 0 0.016344895146791293 0.0053534800280965224 0 0.016344895146791293 0.0053534800280965224 0 0.015979789137078849 0.0051787366334579846 0 0.016303139705364535 0.0050453367840222569 0 0.016547537868582637 0.0051730296275435787 0 0.016344895146791293 0.0053534800280965224 0 0.016303139705364535 0.0050453367840222569 0 0.015979789137078849 0.0051787366334579846 0 0.016140034906264773 0.0047223802621796686 0 0.015776378638806453 0.0046355467477891005 0 0.015979789137078849 0.0051787366334579846 0 0.016140034906264773 0.0047223802621796686 0 0.016303139705364535 0.0050453367840222569 0 0.016140034906264773 0.0047223802621796686 0 0.015964981830941409 0.004326810580553675 0 0.015776378638806453 0.0046355467477891005 0 0.016140034906264773 0.0047223802621796686 0 0.016507033313813504 0.0047737809064586616 0 0.016338971575407923 0.0042878039917633205 0 0.016140034906264773 0.0047223802621796686 0 0.016303139705364535 0.0050453367840222569 0 0.016507033313813504 0.0047737809064586616 0 0.016547537868582637 0.0051730296275435787 0 0.016303139705364535 0.0050453367840222569 0 0.016507033313813504 0.0047737809064586616 0 0.016547537868582637 0.0051730296275435787 0 0.016788981711502657 0.0049509263558922779 0 0.016507033313813504 0.0047737809064586616 0 0.016788981711502657 0.0049509263558922779 0 0.016507033313813504 0.0047737809064586616 0 0.016802532686819423 0.0044764429100653683 0 0.016802532686819423 0.0044764429100653683 0 0.016623993606384054 0.0041082759768149646 0 0.017013114372134191 0.0038832871943765179 0 0.016507033313813504 0.0047737809064586616 0 0.016338971575407923 0.0042878039917633205 0 0.016802532686819423 0.0044764429100653683 0 0.016338971575407923 0.0042878039917633205 0 0.016802532686819423 0.0044764429100653683 0 0.016623993606384054 0.0041082759768149646 0 0.016338971575407923 0.0042878039917633205 0 0.016623993606384054 0.0041082759768149646 0 0.016398668663569215 0.0037247185874097364 0 0.016338971575407923 0.0042878039917633205 0 0.015964981830941409 0.004326810580553675 0 0.015932402209568368 0.0037800920950456251 0 0.015964981830941409 0.004326810580553675 0 0.015932402209568368 0.0037800920950456251 0 0.015624026569279583 0.0041963041696896162 0 0.016140034906264773 0.0047223802621796686 0 0.016338971575407923 0.0042878039917633205 0 0.015964981830941409 0.004326810580553675 0 0.018108810489555476 0.0055526005540319241 0 0.017812160624906911 0.0054569115420792192 0 0.017974945054031924 0.0051668549443755355 0 0.017462747389252433 0.0053120925356094579 0 0.018331817719643352 0.0044607422103134136 0 0.016788981711502657 0.0049509263558922779 0 0.016802532686819423 0.0044764429100653683 0 0.017267904151522386 0.0050257914282338762 0 0.016802532686819423 0.0044764429100653683 0 0.017267904151522386 0.0050257914282338762 0 0.017650029920846334 0.0043687340340309239 0 0.016802532686819423 0.0044764429100653683 0 0.017650029920846334 0.0043687340340309239 0 0.017013114372134191 0.0038832871943765179 0 0.017650029920846334 0.0043687340340309239 0 0.017472717356299215 0.0038161327472016372 0 0.017013114372134191 0.0038832871943765179 0 0.014083459273800263 0.0048203371441364988 0 0.010141078829005275 0.0040119579381172298 0 0.018007037166644736 0.0037465046294453408 0 0.017650029920846334 0.0043687340340309239 0 0.017472717356299215 0.0038161327472016372 0 0.018007037166644736 0.0037465046294453408 0 0.017472717356299215 0.0038161327472016372 0 0.017215526231624208 0.0032585319776085005 0 0.017013114372134191 0.0038832871943765179 0 0.017215526231624208 0.0032585319776085005 0 0.016712563979092987 0.0033128228911701997 0 0.017472717356299215 0.0038161327472016372 0 0.017013114372134191 0.0038832871943765179 0 0.017215526231624208 0.0032585319776085005 0 0.010225207291799474 0.0036598251934939333 0 0.010141078829005275 0.0040119579381172298 0 0.016375808457745871 0.0027023218896756389 0 0.017215526231624208 0.0032585319776085005 0 0.016712563979092987 0.0033128228911701997 0 0.0043189860258883534 0.0046280813909125394 0 0.0046660228877166048 0.0049312140091745402 0 0.0041997850707716613 0.0050627851456826432 0 0.0046660228877166048 0.0049312140091745402 0 0.0048650249143691307 0.0054280418319297367 0 0.0041997850707716613 0.0050627851456826432 0 0.016074719659497763 0.0035036441996134358 0 0.016398668663569215 0.0037247185874097364 0 0.016231166170485103 0.0032753941963996232 0 0.016074719659497763 0.0035036441996134358 0 0.015932402209568368 0.0037800920950456251 0 0.016398668663569215 0.0037247185874097364 0 0.016074719659497763 0.0035036441996134358 0 0.015932402209568368 0.0037800920950456251 0 0.015787598518212573 0.0032488635991709137 0 0.016338971575407923 0.0042878039917633205 0 0.015932402209568368 0.0037800920950456251 0 0.016398668663569215 0.0037247185874097364 0 0.016623993606384054 0.0041082759768149646 0 0.017013114372134191 0.0038832871943765179 0 0.016398668663569215 0.0037247185874097364 0 0.017013114372134191 0.0038832871943765179 0 0.016398668663569215 0.0037247185874097364 0 0.016712563979092987 0.0033128228911701997 0 0.016398668663569215 0.0037247185874097364 0 0.016712563979092987 0.0033128228911701997 0 0.016231166170485103 0.0032753941963996232 0 0.016712563979092987 0.0033128228911701997 0 0.01631081368304433 0.0030323974315339653 0 0.016231166170485103 0.0032753941963996232 0 0.016375808457745871 0.0027023218896756389 0 0.016712563979092987 0.0033128228911701997 0 0.01631081368304433 0.0030323974315339653 0 0.015904432341257865 0.0028326196172432667 0 0.01631081368304433 0.0030323974315339653 0 0.016231166170485103 0.0032753941963996232 0 0.015904432341257865 0.0028326196172432667 0 0.016375808457745871 0.0027023218896756389 0 0.01631081368304433 0.0030323974315339653 0 0.016074719659497763 0.0035036441996134358 0 0.016231166170485103 0.0032753941963996232 0 0.015787598518212573 0.0032488635991709137 0 0.015904432341257865 0.0028326196172432667 0 0.016231166170485103 0.0032753941963996232 0 0.015787598518212573 0.0032488635991709137 0 0.015904432341257865 0.0028326196172432667 0 0.015787598518212573 0.0032488635991709137 0 0.015691261128763602 0.0029199780003277545 0 0.015787598518212573 0.0032488635991709137 0 0.015691261128763602 0.0029199780003277545 0 0.015430592122550248 0.0029846606333303501 0 0.015453834803126508 0.0026413713624360898 0 0.015691261128763602 0.0029199780003277545 0 0.015430592122550248 0.0029846606333303501 0 0.015101654855463742 0.0026583099741316401 0 0.015430592122550248 0.0029846606333303501 0 0.015093560317477236 0.0031006432128166403 0 0.015466106763014395 0.0034634930983661297 0 0.015108331843727806 0.0034726678151377108 0 0.015093560317477236 0.0031006432128166403 0 0.015430592122550248 0.0029846606333303501 0 0.015466106763014395 0.0034634930983661297 0 0.015093560317477236 0.0031006432128166403 0 0.015787598518212573 0.0032488635991709137 0 0.015430592122550248 0.0029846606333303501 0 0.015466106763014395 0.0034634930983661297 0 0.015932402209568368 0.0037800920950456251 0 0.015787598518212573 0.0032488635991709137 0 0.015466106763014395 0.0034634930983661297 0 0.015466106763014395 0.0034634930983661297 0 0.015248551397202477 0.003820173552197029 0 0.015108331843727806 0.0034726678151377108 0 0.015466106763014395 0.0034634930983661297 0 0.015248551397202477 0.003820173552197029 0 0.015569531945876586 0.0038136899370866126 0 0.015248551397202477 0.003820173552197029 0 0.015569531945876586 0.0038136899370866126 0 0.015624026569279583 0.0041963041696896162 0 0.015932402209568368 0.0037800920950456251 0 0.015569531945876586 0.0038136899370866126 0 0.015624026569279583 0.0041963041696896162 0 0.015932402209568368 0.0037800920950456251 0 0.015466106763014395 0.0034634930983661297 0 0.015569531945876586 0.0038136899370866126 0 0.014816197999063134 0.0036527001899418514 0 0.014475760713396391 0.0037823738111300758 0 0.014828994171058036 0.0040433563559236652 0 0.014816197999063134 0.0036527001899418514 0 0.014423256679983816 0.0034724049965190354 0 0.014475760713396391 0.0037823738111300758 0 0.015248551397202477 0.003820173552197029 0 0.014816197999063134 0.0036527001899418514 0 0.014828994171058036 0.0040433563559236652 0 0.015248551397202477 0.003820173552197029 0 0.014816197999063134 0.0036527001899418514 0 0.015108331843727806 0.0034726678151377108 0 0.014816197999063134 0.0036527001899418514 0 0.015108331843727806 0.0034726678151377108 0 0.014764087054454646 0.0033462256112345161 0 0.014816197999063134 0.0036527001899418514 0 0.014764087054454646 0.0033462256112345161 0 0.014423256679983816 0.0034724049965190354 0 0.014764087054454646 0.0033462256112345161 0 0.014758379318266301 0.0028322557642003216 0 0.014449091618654852 0.0030792708717370396 0 0.015108331843727806 0.0034726678151377108 0 0.014764087054454646 0.0033462256112345161 0 0.015093560317477236 0.0031006432128166403 0 0.014764087054454646 0.0033462256112345161 0 0.015093560317477236 0.0031006432128166403 0 0.014758379318266301 0.0028322557642003216 0 0.015101654855463742 0.0026583099741316401 0 0.015093560317477236 0.0031006432128166403 0 0.014758379318266301 0.0028322557642003216 0 0.01432947018096398 0.0025268213104143551 0 0.014758379318266301 0.0028322557642003216 0 0.014449091618654852 0.0030792708717370396 0 0.01432947018096398 0.0025268213104143551 0 0.014449091618654852 0.0030792708717370396 0 0.014078823190075536 0.0032911730236302502 0 0.013523620691196333 0.0024618131755472302 0 0.013201888903399258 0.0034629892885653943 0 0.01225619608689558 0.002763105587951978 0 0.012066579086372892 0.0030429327417934499 0 0.012347862516395755 0.0033942083917595837 0 0.011729192450497822 0.0030350596216016305 0 0.012066579086372892 0.0030429327417934499 0 0.01200686992102803 0.0033440294881421908 0 0.012066579086372892 0.0030429327417934499 0 0.01200686992102803 0.0033440294881421908 0 0.012347862516395755 0.0033942083917595837 0 0.011729192450497822 0.0030350596216016305 0 0.01200686992102803 0.0033440294881421908 0 0.011581849630821548 0.0034263389676461777 0 0.012306350450792 0.0036253584434138004 0 0.012347862516395755 0.0033942083917595837 0 0.013374921238804337 0.0042901450761851203 0 0.01200686992102803 0.0033440294881421908 0 0.012306350450792 0.0036253584434138004 0 0.011851324636567682 0.0036671327076002692 0 0.01200686992102803 0.0033440294881421908 0 0.011851324636567682 0.0036671327076002692 0 0.011581849630821548 0.0034263389676461777 0 0.01200686992102803 0.0033440294881421908 0 0.012306350450792 0.0036253584434138004 0 0.012347862516395755 0.0033942083917595837 0 0.012306350450792 0.0036253584434138004 0 0.011851324636567682 0.0036671327076002692 0 0.011995870164451895 0.0038448878537963253 0 0.012306350450792 0.0036253584434138004 0 0.011995870164451895 0.0038448878537963253 0 0.012028745279784512 0.0040788961391543853 0 0.011851324636567682 0.0036671327076002692 0 0.011995870164451895 0.0038448878537963253 0 0.011816269485314175 0.0039876552833755007 0 0.014078823190075536 0.0032911730236302502 0 0.014132448762166027 0.0037920325978456283 0 0.013374921238804337 0.0042901450761851203 0 0.013201888903399258 0.0034629892885653943 0 0.013293057873279328 0.0042876262777463668 0 0.014449091618654852 0.0030792708717370396 0 0.014423256679983816 0.0034724049965190354 0 0.014078823190075536 0.0032911730236302502 0 0.014764087054454646 0.0033462256112345161 0 0.014449091618654852 0.0030792708717370396 0 0.014423256679983816 0.0034724049965190354 0 0.014423256679983816 0.0034724049965190354 0 0.014078823190075536 0.0032911730236302502 0 0.014132448762166027 0.0037920325978456283 0 0.014132448762166027 0.0037920325978456283 0 0.014475760713396391 0.0037823738111300758 0 0.014235713761057657 0.0038886113180657982 0 0.014423256679983816 0.0034724049965190354 0 0.014132448762166027 0.0037920325978456283 0 0.014475760713396391 0.0037823738111300758 0 0.014475760713396391 0.0037823738111300758 0 0.014463223360664941 0.0041124875352690693 0 0.014235713761057657 0.0038886113180657982 0 0.014463223360664941 0.0041124875352690693 0 0.014235713761057657 0.0038886113180657982 0 0.014007969808455874 0.0041238266619426931 0 0.014132448762166027 0.0037920325978456283 0 0.014007969808455874 0.0041238266619426931 0 0.013374921238804337 0.0042901450761851203 0 0.014132448762166027 0.0037920325978456283 0 0.014235713761057657 0.0038886113180657982 0 0.014007969808455874 0.0041238266619426931 0 0.014007969808455874 0.0041238266619426931 0 0.013820400451980982 0.0044044151970811952 0 0.013374921238804337 0.0042901450761851203 0 0.014007969808455874 0.0041238266619426931 0 0.013820400451980982 0.0044044151970811952 0 0.014294422371480299 0.0045001400903027754 0 0.014463223360664941 0.0041124875352690693 0 0.014294422371480299 0.0045001400903027754 0 0.014873889437603016 0.0044878936130840217 0 0.014463223360664941 0.0041124875352690693 0 0.014007969808455874 0.0041238266619426931 0 0.014294422371480299 0.0045001400903027754 0 0.012435330954534246 0.0035892559399057552 0 0.012631593891194542 0.0043397318861819606 0 0.012306350450792 0.0036253584434138004 0 0.012028745279784512 0.0040788961391543853 0 0.012113570477658236 0.0043327245739574489 0 0.012306350450792 0.0036253584434138004 0 0.013374921238804337 0.0042901450761851203 0 0.013318453037360503 0.0043625192562767303 0 0.011816269485314175 0.0039876552833755007 0 0.012028745279784512 0.0040788961391543853 0 0.011825280001094299 0.0042562138580962399 0 0.011995870164451895 0.0038448878537963253 0 0.011816269485314175 0.0039876552833755007 0 0.012028745279784512 0.0040788961391543853 0 0.013820400451980982 0.0044044151970811952 0 0.013374921238804337 0.0042901450761851203 0 0.01350709886018526 0.0044390162179493925 0 0.013374921238804337 0.0042901450761851203 0 0.01350709886018526 0.0044390162179493925 0 0.013318453037360503 0.0043625192562767303 0 0.013820400451980982 0.0044044151970811952 0 0.01350709886018526 0.0044390162179493925 0 0.013630502719667132 0.0046423755238156963 0 0.01350709886018526 0.0044390162179493925 0 0.013318453037360503 0.0043625192562767303 0 0.013630502719667132 0.0046423755238156963 0 0.012113570477658236 0.0043327245739574489 0 0.011925610986370837 0.004377557113853129 0 0.011904262530107519 0.0046183680476543009 0 0.012028745279784512 0.0040788961391543853 0 0.012113570477658236 0.0043327245739574489 0 0.011974513940516374 0.0042630048332721552 0 0.012028745279784512 0.0040788961391543853 0 0.011974513940516374 0.0042630048332721552 0 0.011825280001094299 0.0042562138580962399 0 0.012113570477658236 0.0043327245739574489 0 0.011974513940516374 0.0042630048332721552 0 0.011925610986370837 0.004377557113853129 0 0.011925610986370837 0.004377557113853129 0 0.011825280001094299 0.0042562138580962399 0 0.011780113988413742 0.0044592494697607314 0 0.011974513940516374 0.0042630048332721552 0 0.011925610986370837 0.004377557113853129 0 0.011825280001094299 0.0042562138580962399 0 0.013318453037360503 0.0043625192562767303 0 0.013630502719667132 0.0046423755238156963 0 0.013348302151680227 0.005524604228094203 0 0.012631593891194542 0.0043397318861819606 0 0.013300461218341822 0.0050448799192200416 0 0.012113570477658236 0.0043327245739574489 0 0.011904262530107519 0.0046183680476543009 0 0.012077165816539387 0.004927374831125762 0 0.011925610986370837 0.004377557113853129 0 0.011904262530107519 0.0046183680476543009 0 0.011780113988413742 0.0044592494697607314 0 0.011904262530107519 0.0046183680476543009 0 0.011780113988413742 0.0044592494697607314 0 0.011657503394811601 0.0046441664569435853 0 0.013630502719667132 0.0046423755238156963 0 0.013348302151680227 0.005524604228094203 0 0.013934194144667523 0.0049093563307265426 0 0.011904262530107519 0.0046183680476543009 0 0.012077165816539387 0.004927374831125762 0 0.011657503394811601 0.0046441664569435853 0 0.013300461218341822 0.0050448799192200416 0 0.015028423365282909 0.0052915923090274628 0 0.013348302151680227 0.005524604228094203 0 0.013934194144667523 0.0049093563307265426 0 0.014851310960556429 0.0052230828383485447 0 0.014294422371480299 0.0045001400903027754 0 0.014851310960556429 0.0052230828383485447 0 0.014873889437603016 0.0044878936130840217 0 0.014294422371480299 0.0045001400903027754 0 0.013934194144667523 0.0049093563307265426 0 0.014851310960556429 0.0052230828383485447 0 0.013820400451980982 0.0044044151970811952 0 0.013630502719667132 0.0046423755238156963 0 0.013934194144667523 0.0049093563307265426 0 0.013820400451980982 0.0044044151970811952 0 0.014294422371480299 0.0045001400903027754 0 0.013934194144667523 0.0049093563307265426 0 0.014851310960556429 0.0052230828383485447 0 0.015192432450701045 0.0049094355173116971 0 0.015397035884579982 0.0053069158471398077 0 0.014851310960556429 0.0052230828383485447 0 0.015192432450701045 0.0049094355173116971 0 0.014873889437603016 0.0044878936130840217 0 0.015192432450701045 0.0049094355173116971 0 0.015364023074511448 0.0045474921679762035 0 0.014873889437603016 0.0044878936130840217 0 0.015192432450701045 0.0049094355173116971 0 0.015520074402545294 0.0049167726030548056 0 0.015364023074511448 0.0045474921679762035 0 0.015192432450701045 0.0049094355173116971 0 0.015520074402545294 0.0049167726030548056 0 0.015397035884579982 0.0053069158471398077 0 0.015979789137078849 0.0051787366334579846 0 0.015520074402545294 0.0049167726030548056 0 0.015776378638806453 0.0046355467477891005 0 0.015979789137078849 0.0051787366334579846 0 0.015520074402545294 0.0049167726030548056 0 0.015397035884579982 0.0053069158471398077 0 0.015520074402545294 0.0049167726030548056 0 0.015776378638806453 0.0046355467477891005 0 0.015364023074511448 0.0045474921679762035 0 0.015364023074511448 0.0045474921679762035 0 0.015624026569279583 0.0041963041696896162 0 0.015194584494857569 0.0041937476738340349 0 0.015776378638806453 0.0046355467477891005 0 0.015364023074511448 0.0045474921679762035 0 0.015624026569279583 0.0041963041696896162 0 0.015964981830941409 0.004326810580553675 0 0.015776378638806453 0.0046355467477891005 0 0.015624026569279583 0.0041963041696896162 0 0.015248551397202477 0.003820173552197029 0 0.015624026569279583 0.0041963041696896162 0 0.015194584494857569 0.0041937476738340349 0 0.015194584494857569 0.0041937476738340349 0 0.014828994171058036 0.0040433563559236652 0 0.014873889437603016 0.0044878936130840217 0 0.015248551397202477 0.003820173552197029 0 0.015194584494857569 0.0041937476738340349 0 0.014828994171058036 0.0040433563559236652 0 0.014463223360664941 0.0041124875352690693 0 0.014828994171058036 0.0040433563559236652 0 0.014873889437603016 0.0044878936130840217 0 0.014475760713396391 0.0037823738111300758 0 0.014463223360664941 0.0041124875352690693 0 0.014828994171058036 0.0040433563559236652 0 0.015364023074511448 0.0045474921679762035 0 0.015194584494857569 0.0041937476738340349 0 0.014873889437603016 0.0044878936130840217 0 0.0093606862052233279 0.0036721009520941767 0 0.009661431238405415 0.0034665448026341742 0 0.0094091612945809006 0.0039446580868518297 0 0.010092966458765033 0.0036689034922668855 0 0.010042493359878701 0.0032209358857795147 0 0.0097346736503064642 0.0039631977438829872 0 0.010092966458765033 0.0036689034922668855 0 0.010366236467452003 0.0039422350275384174 0 0.0097346736503064642 0.0039631977438829872 0 0.0098556762253529332 0.003327881649884042 0 0.0096796288906110268 0.0039577074971504757 0 0.0093606862052233279 0.0036721009520941767 0 0.0094202233264819649 0.0034806849935372329 0 0.009661431238405415 0.0034665448026341742 0 0.0092936848755932836 0.0033388774174782357 0 0.0094202233264819649 0.0034806849935372329 0 0.009554831685997028 0.003252254128971315 0 0.0094202233264819649 0.0034806849935372329 0 0.009554831685997028 0.003252254128971315 0 0.009661431238405415 0.0034665448026341742 0 0.010092966458765033 0.0036689034922668855 0 0.010042493359878701 0.0032209358857795147 0 0.010251150855681422 0.0034007928091330155 0 0.010042493359878701 0.0032209358857795147 0 0.010251150855681422 0.0034007928091330155 0 0.010290396820294902 0.0031600764382138497 0 0.010444745517738442 0.0032913411847387015 0 0.010251150855681422 0.0034007928091330155 0 0.010290396820294902 0.0031600764382138497 0 0.010333290469226751 0.0029404702406179862 0 0.010042493359878701 0.0032209358857795147 0 0.010290396820294902 0.0031600764382138497 0 0.010333290469226751 0.0029404702406179862 0 0.010290396820294902 0.0031600764382138497 0 0.010508147281266901 0.0030429678346131656 0 0.010444745517738442 0.0032913411847387015 0 0.010290396820294902 0.0031600764382138497 0 0.010508147281266901 0.0030429678346131656 0 0.010444745517738442 0.0032913411847387015 0 0.010508147281266901 0.0030429678346131656 0 0.010717939262943836 0.0032546912212568094 0 0.010508147281266901 0.0030429678346131656 0 0.010717939262943836 0.0032546912212568094 0 0.010794398193827227 0.0029744466937467306 0 0.010444745517738442 0.0032913411847387015 0 0.010567899262761207 0.0036207348252976857 0 0.010717939262943836 0.0032546912212568094 0 0.010567899262761207 0.0036207348252976857 0 0.010895264437024356 0.0040512109503721963 0 0.010366236467452003 0.0039422350275384174 0 0.010092966458765033 0.0036689034922668855 0 0.010251150855681422 0.0034007928091330155 0 0.010567899262761207 0.0036207348252976857 0 0.010444745517738442 0.0032913411847387015 0 0.010251150855681422 0.0034007928091330155 0 0.010567899262761207 0.0036207348252976857 0 0.010092966458765033 0.0036689034922668855 0 0.010567899262761207 0.0036207348252976857 0 0.010366236467452003 0.0039422350275384174 0 0.010567899262761207 0.0036207348252976857 0 0.011017410375157801 0.00367864691947957 0 0.010895264437024356 0.0040512109503721963 0 0.011017410375157801 0.00367864691947957 0 0.011320373007190564 0.0036503096885201021 0 0.011262014250378025 0.0039285643258326949 0 0.011017410375157801 0.00367864691947957 0 0.011262014250378025 0.0039285643258326949 0 0.010895264437024356 0.0040512109503721963 0 0.011017410375157801 0.00367864691947957 0 0.010916954499757119 0.0034170036805510973 0 0.011201411482643852 0.0034180230491627083 0 0.011017410375157801 0.00367864691947957 0 0.011201411482643852 0.0034180230491627083 0 0.011320373007190564 0.0036503096885201021 0 0.010567899262761207 0.0036207348252976857 0 0.010916954499757119 0.0034170036805510973 0 0.010717939262943836 0.0032546912212568094 0 0.010567899262761207 0.0036207348252976857 0 0.011017410375157801 0.00367864691947957 0 0.010916954499757119 0.0034170036805510973 0 0.010916954499757119 0.0034170036805510973 0 0.010717939262943836 0.0032546912212568094 0 0.011039309000619859 0.0031928685061808578 0 0.010717939262943836 0.0032546912212568094 0 0.010794398193827227 0.0029744466937467306 0 0.011039309000619859 0.0031928685061808578 0 0.011079473859916047 0.0029299572702142481 0 0.010794398193827227 0.0029744466937467306 0 0.011039309000619859 0.0031928685061808578 0 0.011079473859916047 0.0029299572702142481 0 0.011039309000619859 0.0031928685061808578 0 0.011365000978081193 0.0031595421983338489 0 0.010916954499757119 0.0034170036805510973 0 0.011039309000619859 0.0031928685061808578 0 0.011201411482643852 0.0034180230491627083 0 0.011039309000619859 0.0031928685061808578 0 0.011365000978081193 0.0031595421983338489 0 0.011201411482643852 0.0034180230491627083 0 0.011365000978081193 0.0031595421983338489 0 0.011581849630821548 0.0034263389676461777 0 0.011201411482643852 0.0034180230491627083 0 0.011079473859916047 0.0029299572702142481 0 0.011361912377663767 0.0028868524027451012 0 0.011365000978081193 0.0031595421983338489 0 0.011361912377663767 0.0028868524027451012 0 0.011729192450497822 0.0030350596216016305 0 0.011365000978081193 0.0031595421983338489 0 0.011729192450497822 0.0030350596216016305 0 0.011365000978081193 0.0031595421983338489 0 0.011581849630821548 0.0034263389676461777 0 0.011851324636567682 0.0036671327076002692 0 0.011581849630821548 0.0034263389676461777 0 0.01155307165667426 0.0038011301300171232 0 0.011581849630821548 0.0034263389676461777 0 0.011320373007190564 0.0036503096885201021 0 0.01155307165667426 0.0038011301300171232 0 0.011581849630821548 0.0034263389676461777 0 0.011201411482643852 0.0034180230491627083 0 0.011320373007190564 0.0036503096885201021 0 0.011320373007190564 0.0036503096885201021 0 0.01155307165667426 0.0038011301300171232 0 0.011262014250378025 0.0039285643258326949 0 0.011851324636567682 0.0036671327076002692 0 0.011816269485314175 0.0039876552833755007 0 0.01155307165667426 0.0038011301300171232 0 0.011816269485314175 0.0039876552833755007 0 0.011825280001094299 0.0042562138580962399 0 0.011557580099288747 0.0041094547552291572 0 0.011816269485314175 0.0039876552833755007 0 0.01155307165667426 0.0038011301300171232 0 0.011557580099288747 0.0041094547552291572 0 0.011557580099288747 0.0041094547552291572 0 0.011262014250378025 0.0039285643258326949 0 0.011290385941713325 0.0042443516230288502 0 0.01155307165667426 0.0038011301300171232 0 0.011557580099288747 0.0041094547552291572 0 0.011262014250378025 0.0039285643258326949 0 0.011290385941713325 0.0042443516230288502 0 0.011409273831770681 0.0045098527089356393 0 0.011092355344346097 0.0044297545624172006 0 0.011557580099288747 0.0041094547552291572 0 0.011290385941713325 0.0042443516230288502 0 0.01158791085574239 0.0043916527317831361 0 0.011290385941713325 0.0042443516230288502 0 0.01158791085574239 0.0043916527317831361 0 0.011409273831770681 0.0045098527089356393 0 0.011825280001094299 0.0042562138580962399 0 0.011557580099288747 0.0041094547552291572 0 0.01158791085574239 0.0043916527317831361 0 0.011825280001094299 0.0042562138580962399 0 0.01158791085574239 0.0043916527317831361 0 0.011780113988413742 0.0044592494697607314 0 0.01158791085574239 0.0043916527317831361 0 0.011780113988413742 0.0044592494697607314 0 0.011657503394811601 0.0046441664569435853 0 0.012077165816539387 0.004927374831125762 0 0.011418412652510083 0.0048259394634931532 0 0.011237699925951345 0.0049412258956535102 0 0.01158791085574239 0.0043916527317831361 0 0.011657503394811601 0.0046441664569435853 0 0.011409273831770681 0.0045098527089356393 0 0.012077165816539387 0.004927374831125762 0 0.011657503394811601 0.0046441664569435853 0 0.011418412652510083 0.0048259394634931532 0 0.011657503394811601 0.0046441664569435853 0 0.011418412652510083 0.0048259394634931532 0 0.011409273831770681 0.0045098527089356393 0 0.011418412652510083 0.0048259394634931532 0 0.011409273831770681 0.0045098527089356393 0 0.011092355344346097 0.0044297545624172006 0 0.011364037019786543 0.0047966670117975995 0 0.010599734220167471 0.0043548213485624845 0 0.011418412652510083 0.0048259394634931532 0 0.010590747154133724 0.0042867208577982915 0 0.011237699925951345 0.0049412258956535102 0 0.011418412652510083 0.0048259394634931532 0 0.011092355344346097 0.0044297545624172006 0 0.010549950811831592 0.0044130833858184336 0 0.010590747154133724 0.0042867208577982915 0 0.010583491353489075 0.0046677446629968221 0 0.011237699925951345 0.0049412258956535102 0 0.011092355344346097 0.0044297545624172006 0 0.010895264437024356 0.0040512109503721963 0 0.010549950811831592 0.0044130833858184336 0 0.011290385941713325 0.0042443516230288502 0 0.011092355344346097 0.0044297545624172006 0 0.010895264437024356 0.0040512109503721963 0 0.011262014250378025 0.0039285643258326949 0 0.011290385941713325 0.0042443516230288502 0 0.010895264437024356 0.0040512109503721963 0 0.010895264437024356 0.0040512109503721963 0 0.010366236467452003 0.0039422350275384174 0 0.010549950811831592 0.0044130833858184336 0 0.010590747154133724 0.0042867208577982915 0 0.010311833955715466 0.0044886159195833839 0 0.010075043233301759 0.004296331495981397 0 0.010583491353489075 0.0046677446629968221 0 0.010311833955715466 0.0044886159195833839 0 0.010318660391942527 0.0047996211249303243 0 0.010590747154133724 0.0042867208577982915 0 0.010583491353489075 0.0046677446629968221 0 0.010311833955715466 0.0044886159195833839 0 0.010311833955715466 0.0044886159195833839 0 0.0099755800163232166 0.0045163941066280701 0 0.010075043233301759 0.004296331495981397 0 0.010311833955715466 0.0044886159195833839 0 0.010123774156701539 0.0046685199803928089 0 0.010318660391942527 0.0047996211249303243 0 0.010311833955715466 0.0044886159195833839 0 0.010123774156701539 0.0046685199803928089 0 0.0099755800163232166 0.0045163941066280701 0 0.0097875824327587711 0.004623667535207078 0 0.0099755800163232166 0.0045163941066280701 0 0.0099030554763965429 0.0048530708279158011 0 0.010123774156701539 0.0046685199803928089 0 0.0099755800163232166 0.0045163941066280701 0 0.0099030554763965429 0.0048530708279158011 0 0.0096827404007118131 0.0042978966967224756 0 0.0099755800163232166 0.0045163941066280701 0 0.010075043233301759 0.004296331495981397 0 0.010590747154133724 0.0042867208577982915 0 0.010075043233301759 0.004296331495981397 0 0.0098333059710747073 0.0038859406572481245 0 0.0096827404007118131 0.0042978966967224756 0 0.010075043233301759 0.004296331495981397 0 0.0098333059710747073 0.0038859406572481245 0 0.010366236467452003 0.0039422350275384174 0 0.010549950811831592 0.0044130833858184336 0 0.0097346736503064642 0.0039631977438829872 0 0.010599734220167471 0.0043548213485624845 0 0.0096796288906110268 0.0039577074971504757 0 0.0098998864424080669 0.0054788253797905338 0 0.0101140181264053 0.0054452607963164047 0 0.0099933732594526849 0.0052275543781360196 0 0.0098998864424080669 0.0054788253797905338 0 0.0101140181264053 0.0054452607963164047 0 0.010023530179858485 0.005553268069048262 0 0.0101140181264053 0.0054452607963164047 0 0.010333988657634321 0.0053341776838407833 0 0.010340018082051193 0.005573531231757565 0 0.0101140181264053 0.0054452607963164047 0 0.0099933732594526849 0.0052275543781360196 0 0.010333988657634321 0.0053341776838407833 0 0.0099933732594526849 0.0052275543781360196 0 0.010272336765381754 0.0050592854981936558 0 0.010333988657634321 0.0053341776838407833 0 0.0099933732594526849 0.0052275543781360196 0 0.0099030554763965429 0.0048530708279158011 0 0.010272336765381754 0.0050592854981936558 0 0.0097113486435616205 0.0051159268988264991 0 0.0099933732594526849 0.0052275543781360196 0 0.0099030554763965429 0.0048530708279158011 0 0.0099030554763965429 0.0048530708279158011 0 0.010390439934710931 0.0048799858994259728 0 0.010318660391942527 0.0047996211249303243 0 0.0099112321504435802 0.0048576734978756841 0 0.010561152532061675 0.0048135756869275353 0 0.0099030554763965429 0.0048530708279158011 0 0.010272336765381754 0.0050592854981936558 0 0.010412367217693994 0.0047848428035438479 0 0.010123774156701539 0.0046685199803928089 0 0.0099030554763965429 0.0048530708279158011 0 0.010318660391942527 0.0047996211249303243 0 0.010583491353489075 0.0046677446629968221 0 0.010400063130356024 0.0049008633110488751 0 0.011237699925951345 0.0049412258956535102 0 0.010272336765381754 0.0050592854981936558 0 0.010412367217693994 0.0047848428035438479 0 0.010815097912090487 0.0051790344653769556 0 0.010583491353489075 0.0046677446629968221 0 0.010400063130356024 0.0049008633110488751 0 0.010318660391942527 0.0047996211249303243 0 0.010561152532061675 0.0048135756869275353 0 0.010506098362289247 0.004787875914193729 0 0.010561152532061675 0.0048135756869275353 0 0.011030395272782411 0.0052344843731128151 0 0.010333988657634321 0.0053341776838407833 0 0.010668002874035349 0.0055376329904599023 0 0.010815097912090487 0.0051790344653769556 0 0.010272336765381754 0.0050592854981936558 0 0.010333988657634321 0.0053341776838407833 0 0.010815097912090487 0.0051790344653769556 0 0.010333988657634321 0.0053341776838407833 0 0.010668002874035349 0.0055376329904599023 0 0.010340018082051193 0.005573531231757565 0 0.010668002874035349 0.0055376329904599023 0 0.010815097912090487 0.0051790344653769556 0 0.011237107654919034 0.0055942958049654658 0 0.011469708985226217 0.0054300502072125315 0 0.012498980249551286 0.0052470115228217123 0 0.012153031576358046 0.0061462591912260812 0 0.011030395272782411 0.0052344843731128151 0 0.012776782337675284 0.0057865044693279676 0 0.01078691033023919 0.0047105205401812384 0 0.011469708985226217 0.0054300502072125315 0 0.012088713352779411 0.0046179771378483288 0 0.011469708985226217 0.0054300502072125315 0 0.012088713352779411 0.0046179771378483288 0 0.012498980249551286 0.0052470115228217123 0 0.010561152532061675 0.0048135756869275353 0 0.011557146690797809 0.0047431968300922474 0 0.01338605254439878 0.0045288727164635228 0 0.012088713352779411 0.0046179771378483288 0 0.012498980249551286 0.0052470115228217123 0 0.013300461218341822 0.0050448799192200416 0 0.011557146690797809 0.0047431968300922474 0 0.012498980249551286 0.0052470115228217123 0 0.012153031576358046 0.0061462591912260812 0 0.013367436324517337 0.0052691633181130692 0 0.014003450683582492 0.0059376864339085256 0 0.014158346274923361 0.0060987665546711877 0 0.014589624841512298 0.0055136074890319289 0 0.012776782337675284 0.0057865044693279676 0 0.014247193718751881 0.0055415293137733111 0 0.015062740113326088 0.0059262534298763631 0 0.015321727168010972 0.006004434942837306 0 0.012776782337675284 0.0057865044693279676 0 0.015062740113326088 0.0059262534298763631 0 0.016164707504963068 0.0057401461785050352 0 0.016513706617500713 0.0057762865581723619 0 0.016327155788386387 0.0058970453274602604 0 0.015062740113326088 0.0059262534298763631 0 0.016363636180132406 0.0059463518090480888 0 0.016208750499767749 0.0054758761425890232 0 0.016164707504963068 0.0057401461785050352 0 0.016513706617500713 0.0057762865581723619 0 0.016164707504963068 0.0057401461785050352 0 0.016129554980111135 0.0059208232735226494 0 0.016327155788386387 0.0058970453274602604 0 0.016164707504963068 0.0057401461785050352 0 0.015909842637112315 0.0058626777332039422 0 0.01590183646596071 0.0055080187439593351 0 0.016164707504963068 0.0057401461785050352 0 0.015909842637112315 0.0058626777332039422 0 0.016129554980111135 0.0059208232735226494 0 0.016208750499767749 0.0054758761425890232 0 0.016164707504963068 0.0057401461785050352 0 0.01590183646596071 0.0055080187439593351 0 0.013839029681082559 0.0056171054697256844 0 0.01406547592571583 0.0058549957722188913 0 0.013432317233874664 0.0059101088134586623 0 0.010668002874035349 0.0055376329904599023 0 0.011237107654919034 0.0055942958049654658 0 0.010893974217440769 0.00583792081943099 0 0.015062740113326088 0.0059262534298763631 0 0.013545788229493696 0.0058080531818396905 0 0.012776782337675284 0.0057865044693279676 0 0.013545788229493696 0.0058080531818396905 0 0.010893974217440769 0.00583792081943099 0 0.010372704970282129 0.005814213013874049 0 0.0103300695093545 0.0058723268715749561 0 0.010893974217440769 0.00583792081943099 0 0.010495198036621172 0.0056770463940651935 0 0.010372704970282129 0.005814213013874049 0 0.013418184604572357 0.0059544838499468438 0 0.013243421380323479 0.0059692731956368138 0 0.013263195605410555 0.0060040974070975552 0 0.013545788229493696 0.0058080531818396905 0 0.010770770065604137 0.0056809927950478871 0 0.010668002874035349 0.0055376329904599023 0 0.010893974217440769 0.00583792081943099 0 0.010495198036621172 0.0056770463940651935 0 0.010668002874035349 0.0055376329904599023 0 0.010340018082051193 0.005573531231757565 0 0.010495198036621172 0.0056770463940651935 0 0.010340018082051193 0.005573531231757565 0 0.010378501830501295 0.0056965984812917814 0 0.010495198036621172 0.0056770463940651935 0 0.010378501830501295 0.0056965984812917814 0 0.010306548256909234 0.0057233099022310644 0 0.010372704970282129 0.005814213013874049 0 0.010340018082051193 0.005573531231757565 0 0.010378501830501295 0.0056965984812917814 0 0.010306548256909234 0.0057233099022310644 0 0.010378501830501295 0.0056965984812917814 0 0.010495198036621172 0.0056770463940651935 0 0.010372704970282129 0.005814213013874049 0 0.010306548256909234 0.0057233099022310644 0 0.010372704970282129 0.005814213013874049 0 0.010324434907421303 0.0058641875461344015 0 0.010714972165007318 0.0057335570880182683 0 0.010770770065604137 0.0056809927950478871 0 0.013545788229493696 0.0058080531818396905 0 0.015224578996916985 0.0061512263322737156 0 0.015909842637112315 0.0058626777332039422 0 0.01590183646596071 0.0055080187439593351 0 0.015626539557939724 0.0057166429262833713 0 0.013418184604572357 0.0059544838499468438 0 0.013263195605410555 0.0060040974070975552 0 0.013267001009435172 0.0060652359630990168 0 0.014552857286518494 0.0060590474184458541 0 0.015224578996916985 0.0061512263322737156 0 0.013243421380323479 0.0059692731956368138 0 0.013263195605410555 0.0060040974070975552 0 0.013166046399791341 0.0060764617466460532 0 0.0094736251023216748 0.0057983699901898054 0 0.0094211968993564675 0.0056789963136587808 0 0.0095092102253028377 0.0057631178222280668 0 0.013263195605410555 0.0060040974070975552 0 0.01326435582491948 0.0060612389792105226 0 0.013166046399791341 0.0060764617466460532 0 0.0095938507072957629 0.0058728452382103401 0 0.0094736251023216748 0.0057983699901898054 0 0.0095092102253028377 0.0057631178222280668 0 0.010770770065604137 0.0056809927950478871 0 0.011291545593940633 0.0059675585789592386 0 0.013087621334251776 0.0061815389563635069 0 0.01326435582491948 0.0060612389792105226 0 0.013166046399791341 0.0060764617466460532 0 0.013516231079394534 0.0061883731226355558 0 0.015224578996916985 0.0061512263322737156 0 0.0096712605874119117 0.0055508238072866029 0 0.0095282120792512526 0.0051830526088908913 0 0.0094211968993564675 0.0056789963136587808 0 0.0096712605874119117 0.0055508238072866029 0 0.0094211968993564675 0.0056789963136587808 0 0.0095092102253028377 0.0057631178222280668 0 0.013516231079394534 0.0061883731226355558 0 0.011291545593940633 0.0059675585789592386 0 0.010324434907421303 0.0058641875461344015 0 0.010120306994653329 0.0056646578345167708 0 0.0098958615579388433 0.0057390440257817157 0 0.0095578418028313215 0.005881930796560365 0 0.010324434907421303 0.0058641875461344015 0 0.0098958615579388433 0.0057390440257817157 0 0.0091966464108547245 0.0059322258252821171 0 0.010770770065604137 0.0056809927950478871 0 0.010340018082051193 0.005573531231757565 0 0.010306548256909234 0.0057233099022310644 0 0.010120306994653329 0.0056646578345167708 0 0.0101140181264053 0.0054452607963164047 0 0.010120306994653329 0.0056646578345167708 0 0.010023530179858485 0.005553268069048262 0 0.0101140181264053 0.0054452607963164047 0 0.010340018082051193 0.005573531231757565 0 0.010120306994653329 0.0056646578345167708 0 0.010306548256909234 0.0057233099022310644 0 0.010324434907421303 0.0058641875461344015 0 0.010120306994653329 0.0056646578345167708 0 0.010120306994653329 0.0056646578345167708 0 0.010023530179858485 0.005553268069048262 0 0.0099457754301641513 0.005618683595669801 0 0.010120306994653329 0.0056646578345167708 0 0.0099457754301641513 0.005618683595669801 0 0.0098958615579388433 0.0057390440257817157 0 0.0098181661569196992 0.0056153850423639852 0 0.0098998864424080669 0.0054788253797905338 0 0.0099457754301641513 0.005618683595669801 0 0.0098998864424080669 0.0054788253797905338 0 0.010023530179858485 0.005553268069048262 0 0.0099457754301641513 0.005618683595669801 0 0.0098181661569196992 0.0056153850423639852 0 0.0099457754301641513 0.005618683595669801 0 0.0098958615579388433 0.0057390440257817157 0 0.015298740835113586 0.0056313695177845008 0 0.015845613789093948 0.0056632172603759343 0 0.016029498747054238 0.0061233072271230224 0 0.015298740835113586 0.0056313695177845008 0 0.015077925851197927 0.0062695069922510151 0 0.016029498747054238 0.0061233072271230224 0 0.016180056956436401 0.0055945469442721133 0 0.015845613789093948 0.0056632172603759343 0 0.016126570723331287 0.0059402156511374794 0 0.015845613789093948 0.0056632172603759343 0 0.016126570723331287 0.0059402156511374794 0 0.016029498747054238 0.0061233072271230224 0 0.016180056956436401 0.0055945469442721133 0 0.015979789137078849 0.0051787366334579846 0 0.015845613789093948 0.0056632172603759343 0 0.015979789137078849 0.0051787366334579846 0 0.015845613789093948 0.0056632172603759343 0 0.015397035884579982 0.0053069158471398077 0 0.014851310960556429 0.0052230828383485447 0 0.015298740835113586 0.0056313695177845008 0 0.015397035884579982 0.0053069158471398077 0 0.015298740835113586 0.0056313695177845008 0 0.015845613789093948 0.0056632172603759343 0 0.015397035884579982 0.0053069158471398077 0 0.014614055980375792 0.0052880827046875162 0 0.014851310960556429 0.0052230828383485447 0 0.014699293278593305 0.0054299728872693161 0 0.014851310960556429 0.0052230828383485447 0 0.015298740835113586 0.0056313695177845008 0 0.014927525777083658 0.0055436306702696054 0 0.014851310960556429 0.0052230828383485447 0 0.014927525777083658 0.0055436306702696054 0 0.014699293278593305 0.0054299728872693161 0 0.01338605254439878 0.0045288727164635228 0 0.012498980249551286 0.0052470115228217123 0 0.013367436324517337 0.0052691633181130692 0 0.013300461218341822 0.0050448799192200416 0 0.014247193718751881 0.0055415293137733111 0 0.014614055980375792 0.0052880827046875162 0 0.014699293278593305 0.0054299728872693161 0 0.014609922162885947 0.005493361595301333 0 0.014568576999048748 0.0054001584723617361 0 0.014247193718751881 0.0055415293137733111 0 0.014158346274923361 0.0060987665546711877 0 0.014589624841512298 0.0055136074890319289 0 0.014580295407468111 0.0060603294145649923 0 0.014247193718751881 0.0055415293137733111 0 0.015321727168010972 0.006004434942837306 0 0.014496293669215621 0.0055611574170834127 0 0.014821692951471571 0.005791657506618802 0 0.014464374327923859 0.0063031899287800163 0 0.014699293278593305 0.0054299728872693161 0 0.014496293669215621 0.0055611574170834127 0 0.014821692951471571 0.005791657506618802 0 0.015298740835113586 0.0056313695177845008 0 0.014821692951471571 0.005791657506618802 0 0.015077925851197927 0.0062695069922510151 0 0.015298740835113586 0.0056313695177845008 0 0.014927525777083658 0.0055436306702696054 0 0.014821692951471571 0.005791657506618802 0 0.014927525777083658 0.0055436306702696054 0 0.014699293278593305 0.0054299728872693161 0 0.014821692951471571 0.005791657506618802 0 0.015897341513562445 0.0061637881702757127 0 0.015321727168010972 0.006004434942837306 0 0.016630713994045213 0.0060866976777853932 0 0.016735154966528703 0.0060355584421257829 0 0.016667590163727423 0.0059354185630661012 0 0.014821692951471571 0.005791657506618802 0 0.015077925851197927 0.0062695069922510151 0 0.014464374327923859 0.0063031899287800163 0 0.016630713994045213 0.0060866976777853932 0 0.016667590163727423 0.0059354185630661012 0 0.016506596464461516 0.0059225500614745012 0 0.015380287225554222 0.0058436736815595993 0 0.015697152230779148 0.0058145700669006949 0 0.015691913477895277 0.0061675158132735754 0 0.016735154966528703 0.0060355584421257829 0 0.016704964204100069 0.0059323225821132364 0 0.016667590163727423 0.0059354185630661012 0 0.015321727168010972 0.006004434942837306 0 0.016363636180132406 0.0059463518090480888 0 0.016704964204100069 0.0059323225821132364 0 0.016667590163727423 0.0059354185630661012 0 0.016669613860587431 0.0059378524470448642 0 0.016363636180132406 0.0059463518090480888 0 0.016631642426373619 0.0059830691283956437 0 0.016667590163727423 0.0059354185630661012 0 0.016733568280173392 0.0059274498977546775 0 0.016669613860587431 0.0059378524470448642 0 0.016667590163727423 0.0059354185630661012 0 0.016506596464461516 0.0059225500614745012 0 0.016733568280173392 0.0059274498977546775 0 0.016699483567399722 0.0058611768491871339 0 0.016506596464461516 0.0059225500614745012 0 0.01621860091616632 0.0060654768026041465 0 0.016699483567399722 0.0058611768491871339 0 0.016506596464461516 0.0059225500614745012 0 0.016733568280173392 0.0059274498977546775 0 0.015897341513562445 0.0061637881702757127 0 0.015992905341330105 0.0061393530896578308 0 0.016630713994045213 0.0060866976777853932 0 0.016506596464461516 0.0059225500614745012 0 0.016029498747054238 0.0061233072271230224 0 0.016506596464461516 0.0059225500614745012 0 0.016029498747054238 0.0061233072271230224 0 0.01621860091616632 0.0060654768026041465 0 0.016126570723331287 0.0059402156511374794 0 0.016029498747054238 0.0061233072271230224 0 0.01621860091616632 0.0060654768026041465 0 0.01619144860228388 0.0059952986100871661 0 0.016126570723331287 0.0059402156511374794 0 0.01621860091616632 0.0060654768026041465 0 0.01619144860228388 0.0059952986100871661 0 0.016138337265478624 0.0060370388823378918 0 0.01621860091616632 0.0060654768026041465 0 0.017355675756021885 0.005929758309028409 0 0.016699483567399722 0.0058611768491871339 0 0.017334586181168815 0.0060808453516720123 0 0.017345314222590676 0.005688233989283367 0 0.017355675756021885 0.005929758309028409 0 0.016699483567399722 0.0058611768491871339 0 0.016138337265478624 0.0060370388823378918 0 0.016699483567399722 0.0058611768491871339 0 0.01621860091616632 0.0060654768026041465 0 0.016735623088947174 0.005867047214101459 0 0.016689746196220077 0.0058719332767945605 0 0.016699483567399722 0.0058611768491871339 0 0.017334586181168815 0.0060808453516720123 0 0.017059299868837294 0.00612128837023505 0 0.017059299868837294 0.00612128837023505 0 0.017199275432754263 0.0065620813395040967 0 0.017672894940979619 0.0062485709403710052 0 0.017334586181168815 0.0060808453516720123 0 0.017059299868837294 0.00612128837023505 0 0.017672894940979619 0.0062485709403710052 0 0.017059299868837294 0.00612128837023505 0 0.016835790849981106 0.0062471048026700674 0 0.017199275432754263 0.0065620813395040967 0 0.017059299868837294 0.00612128837023505 0 0.016733568280173392 0.0059274498977546775 0 0.016777754501691961 0.0060511785671000396 0 0.016699483567399722 0.0058611768491871339 0 0.017059299868837294 0.00612128837023505 0 0.016733568280173392 0.0059274498977546775 0 0.016733568280173392 0.0059274498977546775 0 0.016669613860587431 0.0059378524470448642 0 0.016777754501691961 0.0060511785671000396 0 0.016669613860587431 0.0059378524470448642 0 0.016777754501691961 0.0060511785671000396 0 0.016675441626062354 0.0061042011479279798 0 0.016363636180132406 0.0059463518090480888 0 0.01650313193340968 0.0059418281993872269 0 0.016513706617500713 0.0057762865581723619 0 0.01652111704349735 0.0060204413007155372 0 0.016327155788386387 0.0058970453274602604 0 0.016534680755030614 0.0057958579220614764 0 0.016669613860587431 0.0059378524470448642 0 0.01652111704349735 0.0060204413007155372 0 0.016669613860587431 0.0059378524470448642 0 0.01652111704349735 0.0060204413007155372 0 0.016675441626062354 0.0061042011479279798 0 0.01652111704349735 0.0060204413007155372 0 0.016509540296753576 0.0063000017677955463 0 0.016290141865051091 0.0061096327626043749 0 0.01652111704349735 0.0060204413007155372 0 0.016509540296753576 0.0063000017677955463 0 0.016675441626062354 0.0061042011479279798 0 0.016509540296753576 0.0063000017677955463 0 0.016675441626062354 0.0061042011479279798 0 0.016835790849981106 0.0062471048026700674 0 0.017059299868837294 0.00612128837023505 0 0.016777754501691961 0.0060511785671000396 0 0.016835790849981106 0.0062471048026700674 0 0.016509540296753576 0.0063000017677955463 0 0.016835790849981106 0.0062471048026700674 0 0.016760774730866752 0.0064329093306868092 0 0.016777754501691961 0.0060511785671000396 0 0.016675441626062354 0.0061042011479279798 0 0.016835790849981106 0.0062471048026700674 0 0.016835790849981106 0.0062471048026700674 0 0.016760774730866752 0.0064329093306868092 0 0.017199275432754263 0.0065620813395040967 0 0.016843285522532791 0.0066675645337392958 0 0.017182387062922046 0.0065786647487280983 0 0.016760774730866752 0.0064329093306868092 0 0.016544772313628095 0.0066646328593257817 0 0.017199275432754263 0.0065620813395040967 0 0.016509540296753576 0.0063000017677955463 0 0.016544772313628095 0.0066646328593257817 0 0.0163239264983931 0.0065150418023259792 0 0.016509540296753576 0.0063000017677955463 0 0.016760774730866752 0.0064329093306868092 0 0.016544772313628095 0.0066646328593257817 0 0.017105955804966318 0.006703068407990561 0 0.017179372885347318 0.0068517138769784523 0 0.017025655162926416 0.0068124980882111868 0 0.017179372885347318 0.0068517138769784523 0 0.017199275432754263 0.0065620813395040967 0 0.01742972367311069 0.0069902575604879674 0 0.017105955804966318 0.006703068407990561 0 0.017179372885347318 0.0068517138769784523 0 0.017199275432754263 0.0065620813395040967 0 0.017199275432754263 0.0065620813395040967 0 0.017766437796870416 0.0069178097007791947 0 0.01742972367311069 0.0069902575604879674 0 0.017199275432754263 0.0065620813395040967 0 0.017766437796870416 0.0069178097007791947 0 0.017672894940979619 0.0062485709403710052 0 0.016946046133046688 0.006628600210125144 0 0.016658402397462337 0.0064077633798409793 0 0.016911214141905703 0.0062221026760427506 0 0.016946046133046688 0.006628600210125144 0 0.016623222468253505 0.0068470053450169713 0 0.016658402397462337 0.0064077633798409793 0 0.015224578996916985 0.0061512263322737156 0 0.016262049311672553 0.0063297241693539815 0 0.015909842637112315 0.0058626777332039422 0 0.015626539557939724 0.0057166429262833713 0 0.015634977486028791 0.0061931763784229075 0 0.015909842637112315 0.0058626777332039422 0 0.015634977486028791 0.0061931763784229075 0 0.015965168234650086 0.0061372767438376266 0 0.015634977486028791 0.0061931763784229075 0 0.015965168234650086 0.0061372767438376266 0 0.015881917455828291 0.006432290398816252 0 0.015965168234650086 0.0061372767438376266 0 0.016168653556863099 0.006373080573215637 0 0.015881917455828291 0.006432290398816252 0 0.015909842637112315 0.0058626777332039422 0 0.015965168234650086 0.0061372767438376266 0 0.016129554980111135 0.0059208232735226494 0 0.015965168234650086 0.0061372767438376266 0 0.016129554980111135 0.0059208232735226494 0 0.016290141865051091 0.0061096327626043749 0 0.016129554980111135 0.0059208232735226494 0 0.016327155788386387 0.0058970453274602604 0 0.016290141865051091 0.0061096327626043749 0 0.01652111704349735 0.0060204413007155372 0 0.016327155788386387 0.0058970453274602604 0 0.016290141865051091 0.0061096327626043749 0 0.016509540296753576 0.0063000017677955463 0 0.016290141865051091 0.0061096327626043749 0 0.016168653556863099 0.006373080573215637 0 0.015965168234650086 0.0061372767438376266 0 0.016290141865051091 0.0061096327626043749 0 0.016168653556863099 0.006373080573215637 0 0.016509540296753576 0.0063000017677955463 0 0.016168653556863099 0.006373080573215637 0 0.0163239264983931 0.0065150418023259792 0 0.016168653556863099 0.006373080573215637 0 0.0163239264983931 0.0065150418023259792 0 0.016086530908004302 0.0067085400989007442 0 0.016544772313628095 0.0066646328593257817 0 0.0163239264983931 0.0065150418023259792 0 0.016086530908004302 0.0067085400989007442 0 0.016843285522532791 0.0066675645337392958 0 0.016470643894962573 0.0067810450187466738 0 0.017025655162926416 0.0068124980882111868 0 0.016922952334468968 0.006747209321333953 0 0.016885679970878285 0.0068496626035485812 0 0.017105955804966318 0.006703068407990561 0 0.017025655162926416 0.0068124980882111868 0 0.016922952334468968 0.006747209321333953 0 0.016922952334468968 0.006747209321333953 0 0.016772880242843451 0.0067727725220212143 0 0.016885679970878285 0.0068496626035485812 0 0.016470643894962573 0.0067810450187466738 0 0.01633384273564065 0.0063906643460534887 0 0.016168653556863099 0.006373080573215637 0 0.016086530908004302 0.0067085400989007442 0 0.015881917455828291 0.006432290398816252 0 0.016086530908004302 0.0067085400989007442 0 0.015881917455828291 0.006432290398816252 0 0.01564005265550842 0.0066643249957206892 0 0.016262049311672553 0.0063297241693539815 0 0.016205148377915403 0.0063164023617789328 0 0.015634977486028791 0.0061931763784229075 0 0.015881917455828291 0.006432290398816252 0 0.01564005265550842 0.0066643249957206892 0 0.016086530908004302 0.0067085400989007442 0 0.015640517544138914 0.0067689731993696885 0 0.01564005265550842 0.0066643249957206892 0 0.01633384273564065 0.0063906643460534887 0 0.016205148377915403 0.0063164023617789328 0 0.017106779049306409 0.0059620300292257062 0 0.016703582142260132 0.0059732241376898726 0 0.016977555028500218 0.0056955840297852802 0 0.016714191340611081 0.0058786225888473372 0 0.016703582142260132 0.0059732241376898726 0 0.016977555028500218 0.0056955840297852802 0 0.017106779049306409 0.0059620300292257062 0 0.016703582142260132 0.0059732241376898726 0 0.016911214141905703 0.0062221026760427506 0 0.016658402397462337 0.0064077633798409793 0 0.016703582142260132 0.0059732241376898726 0 0.016911214141905703 0.0062221026760427506 0 0.017016112770950158 0.0053397875221790035 0 0.016977555028500218 0.0056955840297852802 0 0.016753116512047708 0.0055621944191891481 0 0.017016112770950158 0.0053397875221790035 0 0.016753116512047708 0.0055621944191891481 0 0.016793615685011833 0.0051800241811674223 0 0.016714191340611081 0.0058786225888473372 0 0.016977555028500218 0.0056955840297852802 0 0.016753116512047708 0.0055621944191891481 0 0.016781726873712426 0.006891097831822633 0 0.016883241957173258 0.0069674328870624504 0 0.016885679970878285 0.0068496626035485812 0 0.01633384273564065 0.0063906643460534887 0 0.016708978483804628 0.006182910943253051 0 0.016772880242843451 0.0067727725220212143 0 0.016781726873712426 0.006891097831822633 0 0.016885679970878285 0.0068496626035485812 0 0.016781726873712426 0.006891097831822633 0 0.016883241957173258 0.0069674328870624504 0 0.016791947482549897 0.0070187683272127576 0 0.016708978483804628 0.006182910943253051 0 0.017391123682209235 0.0062416015530343955 0 0.016883241957173258 0.0069674328870624504 0 0.016885679970878285 0.0068496626035485812 0 0.017005545518104098 0.0069135255609720919 0 0.017025655162926416 0.0068124980882111868 0 0.016885679970878285 0.0068496626035485812 0 0.017005545518104098 0.0069135255609720919 0 0.01682062956342369 0.0072518584994990011 0 0.017031959552669101 0.0070673854462065472 0 0.01703503060300118 0.0073381821173846258 0 0.016675304902100736 0.0072834334966479135 0 0.017067194857701536 0.0069485309344556965 0 0.01703503060300118 0.0073381821173846258 0 0.017045578445449142 0.0076276937724448646 0 0.01679883208339673 0.0074735462881388472 0 0.01703503060300118 0.0073381821173846258 0 0.017045578445449142 0.0076276937724448646 0 0.017252831812625696 0.007465160682803223 0 0.016797876731698268 0.0077784035135432224 0 0.017045578445449142 0.0076276937724448646 0 0.01679883208339673 0.0074735462881388472 0 0.01682062956342369 0.0072518584994990011 0 0.01703503060300118 0.0073381821173846258 0 0.01679883208339673 0.0074735462881388472 0 0.01679883208339673 0.0074735462881388472 0 0.016595427187322688 0.0074161312128317265 0 0.016595177006956591 0.0075065643127019731 0 0.01682062956342369 0.0072518584994990011 0 0.01679883208339673 0.0074735462881388472 0 0.016595427187322688 0.0074161312128317265 0 0.016675304902100736 0.0072834334966479135 0 0.017391123682209235 0.0062416015530343955 0 0.017391123682209235 0.0062416015530343955 0 0.019233941667621688 0.0050168866053948227 0 0.021132349080898109 0.0049680062009111103 0 0.0207308143110457 0.0048069017289374344 0 0.020727307410902104 0.0044978562748229835 0 0.020989912008505914 0.0053137464557875148 0 0.019233941667621688 0.0050168866053948227 0 0.016797876731698268 0.0077784035135432224 0 0.01679883208339673 0.0074735462881388472 0 0.016595177006956591 0.0075065643127019731 0 0.023110830551572981 0.0033365848238705201 0 0.019233941667621688 0.0050168866053948227 0 0.021361352854191107 0.0025404800178767928 0 0.021347496515342054 0.0027710411126808596 0 0.021395894019580326 0.0025898254184343701 0 0.019233941667621688 0.0050168866053948227 0 0.019533864120750588 0.0040442854550393681 0 0.022346657780575371 0.0021887106754573372 0 0.019533864120750588 0.0040442854550393681 0 0.021680172755791892 0.0026421637923526942 0 0.021578811568155113 0.0028689973616513771 0 0.021309044342403841 0.0028637705171813011 0 0.021347496515342054 0.0027710411126808596 0 0.021477050659712772 0.0026801961291401371 0 0.021412619463354297 0.0028458691284846066 0 0.021680172755791892 0.0026421637923526942 0 0.021477050659712772 0.0026801961291401371 0 0.021412619463354297 0.0028458691284846066 0 0.021347496515342054 0.0027710411126808596 0 0.021477050659712772 0.0026801961291401371 0 0.021395894019580326 0.0025898254184343701 0 0.021543126785565178 0.00255287996927559 0 0.021477050659712772 0.0026801961291401371 0 0.021395894019580326 0.0025898254184343701 0 0.021680172755791892 0.0026421637923526942 0 0.021543126785565178 0.00255287996927559 0 0.021477050659712772 0.0026801961291401371 0 0.021578811568155113 0.0028689973616513771 0 0.021554542201287222 0.0031464827067804778 0 0.021309044342403841 0.0028637705171813011 0 0.017016112770950158 0.0053397875221790035 0 0.016793615685011833 0.0051800241811674223 0 0.016853627824471688 0.0051400269938935948 0 0.018684164774962573 0.0047669641421196176 0 0.018687265778103226 0.0049213047052599802 0 0.018602540297741239 0.0048230405167965767 0 0.017391123682209235 0.0062416015530343955 0 0.019533864120750588 0.0040442854550393681 0 0.019236774943318935 0.0042085846679663702 0 0.019533864120750588 0.0040442854550393681 0 0.017497304263799841 0.0072160410771789883 0 0.017740935047090522 0.007215106901523805 0 0.01742972367311069 0.0069902575604879674 0 0.017740935047090522 0.007215106901523805 0 0.017766437796870416 0.0069178097007791947 0 0.017993990480183086 0.0073767512356536112 0 0.017740935047090522 0.007215106901523805 0 0.017766437796870416 0.0069178097007791947 0 0.01742972367311069 0.0069902575604879674 0 0.017179372885347318 0.0068517138769784523 0 0.01742972367311069 0.0069902575604879674 0 0.017266756895898572 0.0071703417164671324 0 0.017179372885347318 0.0068517138769784523 0 0.017025655162926416 0.0068124980882111868 0 0.017005545518104098 0.0069135255609720919 0 0.017179372885347318 0.0068517138769784523 0 0.017031959552669101 0.0070673854462065472 0 0.017266756895898572 0.0071703417164671324 0 0.017159375833517586 0.0068726873453714542 0 0.017067194857701536 0.0069485309344556965 0 0.017031959552669101 0.0070673854462065472 0 0.01703503060300118 0.0073381821173846258 0 0.017266756895898572 0.0071703417164671324 0 0.017497304263799841 0.0072160410771789883 0 0.01742972367311069 0.0069902575604879674 0 0.017266756895898572 0.0071703417164671324 0 0.017497304263799841 0.0072160410771789883 0 0.017266756895898572 0.0071703417164671324 0 0.017528426358605995 0.0074589989325187589 0 0.017266756895898572 0.0071703417164671324 0 0.017528426358605995 0.0074589989325187589 0 0.017252831812625696 0.007465160682803223 0 0.01703503060300118 0.0073381821173846258 0 0.017266756895898572 0.0071703417164671324 0 0.017252831812625696 0.007465160682803223 0 0.017358980848872562 0.0077658205578847936 0 0.017045578445449142 0.0076276937724448646 0 0.017252831812625696 0.007465160682803223 0 0.01773531460088057 0.0078766925954167795 0 0.017358980848872562 0.0077658205578847936 0 0.017528426358605995 0.0074589989325187589 0 0.017358980848872562 0.0077658205578847936 0 0.017528426358605995 0.0074589989325187589 0 0.017252831812625696 0.007465160682803223 0 0.01773531460088057 0.0078766925954167795 0 0.017528426358605995 0.0074589989325187589 0 0.017885646438585028 0.0075228653335993765 0 0.017497304263799841 0.0072160410771789883 0 0.017528426358605995 0.0074589989325187589 0 0.017885646438585028 0.0075228653335993765 0 0.017497304263799841 0.0072160410771789883 0 0.017740935047090522 0.007215106901523805 0 0.017885646438585028 0.0075228653335993765 0 0.017898761032337774 0.0075082316125392439 0 0.018230717783102434 0.0071854045986772547 0 0.017740935047090522 0.007215106901523805 0 0.017885646438585028 0.0075228653335993765 0 0.017993990480183086 0.0073767512356536112 0 0.018256025076125754 0.0079912317082194723 0 0.017885646438585028 0.0075228653335993765 0 0.01856333940591557 0.0076360505753072464 0 0.017885646438585028 0.0075228653335993765 0 0.01856333940591557 0.0076360505753072464 0 0.018459385604373064 0.0069732547612588319 0 0.019229527852876311 0.0077724816424935596 0 0.018895143001339897 0.0077880067417262543 0 0.018989442365836443 0.0073827834535197629 0 0.018895143001339897 0.0077880067417262543 0 0.01856333940591557 0.0076360505753072464 0 0.018989442365836443 0.0073827834535197629 0 0.018989442365836443 0.0073827834535197629 0 0.018459385604373064 0.0069732547612588319 0 0.019003116449706186 0.0069485935606500094 0 0.01856333940591557 0.0076360505753072464 0 0.018989442365836443 0.0073827834535197629 0 0.018459385604373064 0.0069732547612588319 0 0.018230717783102434 0.0071854045986772547 0 0.018734743078832505 0.0068366116820358109 0 0.018459385604373064 0.0069732547612588319 0 0.019003116449706186 0.0069485935606500094 0 0.018986915282780577 0.0065591288444862847 0 0.017766437796870416 0.0069178097007791947 0 0.017993990480183086 0.0073767512356536112 0 0.018462944249223831 0.0071318971740968115 0 0.019003116449706186 0.0069485935606500094 0 0.018986915282780577 0.0065591288444862847 0 0.019512690944608554 0.006509028829627549 0 0.018986915282780577 0.0065591288444862847 0 0.019512690944608554 0.006509028829627549 0 0.019283615305720678 0.0064428767021852866 0 0.019003116449706186 0.0069485935606500094 0 0.019512690944608554 0.006509028829627549 0 0.019383596984536105 0.0071151865352489128 0 0.019512690944608554 0.006509028829627549 0 0.019565285447216831 0.0067069385228871346 0 0.019830744477727681 0.0065446895712105374 0 0.019512884293802654 0.0065292740786297892 0 0.019487239271517513 0.0068934906822694479 0 0.019565285447216831 0.0067069385228871346 0 0.019682765358191596 0.0069106445457569905 0 0.019830744477727681 0.0065446895712105374 0 0.019660792996957104 0.006833224043136678 0 0.019865619302550933 0.0065415022503129312 0 0.018989442365836443 0.0073827834535197629 0 0.019003116449706186 0.0069485935606500094 0 0.019383596984536105 0.0071151865352489128 0 0.019489134825759716 0.0071094077264640078 0 0.019565285447216831 0.0067069385228871346 0 0.019682765358191596 0.0069106445457569905 0 0.019229527852876311 0.0077724816424935596 0 0.018989442365836443 0.0073827834535197629 0 0.019383596984536105 0.0071151865352489128 0 0.019252694477994693 0.0074880353846231741 0 0.019487239271517513 0.0068934906822694479 0 0.019924078991776138 0.0069397584400535794 0 0.019835278521405198 0.0067174685946759993 0 0.019968551406908272 0.0068072210140256223 0 0.020113545149668993 0.0069011383861810266 0 0.019968551406908272 0.0068072210140256223 0 0.020016558734790947 0.0066859201876826955 0 0.019835278521405198 0.0067174685946759993 0 0.019968551406908272 0.0068072210140256223 0 0.020016558734790947 0.0066859201876826955 0 0.020113545149668993 0.0069011383861810266 0 0.020016558734790947 0.0066859201876826955 0 0.020403602282910351 0.0067664240226223693 0 0.020016558734790947 0.0066859201876826955 0 0.02023229883707631 0.00652713989563471 0 0.020403602282910351 0.0067664240226223693 0 0.019835278521405198 0.0067174685946759993 0 0.020016558734790947 0.0066859201876826955 0 0.019830744477727681 0.0065446895712105374 0 0.020016558734790947 0.0066859201876826955 0 0.02023229883707631 0.00652713989563471 0 0.019830744477727681 0.0065446895712105374 0 0.021914730013662318 0.0063726129594874753 0 0.020715571022226258 0.0064715315956551996 0 0.02089284227884837 0.0062757249547638425 0 0.020842225899593645 0.0071184436929457957 0 0.021914730013662318 0.0063726129594874753 0 0.020715571022226258 0.0064715315956551996 0 0.02023229883707631 0.00652713989563471 0 0.020403602282910351 0.0067664240226223693 0 0.020715571022226258 0.0064715315956551996 0 0.020842225899593645 0.0071184436929457957 0 0.020403602282910351 0.0067664240226223693 0 0.020715571022226258 0.0064715315956551996 0 0.02023229883707631 0.00652713989563471 0 0.020715571022226258 0.0064715315956551996 0 0.020459495508860691 0.0063433139236519047 0 0.020715571022226258 0.0064715315956551996 0 0.02089284227884837 0.0062757249547638425 0 0.020459495508860691 0.0063433139236519047 0 0.020564876640456174 0.006278822666997563 0 0.020459495508860691 0.0063433139236519047 0 0.02021615538424959 0.0062722162982658137 0 0.02089284227884837 0.0062757249547638425 0 0.020564876640456174 0.006278822666997563 0 0.020459495508860691 0.0063433139236519047 0 0.020459495508860691 0.0063433139236519047 0 0.02021615538424959 0.0062722162982658137 0 0.020130716104585257 0.0063900185394153534 0 0.020564876640456174 0.006278822666997563 0 0.02021615538424959 0.0062722162982658137 0 0.020288410648474253 0.0062544075949647745 0 0.02023229883707631 0.00652713989563471 0 0.020459495508860691 0.0063433139236519047 0 0.020130716104585257 0.0063900185394153534 0 0.02023229883707631 0.00652713989563471 0 0.019830744477727681 0.0065446895712105374 0 0.020130716104585257 0.0063900185394153534 0 0.02021615538424959 0.0062722162982658137 0 0.020130716104585257 0.0063900185394153534 0 0.019886832729647707 0.0063371277784013431 0 0.019512690944608554 0.006509028829627549 0 0.019830744477727681 0.0065446895712105374 0 0.019886832729647707 0.0063371277784013431 0 0.019830744477727681 0.0065446895712105374 0 0.020130716104585257 0.0063900185394153534 0 0.019886832729647707 0.0063371277784013431 0 0.019512690944608554 0.006509028829627549 0 0.019886832729647707 0.0063371277784013431 0 0.019617868258109582 0.0063140563401520499 0 0.019886832729647707 0.0063371277784013431 0 0.019834374423708036 0.0062204299510889172 0 0.019617868258109582 0.0063140563401520499 0 0.019886832729647707 0.0063371277784013431 0 0.019834374423708036 0.0062204299510889172 0 0.020000059839689843 0.006197719127751326 0 0.02021615538424959 0.0062722162982658137 0 0.019886832729647707 0.0063371277784013431 0 0.020000059839689843 0.006197719127751326 0 0.019834374423708036 0.0062204299510889172 0 0.020000059839689843 0.006197719127751326 0 0.01986729833240021 0.0061168521454410853 0 0.019834374423708036 0.0062204299510889172 0 0.019686902698962085 0.0061416360989373408 0 0.01986729833240021 0.0061168521454410853 0 0.019834374423708036 0.0062204299510889172 0 0.019686902698962085 0.0061416360989373408 0 0.019617868258109582 0.0063140563401520499 0 0.02021615538424959 0.0062722162982658137 0 0.020093628434770989 0.0062038706480500878 0 0.020288410648474253 0.0062544075949647745 0 0.020093628434770989 0.0062038706480500878 0 0.020288410648474253 0.0062544075949647745 0 0.019965418870570469 0.0061848807203049279 0 0.02021615538424959 0.0062722162982658137 0 0.020093628434770989 0.0062038706480500878 0 0.020000059839689843 0.006197719127751326 0 0.020000059839689843 0.006197719127751326 0 0.019957664757338983 0.0061679180294152451 0 0.01986729833240021 0.0061168521454410853 0 0.020093628434770989 0.0062038706480500878 0 0.020000059839689843 0.006197719127751326 0 0.019957664757338983 0.0061679180294152451 0 0.020093628434770989 0.0062038706480500878 0 0.019957664757338983 0.0061679180294152451 0 0.019965418870570469 0.0061848807203049279 0 0.019965418870570469 0.0061848807203049279 0 0.019730518996181206 0.0062714284004758468 0 0.01981665801863397 0.0061855584990090102 0 0.019957664757338983 0.0061679180294152451 0 0.019965418870570469 0.0061848807203049279 0 0.01981665801863397 0.0061855584990090102 0 0.019957664757338983 0.0061679180294152451 0 0.01981665801863397 0.0061855584990090102 0 0.01986729833240021 0.0061168521454410853 0 0.019658021160471686 0.0062679530327312263 0 0.01981665801863397 0.0061855584990090102 0 0.019793191067572821 0.0061079522063206227 0 0.01981665801863397 0.0061855584990090102 0 0.01986729833240021 0.0061168521454410853 0 0.019793191067572821 0.0061079522063206227 0 0.019594261767362755 0.0063628934267810485 0 0.019658021160471686 0.0062679530327312263 0 0.019730518996181206 0.0062714284004758468 0 0.019658021160471686 0.0062679530327312263 0 0.019730518996181206 0.0062714284004758468 0 0.01981665801863397 0.0061855584990090102 0 0.019686902698962085 0.0061416360989373408 0 0.01986729833240021 0.0061168521454410853 0 0.019726495182815697 0.0060012299366430369 0 0.019686902698962085 0.0061416360989373408 0 0.019726495182815697 0.0060012299366430369 0 0.019360230613562152 0.0060843904367933986 0 0.019766636882742526 0.0060112808497778036 0 0.019793191067572821 0.0061079522063206227 0 0.019726495182815697 0.0060012299366430369 0 0.01986729833240021 0.0061168521454410853 0 0.019793191067572821 0.0061079522063206227 0 0.019726495182815697 0.0060012299366430369 0 0.019002322294020726 0.006123613556957396 0 0.018685858787214786 0.0059990027671183504 0 0.019766636882742526 0.0060112808497778036 0 0.019726495182815697 0.0060012299366430369 0 0.019433922955220388 0.0057889644552757292 0 0.019726495182815697 0.0060012299366430369 0 0.019433922955220388 0.0057889644552757292 0 0.019360230613562152 0.0060843904367933986 0 0.019360230613562152 0.0060843904367933986 0 0.018733755079999449 0.0057678466280976521 0 0.01895972200265466 0.0062146431240831038 0 0.019433922955220388 0.0057889644552757292 0 0.019360230613562152 0.0060843904367933986 0 0.018733755079999449 0.0057678466280976521 0 0.017791153764589163 0.0060602806493527265 0 0.017957212520669827 0.006195461699382683 0 0.017719834420896141 0.0062013912329113244 0 0.018685858787214786 0.0059990027671183504 0 0.018217986926497561 0.0060081511171624366 0 0.017791153764589163 0.0060602806493527265 0 0.017595091753216014 0.0060725532027818387 0 0.017719834420896141 0.0062013912329113244 0 0.017355675756021885 0.005929758309028409 0 0.017334586181168815 0.0060808453516720123 0 0.017595091753216014 0.0060725532027818387 0 0.017334586181168815 0.0060808453516720123 0 0.017595091753216014 0.0060725532027818387 0 0.017672894940979619 0.0062485709403710052 0 0.01770129883274324 0.0062304959189996159 0 0.018217986926497561 0.0060081511171624366 0 0.017595091753216014 0.0060725532027818387 0 0.017672894940979619 0.0062485709403710052 0 0.017719834420896141 0.0062013912329113244 0 0.017766437796870416 0.0069178097007791947 0 0.017672894940979619 0.0062485709403710052 0 0.018361777739769096 0.006563847849752614 0 0.018733755079999449 0.0057678466280976521 0 0.018361777739769096 0.006563847849752614 0 0.01895972200265466 0.0062146431240831038 0 0.017672894940979619 0.0062485709403710052 0 0.018733755079999449 0.0057678466280976521 0 0.018361777739769096 0.006563847849752614 0 0.017766437796870416 0.0069178097007791947 0 0.018462944249223831 0.0071318971740968115 0 0.018361777739769096 0.006563847849752614 0 0.018462944249223831 0.0071318971740968115 0 0.018361777739769096 0.006563847849752614 0 0.019283615305720678 0.0064428767021852866 0 0.018734743078832505 0.0068366116820358109 0 0.019242814604658608 0.0064545098773148282 0 0.019512690944608554 0.006509028829627549 0 0.019283615305720678 0.0064428767021852866 0 0.019617868258109582 0.0063140563401520499 0 0.019686902698962085 0.0061416360989373408 0 0.019360230613562152 0.0060843904367933986 0 0.019617868258109582 0.0063140563401520499 0 0.019360230613562152 0.0060843904367933986 0 0.019283615305720678 0.0064428767021852866 0 0.019617868258109582 0.0063140563401520499 0 0.019360230613562152 0.0060843904367933986 0 0.019283615305720678 0.0064428767021852866 0 0.01895972200265466 0.0062146431240831038 0 0.018361777739769096 0.006563847849752614 0 0.019283615305720678 0.0064428767021852866 0 0.01895972200265466 0.0062146431240831038 0 
</DataArray>
</PointData>
<CellData Scalars="region_id,cross_section_updated," Vectors="" Tensors="stress,">
<DataArray type="Float64" Name="region_id" format="ascii">
5 5 5 5 5 5 5 5 5 5 5 5 5 5 6 5 5 5 5 5 5 6 5 6 5 5 5 5 5 5 5 5 5 5 5 5 5 5 5 5 5 5 5 5 5 5 6 5 5 5 5 5 5 6 5 6 5 5 5 5 5 5 5 5 5 5 5 5 5 5 6 5 5 5 5 5 5 5 5 5 5 5 6 5 6 5 5 5 6 5 5 5 5 5 6 6 5 5 5 5 5 5 5 5 5 5 6 5 5 5 6 5 5 5 5 5 5 5 5 5 5 6 5 6 5 5 6 5 5 5 5 5 5 5 6 5 5 5 5 5 5 5 5 6 5 5 6 5 5 6 5 5 6 5 5 5 5 5 5 5 5 5 5 5 5 5 6 5 5 6 5 6 6 5 5 5 5 5 5 5 5 5 6 5 5 5 5 5 5 5 5 5 5 5 5 5 5 5 5 5 5 5 5 5 5 5 5 5 5 5 5 5 5 5 6 6 5 5 6 6 5 5 6 5 6 5 5 6 5 6 5 5 5 5 5 5 5 5 6 5 5 5 6 5 5 6 5 6 5 5 6 6 5 5 5 6 5 5 6 6 5 5 5 5 6 6 6 5 5 5 6 5 5 6 5 5 5 5 5 5 5 6 5 5 6 5 5 5 5 6 5 5 5 5 5 5 5 5 6 5 5 6 5 6 5 5 5 6 5 5 5 5 5 5 5 5 5 5 5 5 6 5 5 5 5 6 5 6 6 5 5 5 5 5 5 5 5 5 5 6 6 5 5 5 5 5 5 5 5 5 5 5 5 5 5 5 5 5 5 5 5 5 5 5 5 5 5 5 5 5 5 5 5 5 5 5 5 5 5 5 5 5 5 5 5 5 5 5 5 5 5 5 5 5 5 5 5 5 5 6 5 5 6 5 5 5 5 5 5 5 5 5 5 5 5 6 5 5 5 5 5 5 6 6 5 5 5 5 5 6 6 5 5 5 5 6 5 6 5 5 5 5 5 6 5 6 5 5 6 6 6 5 5 5 6 5 5 5 6 5 5 6 5 5 5 5 5 5 5 5 5 5 5 5 5 5 5 5 5 5 5 5 5 5 5 5 5 5 6 5 5 5 5 5 5 5 5 5 5 5 5 5 5 5 5 5 5 5 5 5 5 5 5 5 5 5 5 5 5 5 5 5 5 5 5 6 5 5 5 5 5 5 5 5 5 5 5 5 5 5 5 5 5 6 5 6 5 5 5 5 6 5 5 6 5 5 5 5 5 5 6 5 5 5 5 5 5 5 5 5 5 5 6 5 5 5 5 5 5 5 5 5 5 5 5 5 5 5 5 5 5 5 5 5 5 5 5 5 5 5 5 5 5 5 5 5 5 5 5 5 5 5 5 5 5 5 6 5 5 5 5 5 5 5 5 5 5 5 5 6 5 5 5 6 5 5 5 6 6 5 5 6 5 5 5 5 5 5 5 5 5 5 5 5 5 5 5 5 5 5 5 5 5 5 5 5 5 5 5 5 5 5 5 5 5 6 5 5 5 5 5 5 5 5 5 6 5 5 6 6 5 5 5 5 5 6 5 5 6 6 5 5 6 5 6 5 5 5 5 5 6 5 5 5 6 5 5 5 5 5 5 5 5 5 5 5 5 6 6 5 5 6 5 5 5 5 5 5 5 5 5 5 5 5 5 5 5 5 5 5 5 5 5 5 6 5 5 5 5 6 5 5 5 5 5 5 5 5 6 5 6 5 5 5 5 5 5 5 5 5 5 5 6 5 5 5 5 6 5 5 5 5 5 5 6 5 5 5 5 6 6 5 6 5 5 6 5 5 5 5 5 5 5 5 5 5 5 5 5 5 5 5 5 6 5 6 5 5 5 5 5 6 5 5 5 5 5 5 5 5 5 5 5 5 5 5 5 5 5 5 5 5 5 5 5 5 5 5 5 5 5 5 5 5 5 5 5 5 5 5 5 5 5 5 5 5 5 5 5 5 5 5 5 5 5 5 5 5 5 5 5 5 5 5 5 5 5 5 5 6 5 6 5 5 5 5 5 5 5 5 5 5 5 5 5 5 5 5 5 5 5 5 5 5 5 5 5 5 5 5 5 5 5 5 5 5 5 5 5 5 5 5 5 6 5 5 5 5 5 5 5 5 5 5 5 5 5 5 5 6 5 5 5 5 5 5 6 5 5 5 5 5 5 5 5 5 5 5 5 5 5 5 5 5 5 5 6 5 5 6 5 5 6 5 5 5 5 6 5 6 5 5 5 5 5 5 5 5 5 5 5 5 5 5 5 5 5 5 5 5 5 5 5 5 5 6 5 6 5 5 5 5 5 5 5 5 5 5 5 6 5 5 5 6 5 5 6 5 6 5 5 5 5 5 5 5 5 5 5 5 5 5 5 6 5 5 5 5 5 5 6 5 5 5 5 5 5 5 5 6 5 5 5 5 5 5 5 5 5 5 5 5 5 5 5 5 5 5 5 6 5 5 5 5 5 5 5 5 5 5 5 5 5 5 5 5 5 5 5 5 5 5 5 5 5 5 6 5 5 5 5 6 5 5 5 6 5 5 5 5 5 5 5 5 5 5 5 5 5 5 6 5 5 5 6 5 5 5 5 5 6 5 5 5 5 5 5 5 5 5 5 5 5 5 5 5 5 6 5 6 5 6 5 5 5 6 5 5 5 5 5 5 5 5 5 5 5 5 5 5 6 5 5 5 5 5 5 5 5 5 5 5 5 5 5 6 6 5 5 5 5 5 5 5 5 5 5 5 5 5 5 5 5 5 5 5 5 5 5 5 5 5 5 5 5 6 5 5 5 5 6 5 5 5 6 5 5 5 5 5 5 5 5 6 5 5 5 6 5 5 6 5 5 6 6 5 5 5 5 5 5 6 5 5 5 5 5 5 5 5 5 5 5 5 5 6 5 5 5 5 6 5 5 5 5 5 5 5 5 5 5 5 5 5 5 5 5 5 5 5 5 5 5 5 5 5 5 5 5 5 5 5 5 5 5 5 5 5 5 5 5 5 5 5 5 5 5 5 5 5 5 5 5 5 5 5 5 5 5 5 5 5 5 5 5 5 5 5 5 5 5 6 5 5 5 5 5 5 5 5 5 5 5 6 5 5 5 5 6 5 5 5 5 5 6 5 5 5 6 5 5 5 6 5 5 5 5 5 5 5 5 6 5 5 5 6 5 6 5 5 6 5 5 5 5 5 6 5 5 5 5 5 5 6 5 5 5 5 5 5 5 5 5 5 5 6 6 5 5 5 5 5 5 5 5 5 5 5 5 5 5 5 5 5 5 5 5 5 5 5 5 5 5 5 5 5 6 5 5 5 5 6 5 5 5 5 5 5 5 5 6 5 5 5 5 6 6 5 5 5 5 5 5 5 5 5 5 6 5 5 5 5 5 5 5 5 5 6 5 5 5 5 5 5 5 5 5 5 5 5 5 5 5 5 5 5 5 5 5 5 5 5 5 5 5 6 5 5 5 5 5 5 5 5 5 5 5 5 5 5 5 5 5 5 5 5 5 5 5 5 5 5 5 5 5 5 5 5 5 5 5 5 5 5 5 5 5 5 5 5 5 5 5 5 5 6 5 5 5 5 6 6 5 5 5 5 5 5 5 5 5 5 5 5 5 5 5 5 5 5 6 5 5 5 5 5 5 5 5 5 5 5 5 5 5 5 6 5 5 5 5 5 5 5 5 5 5 5 5 5 5 5 5 5 5 5 5 5 5 5 5 5 5 5 5 5 5 5 6 5 5 6 5 5 6 5 5 5 5 6 6 5 5 5 5 5 5 5 6 5 5 5 5 5 5 6 5 5 5 5 5 5 5 5 5 5 5 5 5 6 5 6 5 5 5 5 5 5 6 5 5 5 5 5 5 5 5 5 5 5 5 5 5 5 5 5 5 5 5 5 5 6 6 5 6 5 5 5 5 5 6 5 6 5 5 5 6 5 6 5 5 5 5 6 5 5 6 5 5 5 6 5 5 5 6 5 5 5 6 5 5 5 5 5 5 5 5 5 6 5 5 5 5 6 5 6 5 5 6 5 5 5 6 5 6 5 5 5 5 5 5 6 5 5 6 5 6 5 5 5 5 5 5 5 5 5 5 5 5 5 5 6 5 5 5 5 5 6 6 5 5 5 6 5 5 5 5 6 5 5 6 5 5 5 5 5 5 5 6 5 5 5 5 5 5 5 5 5 5 5 5 5 5 5 6 5 5 5 5 5 5 5 5 6 5 6 5 5 5 6 5 6 5 5 5 5 5 5 5 5 5 5 5 5 5 5 5 5 5 5 5 5 5 5 5 5 5 5 5 6 5 5 5 6 5 5 5 5 5 5 6 5 5 5 6 5 6 5 5 5 5 5 5 5 5 6 6 5 5 5 5 5 5 6 5 5 5 6 5 5 5 6 5 5 5 5 5 5 5 5 5 5 5 5 6 5 6 5 5 5 5 5 5 5 5 5 5 6 5 6 6 5 5 5 5 5 5 5 5 5 5 5 5 5 6 5 5 6 5 6 5 5 5 5 5 5 6 5 5 5 6 5 6 5 5 5 6 5 5 6 6 5 6 5 5 6 5 5 5 5 5 5 5 5 5 5 5 5 5 6 6 5 5 5 5 5 5 5 5 5 5 5 5 5 5 5 5 5 5 5 5 6 5 6 6 5 5 5 6 5 6 6 5 5 5 5 6 5 5 5 5 5 5 6 5 5 5 5 5 5 5 5 5 5 5 5 6 5 5 5 5 5 5 5 5 5 5 5 5 5 6 5 6 5 5 5 5 5 5 5 5 6 5 6 5 5 5 6 5 5 5 5 5 6 5 6 6 5 5 6 5 5 5 5 6 5 6 5 5 6 5 5 6 5 5 5 5 5 5 6 6 5 5 6 5 5 6 5 5 6 6 5 5 5 6 5 5 5 6 5 6 5 6 5 5 6 5 5 6 5 5 5 6 5 5 5 6 5 5 5 6 5 6 5 5 5 6 5 5 5 5 5 5 5 5 5 5 5 5 5 5 5 5 5 5 5 5 5 5 5 5 5 5 5 5 5 5 5 5 5 5 5 5 5 5 5 5 5 5 5 6 5 5 5 5 5 5 6 6 5 5 5 5 5 5 5 5 5 5 5 5 5 5 5 5 5 5 5 5 5 5 5 5 5 5 5 5 5 5 5 5 5 5 5 5 5 5 5 5 6 5 5 5 6 5 5 6 6 5 5 6 5 6 5 6 6 5 5 5 5 5 6 5 6 5 5 6 5 5 5 5 5 6 5 5 5 5 5 5 5 5 5 5 5 5 6 5 6 5 6 5 5 5 5 5 6 6 6 5 5 6 6 5 5 5 6 5 6 5 6 6 5 6 5 5 5 6 5 5 5 5 5 5 5 6 6 5 5 6 5 5 6 5 6 5 5 6 5 5 6 5 6 5 5 5 6 5 6 5 5 6 5 6 6 5 6 6 6 5 5 5 5 6 5 5 6 5 5 5 5 6 5 5 5 5 5 5 6 5 6 5 5 5 6 6 5 5 5 5 5 5 6 5 5 6 5 6 5 5 6 5 5 6 5 5 5 5 6 6 5 5 5 5 6 5 5 5 5 5 5 5 5 5 6 5 5 5 5 5 5 5 6 5 6 5 6 5 5 6 5 5 5 5 6 6 5 5 5 6 6 6 5 5 5 5 6 6 6 6 5 5 6 5 5 6 5 5 5 6 5 5 5 6 5 6 5 5 5 5 5 5 5 6 6 5 5 6 5 5 5 5 5 5 5 6 5 5 5 5 5 5 5 6 5 5 5 5 5 5 5 5 5 5 5 5 5 5 6 5 5 5 5 5 5 5 5 5 5 6 5 5 6 5 6 5 5 5 6 5 6 5 5 5 5 5 5 5 6 5 5 5 5 5 5 5 5 5 5 5 5 5 5 5 5 6 5 5 6 5 6 5 6 5 6 5 5 5 6 6 5 5 5 5 5 5 6 5 5 5 5 5 5 5 6 5 5 6 5 5 5 5 5 5 5 5 5 5 5 5 5 5 5 5 5 6 5 5 5 6 5 5 5 5 5 5 5 5 5 5 5 5 5 5 5 5 5 5 5 5 5 5 5 5 6 5 5 5 5 5 5 5 5 5 5 5 6 5 5 5 5 5 5 6 5 5 5 5 5 5 5 5 5 5 6 5 5 6 6 5 6 5 5 5 6 5 5 5 6 5 5 5 5 5 5 5 5 5 5 6 5 5 5 5 5 5 5 5 5 5 5 5 6 5 5 6 5 5 5 5 6 5 5 6 5 5 5 6 5 5 5 6 6 5 5 5 6 5 6 5 5 5 5 5 5 5 5 5 5 5 6 5 5 6 5 5 5 5 6 5 5 6 5 5 5 5 5 6 6 5 5 5 5 6 5 5 5 5 5 5 5 6 5 5 5 5 6 5 5 5 5 5 5 6 5 5 6 5 5 6 5 5 6 6 5 6 5 5 5 6 6 5 5 6 5 5 6 5 6 5 5 5 5 5 5 5 6 5 5 5 5 6 5 5 5 5 5 5 5 5 5 5 5 5 5 5 5 5 5 6 5 5 5 5 5 5 5 5 5 5 5 5 5 5 6 5 5 5 5 5 6 5 5 6 5 5 5 5 6 5 5 5 6 5 5 5 6 5 5 5 5 5 5 5 5 5 5 5 5 5 5 5 5 5 5 5 6 5 5 5 6 5 5 6 5 5 5 5 6 5 5 5 5 5 6 5 5 5 5 5 5 5 5 5 5 5 6 5 5 5 5 5 5 5 5 5 5 5 6 5 5 5 5 6 5 6 5 5 5 5 5 5 5 5 5 5 6 5 6 6 5 6 5 5 5 5 6 6 5 5 6 5 5 6 5 5 5 6 5 5 6 5 5 5 5 6 5 5 5 5 6 6 5 5 5 5 5 5 5 6 5 5 5 5 5 5 5 5 5 5 5 5 5 5 5 5 5 5 5 6 6 5 5 5 5 6 5 5 5 6 5 5 5 5 5 5 5 5 5 5 5 6 5 5 6 5 5 5 5 5 5 6 5 6 5 5 5 5 6 5 6 5 5 6 5 5 6 5 5 5 6 5 5 5 6 5 5 6 5 5 5 5 5 5 6 5 5 6 5 5 5 5 5 6 5 6 5 5 6 5 5 6 5 6 5 5 5 5 5 6 6 5 5 5 5 5 6 5 5 5 5 5 5 5 5 5 5 5 5 5 5 5 5 5 5 5 5 6 5 5 5 5 6 5 5 5 6 6 5 5 5 5 5 6 5 5 5 5 5 5 5 6 5 5 5 5 5 5 5 5 6 5 5 6 5 5 5 5 6 5 5 5 5 6 5 6 5 5 6 5 5 5 5 5 6 5 5 5 5 6 5 5 5 5 5 6 5 5 5 5 5 5 6 5 5 6 5 5 6 5 5 5 6 5 6 5 5 6 5 5 5 5 5 5 5 6 5 5 5 5 5 6 5 5 5 6 5 5 5 5 5 5 5 5 5 5 5 5 5 5 5 5 5 6 5 5 5 5 6 5 5 5 5 5 5 5 5 5 5 5 5 5 5 5 5 5 6 5 5 5 5 5 6 6 5 5 5 6 5 5 5 5 6 5 5 5 5 5 5 6 6 5 5 5 5 5 5 6 6 5 5 5 5 6 5 5 5 5 5 5 6 5 5 5 5 5 5 5 5 5 5 6 5 5 6 5 5 5 5 5 5 5 5 5 5 5 5 5 5 5 5 5 5 5 5 5 5 5 5 5 5 5 5 5 5 5 5 5 5 5 5 5 5 5 5 5 6 5 5 5 6 5 5 5 5 5 5 6 5 5 5 5 5 5 5 5 5 6 5 5 5 5 5 5 5 5 5 5 5 5 5 5 6 5 5 6 6 5 5 5 5 5 5 5 5 5 5 5 5 5 5 5 5 5 5 5 5 5 6 5 5 5 5 6 5 5 5 5 5 5 6 5 5 6 5 5 6 5 5 5 6 5 5 5 5 5 5 5 5 6 5 5 5 5 5 5 5 5 5 5 6 5 6 5 5 5 5 6 5 5 6 5 5 5 5 5 5 5 5 5 5 6 5 5 5 5 5 5 5 5 5 5 5 6 5 6 5 5 5 5 5 5 5 5 5 5 5 5 5 5 5 5 5 5 5 5 6 5 5 5 6 5 6 5 6 5 5 6 5 6 6 5 5 5 6 6 5 5 6 5 5 5 5 5 5 5 5 5 5 5 5 5 5 6 6 5 5 6 5 6 5 5 5 5 6 5 5 5 5 5 5 5 5 6 5 5 5 5 5 5 5 5 5 5 5 5 5 5 5 5 5 5 5 5 5 6 5 6 5 5 5 5 6 6 5 6 5 5 5 5 5 6 5 5 5 6 5 6 5 6 5 5 5 5 5 5 5 5 5 5 6 5 5 6 5 5 5 6 5 5 5 5 5 5 5 5 5 5 5 5 5 5 6 6 5 5 5 5 6 5 6 5 6 5 5 5 5 5 5 6 5 6 6 5 5 5 5 6 6 5 6 5 5 5 5 5 6 5 5 5 5 5 5 5 6 5 5 5 5 5 5 6 6 5 5 5 5 5 6 5 5 5 5 5 6 6 5 5 5 6 5 5 5 6 5 5 5 5 5 5 5 5 5 5 5 5 5 5 5 5 5 5 5 5 5 5 5 5 5 5 5 5 5 6 5 5 5 5 6 6 5 5 5 5 5 5 5 5 5 5 5 5 5 5 5 5 6 5 5 5 5 5 5 5 5 5 5 5 5 5 5 5 6 5 5 5 5 5 5 5 5 5 5 6 5 5 5 5 5 5 6 5 5 5 5 5 5 5 5 5 5 5 5 5 5 5 5 5 5 5 5 5 5 5 5 5 5 5 5 5 5 5 5 5 5 5 5 5 5 5 5 5 5 5 5 5 5 5 5 5 5 5 5 6 5 5 5 5 5 5 5 5 5 5 5 5 5 5 5 5 5 5 5 5 5 5 5 5 5 5 5 5 6 5 5 5 5 5 5 5 5 5 5 5 5 5 5 5 5 5 5 5 5 5 5 5 5 5 5 5 5 5 5 5 5 5 5 5 5 5 5 5 5 5 5 5 5 5 5 5 5 5 5 5 5 5 5 5 5 5 5 5 5 5 5 5 5 5 5 5 5 6 5 5 5 5 5 5 5 5 5 5 5 5 5 5 6 5 5 6 5 5 5 5 5 5 5 5 5 5 5 5 6 6 5 5 5 5 5 5 5 5 5 5 5 5 5 6 5 6 5 5 5 5 6 5 5 5 5 5 5 5 5 5 5 5 6 5 5 5 5 5 5 5 5 5 6 5 6 5 5 6 5 5 6 6 5 5 5 6 6 5 5 5 5 5 5 5 6 5 6 6 5 5 6 5 5 5 5 5 5 5 6 5 5 6 5 5 6 5 6 5 6 5 5 5 5 5 6 6 6 5 5 5 5 5 5 5 6 5 5 5 6 6 5 5 5 5 5 6 5 5 5 5 5 5 5 5 5 5 5 5 5 5 5 5 5 5 5 5 5 5 5 5 5 5 5 5 5 5 5 5 5 5 5 5 5 5 6 5 5 5 6 5 6 5 5 5 6 5 5 6 5 6 6 6 5 5 5 5 5 5 6 5 5 5 5 5 5 6 5 5 5 5 5 5 5 5 5 5 5 5 5 5 5 5 5 5 5 5 6 5 5 5 5 5 5 6 5 5 5 5 5 5 5 6 5 6 5 5 5 5 6 5 5 5 5 5 6 6 5 5 6 5 5 5 6 5 5 5 5 5 5 5 6 5 5 5 5 5 5 5 5 5 5 5 5 5 5 5 5 5 6 6 5 5 5 5 5 5 5 5 5 5 5 5 5 5 5 5 5 5 5 5 5 5 5 5 5 5 5 5 5 5 5 5 5 5 6 6 5 5 5 5 5 6 5 5 5 5 5 5 5 5 5 5 5 5 5 5 5 5 5 5 5 5 5 5 5 5 5 5 5 5 5 5 5 5 5 6 5 5 5 5 5 6 5 5 5 5 5 5 6 5 5 5 5 5 6 5 5 5 5 5 5 6 5 5 5 5 5 5 5 5 6 5 5 6 5 5 5 6 5 5 5 5 5 6 5 5 5 5 5 5 5 5 5 5 5 5 5 5 5 5 5 6 6 5 5 5 5 5 5 5 5 5 5 5 5 5 5 5 5 6 5 5 5 5 5 5 5 5 5 5 5 5 5 5 5 5 5 5 5 5 5 5 5 5 5 5 5 5 5 5 5 5 5 5 5 5 5 5 5 5 5 6 5 5 5 5 6 5 5 5 5 5 6 5 5 5 6 5 5 6 6 6 5 5 5 5 5 5 5 5 5 5 6 5 5 5 5 5 5 5 5 5 5 5 5 5 5 5 5 5 5 5 6 5 6 5 5 5 5 5 5 6 6 5 5 5 5 5 5 5 5 5 5 5 5 5 5 5 5 6 5 5 5 5 5 5 5 5 6 5 5 5 6 5 5 5 5 5 5 5 5 5 5 5 6 5 5 5 5 5 5 5 5 5 5 5 5 5 5 5 5 5 5 5 5 6 5 5 5 5 6 5 5 6 5 5 5 5 5 5 5 6 5 5 5 5 5 5 6 6 5 5 5 5 5 5 5 5 5 5 5 5 5 5 5 5 5 6 5 6 5 5 5 5 6 5 5 5 6 5 5 5 5 5 5 5 5 5 5 5 5 5 5 6 5 5 5 5 5 6 5 5 6 5 5 5 5 6 5 5 5 6 5 6 6 5 5 5 5 6 6 5 5 5 5 5 5 5 5 5 5 5 5 5 5 6 5 6 5 5 5 6 5 5 5 5 5 5 5 5 5 5 5 5 5 5 5 5 5 5 6 5 5 6 5 5 6 6 5 6 6 5 5 5 5 6 5 6 5 5 5 5 6 5 5 5 6 5 5 5 5 5 5 5 5 6 5 5 5 5 5 6 5 5 5 5 5 6 6 5 5 5 5 6 6 5 5 6 6 6 6 5 5 5 6 5 5 5 6 5 6 5 5 5 5 5 5 5 5 5 5 5 5 5 5 5 5 6 5 5 5 5 5 5 5 6 5 5 5 5 5 5 5 5 5 5 5 5 5 5 5 5 5 5 5 5 5 5 5 5 5 6 5 6 5 5 5 6 6 5 5 5 5 5 5 5 5 5 5 5 5 5 5 5 5 5 5 5 5 5 5 5 5 5 5 5 5 6 5 5 5 5 6 5 5 6 5 5 5 5 5 5 5 5 5 6 5 5 5 5 6 5 6 5 5 5 6 5 6 5 5 5 5 5 5 5 5 5 5 5 5 6 5 6 5 6 6 5 6 6 5 6 5 5 6 5 6 5 5 6 5 5 6 6 5 5 6 5 5 6 5 6 6 5 5 5 6 6 5 5 6 5 5 6 6 5 5 5 5 6 5 5 6 5 5 5 5 5 5 5 6 5 5 5 6 5 5 5 5 6 5 5 6 5 6 6 5 6 6 5 5 5 6 6 5 5 6 5 6 5 6 5 5 6 5 5 6 6 5 6 5 6 5 5 5 5 6 5 5 5 5 5 5 5 5 5 5 6 5 5 5 6 5 6 5 5 5 6 5 5 5 5 5 6 5 5 5 5 5 5 6 5 5 5 5 5 5 5 5 5 5 5 5 5 5 5 5 5 5 5 6 5 5 5 5 5 6 5 6 5 5 5 5 5 6 5 5 5 5 5 6 5 5 5 5 5 6 6 5 5 5 5 5 5 5 5 5 5 5 5 5 5 5 5 5 5 5 5 6 5 5 5 5 5 5 6 5 5 5 5 5 5 6 6 5 5 5 5 5 6 5 5 6 6 5 6 5 6 5 5 5 6 5 5 5 5 6 5 5 5 5 5 6 5 5 5 5 5 6 6 5 6 5 5 6 6 5 6 6 5 5 6 5 5 5 5 5 5 5 5 5 5 5 5 5 6 6 5 5 5 5 5 5 6 5 5 6 5 5 5 5 5 6 6 5 5 5 6 5 5 5 5 5 5 6 5 5 5 5 5 5 5 5 5 5 5 5 6 6 5 5 5 5 5 5 5 5 5 5 5 5 5 5 5 5 5 5 6 5 5 5 5 5 5 5 5 5 5 5 5 5 5 5 5 5 5 5 5 5 5 5 5 5 5 5 5 5 5 5 5 5 5 6 5 5 5 5 5 5 5 5 6 5 5 5 6 5 5 5 5 5 6 5 5 6 5 5 5 6 5 5 5 5 5 6 5 5 5 5 5 6 5 5 5 5 6 5 5 5 5 5 5 5 5 5 5 5 5 5 5 5 5 5 5 5 6 5 5 5 5 5 5 5 5 5 6 5 5 5 5 5 5 5 5 5 5 5 5 5 5 5 5 5 5 5 5 5 5 5 5 5 5 5 5 5 5 5 5 5 5 5 5 5 5 5 5 5 5 5 5 5 5 5 5 5 5 5 5 5 5 5 5 5 5 5 5 5 5 5 5 5 6 5 5 5 6 5 5 5 5 5 5 5 5 5 5 5 5 5 5 5 5 5 5 5 5 5 5 5 5 5 5 5 6 5 5 5 5 5 5 5 5 6 5 5 5 5 5 5 5 5 5 5 5 5 5 5 5 5 5 5 5 5 5 5 5 5 5 5 5 5 5 5 5 5 5 5 5 5 5 5 5 6 5 5 5 5 5 5 5 6 5 6 5 5 5 5 5 5 5 5 5 5 5 5 5 5 5 5 5 5 5 5 5 5 5 5 5 5 5 6 5 6 5 6 6 5 5 5 6 6 5 6 5 5 5 5 6 5 5 5 5 5 5 5 5 5 5 5 5 5 5 6 5 5 6 5 6 6 5 5 5 6 5 5 5 5 5 5 5 5 5 5 5 5 5 5 5 5 5 5 5 5 5 5 5 5 5 5 5 5 5 5 5 5 5 5 5 5 5 5 5 5 5 5 5 5 5 5 5 5 5 5 5 5 5 5 5 5 5 5 5 5 5 5 5 6 5 5 5 5 5 5 5 5 5 6 5 6 5 5 6 5 5 5 5 5 5 5 5 5 6 5 5 5 6 5 5 5 5 5 5 5 5 5 6 5 5 5 5 5 5 5 5 5 5 6 5 5 5 5 5 5 5 5 5 5 5 5 5 5 5 5 5 5 5 5 5 5 5 6 5 6 5 5 5 5 5 5 5 5 5 5 6 5 5 5 5 5 5 5 5 5 5 5 5 5 5 5 5 5 5 5 5 5 5 5 5 5 5 5 5 5 5 5 5 5 5 5 6 5 5 5 5 6 5 5 5 5 5 5 5 5 5 5 5 5 6 5 5 5 5 5 5 5 5 5 6 5 5 5 5 6 5 5 5 5 5 5 5 6 5 6 5 5 5 5 5 5 6 5 6 6 5 5 5 6 5 5 6 5 5 5 5 6 5 5 5 5 5 5 5 5 5 6 5 5 5 5 6 5 5 5 5 6 5 5 6 5 5 6 5 6 5 5 5 5 5 5 5 5 6 5 5 5 5 5 5 5 5 5 5 6 5 6 5 5 5 5 5 5 5 5 5 5 5 5 5 5 5 5 5 5 5 5 5 5 5 5 5 5 5 5 5 5 5 5 5 5 5 5 5 5 5 5 5 5 5 5 5 5 5 5 5 5 5 5 5 5 5 5 5 5 5 5 5 5 5 5 6 5 5 5 5 5 5 5 5 5 6 5 5 5 5 5 5 5 5 5 5 6 5 5 5 5 5 5 5 5 5 5 5 5 5 5 5 6 5 5 5 5 6 5 5 6 5 5 5 5 5 5 6 5 6 5 5 5 6 5 6 6 5 5 5 6 5 5 5 5 5 5 5 5 5 5 6 5 5 5 6 5 5 6 5 6 6 6 5 5 6 5 6 6 5 5 5 6 5 6 5 6 5 5 6 5 5 5 6 5 6 5 6 5 5 5 5 5 6 5 5 5 5 6 5 6 5 5 6 6 5 6 5 5 5 5 5 6 5 5 5 5 5 5 6 5 5 5 5 5 5 5 5 5 5 5 5 5 5 5 5 5 5 5 5 5 5 5 5 5 5 5 5 5 5 5 5 5 5 5 5 5 5 6 5 5 5 5 5 5 5 5 5 5 5 5 5 5 5 5 5 5 5 5 5 5 5 5 5 5 5 5 5 5 5 5 5 5 5 5 5 5 5 5 5 5 5 5 6 5 5 6 5 5 6 5 5 5 5 5 5 5 5 5 5 5 5 5 5 5 5 5 5 5 6 5 5 5 5 6 5 6 5 6 5 5 5 5 6 5 5 5 5 5 5 5 5 5 6 5 5 5 5 6 5 6 5 5 5 5 5 6 5 5 5 5 5 5 5 5 5 5 6 5 5 5 5 5 5 5 5 5 5 5 6 5 5 5 6 5 5 5 5 5 5 5 5 5 5 6 5 5 5 5 5 5 5 5 5 6 5 5 5 5 5 5 6 5 5 5 5 5 6 5 5 5 5 5 5 5 5 5 5 5 5 5 5 5 5 5 6 5 5 5 5 5 6 6 6 5 6 5 5 5 5 5 5 5 5 5 5 5 5 5 5 5 5 5 5 5 5 5 5 5 5 5 5 5 5 6 5 5 5 5 5 5 5 6 5 5 5 5 5 5 5 5 5 5 5 6 5 5 5 5 5 5 5 6 5 6 5 5 5 6 5 5 6 5 5 5 5 5 5 5 5 5 5 5 5 5 5 6 6 5 5 5 5 5 6 5 5 5 5 6 5 5 6 5 5 5 6 5 5 5 5 6 5 5 5 5 5 5 5 5 5 5 5 5 5 5 5 5 6 5 5 5 5 5 5 6 5 6 5 6 5 5 5 5 5 5 6 6 5 5 5 5 5 6 5 5 5 5 5 5 5 5 5 5 5 5 5 5 5 6 5 5 5 5 6 5 5 5 5 5 5 5 5 5 5 5 6 5 5 5 5 5 5 5 5 5 5 5 5 5 5 5 5 5 5 5 5 5 5 5 5 6 5 5 5 5 5 6 6 5 5 5 5 5 6 6 5 6 5 5 5 5 5 5 5 6 6 5 6 5 6 5 5 5 5 5 5 5 5 5 5 5 6 5 5 5 5 5 5 5 5 5 5 5 5 5 5 5 5 5 5 5 5 5 5 5 5 5 5 5 5 6 5 5 6 5 5 5 6 5 5 5 6 6 5 5 5 5 5 5 5 5 6 6 5 5 5 5 5 5 5 5 6 5 5 5 5 5 5 5 5 5 5 5 5 5 5 5 5 5 5 5 5 5 5 5 5 5 5 5 5 5 5 5 5 5 5 5 5 6 5 6 5 5 5 5 5 5 5 5 5 5 6 5 5 5 5 6 5 5 5 5 6 5 5 5 5 5 5 5 6 5 6 5 6 5 5 5 5 5 6 5 5 5 5 6 5 5 5 5 5 5 5 5 5 5 5 5 5 5 5 5 5 5 5 5 5 5 5 5 5 5 5 5 5 5 5 5 5 5 5 5 5 5 5 5 5 5 5 5 5 5 5 5 5 5 5 5 5 5 5 5 5 5 5 5 5 5 5 5 6 5 5 5 5 5 5 5 5 5 5 5 5 5 5 5 5 6 5 5 6 5 5 5 5 5 5 5 5 5 5 5 5 5 5 5 5 5 5 5 5 5 5 5 5 5 6 5 5 5 6 5 5 6 5 5 5 5 5 6 5 5 5 5 5 5 5 5 5 5 5 5 5 6 5 5 5 6 5 6 5 6 5 5 5 5 5 5 5 5 5 5 5 5 5 5 6 5 5 5 6 5 6 5 5 5 6 5 5 5 5 5 5 5 5 5 5 5 5 5 5 5 5 5 5 5 5 6 5 5 5 5 5 5 5 5 5 5 5 5 5 5 5 5 5 5 5 5 5 5 5 5 5 5 5 5 5 5 5 5 5 5 5 5 5 5 5 5 6 5 5 5 5 5 5 5 5 6 5 5 5 6 5 5 5 5 5 5 5 5 5 5 5 5 5 5 5 5 6 5 5 5 5 5 5 5 5 5 5 5 5 5 5 5 5 5 5 6 5 5 5 5 5 5 5 5 5 6 5 5 5 5 5 5 5 5 5 6 5 5 5 5 5 5 5 5 5 6 5 5 5 5 5 5 6 5 5 5 5 5 5 5 5 5 6 5 6 5 5 5 5 6 6 5 5 6 5 5 5 5 5 5 5 5 5 5 5 5 5 5 5 5 5 5 5 5 5 5 5 5 5 5 5 5 5 5 6 5 5 5 5 5 5 5 5 5 5 5 6 5 5 5 5 5 5 5 5 5 6 5 5 6 5 5 5 5 5 5 5 5 5 5 5 5 5 5 5 5 5 5 5 5 5 5 5 5 5 5 5 5 5 5 5 5 5 5 5 5 5 5 5 5 5 5 5 5 5 5 5 5 5 5 5 5 5 5 5 5 5 5 5 5 5 5 5 5 5 5 5 5 5 5 5 5 5 5 5 5 5 5 5 5 5 5 5 5 5 5 5 5 5 5 5 5 5 5 5 5 5 5 5 5 5 5 5 5 5 5 5 5 5 5 5 5 5 5 5 5 5 5 5 5 5 5 5 5 5 5 5 5 5 5 5 5 5 5 5 5 5 5 5 5 5 5 5 5 6 6 6 6 5 5 5 5 5 5 5 5 5 6 5 5 6 5 5 5 5 5 5 5 5 5 5 5 5 6 5 5 5 5 6 5 5 5 5 6 5 5 5 5 5 5 6 6 5 5 5 5 5 5 5 6 5 5 5 5 5 6 5 5 5 5 5 5 5 5 5 5 6 5 5 5 5 5 5 5 6 5 5 5 5 5 6 5 5 5 5 5 5 5 5 5 5 5 5 5 5 5 5 5 5 5 5 5 5 5 5 5 5 5 5 5 5 5 5 5 5 5 6 5 5 5 5 5 5 5 5 5 5 5 6 6 5 5 5 6 5 6 5 5 5 5 6 5 5 5 5 5 5 5 5 5 5 5 5 5 5 5 5 5 5 5 5 5 5 5 5 5 5 5 5 5 5 5 6 5 5 5 5 5 5 6 5 5 5 5 5 5 5 5 5 6 5 5 5 5 5 5 6 5 5 5 5 5 5 5 6 5 5 5 5 5 5 6 5 5 6 6 6 5 5 5 6 5 5 6 6 5 5 6 5 5 5 6 5 5 5 6 5 5 5 6 5 5 5 6 5 5 5 5 5 5 6 5 5 5 5 5 5 5 5 5 5 5 5 5 5 5 5 5 6 5 5 5 6 5 5 6 5 5 5 5 5 5 5 5 5 5 5 5 6 5 5 5 5 5 5 5 5 5 5 5 5 5 6 6 5 5 5 5 5 5 6 5 5 6 5 5 5 5 5 5 5 5 5 5 5 5 6 5 5 5 5 5 5 5 5 5 5 5 5 5 5 6 5 5 5 5 5 5 5 6 6 5 5 5 5 5 5 5 5 5 5 5 5 5 5 5 5 5 5 5 5 5 5 5 5 6 5 5 5 5 5 5 6 5 5 5 6 5 5 5 6 5 5 6 5 5 5 5 5 6 5 6 5 5 5 5 6 5 5 5 5 5 6 5 5 6 6 5 5 5 5 6 5 5 5 5 5 5 5 6 5 5 5 5 5 5 5 5 5 6 5 5 5 5 5 5 6 5 5 6 5 6 5 5 5 5 6 5 5 5 5 5 5 5 5 5 6 5 5 5 5 6 6 5 5 5 5 5 5 5 5 5 5 5 5 5 5 5 5 5 5 5 5 5 5 5 6 5 5 5 6 5 5 5 5 5 5 5 5 5 5 6 6 5 6 5 5 5 6 5 5 5 5 5 5 5 5 5 5 5 5 5 5 5 5 5 5 5 5 5 6 5 5 5 5 6 5 5 5 5 6 5 5 6 5 5 5 6 5 5 5 5 5 5 5 5 5 5 5 5 5 6 5 5 5 5 6 5 5 6 5 6 5 5 5 5 5 5 5 5 5 5 5 5 5 5 5 5 5 6 5 5 5 5 5 5 6 5 5 5 5 6 5 5 6 5 5 5 5 5 5 5 5 5 6 5 6 6 5 5 5 5 5 6 5 5 5 5 5 5 5 5 5 5 5 5 6 5 5 5 5 5 5 5 5 5 5 5 5 5 5 6 5 5 5 5 5 5 5 5 5 5 5 5 5 5 5 5 6 5 5 5 5 5 5 5 6 5 5 5 5 5 5 6 5 6 5 5 5 5 5 5 5 5 5 5 5 5 5 5 5 5 5 5 5 5 5 5 5 5 5 5 5 6 5 5 5 5 5 5 6 6 5 5 5 5 5 6 5 5 5 6 5 5 6 5 5 5 5 6 5 5 5 5 5 5 5 6 5 5 6 6 5 5 5 5 5 5 5 5 5 5 5 5 5 5 5 5 6 5 5 5 6 5 5 5 5 5 5 6 5 5 6 5 5 5 5 5 5 5 5 5 6 5 5 5 5 5 5 5 5 6 5 5 5 5 6 5 5 5 5 5 5 6 5 5 5 5 5 5 5 5 6 5 5 5 5 5 5 5 5 6 6 5 5 5 5 5 5 5 5 6 5 6 5 5 5 5 6 5 6 6 5 5 5 5 5 5 5 5 5 5 5 5 6 5 6 6 5 5 5 5 6 5 5 6 5 5 6 5 6 5 5 5 5 5 5 5 5 5 5 5 5 5 5 5 5 5 5 5 5 5 5 5 5 5 6 5 5 5 5 5 5 6 6 5 5 5 5 5 5 5 5 5 5 5 5 5 5 5 5 5 5 5 5 5 6 5 6 5 5 6 5 6 5 5 5 5 5 5 5 5 5 5 5 5 5 5 5 5 5 5 5 5 5 5 5 5 5 6 5 5 5 5 5 5 5 5 5 5 5 5 5 5 5 5 5 5 5 5 5 5 5 5 5 6 5 5 5 5 5 5 5 5 5 6 5 6 5 5 5 6 5 5 5 5 5 5 5 5 5 5 5 6 5 5 5 5 5 5 5 5 5 5 5 5 5 5 5 5 5 5 5 5 5 5 5 5 5 5 5 5 6 6 5 5 6 5 5 5 5 5 6 5 5 5 5 5 6 5 5 5 5 5 5 6 5 5 5 5 6 5 6 5 5 5 5 5 5 5 5 6 5 5 5 5 5 5 5 5 5 5 5 6 5 5 5 6 6 5 5 5 5 6 5 6 5 5 5 5 5 5 5 5 5 5 5 6 5 5 5 5 5 5 6 5 6 5 6 6 6 5 5 5 5 5 6 5 5 6 5 5 5 5 5 5 5 5 5 5 5 5 5 6 6 6 5 5 5 6 5 6 6 5 5 5 5 6 5 5 5 5 5 5 5 5 5 5 6 5 6 5 5 5 5 5 5 5 5 5 6 5 6 5 5 5 6 5 6 5 6 5 5 6 6 5 5 5 5 6 5 5 6 6 6 5 5 6 5 6 5 5 5 5 6 6 6 5 5 6 5 5 6 6 5 5 5 5 6 5 6 6 5 5 5 6 6 6 5 5 5 5 5 5 6 5 5 5 6 5 6 5 5 6 5 5 5 5 5 5 6 6 5 5 5 5 5 5 5 6 5 5 5 5 5 5 5 5 5 5 5 5 5 5 6 5 5 6 5 5 5 5 5 5 5 5 5 5 5 5 5 5 5 5 5 6 5 5 6 5 5 6 6 5 5 5 6 5 5 5 5 5 5 6 5 5 5 5 5 5 5 6 5 5 5 6 5 5 5 6 5 6 5 6 5 5 6 5 5 6 5 5 5 6 5 6 5 5 6 5 6 5 6 6 5 5 5 6 5 6 6 5 5 5 6 6 6 5 5 5 5 5 5 5 5 5 5 6 5 5 5 5 5 5 5 5 6 5 5 5 5 6 5 5 5 5 5 5 5 5 5 5 6 5 6 5 5 5 5 5 5 5 5 5 5 5 5 5 5 5 5 6 5 5 5 6 6 5 5 5 6 6 5 5 5 5 6 5 5 6 5 5 5 6 5 6 6 5 6 5 5 5 5 5 5 5 5 5 5 5 6 5 5 5 6 5 5 5 5 5 5 6 5 5 6 5 5 6 5 5 5 5 5 5 5 5 5 5 5 5 5 5 5 5 5 5 5 5 5 5 5 5 5 5 5 5 5 6 5 5 5 5 5 5 5 5 5 5 5 5 5 5 5 5 5 5 5 5 5 5 5 5 5 5 5 5 5 5 6 5 5 5 6 5 5 5 5 5 5 5 5 5 5 5 5 5 5 5 5 5 5 5 6 6 6 5 5 6 6 5 5 5 5 6 6 5 5 6 5 5 5 5 6 5 5 5 5 5 5 5 5 5 5 5 5 5 5 5 5 5 5 5 5 5 5 5 5 5 5 5 5 5 5 5 5 5 5 6 6 5 5 5 6 5 5 5 5 5 5 5 5 5 5 6 5 5 5 6 5 5 5 5 5 5 5 5 5 5 5 5 5 5 5 5 5 5 5 5 5 5 5 5 5 5 5 5 5 6 5 5 5 5 5 5 6 5 5 5 5 6 5 6 5 5 6 5 5 5 5 6 5 6 5 5 5 5 5 6 5 6 5 5 5 5 5 5 5 5 6 5 5 5 5 5 6 5 5 5 5 5 6 5 5 5 5 5 6 5 6 6 5 6 5 6 6 5 6 5 6 5 5 6 5 5 5 5 5 5 5 5 5 5 5 6 5 5 5 5 5 5 6 5 5 5 5 5 5 5 5 5 5 5 5 5 5 5 5 5 5 5 5 5 5 5 5 5 5 6 5 5 6 6 5 6 5 5 5 5 5 5 5 5 5 5 5 5 5 5 5 5 6 5 6 5 5 5 5 5 5 5 5 6 5 6 5 5 6 6 5 5 6 5 5 5 5 5 5 5 6 5 5 6 5 5 5 5 5 5 5 5 5 5 5 5 5 5 5 5 5 6 5 6 5 5 5 5 5 5 5 5 5 5 5 5 5 6 6 5 5 5 5 5 5 6 5 5 6 5 5 5 5 5 5 5 5 5 5 6 5 5 6 5 5 5 6 5 6 5 6 5 6 6 5 5 5 6 5 5 5 5 5 5 5 5 5 5 5 5 5 5 5 5 5 5 5 6 5 5 5 5 5 5 5 6 5 5 5 5 6 5 5 5 5 5 5 5 5 5 5 5 5 5 5 5 5 5 5 5 5 5 5 5 5 6 5 5 5 5 5 5 6 5 5 5 5 5 5 5 5 5 5 5 5 5 5 6 5 6 5 5 5 5 6 5 5 5 5 6 5 5 6 5 6 5 5 6 5 5 5 5 6 5 5 5 5 5 6 6 5 6 5 5 5 5 5 5 5 5 5 5 5 5 6 5 5 5 6 5 6 5 5 6 5 5 5 5 5 5 5 6 5 5 5 6 5 5 6 5 5 6 5 6 6 5 5 5 6 5 5 5 5 5 5 5 5 5 5 5 6 5 5 5 5 5 5 5 5 5 5 5 5 5 5 5 5 5 5 5 5 6 5 5 5 5 6 5 5 5 5 5 5 5 5 5 5 5 6 5 5 6 5 6 5 5 5 5 5 5 5 5 5 6 5 5 5 5 5 5 5 5 5 5 6 5 5 5 5 5 5 5 6 5 5 5 6 6 5 5 5 5 5 5 5 5 6 5 5 6 5 5 5 5 5 5 5 5 5 5 5 5 5 5 6 5 5 5 5 5 5 5 5 5 5 5 5 5 5 5 5 5 5 5 5 5 6 5 5 6 5 5 5 5 5 5 5 5 5 5 5 5 5 5 5 6 5 5 5 5 5 5 5 6 5 5 6 5 5 5 5 5 5 5 5 5 5 5 6 5 5 5 6 5 5 5 5 5 5 5 5 6 5 5 5 5 5 5 6 5 5 5 5 5 5 5 5 5 5 5 5 5 5 5 5 5 5 5 5 5 6 5 5 5 5 6 5 5 5 5 5 5 5 6 5 5 5 6 5 5 5 5 5 5 5 5 6 5 6 5 5 5 5 5 5 5 6 5 5 5 5 5 5 5 6 6 5 5 5 5 6 6 5 5 5 6 5 5 5 5 5 5 5 5 6 5 5 6 5 5 5 5 6 6 5 5 5 5 5 5 5 5 5 6 5 5 6 5 5 5 5 5 5 5 5 6 5 5 5 5 5 6 5 5 5 5 5 5 5 5 5 5 6 5 5 5 5 5 5 5 5 5 5 5 5 5 5 5 5 6 5 5 5 5 5 5 6 6 5 6 5 5 5 5 5 5 5 5 5 5 5 5 5 5 5 5 5 5 5 6 5 5 6 6 5 5 5 5 5 5 5 5 5 5 5 5 6 5 5 5 5 5 5 5 5 5 5 5 5 5 5 5 5 5 5 5 5 6 5 6 5 5 5 5 5 5 5 5 5 5 5 5 5 5 5 5 5 5 5 5 5 6 5 5 5 5 6 5 5 5 5 5 5 5 5 5 6 6 5 5 5 5 6 5 5 5 5 5 5 6 5 6 5 5 5 5 5 5 5 5 5 5 5 5 5 5 5 5 5 5 5 5 5 6 5 6 5 6 5 5 6 5 6 5 5 5 5 5 6 6 5 5 5 6 5 5 6 5 5 5 5 5 5 5 6 6 5 5 5 6 5 5 5 5 5 5 5 5 6 5 5 5 5 5 5 5 6 5 5 5 5 5 5 5 5 5 5 6 5 6 5 5 5 5 5 5 6 5 5 5 5 6 5 5 5 5 6 5 5 5 5 5 6 5 5 5 5 5 5 5 5 6 5 5 5 5 5 5 5 6 5 5 5 6 5 5 5 5 5 5 5 5 5 5 5 5 5 5 5 5 5 5 5 5 5 5 5 5 5 5 5 5 5 5 5 5 5 5 5 5 5 5 5 6 5 5 5 5 5 5 5 5 6 5 6 5 5 5 5 6 5 5 5 5 5 5 5 5 5 5 5 5 5 5 5 5 5 5 5 5 6 5 5 5 5 5 5 5 6 5 5 5 5 5 5 6 5 5 6 5 6 5 5 6 5 5 5 5 5 5 5 5 6 5 5 6 5 5 5 5 5 5 5 5 5 5 5 5 5 5 6 5 5 5 5 6 5 5 6 5 6 5 5 5 5 6 5 5 5 5 5 5 5 5 5 5 5 5 6 5 5 5 5 5 5 6 5 5 5 5 5 5 5 6 5 5 5 5 5 5 5 5 5 5 5 5 5 5 5 5 5 5 5 5 5 5 5 6 5 5 5 5 6 5 5 5 5 6 5 5 5 5 5 5 5 5 5 5 5 5 5 5 5 5 5 5 5 5 5 5 5 5 5 5 5 5 5 5 5 5 5 5 5 5 5 5 5 5 5 6 5 5 5 5 5 5 5 5 5 5 5 5 6 5 5 5 5 5 5 5 5 5 5 5 5 5 6 5 5 5 5 5 5 5 5 5 5 5 5 5 5 5 6 5 5 5 5 5 6 5 5 5 5 5 5 5 5 5 5 5 5 5 5 5 5 5 5 5 5 5 5 5 5 5 6 5 5 5 5 5 5 5 5 5 5 5 5 5 5 5 5 5 5 5 5 5 5 5 5 5 5 5 5 5 5 5 5 5 5 5 5 5 5 5 5 5 5 5 5 5 5 5 5 5 5 5 5 5 6 5 5 5 5 5 5 5 5 5 5 5 5 5 5 5 5 5 5 5 6 5 5 5 5 5 5 5 5 6 5 5 5 5 5 6 6 5 5 5 5 5 6 5 5 6 5 6 5 5 6 6 6 5 6 5 5 5 5 5 5 5 6 6 5 5 5 6 5 5 5 5 5 5 5 6 6 5 5 6 5 5 5 5 6 5 6 5 5 6 5 5 6 5 5 5 5 5 5 5 5 5 5 5 5 5 5 5 5 5 5 5 5 5 6 5 6 5 6 5 5 5 5 5 6 5 5 5 5 5 6 5 6 5 5 5 5 6 5 5 5 5 5 5 5 5 6 5 5 5 5 5 5 5 5 6 5 5 5 5 5 5 5 5 5 5 6 5 5 5 5 5 5 5 5 5 5 6 5 5 5 5 5 5 5 5 5 5 5 5 5 6 5 5 5 6 5 5 6 5 5 6 5 5 5 5 5 5 5 5 6 5 5 6 5 5 5 6 5 5 5 5 5 5 6 6 5 6 5 6 5 6 6 5 5 5 5 5 5 5 5 5 6 6 5 5 5 5 5 5 6 5 5 5 5 5 5 5 5 5 5 5 6 5 5 5 5 5 5 5 6 5 5 5 5 5 5 6 5 6 5 5 5 6 5 5 5 5 5 5 5 5 5 5 5 5 5 5 5 5 5 5 5 5 5 5 5 5 5 5 5 5 5 5 5 5 5 5 5 5 5 5 5 5 5 5 5 5 5 5 6 5 5 5 5 5 6 5 5 5 6 5 5 5 5 5 5 6 5 5 5 5 5 
</DataArray>
<DataArray type="Float64" Name="stress" NumberOfComponents="9" format="ascii">
2347.1379304007132 -120.95729729363748 0 -120.95729729363748 -0.10490005896276562 0 0 0 0 3495.8788512326614 -458.83537460659716 0 -458.83537460659716 -191.84819931334059 0 0 0 0 2211.0122802204787 -700.36341978393148 0 -700.36341978393148 -230.39370148916149 0 0 0 0 1852.686273222258 -91.938797505991204 0 -91.938797505991204 168.68492943238596 0 0 0 0 1833.3925408203067 -321.47411809093876 0 -321.47411809093876 265.71506896423068 0 0 0 0 1278.7908948976255 -732.43108111327945 0 -732.43108111327945 264.50007731427206 0 0 0 0 2119.8208015586424 -668.22317419477781 0 -668.22317419477781 249.57057034470702 0 0 0 0 1932.5423979274419 -219.83225391632931 0 -219.83225391632931 318.70346184879008 0 0 0 0 1859.1726038606648 -252.98025212551545 0 -252.98025212551545 182.79589242513578 0 0 0 0 1692.317508833803 3.3371284873531977 0 3.3371284873531977 478.49813197564418 0 0 0 0 2156.8010653883393 503.42448155630876 0 503.42448155630876 0.62122318269673538 0 0 0 0 1563.7610909601208 -224.98326912295249 0 -224.98326912295249 214.00007250585796 0 0 0 0 1711.3378293306159 34.624384288531019 0 34.624384288531019 391.33417777073862 0 0 0 0 -42.257437508553267 -12.202637971586444 0 -12.202637971586444 -0.84730905162623316 0 0 0 0 -0.83107243001441589 0.92094297484982235 0 0.92094297484982235 -0.6657197079837992 0 0 0 0 1303.2586115645463 -435.44494019768035 0 -435.44494019768035 124.04532483960804 0 0 0 0 1599.1010453310737 183.79200575645774 0 183.79200575645774 309.77662370894342 0 0 0 0 2915.6532332530187 320.70686025792526 0 320.70686025792526 278.34609265931238 0 0 0 0 2122.3166076419657 1607.1452152626287 0 1607.1452152626287 1169.7912166982785 0 0 0 0 608.79357394474573 387.56464027273125 0 387.56464027273125 335.49325396293187 0 0 0 0 -23.013547713053413 -91.972852028554144 0 -91.972852028554144 78.650630266391317 0 0 0 0 9.5715093912245948 -1.7750291617629159 0 -1.7750291617629159 0.72914170829467428 0 0 0 0 889.71076181760873 900.22551358197074 0 900.22551358197074 900.37836693928534 0 0 0 0 23.033977413900118 -8.3748728361090343 0 -8.3748728361090343 0.55049779525240083 0 0 0 0 125.6678963974482 34.923668744598103 0 34.923668744598103 -74.282054706566214 0 0 0 0 760.04439484176692 613.20241551056813 0 613.20241551056813 376.28774800636631 0 0 0 0 1016.0666639578412 437.42200254335319 0 437.42200254335319 -71.193038186421063 0 0 0 0 1264.3974658203515 512.43509827599405 0 512.43509827599405 -48.744766274638096 0 0 0 0 1577.5369480375521 458.09243049732817 0 458.09243049732817 -235.66512563619369 0 0 0 0 2216.8283556187234 711.61212092041876 0 711.61212092041876 86.920352647798282 0 0 0 0 1248.2393917044756 509.83774857717992 0 509.83774857717992 44.969620624143388 0 0 0 0 1401.5519601526175 135.06771316428237 0 135.06771316428237 -10.806200826627148 0 0 0 0 1298.4712829029741 330.57851870992261 0 330.57851870992261 -458.7218316243725 0 0 0 0 1269.93686178606 348.02731466601722 0 348.02731466601722 -310.45611032341435 0 0 0 0 1297.0875063647691 326.96069973193278 0 326.96069973193278 -296.97799766361049 0 0 0 0 1321.6557012819285 420.61888205984178 0 420.61888205984178 -273.21436424838885 0 0 0 0 1184.8803626073059 358.68082874749575 0 358.68082874749575 -294.95747995249428 0 0 0 0 1161.8017183925076 281.3540764207666 0 281.3540764207666 -272.85317285478641 0 0 0 0 989.20838192087103 366.90868880511243 0 366.90868880511243 -115.05290971125123 0 0 0 0 1625.5879514009066 -465.54868506052014 0 -465.54868506052014 -438.25153973030427 0 0 0 0 1085.3010601593996 -32.311916755174195 0 -32.311916755174195 141.38825423848189 0 0 0 0 1634.8014817967924 296.14943412857247 0 296.14943412857247 43.600219874031723 0 0 0 0 1463.5042861406982 180.96963045715529 0 180.96963045715529 -294.56967602285818 0 0 0 0 1027.9788703011582 103.62218569633455 0 103.62218569633455 -272.47764308203705 0 0 0 0 1159.3446401539186 -0.078266684827156041 0 -0.078266684827156041 -378.45254051692109 0 0 0 0 -53.084851351202815 -845.03886081780058 0 -845.03886081780058 -179.04454616293651 0 0 0 0 9.8184766762675508 -3.861052379622123 0 -3.861052379622123 -3.1296262025962007 0 0 0 0 454.90036688139662 -795.83016990125589 0 -795.83016990125589 -421.97640707975097 0 0 0 0 3093.4588456172933 1086.7525311597394 0 1086.7525311597394 44.723690635642171 0 0 0 0 218.3224640283297 1275.5646181713589 0 1275.5646181713589 208.56808769148256 0 0 0 0 -123.36311716583441 88.582043643342104 0 88.582043643342104 -180.17159209528154 0 0 0 0 920.70358353717165 395.96022118057016 0 395.96022118057016 -300.30427278370462 0 0 0 0 1711.7642255728097 -306.66345328265692 0 -306.66345328265692 265.83439176532829 0 0 0 0 19.751683053324143 -10.256738420212784 0 -10.256738420212784 -4.2708575178711907 0 0 0 0 1040.852008399248 278.74829426355245 0 278.74829426355245 -227.18559930031461 0 0 0 0 9.2052927455899578 2.9808788220386049 0 2.9808788220386049 -2.3498284864196091 0 0 0 0 1573.12153146536 407.94143517986089 0 407.94143517986089 -811.42647186411193 0 0 0 0 416.87128241278697 1953.8829987633471 0 1953.8829987633471 -1398.4908993535551 0 0 0 0 1084.893258948985 220.16080991675608 0 220.16080991675608 -285.92608035227045 0 0 0 0 1408.4286027779308 365.41190177987914 0 365.41190177987914 -309.01201865623239 0 0 0 0 1247.1520131838188 269.64072118368722 0 269.64072118368722 -365.88346951198821 0 0 0 0 1273.7507367782237 324.43195877961091 0 324.43195877961091 -392.46806346047424 0 0 0 0 1242.5021778490045 220.46206163740544 0 220.46206163740544 -448.68051939795066 0 0 0 0 942.42782896944846 281.13779660487955 0 281.13779660487955 -182.65008198180385 0 0 0 0 1103.5656803068996 279.4792985697236 0 279.4792985697236 81.401920468599201 0 0 0 0 1078.7771133503993 195.11958760612652 0 195.11958760612652 -197.2848693026221 0 0 0 0 1018.9353556611313 112.98776899182326 0 112.98776899182326 -36.564470565999954 0 0 0 0 1329.3656953340105 45.764934825819125 0 45.764934825819125 -224.42510902382764 0 0 0 0 1849.668886815125 -94.919207019054284 0 -94.919207019054284 -17.723433570206453 0 0 0 0 2823.1117337807809 902.19305073982787 0 902.19305073982787 103.11181716619762 0 0 0 0 9.8482998733510101 -5.5925213006794507 0 -5.5925213006794507 0.052225105179401154 0 0 0 0 1463.0248131586959 685.38791295589567 0 685.38791295589567 399.40381026865771 0 0 0 0 -188.80823681221227 -1255.6006334134522 0 -1255.6006334134522 81.400051574006284 0 0 0 0 2144.1284342665313 -517.7417451572361 0 -517.7417451572361 394.7311855943608 0 0 0 0 1713.7827815985802 -337.48815785179977 0 -337.48815785179977 -321.15959016498755 0 0 0 0 2590.8233032253829 -1224.5296288163122 0 -1224.5296288163122 51.236891311119052 0 0 0 0 655.9222721895494 492.61205807548049 0 492.61205807548049 -416.73550555603128 0 0 0 0 2592.7130210424657 113.39027859635235 0 113.39027859635235 -999.8057755858913 0 0 0 0 1775.5531685170426 -307.31382651078775 0 -307.31382651078775 -422.61897591829074 0 0 0 0 2890.6684386166889 -345.21046345888567 0 -345.21046345888567 -429.74455647841648 0 0 0 0 2287.3475616801297 844.65958256791282 0 844.65958256791282 247.7710129454772 0 0 0 0 424.40868232569483 358.41806537192474 0 358.41806537192474 164.42014538261708 0 0 0 0 34.856393855671911 -9.0785047403986781 0 -9.0785047403986781 -3.8496200225380042 0 0 0 0 370.64221839419133 -52.228782691583319 0 -52.228782691583319 -12.992457826782811 0 0 0 0 27.690118739007517 -3.9363793046886144 0 -3.9363793046886144 -9.5221236965724749 0 0 0 0 270.5198344244709 520.94282657177894 0 520.94282657177894 -1272.5876167050276 0 0 0 0 261.50972537546477 -436.0239969273407 0 -436.0239969273407 -1087.1560043287841 0 0 0 0 423.44219728153985 -574.62067939797896 0 -574.62067939797896 -1463.4790272665837 0 0 0 0 8.8388683038215277 -7.2644700411130998 0 -7.2644700411130998 -4.097723123289521 0 0 0 0 583.28426354739349 8.5238735211338508 0 8.5238735211338508 3.3137806160842231 0 0 0 0 2353.7613226881367 168.59049463573683 0 168.59049463573683 12.319731071803929 0 0 0 0 2143.6894308456394 722.11735082677626 0 722.11735082677626 -800.23477588990841 0 0 0 0 2456.3506060162217 2080.610298053537 0 2080.610298053537 1278.2908533659079 0 0 0 0 3495.848060249089 1654.7985739422836 0 1654.7985739422836 -184.82369683423428 0 0 0 0 20.552946149150301 -6.2462494444204282 0 -6.2462494444204282 3.810089394617219 0 0 0 0 49.361213978986314 -16.296119955769932 0 -16.296119955769932 -1.0925091693739146 0 0 0 0 3495.7189003735839 -1290.5337788700322 0 -1290.5337788700322 -388.02878983321216 0 0 0 0 1950.7302705075945 -2309.543881459047 0 -2309.543881459047 264.88754874247894 0 0 0 0 496.40915860690984 -121.11249218653901 0 -121.11249218653901 -806.81966535869651 0 0 0 0 -39.52335878870872 -1737.5754611679054 0 -1737.5754611679054 1069.5074712449366 0 0 0 0 1762.2677094907185 -793.5999201134947 0 -793.5999201134947 47.294093281622153 0 0 0 0 1645.6835696501948 -144.70136763511741 0 -144.70136763511741 103.09261518272709 0 0 0 0 2013.8651668461971 -393.64955575377292 0 -393.64955575377292 -146.46288663052141 0 0 0 0 -324.59885381105778 -217.61376667286143 0 -217.61376667286143 -739.86073679680112 0 0 0 0 719.636387872044 321.16614141261186 0 321.16614141261186 -463.37557259315008 0 0 0 0 998.31614675167657 -1074.5314399867937 0 -1074.5314399867937 62.955297346279849 0 0 0 0 5.6925872949341851 4.7812504147646706 0 4.7812504147646706 -0.031871520541784104 0 0 0 0 62.272092525439803 -13.098393630868102 0 -13.098393630868102 -4.0765275678208468 0 0 0 0 -18.86179512590752 80.853346409756341 0 80.853346409756341 23.693344285534295 0 0 0 0 43.620473148592282 43.486625371974242 0 43.486625371974242 37.996646734219212 0 0 0 0 9.3105641152769465 0.58919972376037322 0 0.58919972376037322 -5.9675783529493032 0 0 0 0 87.165691487833101 60.879096511871694 0 60.879096511871694 7.4248059646738511 0 0 0 0 78.701332759184879 80.503557733697335 0 80.503557733697335 42.653054436066441 0 0 0 0 164.25848533213139 62.549813801577102 0 62.549813801577102 16.541881185245984 0 0 0 0 124.67857356276363 7.8600839209660194 0 7.8600839209660194 -13.337900546253891 0 0 0 0 56.348290790279862 49.092288335682625 0 49.092288335682625 60.425932696438736 0 0 0 0 70.207895802057465 58.569902681233145 0 58.569902681233145 39.907173958784369 0 0 0 0 79.548045118091977 49.345668621571861 0 49.345668621571861 48.33236132073921 0 0 0 0 66.062357007351238 41.006519195793999 0 41.006519195793999 64.780753756522358 0 0 0 0 19.832731222100847 84.132473010194758 0 84.132473010194758 78.376908939295845 0 0 0 0 74.607969628224964 9.4195831387182807 0 9.4195831387182807 7.4810760137643229 0 0 0 0 3.7047287022780893 -0.72761151765561749 0 -0.72761151765561749 -0.60989139866707376 0 0 0 0 116.77860547919408 109.41855478738103 0 109.41855478738103 113.65504653316884 0 0 0 0 23.618146619224717 -0.83577439947582377 0 -0.83577439947582377 -6.79817338849496 0 0 0 0 -24.022073209416703 -130.13811119469347 0 -130.13811119469347 101.39240800323978 0 0 0 0 35.916129644923785 -114.51724727379724 0 -114.51724727379724 -148.43838332990526 0 0 0 0 13.71137519384115 11.677504876492122 0 11.677504876492122 8.1085919122225025 0 0 0 0 91.87701196562557 234.97895179626195 0 234.97895179626195 -18.531050118644544 0 0 0 0 51.528574019888765 -89.507980346432987 0 -89.507980346432987 25.439466223738236 0 0 0 0 14.885934972553514 62.262006926625823 0 62.262006926625823 -0.93182037157491693 0 0 0 0 70.382450456469087 -35.571979322995404 0 -35.571979322995404 -13.817604806745337 0 0 0 0 178.77862259033282 28.528653262705141 0 28.528653262705141 -0.10656243128016513 0 0 0 0 -46.945779256286187 81.218064336874519 0 81.218064336874519 245.3277362717258 0 0 0 0 313.9854449134873 -61.157098274846255 0 -61.157098274846255 -11.159902087919299 0 0 0 0 4.7470752069210107 4.2514889080148919 0 4.2514889080148919 4.1444319897044561 0 0 0 0 370.6361772280361 219.67081292389938 0 219.67081292389938 -52.382557749752955 0 0 0 0 50.427023078078491 192.62910757622475 0 192.62910757622475 235.35882592921024 0 0 0 0 -77.800894160514872 12.162363239863041 0 12.162363239863041 162.75191035159156 0 0 0 0 14.469197976053692 99.982194145372546 0 99.982194145372546 80.829106304955531 0 0 0 0 60.819601379946107 51.421248057227842 0 51.421248057227842 46.484672409006635 0 0 0 0 80.481379094257136 66.534335775682848 0 66.534335775682848 -14.064032794268314 0 0 0 0 70.838286193218664 22.01526446913158 0 22.01526446913158 -147.89563755475183 0 0 0 0 45.919504526231322 94.513135976273816 0 94.513135976273816 -24.398219102236681 0 0 0 0 20.645261605790608 -4.3534214469299144 0 -4.3534214469299144 -0.130512523222442 0 0 0 0 17.479830768832471 -0.121149860101184 0 -0.121149860101184 13.971379010575674 0 0 0 0 -89.082980088263866 -319.59860787664866 0 -319.59860787664866 -77.002940976947457 0 0 0 0 7.3612049935300945 1.8786239270549743 0 1.8786239270549743 -2.6321540562620704 0 0 0 0 70.695246066170512 21.182574460806393 0 21.182574460806393 -20.909696480676985 0 0 0 0 17.127828306285664 0.55416365138364654 0 0.55416365138364654 13.442418917395003 0 0 0 0 18.427103921299476 -3.942662393730501 0 -3.942662393730501 -1.7647331762122587 0 0 0 0 118.53038090303016 45.29475705011528 0 45.29475705011528 -17.487478709191009 0 0 0 0 -1.2346474042715272 -30.99323925154863 0 -30.99323925154863 24.32559147269194 0 0 0 0 0.53942876508918403 -1.3578606159869366 0 -1.3578606159869366 -0.0033368133371454722 0 0 0 0 21.60593305376824 27.512654015214309 0 27.512654015214309 27.325400660964316 0 0 0 0 33.768249751112307 -39.185076434806234 0 -39.185076434806234 -49.009902991980653 0 0 0 0 -74.293283221777529 334.7139593350899 0 334.7139593350899 408.08079381219608 0 0 0 0 493.19552345867851 -303.91900897003359 0 -303.91900897003359 -226.51013690515418 0 0 0 0 383.59999129717107 134.38670764781088 0 134.38670764781088 -58.684222841866927 0 0 0 0 102.76014147759997 86.449618873035561 0 86.449618873035561 -23.556836827750679 0 0 0 0 -6.877095916759572 34.635092528000165 0 34.635092528000165 0.12208513683323619 0 0 0 0 101.93199853922329 109.35084911326085 0 109.35084911326085 7.6222642788447672 0 0 0 0 -247.89092958740002 -88.611355312165003 0 -88.611355312165003 66.382355236979706 0 0 0 0 52.810078957263613 -21.904715198339574 0 -21.904715198339574 -4.6227202871736495 0 0 0 0 8.4611907174403314 -26.237827375080897 0 -26.237827375080897 0.068740370043470736 0 0 0 0 10.644137538620271 -0.19453827918675515 0 -0.19453827918675515 26.716051010447238 0 0 0 0 135.42942569790466 44.023111041429701 0 44.023111041429701 -7.2770301150667862 0 0 0 0 0.4466354750313144 -0.22953166235177491 0 -0.22953166235177491 0.22333830439632507 0 0 0 0 27.163872794117196 7.5423829584731408 0 7.5423829584731408 -23.536958646426342 0 0 0 0 -11.804444317094749 -55.343181236309995 0 -55.343181236309995 -10.632762127071995 0 0 0 0 4.5419592158492605 4.4324372691797578 0 4.4324372691797578 -5.2315135614766897 0 0 0 0 410.53823849439505 382.89991823567141 0 382.89991823567141 245.50452254106119 0 0 0 0 15.516311723313748 -5.9155482549201395 0 -5.9155482549201395 0.32162323996101883 0 0 0 0 14.75308707968037 -3.6650201556611393 0 -3.6650201556611393 -2.7911570010908298 0 0 0 0 375.78312504813948 92.214045787909185 0 92.214045787909185 19.282260859194821 0 0 0 0 8.1084061303263297 -45.741381947795361 0 -45.741381947795361 -47.412122481210133 0 0 0 0 26.119252411939669 3.361585182305987 0 3.361585182305987 -2.9084620644054837 0 0 0 0 -6.1196417845203541 -9.6164705925392298 0 -9.6164705925392298 0.45557390548725607 0 0 0 0 58.497766719825449 21.244480126817933 0 21.244480126817933 -51.892393317694655 0 0 0 0 24.549705849698512 -1.867689133941667 0 -1.867689133941667 7.3805826669032299 0 0 0 0 200.235111047994 -142.98510289751198 0 -142.98510289751198 -208.94312045668448 0 0 0 0 16.047433384257602 -9.3599572469067311 0 -9.3599572469067311 7.9318904584209804 0 0 0 0 241.62133631475444 115.90915980809268 0 115.90915980809268 -23.248999185508637 0 0 0 0 12.172112520169208 -8.9864296825145686 0 -8.9864296825145686 1.7139422240666318 0 0 0 0 688.97516283814912 153.00911964375143 0 153.00911964375143 -168.69725800062741 0 0 0 0 821.28264288557693 233.73298653306665 0 233.73298653306665 -173.64054977547323 0 0 0 0 775.88314068940235 302.2584794951332 0 302.2584794951332 -134.44350961177611 0 0 0 0 555.68300470340182 231.72726264460846 0 231.72726264460846 -32.681341076144804 0 0 0 0 898.85780604805041 168.7080853064017 0 168.7080853064017 -280.4482723149481 0 0 0 0 844.16959335237334 -19.719078720395601 0 -19.719078720395601 -179.28627467899105 0 0 0 0 594.21014997907332 143.77427691403363 0 143.77427691403363 -216.00263323621908 0 0 0 0 633.64868340777321 12.053452243263223 0 12.053452243263223 -235.35080945020763 0 0 0 0 -179.67592668425641 -274.33000478925578 0 -274.33000478925578 -177.754090907712 0 0 0 0 330.48248069109104 -13.746834928241014 0 -13.746834928241014 -329.13995306653851 0 0 0 0 351.53184664492437 -100.44025053679024 0 -100.44025053679024 -67.861125203857227 0 0 0 0 419.7572696238858 84.176083191249177 0 84.176083191249177 -104.2992302323446 0 0 0 0 239.21338795873453 -152.01737577146628 0 -152.01737577146628 103.55755192312154 0 0 0 0 693.50252625975554 -201.19995504020812 0 -201.19995504020812 87.598096373475528 0 0 0 0 1025.4620508601656 122.13463255153943 0 122.13463255153943 -139.62107018888059 0 0 0 0 890.13191370520508 62.945421074625528 0 62.945421074625528 423.92611732428827 0 0 0 0 889.08278055924052 -144.80005869112742 0 -144.80005869112742 227.27429684594881 0 0 0 0 327.54304734128527 111.29963081341293 0 111.29963081341293 535.18884594129895 0 0 0 0 241.25856019141065 -93.241939601615741 0 -93.241939601615741 174.39982492996614 0 0 0 0 323.35322072813869 -15.486883587949933 0 -15.486883587949933 308.56494673605084 0 0 0 0 305.03813469413581 44.236963132140431 0 44.236963132140431 122.29022226973029 0 0 0 0 114.87414993275888 -174.74413038378862 0 -174.74413038378862 163.30772577226367 0 0 0 0 -36.558353885106044 114.59892823824987 0 114.59892823824987 322.22691865170833 0 0 0 0 -52.763830090232659 31.545437373255027 0 31.545437373255027 7.9316178655794829 0 0 0 0 -83.737065236253329 -80.044591158447602 0 -80.044591158447602 29.820835937368884 0 0 0 0 -49.590531126304995 44.55503862361752 0 44.55503862361752 -0.052226394051103853 0 0 0 0 -81.047346688332254 -61.529960013289354 0 -61.529960013289354 126.35321596884523 0 0 0 0 -52.159673485075473 -227.13084325939258 0 -227.13084325939258 0.87887417359206665 0 0 0 0 57.717254100949503 -41.906362088803235 0 -41.906362088803235 -188.73269696295756 0 0 0 0 1.7173485437233467 -116.18976245229351 0 -116.18976245229351 -179.31422124868322 0 0 0 0 17.598270088812569 28.814962215359628 0 28.814962215359628 -77.985580691617088 0 0 0 0 16.94277624499432 -5.8124159519478091 0 -5.8124159519478091 0.85291193581944857 0 0 0 0 4.6966986878167347 0.75322163368318229 0 0.75322163368318229 -4.035615194709405 0 0 0 0 -10.256625337147852 -39.775670940878626 0 -39.775670940878626 -75.183369846884943 0 0 0 0 23.831944233097602 5.1923916380214905 0 5.1923916380214905 15.396005557061869 0 0 0 0 14.000440015710637 -1.6513894494684749 0 -1.6513894494684749 7.2804146750248435 0 0 0 0 29.121192381384049 10.454699138869785 0 10.454699138869785 9.19694329684501 0 0 0 0 -2.0660777284520009 -73.165993787543528 0 -73.165993787543528 -99.64770947875968 0 0 0 0 73.036108898319071 51.168467351740219 0 51.168467351740219 62.430453187234889 0 0 0 0 35.977528077979059 10.208224856773249 0 10.208224856773249 -3.191456036815346 0 0 0 0 20.987155604991131 10.063874643898657 0 10.063874643898657 12.893325045651181 0 0 0 0 31.202512559125864 6.9460551587659154 0 6.9460551587659154 -3.3547379680763263 0 0 0 0 32.828820071765222 17.981950965059696 0 17.981950965059696 29.337406551236427 0 0 0 0 79.055069929687306 25.239884305268333 0 25.239884305268333 -77.392775645765596 0 0 0 0 39.541779555491075 8.6864265832104905 0 8.6864265832104905 -10.16280612097578 0 0 0 0 54.077174805453978 45.523149624108441 0 45.523149624108441 13.424237709596127 0 0 0 0 33.918734754462832 7.4415970747998728 0 7.4415970747998728 -0.98508270315206836 0 0 0 0 80.773032370605506 43.318210321502193 0 43.318210321502193 20.606228382317568 0 0 0 0 46.602549451730738 15.718010929910804 0 15.718010929910804 10.298759539136881 0 0 0 0 55.602424847340444 44.565033286481139 0 44.565033286481139 35.183537926352074 0 0 0 0 72.183075321314391 50.789569803478116 0 50.789569803478116 24.701624742257991 0 0 0 0 51.551833550212905 24.099579609014995 0 24.099579609014995 11.75503416790923 0 0 0 0 95.407132157532033 42.37713648335739 0 42.37713648335739 21.63797967325263 0 0 0 0 77.114009315380827 30.486421784020195 0 30.486421784020195 32.690010544801225 0 0 0 0 93.546148359848303 57.153131546218901 0 57.153131546218901 32.07306085572236 0 0 0 0 -6.3611886085265041 10.323056676136233 0 10.323056676136233 26.635935483825804 0 0 0 0 -73.473569716479687 -73.823750110228275 0 -73.823750110228275 23.205112026796087 0 0 0 0 31.305413839952962 44.235794729944246 0 44.235794729944246 16.747525476051123 0 0 0 0 -266.25729021980078 34.256347693738007 0 34.256347693738007 141.1561726988599 0 0 0 0 17.133210863322319 33.561844935673577 0 33.561844935673577 26.543588981495922 0 0 0 0 24.890582636391628 31.684029489490968 0 31.684029489490968 3.9579747545567443 0 0 0 0 107.37783590128174 64.08405304347184 0 64.08405304347184 -74.520035293684487 0 0 0 0 55.772025782503903 45.665902432277875 0 45.665902432277875 25.646133278915173 0 0 0 0 112.83227749220168 111.38175112890121 0 111.38175112890121 -203.48107605032055 0 0 0 0 41.327717118336267 0.75640385495495366 0 0.75640385495495366 -27.932059538606275 0 0 0 0 63.881197220712238 46.716215734763395 0 46.716215734763395 24.987801225747717 0 0 0 0 63.569491136411671 54.123045035450502 0 54.123045035450502 47.354975661385247 0 0 0 0 33.021116410467656 8.4063267627215623 0 8.4063267627215623 -2.9942652235767477 0 0 0 0 32.452249193343903 23.871216213468884 0 23.871216213468884 14.230575770407683 0 0 0 0 43.100140076727257 8.2219045123338219 0 8.2219045123338219 78.594816702969183 0 0 0 0 46.104767696713679 0.78677765828797419 0 0.78677765828797419 -1.9969300671864403 0 0 0 0 72.29431405547075 9.0443090992525867 0 9.0443090992525867 0.097882264289637533 0 0 0 0 54.688237644787193 20.591042714088701 0 20.591042714088701 -2.580652413630574 0 0 0 0 78.975405160010268 10.232873857706863 0 10.232873857706863 -93.866716873555106 0 0 0 0 71.320357212905947 -64.049403731068651 0 -64.049403731068651 14.492893508396264 0 0 0 0 10.686377781515858 7.8266255886190805 0 7.8266255886190805 3.3645785794138074 0 0 0 0 59.71848504987301 15.230548272412125 0 15.230548272412125 -2.3223374090144411 0 0 0 0 66.097637638071319 97.000253966157288 0 97.000253966157288 77.922910499430145 0 0 0 0 188.40238909167238 26.916500497876768 0 26.916500497876768 -15.033820401955381 0 0 0 0 193.96981917851372 -139.39344492584326 0 -139.39344492584326 3.9992826210123695 0 0 0 0 54.086500385645195 25.777219587661648 0 25.777219587661648 4.2277820293256809 0 0 0 0 29.522324652721579 12.064593308646408 0 12.064593308646408 -5.3679689527912391 0 0 0 0 52.320580115448962 26.96713736228773 0 26.96713736228773 16.336986737531358 0 0 0 0 58.734655623950459 21.274608302587552 0 21.274608302587552 -2.2525942168083626 0 0 0 0 78.751347656987491 50.827985073939772 0 50.827985073939772 -6.7924525179852253 0 0 0 0 28.071488502035209 75.512470945317091 0 75.512470945317091 14.264046283949028 0 0 0 0 73.202800921775633 47.068568954598959 0 47.068568954598959 29.492989115944511 0 0 0 0 40.348412696504113 25.392547861495785 0 25.392547861495785 21.576442670416455 0 0 0 0 77.054873492248589 -43.54492134473162 0 -43.54492134473162 27.849846380811869 0 0 0 0 203.84150703392515 110.98207481070131 0 110.98207481070131 8.4545050908909616 0 0 0 0 2.0944516083645368 3.8487644601583888 0 3.8487644601583888 1.8201965546704013 0 0 0 0 295.8881457223506 157.20363865667969 0 157.20363865667969 18.324562977968526 0 0 0 0 181.94023652641772 97.348423739603277 0 97.348423739603277 96.886317184773588 0 0 0 0 100.49141458206577 119.5659140222765 0 119.5659140222765 25.446517624550324 0 0 0 0 149.5903967351187 146.60045044315075 0 146.60045044315075 39.656474799487114 0 0 0 0 205.44349828582926 83.783717263181188 0 83.783717263181188 -13.703208463713963 0 0 0 0 119.80844550620532 17.152098885516352 0 17.152098885516352 -28.612392631419425 0 0 0 0 19.649628894170746 -17.011014842340956 0 -17.011014842340956 -30.258194554942747 0 0 0 0 19.822162230415863 -8.2382873088078696 0 -8.2382873088078696 -21.589155372085109 0 0 0 0 25.494859578659089 15.072257480820554 0 15.072257480820554 -21.033748222231225 0 0 0 0 9.8852998012516764 -4.8110176797490567 0 -4.8110176797490567 -2.5611021480326599 0 0 0 0 14.31235594644015 -5.6236527526985611 0 -5.6236527526985611 -27.741729871778954 0 0 0 0 96.94736796374491 61.927750725973965 0 61.927750725973965 -6.7559482754772944 0 0 0 0 27.910358522442948 41.670198272987591 0 41.670198272987591 -41.177521119953781 0 0 0 0 27.907827607237778 45.372732905036742 0 45.372732905036742 3.0521748845139882 0 0 0 0 25.309461569306222 12.913172452998879 0 12.913172452998879 -7.3635743273616754 0 0 0 0 22.567003729793726 4.4888728574876353 0 4.4888728574876353 -36.632272816481645 0 0 0 0 26.163918745914998 14.958768746232636 0 14.958768746232636 -24.842699269536752 0 0 0 0 70.020299112569774 30.742215687738735 0 30.742215687738735 20.042688121709944 0 0 0 0 139.21267947972956 101.83120982543824 0 101.83120982543824 14.250466125893581 0 0 0 0 143.89557065423287 203.78660087886692 0 203.78660087886692 158.73483477725063 0 0 0 0 29.117254053280703 200.37977324348049 0 200.37977324348049 433.82993147086745 0 0 0 0 -11.517674963848549 24.128977520997068 0 24.128977520997068 101.12938427288827 0 0 0 0 77.924476197733384 44.510624922546413 0 44.510624922546413 -44.493362185228762 0 0 0 0 148.59551774322517 -89.754422151877179 0 -89.754422151877179 -235.57328799944298 0 0 0 0 23.100315785397882 11.502162314175679 0 11.502162314175679 -3.0545135131070325 0 0 0 0 136.76891116525803 -131.93397758319043 0 -131.93397758319043 35.96729708748444 0 0 0 0 -36.853618841960269 76.912735056475185 0 76.912735056475185 33.651825412053768 0 0 0 0 31.000054072287995 39.472642307742447 0 39.472642307742447 27.562028891910515 0 0 0 0 -78.303735004685223 824.56440258455996 0 824.56440258455996 -37.196034265230992 0 0 0 0 22.462693774020266 42.157814905221166 0 42.157814905221166 31.589725027855209 0 0 0 0 -192.61700187652605 -136.77662494126162 0 -136.77662494126162 215.69837754639957 0 0 0 0 435.73994866202702 -338.72848447388242 0 -338.72848447388242 200.80049290087686 0 0 0 0 1127.9035360074122 845.84062594698617 0 845.84062594698617 -308.82350518215389 0 0 0 0 2.4784568078138136 5.7916269505076077 0 5.7916269505076077 6.4955887742780618 0 0 0 0 469.37219707426266 436.82928045368135 0 436.82928045368135 212.50514228105567 0 0 0 0 204.37748818598629 271.16587951567453 0 271.16587951567453 111.77448425285002 0 0 0 0 719.78256099048667 47.478685783617493 0 47.478685783617493 -47.899043828798312 0 0 0 0 -184.1485926690948 -646.17344180358668 0 -646.17344180358668 319.85831984638207 0 0 0 0 -128.20745578767674 32.209790031914054 0 32.209790031914054 -27.12940672512741 0 0 0 0 104.46499054081505 -91.552081868827372 0 -91.552081868827372 -78.933933357677233 0 0 0 0 69.252182788965001 45.682516691571436 0 45.682516691571436 -136.96893479037317 0 0 0 0 57.010883141076192 55.687033687896474 0 55.687033687896474 -119.56347201939002 0 0 0 0 396.85985988529865 117.03193714770441 0 117.03193714770441 -131.47886593898875 0 0 0 0 174.72044868937519 202.22932304131746 0 202.22932304131746 -48.43705126281202 0 0 0 0 150.51211854330904 228.07461931061334 0 228.07461931061334 -55.389337012666829 0 0 0 0 431.79808593272901 55.761770473715274 0 55.761770473715274 -0.2881494172092971 0 0 0 0 -2.9111354989929126 -5.5336060870411927 0 -5.5336060870411927 1.5151373668887373 0 0 0 0 -151.69834005469602 139.12483648880573 0 139.12483648880573 -35.516813117939364 0 0 0 0 13.535116893683153 24.754580075052047 0 24.754580075052047 -35.218757827084346 0 0 0 0 87.466460540505068 76.677418443638317 0 76.677418443638317 -104.04652809447327 0 0 0 0 -12.891032466985052 46.034738583923172 0 46.034738583923172 -109.55332985147834 0 0 0 0 -3.8726698174850895 2.200660507669923 0 2.200660507669923 -0.43214990075687609 0 0 0 0 -313.18646997164251 179.60255423351978 0 179.60255423351978 -115.57984366958254 0 0 0 0 7.4590048026638556 7.050420163206951 0 7.050420163206951 8.8590799993773182 0 0 0 0 17.566789621987624 42.930867967637155 0 42.930867967637155 1.9231126170913591 0 0 0 0 143.82527466275496 360.72150484542544 0 360.72150484542544 -140.01177914450409 0 0 0 0 -496.00288122706115 -324.4297399278239 0 -324.4297399278239 -27.633756081842876 0 0 0 0 10.113837577984668 134.63569029455743 0 134.63569029455743 -26.453102180614678 0 0 0 0 5.410647551259899 65.810368165560931 0 65.810368165560931 -70.044482730343134 0 0 0 0 -297.90392086980864 -29.431316991929179 0 -29.431316991929179 -120.6001146975604 0 0 0 0 173.03714804064657 180.58399627393715 0 180.58399627393715 -365.18372770931774 0 0 0 0 -585.36755543760955 108.37886913849979 0 108.37886913849979 235.05124647370576 0 0 0 0 -166.74459837663744 77.454840589426567 0 77.454840589426567 16.731767594708572 0 0 0 0 -9.8986484223278239 41.610876390957856 0 41.610876390957856 -162.37581557303929 0 0 0 0 -83.230178764555603 125.57495661333269 0 125.57495661333269 -149.4581422597621 0 0 0 0 42.589705414966815 48.391232354940996 0 48.391232354940996 9.9154061084905791 0 0 0 0 -0.98018601965389962 22.59615924317869 0 22.59615924317869 32.718264872388161 0 0 0 0 -405.89892659851466 378.92785581109962 0 378.92785581109962 30.54600940156547 0 0 0 0 -358.76034892581811 136.46689025962189 0 136.46689025962189 160.3222163884418 0 0 0 0 -28.010591960563033 34.124249904351586 0 34.124249904351586 50.746380783994709 0 0 0 0 -66.045939413059386 272.81264599070903 0 272.81264599070903 -98.270466506753223 0 0 0 0 45.61460986660677 262.5842777598823 0 262.5842777598823 9.9769263494963525 0 0 0 0 402.93570269746124 22.262025044790789 0 22.262025044790789 22.043228415623386 0 0 0 0 328.63853301753988 225.22847119059901 0 225.22847119059901 19.472018025407227 0 0 0 0 137.44419580743852 231.2926032058956 0 231.2926032058956 212.08348813041675 0 0 0 0 827.44250683924474 -79.9698927680613 0 -79.9698927680613 594.0149949048589 0 0 0 0 848.46884071391833 5.7774695616653844 0 5.7774695616653844 149.65184914592078 0 0 0 0 445.35710037741956 129.32459575835543 0 129.32459575835543 256.30584325256814 0 0 0 0 793.61809104257554 21.824513186452691 0 21.824513186452691 11.603653125047799 0 0 0 0 485.93408529562294 108.72569889094808 0 108.72569889094808 83.956468525630328 0 0 0 0 674.2922306949331 94.021536379352369 0 94.021536379352369 -28.427933117982548 0 0 0 0 464.37494969154068 109.49110787832797 0 109.49110787832797 41.478042410711851 0 0 0 0 421.98052311391803 244.58057719433373 0 244.58057719433373 -57.838399809530088 0 0 0 0 505.2589968079119 157.42842574649387 0 157.42842574649387 -40.906027009887914 0 0 0 0 498.09665237583977 84.554835114184257 0 84.554835114184257 -80.010505163942838 0 0 0 0 160.52542784258549 54.600642420486579 0 54.600642420486579 -118.56299829313974 0 0 0 0 192.20439963554963 256.1248324890455 0 256.1248324890455 -97.979324083219581 0 0 0 0 289.05080788998748 288.52974375861584 0 288.52974375861584 -167.31791281837383 0 0 0 0 355.93893371522427 185.48788439599036 0 185.48788439599036 -86.97901706556604 0 0 0 0 345.92345932748867 305.68039971448798 0 305.68039971448798 -83.954988758397462 0 0 0 0 267.16222553517491 263.51581407467108 0 263.51581407467108 -38.134536428895444 0 0 0 0 265.03664650820429 332.21394510408481 0 332.21394510408481 -189.78631520609042 0 0 0 0 116.60088623431511 340.50399021627618 0 340.50399021627618 30.924323819881465 0 0 0 0 121.38511305858265 247.32482729346793 0 247.32482729346793 129.75093137461954 0 0 0 0 355.10402327345219 238.69894107200525 0 238.69894107200525 38.471331709211881 0 0 0 0 252.18322939594509 314.09974102239721 0 314.09974102239721 -10.352750312395528 0 0 0 0 351.15257964181365 249.17332858187774 0 249.17332858187774 4.4838647044283846 0 0 0 0 319.95355473688687 139.20824433313351 0 139.20824433313351 10.778161022768472 0 0 0 0 426.63068397715142 173.05863703131371 0 173.05863703131371 18.13416080113484 0 0 0 0 389.00020343276992 233.61264764441444 0 233.61264764441444 5.3230648928906703 0 0 0 0 428.78998837457038 233.60698625522036 0 233.60698625522036 -53.308050370437513 0 0 0 0 334.64539445695118 106.39616090727122 0 106.39616090727122 -103.54510071790628 0 0 0 0 207.98036981202313 91.652571599586736 0 91.652571599586736 -89.774923855906309 0 0 0 0 315.79145647626865 119.714339007224 0 119.714339007224 -96.436242364976351 0 0 0 0 381.82489589074976 217.49314446596622 0 217.49314446596622 18.637484717794905 0 0 0 0 278.32948474823206 160.65146707385838 0 160.65146707385838 37.44899617262854 0 0 0 0 339.60251791350311 273.67973361593931 0 273.67973361593931 151.19262819241885 0 0 0 0 235.79515541445289 146.28722172530934 0 146.28722172530934 203.09883200922013 0 0 0 0 496.8809380971652 267.54131262486862 0 267.54131262486862 81.799880220285559 0 0 0 0 506.83935844825464 123.13589076502194 0 123.13589076502194 12.18310403075975 0 0 0 0 -1445.3016557068622 804.30847589549649 0 804.30847589549649 1564.834421233465 0 0 0 0 1329.4546806149301 -101.07072451518798 0 -101.07072451518798 163.59321847845627 0 0 0 0 1075.3050450134724 1146.7379299772806 0 1146.7379299772806 507.13934828699712 0 0 0 0 -522.87628096115077 469.56242802927954 0 469.56242802927954 220.37431138718512 0 0 0 0 432.79907151489897 574.66113307984347 0 574.66113307984347 68.746291974153792 0 0 0 0 591.40176000735664 144.07783020167471 0 144.07783020167471 -33.747518024974852 0 0 0 0 314.11725928506348 173.79222756897843 0 173.79222756897843 24.864426350177382 0 0 0 0 463.75963751524978 270.70630548607551 0 270.70630548607551 -135.72225527608498 0 0 0 0 340.48304640455171 231.99782952786791 0 231.99782952786791 -145.08507398741131 0 0 0 0 220.51187425159151 211.60005481910787 0 211.60005481910787 -137.34360370004015 0 0 0 0 25.761344462996931 127.90629003090726 0 127.90629003090726 -122.49637607587198 0 0 0 0 277.38542978884652 65.217022143170198 0 65.217022143170198 -273.39623435622616 0 0 0 0 199.77322203457879 97.280619749535617 0 97.280619749535617 -169.79195358456954 0 0 0 0 318.16908190975664 154.44299971821965 0 154.44299971821965 -167.75824774466764 0 0 0 0 92.740080279023459 -9.9780828049740649 0 -9.9780828049740649 -212.49798785763687 0 0 0 0 83.301943634873965 -14.490649459063491 0 -14.490649459063491 0.3136387758351713 0 0 0 0 141.58773772462882 33.606873356720371 0 33.606873356720371 -46.210457367744311 0 0 0 0 100.74717804280226 55.022828457278138 0 55.022828457278138 23.064644346684418 0 0 0 0 71.023671817484285 58.614008492143 0 58.614008492143 -21.080254528261101 0 0 0 0 166.54080912588688 46.82004248672456 0 46.82004248672456 -169.46258351088227 0 0 0 0 159.65809553772124 53.157581952640953 0 53.157581952640953 -132.20214864445461 0 0 0 0 77.397419597413318 61.84485333233107 0 61.84485333233107 -3.2251855281551798 0 0 0 0 89.042381867278891 55.795522188423547 0 55.795522188423547 -38.02846798934047 0 0 0 0 63.190397515558288 89.168589462439016 0 89.168589462439016 -12.706071755526242 0 0 0 0 87.691209634416737 55.209221745070408 0 55.209221745070408 14.55861663688529 0 0 0 0 121.83460780504265 47.100185663784458 0 47.100185663784458 18.109276441667362 0 0 0 0 129.59344271205919 67.207627791514369 0 67.207627791514369 -12.469186592780488 0 0 0 0 113.13864215297872 51.853497670204945 0 51.853497670204945 -12.224540849461846 0 0 0 0 111.17295812193333 61.009261990409414 0 61.009261990409414 -14.557876858120835 0 0 0 0 97.223002439903212 66.143118932428024 0 66.143118932428024 17.060449723800048 0 0 0 0 89.773976330223377 49.950831269012724 0 49.950831269012724 -7.4538275293334664 0 0 0 0 56.115587527876158 80.019375269154693 0 80.019375269154693 8.1676672066157003 0 0 0 0 98.07657143913093 68.710108051715906 0 68.710108051715906 -7.4577324151919129 0 0 0 0 -67.274329520256288 320.94694550832287 0 320.94694550832287 -11.687973286010674 0 0 0 0 -28.907286304194713 414.39043192454028 0 414.39043192454028 7.9283799693803303 0 0 0 0 -245.65284709740081 184.84199618818366 0 184.84199618818366 -109.79376637395944 0 0 0 0 -91.639955084057874 276.66252863495527 0 276.66252863495527 -66.836429203502121 0 0 0 0 -372.60896574129583 220.66763929959734 0 220.66763929959734 -113.06957022575079 0 0 0 0 -11.297188297177229 1.097203418801314 0 1.097203418801314 0.54840709213292271 0 0 0 0 -43.502307882947605 78.080337242669927 0 78.080337242669927 -0.21700591839608141 0 0 0 0 -111.94158556230832 350.21444876936221 0 350.21444876936221 18.730144498645132 0 0 0 0 -96.471021447679959 127.79842407540127 0 127.79842407540127 -42.995117292145096 0 0 0 0 -53.604216056846781 299.09875765244487 0 299.09875765244487 -61.937993784184073 0 0 0 0 -768.59672387044702 -385.64948220055749 0 -385.64948220055749 108.25932049214589 0 0 0 0 -110.58049691855558 132.60004555094292 0 132.60004555094292 -37.521020352985033 0 0 0 0 7.2110257796663859 11.223672558360292 0 11.223672558360292 -6.6308144575983503 0 0 0 0 61.480260190356233 17.403839154320352 0 17.403839154320352 -25.429016002644186 0 0 0 0 -348.41946558907512 190.43878460014318 0 190.43878460014318 -54.249927481047393 0 0 0 0 143.20278057027463 9.4775957902022583 0 9.4775957902022583 -51.829423077938372 0 0 0 0 71.081389775245043 35.857022317178007 0 35.857022317178007 -13.003507585371153 0 0 0 0 71.041902333621692 34.84836100567486 0 34.84836100567486 -35.673372852651752 0 0 0 0 12.691414589396786 0.33356321136305667 0 0.33356321136305667 -0.74843410556678869 0 0 0 0 182.97243715499326 32.921174318195625 0 32.921174318195625 -7.890620367705651 0 0 0 0 52.113037298014376 10.319698041471074 0 10.319698041471074 -28.390036257701539 0 0 0 0 39.956769412799986 46.57613922011592 0 46.57613922011592 5.3690253022969046 0 0 0 0 94.502776279143291 29.999303059658359 0 29.999303059658359 -24.995319781956823 0 0 0 0 102.43412561910372 46.0039753876855 0 46.0039753876855 -7.3491449792531967 0 0 0 0 114.00119451062346 45.321402209125608 0 45.321402209125608 -16.646543870743244 0 0 0 0 162.55556729196178 48.717978042555387 0 48.717978042555387 -7.3586369773661318 0 0 0 0 42.055415993732154 20.042940328048839 0 20.042940328048839 0.65317320170737625 0 0 0 0 127.554519672678 25.288460169052655 0 25.288460169052655 -22.841238849514752 0 0 0 0 72.227229004394445 29.739837394214838 0 29.739837394214838 4.6051609654446732 0 0 0 0 69.899016044591008 55.201165551554737 0 55.201165551554737 -63.510156001688756 0 0 0 0 76.900688997204725 21.276689896042882 0 21.276689896042882 -1.9557812205562186 0 0 0 0 71.541653832053925 24.923590442077636 0 24.923590442077636 2.3218068408343786 0 0 0 0 32.472232745529489 25.418560463115956 0 25.418560463115956 -11.439654081103692 0 0 0 0 94.110179772166518 7.7526473479249418 0 7.7526473479249418 -20.386754991516515 0 0 0 0 94.851566298772013 38.473749767934464 0 38.473749767934464 -5.5774034367548211 0 0 0 0 147.18248211428545 -3.2577380539015053 0 -3.2577380539015053 -10.102036239696645 0 0 0 0 47.911379738565302 50.31602446388149 0 50.31602446388149 -3.5836943604471116 0 0 0 0 81.963294621455844 15.858317431374665 0 15.858317431374665 -8.6664256705942346 0 0 0 0 84.940722809391445 64.801335373330403 0 64.801335373330403 -86.828278079934989 0 0 0 0 104.50588096375213 35.938006006254625 0 35.938006006254625 -60.457955103826976 0 0 0 0 87.382121235477825 49.938820190436331 0 49.938820190436331 -71.888663261637817 0 0 0 0 18.801530214525236 14.776593551293338 0 14.776593551293338 1.7176127786246955 0 0 0 0 111.6184510707825 -2.7145045437051962 0 -2.7145045437051962 -114.874729259822 0 0 0 0 174.40668412512241 190.46934858894718 0 190.46934858894718 48.026425406892287 0 0 0 0 126.60560848287389 52.32600220819441 0 52.32600220819441 13.854809993766526 0 0 0 0 172.82045087311053 60.217690700306662 0 60.217690700306662 -34.785825837194579 0 0 0 0 134.73746957424373 47.932809302166874 0 47.932809302166874 7.3704113059567931 0 0 0 0 176.93826526561679 19.579115326750298 0 19.579115326750298 -20.461556897171022 0 0 0 0 233.41854159780632 11.065137573461243 0 11.065137573461243 -0.70234160841948778 0 0 0 0 201.59200240177233 66.767048306989182 0 66.767048306989182 90.717263051062673 0 0 0 0 157.81861692425991 146.36910892047933 0 146.36910892047933 114.90824758177314 0 0 0 0 219.47517733579298 63.386070700181847 0 63.386070700181847 8.041171264936338 0 0 0 0 2664.8644017588013 -337.65951355010401 0 -337.65951355010401 -70.06620223906657 0 0 0 0 1113.3662237545068 -1115.547459391169 0 -1115.547459391169 291.99732089914176 0 0 0 0 1248.8624190235641 -1048.5051499604117 0 -1048.5051499604117 253.31244921087784 0 0 0 0 1529.341897365317 -1372.8519047097905 0 -1372.8519047097905 571.16490029675174 0 0 0 0 1409.6880309349799 -892.06110815695001 0 -892.06110815695001 715.73801344827416 0 0 0 0 3021.7131487481456 -643.99155732763438 0 -643.99155732763438 141.99098701457774 0 0 0 0 3350.0484859194476 671.97480334990576 0 671.97480334990576 468.4898116388311 0 0 0 0 3499.7598951918626 95.589482442759419 0 95.589482442759419 -516.27503124395105 0 0 0 0 2662.5136401030186 389.13029499531848 0 389.13029499531848 -1026.8200409986773 0 0 0 0 2618.8956171970622 600.56228983648475 0 600.56228983648475 -797.78431840691587 0 0 0 0 3500.0702672289435 991.63580251573615 0 991.63580251573615 -1296.0869682292148 0 0 0 0 2432.0745800054865 439.6771722317406 0 439.6771722317406 -871.10194329731303 0 0 0 0 549.96657274241443 947.81749082940598 0 947.81749082940598 -1286.0465176649734 0 0 0 0 2567.8368259237759 262.6989981760828 0 262.6989981760828 -1103.0371520920226 0 0 0 0 1256.8701224329125 -398.09497302932311 0 -398.09497302932311 -64.06064606893446 0 0 0 0 763.09502480458104 -1285.9539174257709 0 -1285.9539174257709 217.67307440228069 0 0 0 0 1313.9312874093011 -347.99885361592692 0 -347.99885361592692 -467.54833325719164 0 0 0 0 208.74111300584627 2.9964106446370806 0 2.9964106446370806 -511.00650253474828 0 0 0 0 -335.18896051764568 -1661.3715838167705 0 -1661.3715838167705 -404.48382818934897 0 0 0 0 13.291701003160853 -5.6002302676269622 0 -5.6002302676269622 1.7464814316553019 0 0 0 0 1092.6453638193198 -657.88672411945481 0 -657.88672411945481 810.9849219416833 0 0 0 0 1093.234999705237 -590.63206343086426 0 -590.63206343086426 176.81315768285674 0 0 0 0 1537.1616680447041 -249.58420248464193 0 -249.58420248464193 328.78821733921097 0 0 0 0 1819.5350341303201 -1039.2580842565289 0 -1039.2580842565289 -156.55121055900656 0 0 0 0 1400.09772156291 -1419.6975982423905 0 -1419.6975982423905 -393.11467427390374 0 0 0 0 1206.9289930459563 -35.015169911512089 0 -35.015169911512089 164.24200027417805 0 0 0 0 1118.1955791690561 -670.68052834672187 0 -670.68052834672187 -43.029249774630784 0 0 0 0 1193.364599828441 -474.22395870232629 0 -474.22395870232629 301.04603857437314 0 0 0 0 987.79157683510857 -228.13562798128248 0 -228.13562798128248 218.36906104002742 0 0 0 0 874.79411824805402 -311.77665132518939 0 -311.77665132518939 160.78879375769091 0 0 0 0 711.71034109194443 -90.111610876184272 0 -90.111610876184272 232.46281522615209 0 0 0 0 889.29945116136514 -22.359021465451924 0 -22.359021465451924 58.642334477545674 0 0 0 0 596.27038039528998 -42.633020042046354 0 -42.633020042046354 113.16073601260561 0 0 0 0 738.48160132684279 -80.167012366039557 0 -80.167012366039557 52.047644620015035 0 0 0 0 835.85839829434553 -369.66880253081069 0 -369.66880253081069 173.82628019373033 0 0 0 0 586.12044580039219 -200.87555938301898 0 -200.87555938301898 163.25268568474911 0 0 0 0 525.31430945193279 -56.289391134863536 0 -56.289391134863536 38.190090260273337 0 0 0 0 336.37022362997232 -249.18833512389381 0 -249.18833512389381 194.68916194400708 0 0 0 0 407.17198556665971 -19.321178612352924 0 -19.321178612352924 102.62734779000846 0 0 0 0 502.23676038590202 136.04028405947656 0 136.04028405947656 -1.1708903002217994 0 0 0 0 849.58278184142546 -970.53685761076542 0 -970.53685761076542 268.1223995951762 0 0 0 0 1118.0623941815902 -1131.636212045106 0 -1131.636212045106 115.39984015155949 0 0 0 0 704.20954959322989 -506.13317213792413 0 -506.13317213792413 168.44193730992077 0 0 0 0 1005.5867105334983 -758.10192245696226 0 -758.10192245696226 263.19479953106929 0 0 0 0 363.40172602287203 -576.35139344792731 0 -576.35139344792731 316.92015854399642 0 0 0 0 574.97400468613341 -406.85802397557154 0 -406.85802397557154 167.49142207712885 0 0 0 0 1068.0048113488592 -1177.9814209057081 0 -1177.9814209057081 458.20624062441493 0 0 0 0 636.23776739477762 -875.91124858056855 0 -875.91124858056855 554.51107037195732 0 0 0 0 719.65346866009349 -836.3610485177137 0 -836.3610485177137 363.85959513612579 0 0 0 0 657.37695314807934 -552.93498580182768 0 -552.93498580182768 -186.88020774941106 0 0 0 0 145.26930154295405 -526.83717123962469 0 -526.83717123962469 449.98825828057238 0 0 0 0 60.741190142187406 -213.611080021014 0 -213.611080021014 175.04046312001677 0 0 0 0 347.69298577735026 -450.00410455782867 0 -450.00410455782867 -16.025010310269863 0 0 0 0 -338.46322657699056 -301.44894261862282 0 -301.44894261862282 2.4119901568047908 0 0 0 0 -11.72259389370447 30.298465223102085 0 30.298465223102085 -554.33321754000644 0 0 0 0 136.41916907011182 -778.6823553336742 0 -778.6823553336742 -262.59809847091219 0 0 0 0 7.2764045150462948 -3.1316457659631567 0 -3.1316457659631567 1.9070577789003735 0 0 0 0 234.01602176156302 1049.6878095300244 0 1049.6878095300244 862.29553794538651 0 0 0 0 219.47767388442298 -28.498143352433544 0 -28.498143352433544 54.547870401243699 0 0 0 0 289.75310933138826 153.47607446669508 0 153.47607446669508 4.535724709873648 0 0 0 0 364.06091721597477 26.184868504600445 0 26.184868504600445 -97.505937028621702 0 0 0 0 153.2501924920216 73.891184354506095 0 73.891184354506095 -105.05393404487631 0 0 0 0 187.66462687162857 -80.384843443700447 0 -80.384843443700447 -197.35142598994844 0 0 0 0 226.8059081833344 40.100531319752008 0 40.100531319752008 -52.434905213331149 0 0 0 0 258.92792119938531 -218.00935949706854 0 -218.00935949706854 -87.498722894393723 0 0 0 0 -111.99485562027257 -235.44017092612285 0 -235.44017092612285 -382.62752347104851 0 0 0 0 102.27753296750598 -351.90812947255563 0 -351.90812947255563 -818.59233495426133 0 0 0 0 -7.7926527966628782 -156.21814338951481 0 -156.21814338951481 -99.431942965165945 0 0 0 0 147.49596504060901 44.128432925297147 0 44.128432925297147 -376.62913552186183 0 0 0 0 71.841772773084813 20.078026510544078 0 20.078026510544078 -347.77616316563126 0 0 0 0 194.18817786971886 -49.318655647273019 0 -49.318655647273019 -309.74010401347186 0 0 0 0 264.25500371430098 85.444624837871743 0 85.444624837871743 -257.92746917726254 0 0 0 0 138.9277543391654 -140.66160271760339 0 -140.66160271760339 -475.34947504743559 0 0 0 0 115.8241238448536 194.47479431017746 0 194.47479431017746 145.33017738257968 0 0 0 0 48.92834241938715 -16.033311503805194 0 -16.033311503805194 2.7676367684827294 0 0 0 0 111.20182826268137 514.72386609294881 0 514.72386609294881 385.81846823245451 0 0 0 0 29.334306387958492 -6.7540463443367997 0 -6.7540463443367997 -0.66640455335605253 0 0 0 0 -105.229663211765 -163.7023384611025 0 -163.7023384611025 223.24575971015474 0 0 0 0 86.6608294421967 -68.975355454301649 0 -68.975355454301649 142.93129382392996 0 0 0 0 -26.999189663321886 121.54255209586063 0 121.54255209586063 204.64773630970859 0 0 0 0 268.6304899409879 141.71610993402578 0 141.71610993402578 -166.75209990782059 0 0 0 0 86.674191737293981 -28.845053277310114 0 -28.845053277310114 5.2775240215781984 0 0 0 0 174.84619206428761 -115.21173466235678 0 -115.21173466235678 -239.15726029975883 0 0 0 0 32.115275881093112 -56.010955677995753 0 -56.010955677995753 74.16054994374133 0 0 0 0 77.958179568645619 -29.828855497513615 0 -29.828855497513615 9.0682214091096895 0 0 0 0 548.11126586017053 -742.43109254549836 0 -742.43109254549836 -1241.8381823816126 0 0 0 0 1111.7672394867623 367.46603793621443 0 367.46603793621443 249.3573979905359 0 0 0 0 -452.84037384315161 -369.67457858462149 0 -369.67457858462149 589.5162423519414 0 0 0 0 276.48800191392365 -294.10154513568796 0 -294.10154513568796 -615.70139155643483 0 0 0 0 520.35251462723681 402.87201455864897 0 402.87201455864897 -454.46577045334561 0 0 0 0 146.05921002489049 -77.83726930616595 0 -77.83726930616595 318.42035950123159 0 0 0 0 89.96609064424544 -32.306222695163967 0 -32.306222695163967 7.5024617649970526 0 0 0 0 310.34284886167734 -93.268784016060749 0 -93.268784016060749 -30.903319384409883 0 0 0 0 349.57124838839809 289.18822730437228 0 289.18822730437228 275.15108280528881 0 0 0 0 1120.3612585115552 279.5331478392128 0 279.5331478392128 209.57027308683354 0 0 0 0 439.06113241337698 569.43955654924434 0 569.43955654924434 348.60974451735729 0 0 0 0 1136.8611826063716 634.72030825328545 0 634.72030825328545 704.47592238116044 0 0 0 0 3400.3463230411871 1060.7064090777005 0 1060.7064090777005 -139.1638184322108 0 0 0 0 1682.9434390284878 1161.0130100219253 0 1161.0130100219253 904.57178838618552 0 0 0 0 1162.4078928631425 292.40603550350579 0 292.40603550350579 310.14094377912306 0 0 0 0 -67.883804479941318 -161.62085646770561 0 -161.62085646770561 1267.5183881885068 0 0 0 0 269.21492536920414 -1816.9297116403147 0 -1816.9297116403147 1730.465881445672 0 0 0 0 1308.3929504638654 719.97684959964772 0 719.97684959964772 -982.2910243616767 0 0 0 0 33.134376678047687 -12.763870798649265 0 -12.763870798649265 6.8413623256407528 0 0 0 0 4748.6348825454552 2060.5902017843518 0 2060.5902017843518 921.41222714357423 0 0 0 0 3432.5050165719986 -2022.3387363819077 0 -2022.3387363819077 758.10808521607987 0 0 0 0 1180.9467655589106 -1232.7250639769077 0 -1232.7250639769077 593.66374678926923 0 0 0 0 426.47272044514102 -433.57920233465916 0 -433.57920233465916 1369.6382097288879 0 0 0 0 3499.6242507065326 -10.69605326469982 0 -10.69605326469982 1279.9760312872413 0 0 0 0 4644.8305218331789 431.99570009202228 0 431.99570009202228 780.60033224677636 0 0 0 0 5061.2645748019486 -795.28090661975216 0 -795.28090661975216 1054.2293766991022 0 0 0 0 3426.8205452289658 -88.53349686630969 0 -88.53349686630969 3247.8949138009084 0 0 0 0 3453.8854344935858 75.382517244070399 0 75.382517244070399 1463.0012756298775 0 0 0 0 3810.5838781643879 -400.04298304973963 0 -400.04298304973963 635.11908641119226 0 0 0 0 3499.7266115746279 -47.358733908115781 0 -47.358733908115781 1610.0601612043622 0 0 0 0 3819.8201027763462 282.99351283224462 0 282.99351283224462 198.06989704119428 0 0 0 0 3562.0939193657759 65.157602368780459 0 65.157602368780459 17.733056247576826 0 0 0 0 3500.5050991568314 203.84824868850487 0 203.84824868850487 -18.877682327770014 0 0 0 0 3603.7445829791832 63.563032677901418 0 63.563032677901418 -414.53066935060946 0 0 0 0 3320.4767604904137 478.91587794844179 0 478.91587794844179 -224.98913008200265 0 0 0 0 3255.5231233554005 244.91238165342293 0 244.91238165342293 -477.93531129917733 0 0 0 0 3242.9890044095519 159.284636897067 0 159.284636897067 -421.84023844602393 0 0 0 0 3499.8051006806863 144.2454483197773 0 144.2454483197773 -619.82108622351086 0 0 0 0 1958.3179129784767 818.80197851426033 0 818.80197851426033 149.14362438516463 0 0 0 0 1464.3813130504495 303.6770563938129 0 303.6770563938129 121.69695322162875 0 0 0 0 2802.9192723293199 206.32927875211993 0 206.32927875211993 -303.65996580142405 0 0 0 0 2669.9232631036357 534.81081420045757 0 534.81081420045757 -202.06092346625769 0 0 0 0 2186.2393859372751 439.45697932333053 0 439.45697932333053 54.497230104538346 0 0 0 0 1874.8734066158913 257.72335319733389 0 257.72335319733389 -83.833935197808842 0 0 0 0 1887.0729980570541 187.1404987752619 0 187.1404987752619 -172.83335717740033 0 0 0 0 1880.7172928174768 -165.45641846238652 0 -165.45641846238652 -301.33256378059957 0 0 0 0 2630.6743909500096 119.37423282525702 0 119.37423282525702 -450.43260319063313 0 0 0 0 2630.935186910192 172.15948869814736 0 172.15948869814736 -368.40095444800079 0 0 0 0 2656.8770850238361 -333.24851672540444 0 -333.24851672540444 -486.93360615886684 0 0 0 0 2914.0520212781994 134.38533873389241 0 134.38533873389241 -456.27462615140956 0 0 0 0 2110.2603327065081 19.421612829756441 0 19.421612829756441 -368.81218496539418 0 0 0 0 3282.4328377043857 127.12747656516197 0 127.12747656516197 -600.4524718033266 0 0 0 0 3243.2427535102615 19.236121736064803 0 19.236121736064803 -591.65659093389081 0 0 0 0 3500.1064272060794 19.183879812092599 0 19.183879812092599 -562.70170519642386 0 0 0 0 3284.9476350925652 134.62812708104639 0 134.62812708104639 -206.74658051055525 0 0 0 0 3499.5958295959317 -127.19299614245713 0 -127.19299614245713 2.537618903590523 0 0 0 0 3348.9471772016968 52.011978154208393 0 52.011978154208393 -507.04451345499416 0 0 0 0 3052.5286012207725 3.0145281077867452 0 3.0145281077867452 -513.96392954334306 0 0 0 0 2983.3692150117859 -103.16558262958972 0 -103.16558262958972 -57.548105207826339 0 0 0 0 3509.9963908731584 -1314.2360499523168 0 -1314.2360499523168 356.25616266483212 0 0 0 0 1774.5132089099206 -981.49678618606913 0 -981.49678618606913 299.86167417638546 0 0 0 0 3749.1572722530364 163.93805208805691 0 163.93805208805691 -32.575973280209659 0 0 0 0 20.324956887474414 6.6125236225477124 0 6.6125236225477124 4.0748046515234781 0 0 0 0 197.55190030572521 567.40828979440766 0 567.40828979440766 783.51795333980408 0 0 0 0 3015.3609485432626 216.74123935507689 0 216.74123935507689 -116.24089129586464 0 0 0 0 2933.0985680384001 -409.89895489344201 0 -409.89895489344201 -109.03445343350367 0 0 0 0 2999.1181704865276 -851.88468346474349 0 -851.88468346474349 154.78743873068913 0 0 0 0 3090.5201959970377 -237.22471371780458 0 -237.22471371780458 31.044463765178016 0 0 0 0 3096.8617173890943 -131.96013820043211 0 -131.96013820043211 1051.3528716831704 0 0 0 0 3499.6050890367751 -400.20763406041044 0 -400.20763406041044 61.637910065984073 0 0 0 0 -54.835404903278686 44.020491890230005 0 44.020491890230005 112.72367280486162 0 0 0 0 -137.18383579769579 101.39470633027071 0 101.39470633027071 118.57360564431136 0 0 0 0 -147.71655855869903 192.58525695811352 0 192.58525695811352 50.433232624902303 0 0 0 0 -88.936381338701722 139.36897699417449 0 139.36897699417449 44.344518258460084 0 0 0 0 -243.65006849583915 321.26194913088653 0 321.26194913088653 -123.6778582583724 0 0 0 0 55.706814945455626 41.537386412889347 0 41.537386412889347 32.061297440411707 0 0 0 0 -247.15648358866747 24.726368312677266 0 24.726368312677266 394.01158534940282 0 0 0 0 280.51894398001969 -84.253317029418668 0 -84.253317029418668 77.639473234701882 0 0 0 0 -8.472939585624772 5.2612867141974675 0 5.2612867141974675 60.301037680505488 0 0 0 0 37.737846283847801 28.312884558699047 0 28.312884558699047 9.7357007792356178 0 0 0 0 695.65975536037877 51.999465593369507 0 51.999465593369507 -94.21486681393003 0 0 0 0 583.1676876755846 -78.157945246106209 0 -78.157945246106209 53.102290700815615 0 0 0 0 144.49647303534584 -141.25504554767895 0 -141.25504554767895 -374.06068296912213 0 0 0 0 18.27643886762398 20.312628890236692 0 20.312628890236692 0.16160738130374064 0 0 0 0 127.81661031071646 58.595471928102384 0 58.595471928102384 13.599430983534059 0 0 0 0 -94.648637369894459 286.20679539181674 0 286.20679539181674 33.345190206858661 0 0 0 0 -32.473924418035494 46.351149796435948 0 46.351149796435948 99.033156125663481 0 0 0 0 -71.699684427134216 36.759762488269246 0 36.759762488269246 -0.72276426222689949 0 0 0 0 25.514104930629401 302.96782883519518 0 302.96782883519518 294.17981735876435 0 0 0 0 -89.627010394789522 188.16959400249129 0 188.16959400249129 180.45413744202961 0 0 0 0 223.32027807493796 79.610692905024962 0 79.610692905024962 -212.00254574909854 0 0 0 0 190.57663614074409 310.12688165405586 0 310.12688165405586 -257.17225680561114 0 0 0 0 -15.624946736432321 129.22576432629637 0 129.22576432629637 101.23278510529383 0 0 0 0 49.655603721036641 257.14277597200976 0 257.14277597200976 -201.85488016834847 0 0 0 0 1590.4905329522335 -600.09379040741544 0 -600.09379040741544 -177.7362829828669 0 0 0 0 592.59034639719903 -84.310498200835013 0 -84.310498200835013 -39.889429190348892 0 0 0 0 493.23404014248808 -45.298230099758257 0 -45.298230099758257 -60.020725123124294 0 0 0 0 632.01209585095148 144.66617584501353 0 144.66617584501353 -214.50982224925019 0 0 0 0 247.10863515146775 188.77195899896094 0 188.77195899896094 82.396184955462104 0 0 0 0 586.75454850225651 -1.3611354975150789 0 -1.3611354975150789 153.01267158848759 0 0 0 0 563.98124244481005 122.27287392638505 0 122.27287392638505 37.945273356284474 0 0 0 0 1689.5416364009616 113.20597999639381 0 113.20597999639381 -145.42146365415783 0 0 0 0 783.69699056378886 138.90263676840596 0 138.90263676840596 16.899206811641079 0 0 0 0 1126.0126775709214 -251.73538312995379 0 -251.73538312995379 -44.370546496384321 0 0 0 0 1094.6672587114826 228.17324161299126 0 228.17324161299126 91.937458763615496 0 0 0 0 1018.345751837056 87.788375534270244 0 87.788375534270244 126.74915541981943 0 0 0 0 1229.4291295502044 23.740324668312269 0 23.740324668312269 -34.555171687245888 0 0 0 0 465.52564884109961 52.037859595523571 0 52.037859595523571 191.73976460235895 0 0 0 0 575.29223174556682 307.52644755570833 0 307.52644755570833 292.80010318001337 0 0 0 0 276.14804722831468 -2.2964577880290236 0 -2.2964577880290236 238.51370145435277 0 0 0 0 1224.3261022554143 422.6152445873073 0 422.6152445873073 151.90691480038811 0 0 0 0 690.8152130516537 133.44046071290495 0 133.44046071290495 235.86480398834652 0 0 0 0 855.30714282880945 581.29706568101074 0 581.29706568101074 385.17238387173285 0 0 0 0 22.871201129795736 93.595682048871808 0 93.595682048871808 183.23108481157607 0 0 0 0 48.395036700028868 40.761417214962222 0 40.761417214962222 216.39200650159518 0 0 0 0 193.12023568757286 122.6093814490994 0 122.6093814490994 261.39240611119817 0 0 0 0 193.71788492654741 131.21519585947706 0 131.21519585947706 62.85339497559994 0 0 0 0 116.35863314686321 15.891273939861811 0 15.891273939861811 189.61069575622736 0 0 0 0 159.52771141435369 132.04511778574872 0 132.04511778574872 278.3661676820069 0 0 0 0 82.93604468133708 39.282568342508881 0 39.282568342508881 173.55397724949233 0 0 0 0 107.32460375623486 64.610363555360863 0 64.610363555360863 183.61260175472802 0 0 0 0 78.953788505532742 -22.89350508907777 0 -22.89350508907777 2.3806182106137292 0 0 0 0 109.23513260863547 -18.453390090632638 0 -18.453390090632638 -61.806671532216399 0 0 0 0 59.062159821150999 99.437334638170213 0 99.437334638170213 196.99758389001076 0 0 0 0 27.797248111644876 97.034896293730185 0 97.034896293730185 208.52792961168166 0 0 0 0 19.869960709103907 69.497222758922362 0 69.497222758922362 119.11240035256105 0 0 0 0 51.315794487833045 91.57322143995475 0 91.57322143995475 94.929133882244969 0 0 0 0 97.238862751764827 96.365125940614291 0 96.365125940614291 197.09297899968223 0 0 0 0 60.020780007311259 121.63816968865896 0 121.63816968865896 180.38315667909399 0 0 0 0 398.42682400613558 153.76635814468943 0 153.76635814468943 182.09026719529646 0 0 0 0 76.735099727455236 226.18684076527313 0 226.18684076527313 -24.719183612050642 0 0 0 0 31.16811436013063 34.24377909874913 0 34.24377909874913 -7.6045113788466052 0 0 0 0 103.53392946047825 49.840447115040661 0 49.840447115040661 6.1987733022565408 0 0 0 0 41.946719439165463 69.207066874484553 0 69.207066874484553 108.96197858092376 0 0 0 0 11.819226605476857 0.40128006979323061 0 0.40128006979323061 -2.7222730948192195 0 0 0 0 45.018659125819106 25.24832302407377 0 25.24832302407377 10.817859650214702 0 0 0 0 112.1339900784551 52.290024693128885 0 52.290024693128885 6.8553030272947808 0 0 0 0 70.455861603972153 4.0527919543748112 0 4.0527919543748112 5.5319747788344671 0 0 0 0 90.091753749606141 35.940146044627454 0 35.940146044627454 -0.55388629360686537 0 0 0 0 106.89386804987225 59.089968262922866 0 59.089968262922866 12.417560904665152 0 0 0 0 96.942567772723123 55.5369370252929 0 55.5369370252929 11.283243956813749 0 0 0 0 58.716664563352651 31.132061697077866 0 31.132061697077866 -25.4066080934284 0 0 0 0 146.44656780850346 28.898474061386878 0 28.898474061386878 18.752563119780319 0 0 0 0 138.92654147864232 75.696084266274283 0 75.696084266274283 22.46866757579528 0 0 0 0 74.908167386566504 16.853357639408742 0 16.853357639408742 -14.160956242063353 0 0 0 0 20.488294649628884 17.005449862218299 0 17.005449862218299 -12.958646210781362 0 0 0 0 118.47221753214399 97.653572167113566 0 97.653572167113566 -86.217465514812488 0 0 0 0 172.8383875821346 215.97093456691482 0 215.97093456691482 30.864925789313929 0 0 0 0 103.75403264199018 39.061780227420954 0 39.061780227420954 11.81316231318106 0 0 0 0 116.87730783916186 60.993362640716327 0 60.993362640716327 -250.13128630790652 0 0 0 0 13.849712942123748 21.464421658349295 0 21.464421658349295 -1.3100820150964845 0 0 0 0 -13.144065866577876 -6.0822274280603779 0 -6.0822274280603779 -280.67362203012408 0 0 0 0 116.98161273103142 146.70271808920666 0 146.70271808920666 -472.80840792767822 0 0 0 0 108.0027314763438 92.449421084884875 0 92.449421084884875 -211.98740838779713 0 0 0 0 157.16490258792874 117.10631691774756 0 117.10631691774756 -300.36539204022847 0 0 0 0 154.73870098260886 87.63161952896553 0 87.63161952896553 -248.48780502143683 0 0 0 0 137.80621532913125 55.774809445621699 0 55.774809445621699 14.673847879838981 0 0 0 0 96.755729077962314 392.12054716426019 0 392.12054716426019 -353.87455215815271 0 0 0 0 47.298409229857498 36.520182075373782 0 36.520182075373782 54.905557078102561 0 0 0 0 115.80242023092069 68.749934596010689 0 68.749934596010689 -295.41169683784847 0 0 0 0 131.74448787143504 58.39787115564971 0 58.39787115564971 11.901419788563565 0 0 0 0 267.3653199516375 14.090412834272684 0 14.090412834272684 -238.35518835103244 0 0 0 0 222.14169958638172 34.720604064972903 0 34.720604064972903 -168.29632386016942 0 0 0 0 265.19095577725057 -18.086164574860049 0 -18.086164574860049 -135.19960959680031 0 0 0 0 185.74760036897828 34.257190550075578 0 34.257190550075578 -168.15625160769901 0 0 0 0 171.11956936559727 75.977512897526054 0 75.977512897526054 -162.24916504585235 0 0 0 0 152.30689262327905 127.3618939535088 0 127.3618939535088 -205.87746322512612 0 0 0 0 213.41469405656289 75.44612206349845 0 75.44612206349845 -162.56854917098531 0 0 0 0 157.88299106507839 158.7510391770403 0 158.7510391770403 -138.32740571679835 0 0 0 0 76.078410154283119 88.250424167280016 0 88.250424167280016 -56.757343052181 0 0 0 0 -26.903602460535694 156.63363209820341 0 156.63363209820341 -102.15565712953889 0 0 0 0 137.90429982695787 64.445680265043848 0 64.445680265043848 -6.0977266437639628 0 0 0 0 235.78857727442846 44.547877691678536 0 44.547877691678536 -89.968494657797464 0 0 0 0 127.20354507130997 57.377771746281724 0 57.377771746281724 10.591766159357567 0 0 0 0 31.655156001340419 1.3143176389560978 0 1.3143176389560978 -2.5462690057883552 0 0 0 0 180.45428057910783 130.05441178419386 0 130.05441178419386 -155.10683198642027 0 0 0 0 109.47065621466436 -154.60163393758967 0 -154.60163393758967 -850.99463864088739 0 0 0 0 -4.321695147649983 -0.7503968484927368 0 -0.7503968484927368 -0.84619264916045989 0 0 0 0 60.213434300687368 317.03084457107241 0 317.03084457107241 344.45939375436365 0 0 0 0 122.75596018716533 299.03310370740019 0 299.03310370740019 -568.30663982269596 0 0 0 0 118.91085048031528 26.742646267774262 0 26.742646267774262 -186.36240574160183 0 0 0 0 266.60240606733714 175.95368400141797 0 175.95368400141797 -416.15727862076051 0 0 0 0 126.43152567795096 210.0289738774851 0 210.0289738774851 -193.51246925504483 0 0 0 0 312.94630705486634 103.45360417720576 0 103.45360417720576 -245.05127274705592 0 0 0 0 271.2048298952302 109.5926360680657 0 109.5926360680657 -220.41260287595196 0 0 0 0 439.64185380050549 87.429738845034535 0 87.429738845034535 -288.62327337659099 0 0 0 0 381.11906650808305 32.537685932909653 0 32.537685932909653 -234.95131011694366 0 0 0 0 408.69814789012162 -36.034851384882813 0 -36.034851384882813 -129.81508683427046 0 0 0 0 323.46323345973269 27.859425461757155 0 27.859425461757155 -239.40357683572165 0 0 0 0 296.52285967496346 38.973621282913513 0 38.973621282913513 -228.50332800642263 0 0 0 0 489.83783860182848 -72.267369136125012 0 -72.267369136125012 -5.0310855259272103 0 0 0 0 356.9609653380603 11.974060140158826 0 11.974060140158826 -42.073718917329643 0 0 0 0 565.73429233956858 102.35925184293615 0 102.35925184293615 -99.326266692152331 0 0 0 0 375.64142966791405 -15.243923323876629 0 -15.243923323876629 170.73166730128924 0 0 0 0 72.301520439868909 117.15215851082462 0 117.15215851082462 269.56044314384826 0 0 0 0 232.84229837380099 127.71412363444756 0 127.71412363444756 -98.93489958014834 0 0 0 0 -14.807549325193577 151.77928596278821 0 151.77928596278821 -66.011240947130773 0 0 0 0 93.846179481164654 61.55881004342541 0 61.55881004342541 -43.818568272637322 0 0 0 0 64.737411815977111 169.27099734659143 0 169.27099734659143 191.50219995121734 0 0 0 0 389.59051831082616 -44.714507142555931 0 -44.714507142555931 -325.78961574909908 0 0 0 0 13.717056515456292 -1.6974541542843815 0 -1.6974541542843815 -0.13263304467899228 0 0 0 0 966.22572433303867 -5.5651346103932156 0 -5.5651346103932156 294.90802219315219 0 0 0 0 446.07829596907868 827.69416715943794 0 827.69416715943794 1016.3850430109314 0 0 0 0 -37.309306675189873 76.808053471306721 0 76.808053471306721 432.63517273622688 0 0 0 0 413.92590139247113 -459.64837384635007 0 -459.64837384635007 138.67306103232568 0 0 0 0 5.6174532927668821 -1.3541318013924202 0 -1.3541318013924202 0.70521292232468547 0 0 0 0 985.93313203132266 -177.88829869765766 0 -177.88829869765766 213.97676782481267 0 0 0 0 562.128652677422 411.11975053239848 0 411.11975053239848 444.89846811348798 0 0 0 0 708.96110909937033 -205.57848454237796 0 -205.57848454237796 297.01498716756851 0 0 0 0 196.63657165193035 -70.053147157580497 0 -70.053147157580497 339.51714121199143 0 0 0 0 476.39939093477142 96.416767568614205 0 96.416767568614205 432.65531664307537 0 0 0 0 308.37808583452897 -106.12014008229471 0 -106.12014008229471 577.08018181931857 0 0 0 0 252.8436676229403 798.27670387632656 0 798.27670387632656 792.10219829583684 0 0 0 0 160.5491806723785 -11.411805411967862 0 -11.411805411967862 -287.63715928240549 0 0 0 0 6.9469294829805435 1.309678766370423 0 1.309678766370423 -0.7570415146166507 0 0 0 0 193.19571523417471 9.0052630301008776 0 9.0052630301008776 263.95641019759898 0 0 0 0 -76.512726572330365 27.333821967131186 0 27.333821967131186 0.81057391824177394 0 0 0 0 777.59538875003454 406.75967917977823 0 406.75967917977823 370.37889179215244 0 0 0 0 -184.56049708636419 390.01391137960718 0 390.01391137960718 664.11561999639162 0 0 0 0 142.76402520573902 128.72451388688455 0 128.72451388688455 496.3144034239649 0 0 0 0 257.2684257780129 230.06819335763157 0 230.06819335763157 -323.25701851454266 0 0 0 0 385.32942536651058 498.64812886623304 0 498.64812886623304 95.092427854860034 0 0 0 0 182.45958754948697 117.63188573326215 0 117.63188573326215 -244.70268956142093 0 0 0 0 415.40374018112385 54.557215519537749 0 54.557215519537749 -294.42467217160174 0 0 0 0 132.74840836864405 63.340274215234672 0 63.340274215234672 -190.91649941636661 0 0 0 0 117.04844604845857 79.496632396030463 0 79.496632396030463 -201.45670979209535 0 0 0 0 22.991946640360766 67.091099596517779 0 67.091099596517779 -189.64417356924525 0 0 0 0 41.2838170220748 185.65047978811117 0 185.65047978811117 -123.13966722176031 0 0 0 0 14.409596778428707 -0.015484814424210791 0 -0.015484814424210791 -1.055530282943038 0 0 0 0 24.164534042949526 113.97363102060217 0 113.97363102060217 49.86332392269378 0 0 0 0 529.79432948495014 -146.32035772426843 0 -146.32035772426843 44.956494175080707 0 0 0 0 325.45651356613598 810.37465755629023 0 810.37465755629023 781.1105708415671 0 0 0 0 918.10333377319694 652.79175079226502 0 652.79175079226502 429.98927124593729 0 0 0 0 4.5050100164568931 9.3717546107880452 0 9.3717546107880452 -1.009804902143606 0 0 0 0 -220.17947705879396 7.6070958732117333 0 7.6070958732117333 834.23762815720147 0 0 0 0 -136.6855356340111 314.6395479251205 0 314.6395479251205 591.20878352150885 0 0 0 0 172.15628971925253 648.56297117557733 0 648.56297117557733 652.58353188986939 0 0 0 0 442.47172911704911 408.33165504040335 0 408.33165504040335 457.53163357189601 0 0 0 0 398.90245395475722 561.31158293975579 0 561.31158293975579 417.45655131909371 0 0 0 0 -230.4133787402825 -495.30834344380764 0 -495.30834344380764 -642.31380855811858 0 0 0 0 17.770208889997456 -0.37336331456554372 0 -0.37336331456554372 -8.0662126473978013 0 0 0 0 -1194.8671652534176 206.37059958981445 0 206.37059958981445 326.45777941497363 0 0 0 0 54.366884958344599 34.247041171905948 0 34.247041171905948 -56.01113371995234 0 0 0 0 -978.10258690944147 1525.3401950453633 0 1525.3401950453633 -335.42016768153735 0 0 0 0 29.548660059697795 42.700955734054332 0 42.700955734054332 -43.397826292957689 0 0 0 0 9.3155031240958515 13.890133486067082 0 13.890133486067082 -25.597061605442963 0 0 0 0 -2.1608208342360626 36.221219262220743 0 36.221219262220743 -22.332569418010731 0 0 0 0 170.2577336345712 -28.038257559637714 0 -28.038257559637714 119.34861599922851 0 0 0 0 -14.779297379393618 10.954787216943128 0 10.954787216943128 -1.2255576854060282 0 0 0 0 341.48719607298517 546.87458429855633 0 546.87458429855633 49.245308108058907 0 0 0 0 -37.890320792197599 548.93947316277809 0 548.93947316277809 1011.1986734003226 0 0 0 0 50.629939834659567 50.181139398632588 0 50.181139398632588 28.935811288447994 0 0 0 0 19.768811317440736 74.973747088032042 0 74.973747088032042 -58.183030984931975 0 0 0 0 48.888043538479906 102.38651415413915 0 102.38651415413915 -84.796852326280714 0 0 0 0 86.774502550573743 66.447006904520094 0 66.447006904520094 -74.343186132177834 0 0 0 0 61.231476385855331 65.267016834928654 0 65.267016834928654 -48.741915482349214 0 0 0 0 103.42175338167817 32.239072533979652 0 32.239072533979652 -30.376994967329665 0 0 0 0 130.05722724648149 87.015153421223658 0 87.015153421223658 -51.574101686564973 0 0 0 0 168.29267465244902 67.104602349837478 0 67.104602349837478 -44.025701016675157 0 0 0 0 180.26647066518854 31.960247361655092 0 31.960247361655092 -35.634792464017664 0 0 0 0 175.39552323512544 30.239076539826783 0 30.239076539826783 -27.142070170850275 0 0 0 0 153.11266400008208 58.670345177910349 0 58.670345177910349 -25.768557417133707 0 0 0 0 221.32076108162983 58.412652618688298 0 58.412652618688298 -28.223961058598434 0 0 0 0 190.46665482255321 -14.13700105642647 0 -14.13700105642647 70.432694750597875 0 0 0 0 201.58077215837147 12.656233907710885 0 12.656233907710885 -15.578246329081594 0 0 0 0 219.53642571197634 24.283023292557118 0 24.283023292557118 -9.0197304050998355 0 0 0 0 216.77277268162231 127.99855245464573 0 127.99855245464573 -24.776770006446895 0 0 0 0 179.67026050225377 62.525876136965962 0 62.525876136965962 3.725921972632932 0 0 0 0 358.26328823378208 9.0457675429461233 0 9.0457675429461233 22.122771941605606 0 0 0 0 4.6035248029414326 9.1232830891853816 0 9.1232830891853816 -10.579260924711921 0 0 0 0 189.42135078529463 -3.2289451212536733 0 -3.2289451212536733 -5.2077320139687799 0 0 0 0 6.9885080450979586 16.617684240519221 0 16.617684240519221 12.333515768456355 0 0 0 0 -2508.389227886415 1192.5527238117688 0 1192.5527238117688 152.40519218483678 0 0 0 0 365.24877242806906 43.530258106568908 0 43.530258106568908 71.300818660383811 0 0 0 0 392.61323300137155 36.348652471302557 0 36.348652471302557 15.055276528131799 0 0 0 0 165.60577765110247 -26.5752535504962 0 -26.5752535504962 -25.077356469188089 0 0 0 0 367.72943045476495 34.805844934644483 0 34.805844934644483 99.121041512353258 0 0 0 0 2.2456918691568468 5.5391345171942419 0 5.5391345171942419 3.096854225018312 0 0 0 0 -2326.5509267631569 173.39486564939125 0 173.39486564939125 -624.66060350069893 0 0 0 0 32.220028619805817 27.344212243594484 0 27.344212243594484 -39.105092801321007 0 0 0 0 75.136983450103799 -15.732601746030923 0 -15.732601746030923 -10.390073875344569 0 0 0 0 112.60760568076512 35.113899877297627 0 35.113899877297627 -56.757181460274296 0 0 0 0 54.791439842087129 32.588023197366056 0 32.588023197366056 -50.13343435140996 0 0 0 0 1006.1353490817382 582.77667946774454 0 582.77667946774454 -213.94831894912795 0 0 0 0 1248.4873885864399 -121.91067723334436 0 -121.91067723334436 -265.30432977543023 0 0 0 0 339.62821717848783 -26.333800118590261 0 -26.333800118590261 -118.22427524731756 0 0 0 0 389.51917984079046 205.84215294253136 0 205.84215294253136 -41.14006634261068 0 0 0 0 650.58007903469115 -180.12020946977282 0 -180.12020946977282 153.90707692690557 0 0 0 0 682.03884317321126 9.7946477890944834 0 9.7946477890944834 28.580410786988068 0 0 0 0 53.350759430863491 -508.23727379510251 0 -508.23727379510251 -336.90543573207196 0 0 0 0 -209.02598251991731 12.283903424182427 0 12.283903424182427 -28.683984047111153 0 0 0 0 162.91245767832152 193.47739560687751 0 193.47739560687751 -391.45567579363251 0 0 0 0 164.92523136824821 -66.977884573122537 0 -66.977884573122537 -35.930345981283608 0 0 0 0 217.73962588973336 -75.629717246361906 0 -75.629717246361906 22.668829857128003 0 0 0 0 331.02602870223745 62.893101212845067 0 62.893101212845067 38.788525568243131 0 0 0 0 477.63212942576138 -42.282787094559353 0 -42.282787094559353 25.799087668647189 0 0 0 0 498.40835970538274 130.96673697233399 0 130.96673697233399 7.7005434403436084 0 0 0 0 509.10538121072022 -84.471616262802854 0 -84.471616262802854 182.99999354404008 0 0 0 0 370.89675898333371 119.08014846321839 0 119.08014846321839 42.631341511954815 0 0 0 0 409.25642320221959 74.070184107629757 0 74.070184107629757 23.442088769392285 0 0 0 0 349.79975814447243 60.826517940743543 0 60.826517940743543 20.492214681831683 0 0 0 0 400.2052118838983 17.133848640041833 0 17.133848640041833 63.527633774941933 0 0 0 0 453.49029446040004 86.823450991949358 0 86.823450991949358 5.1175419825212884 0 0 0 0 385.69840783856489 75.048858903421205 0 75.048858903421205 4.4062217778673585 0 0 0 0 380.35170237722195 84.078609885687911 0 84.078609885687911 -10.135432706239953 0 0 0 0 397.73649603106605 91.368657864106353 0 91.368657864106353 -2.4188155586380162 0 0 0 0 418.80833099951269 64.973957751830312 0 64.973957751830312 -18.441235759268238 0 0 0 0 373.6437556403871 95.325460263388777 0 95.325460263388777 -7.1610484061129682 0 0 0 0 349.70400074935606 50.156494094913796 0 50.156494094913796 -30.857824060605708 0 0 0 0 330.40618009210448 61.555923896228705 0 61.555923896228705 -5.382304284190468 0 0 0 0 383.0510402659711 44.298278557283084 0 44.298278557283084 6.1601010295489687 0 0 0 0 483.43569822782592 28.955689616190284 0 28.955689616190284 4.0289432745150862 0 0 0 0 422.29738705630007 72.808564265195855 0 72.808564265195855 -7.0576159531556186 0 0 0 0 559.58017057499637 -32.679386601926126 0 -32.679386601926126 -25.51305138425414 0 0 0 0 508.59937697713394 38.411471933824942 0 38.411471933824942 -25.804473828902701 0 0 0 0 605.38153170596706 41.229617514487472 0 41.229617514487472 -42.519005678699614 0 0 0 0 511.2924771659309 28.678957070724209 0 28.678957070724209 -20.072717560834462 0 0 0 0 509.1930262735159 69.449909922525819 0 69.449909922525819 -28.362797002333537 0 0 0 0 553.5652438570105 90.116337080779886 0 90.116337080779886 -36.128770803410589 0 0 0 0 573.37105142759174 27.414018351595587 0 27.414018351595587 -18.501428411340385 0 0 0 0 396.95607943006326 64.157064421702671 0 64.157064421702671 -21.189284959691577 0 0 0 0 309.80527849163627 85.078914614548921 0 85.078914614548921 6.5456365628742788 0 0 0 0 297.26526261921754 55.150637170197115 0 55.150637170197115 -8.5397021428216249 0 0 0 0 444.44815712051059 64.207945356340133 0 64.207945356340133 -7.9615826419649238 0 0 0 0 443.05565659404965 85.646641638131769 0 85.646641638131769 -32.426216790463513 0 0 0 0 386.63009007800429 102.6341005495342 0 102.6341005495342 2.253631038191088 0 0 0 0 292.36870925444236 80.687331878212717 0 80.687331878212717 18.909540538541478 0 0 0 0 291.83077188264724 60.159579478782689 0 60.159579478782689 0.048980860767642298 0 0 0 0 0.23253270643181168 54.044450603771111 0 54.044450603771111 68.9255664570519 0 0 0 0 225.39455984944652 83.950958143341268 0 83.950958143341268 7.3676548597686633 0 0 0 0 175.67501431526762 46.767009836930811 0 46.767009836930811 16.75112243417243 0 0 0 0 237.46260469149274 58.663228601668379 0 58.663228601668379 4.7844013509238721 0 0 0 0 156.10372233162343 14.11112402566323 0 14.11112402566323 12.622595586712123 0 0 0 0 237.21449955199205 59.171052508754656 0 59.171052508754656 4.1869578572441242 0 0 0 0 326.80094796768026 71.326296853958411 0 71.326296853958411 -17.757402900871966 0 0 0 0 38.69085892077419 86.439558720550849 0 86.439558720550849 49.407230542878096 0 0 0 0 144.45675990312884 46.792435426097654 0 46.792435426097654 33.950744468564153 0 0 0 0 64.474705159416771 -8.2175127112641349 0 -8.2175127112641349 34.499110324017238 0 0 0 0 74.649306877181516 39.396812099887029 0 39.396812099887029 36.252645570250934 0 0 0 0 167.38454964574703 67.904767158995128 0 67.904767158995128 16.866758911681245 0 0 0 0 102.96305365890976 82.726506983472518 0 82.726506983472518 -26.730469207406713 0 0 0 0 68.302846927813789 96.839030137417353 0 96.839030137417353 22.477356343286374 0 0 0 0 101.43802890935331 71.645772901532837 0 71.645772901532837 34.716763260599691 0 0 0 0 179.76570660020661 56.445440880237584 0 56.445440880237584 -5.8239023076093872 0 0 0 0 -2791.2308385618253 1050.1513835770672 0 1050.1513835770672 -129.62481477172207 0 0 0 0 12.364103078617827 27.858073661115696 0 27.858073661115696 28.065145846446089 0 0 0 0 804.40043786386605 -9.4400167150027414 0 -9.4400167150027414 -174.78087823301394 0 0 0 0 -0.44506158399245876 2.4720830271634568 0 2.4720830271634568 -1.3041007125900403 0 0 0 0 527.07168294192434 352.62014664208732 0 352.62014664208732 38.655514811160856 0 0 0 0 794.3855212293156 163.71281308993002 0 163.71281308993002 -183.23331118292117 0 0 0 0 545.07644731485016 33.152846737287291 0 33.152846737287291 -53.803136656857532 0 0 0 0 494.46650121466632 201.89486360110425 0 201.89486360110425 -75.729165866534458 0 0 0 0 736.21927247217809 -170.39676158077691 0 -170.39676158077691 -76.24738209303905 0 0 0 0 529.29200485466572 -126.15507956175588 0 -126.15507956175588 55.871229397627758 0 0 0 0 -3041.973334505481 922.283736670076 0 922.283736670076 412.43006823827454 0 0 0 0 477.29576668914342 87.299203135195967 0 87.299203135195967 -81.513399305673374 0 0 0 0 380.24760580348084 44.327590252263235 0 44.327590252263235 11.439253906790327 0 0 0 0 345.65043491625875 7.6647164146916111 0 7.6647164146916111 41.507019046242931 0 0 0 0 251.64803651016928 130.09574475011959 0 130.09574475011959 -11.908919937201063 0 0 0 0 405.49244487688065 -188.34233674574534 0 -188.34233674574534 188.90284630877068 0 0 0 0 339.22991462755817 -11.836014724976849 0 -11.836014724976849 6.9880916170186538 0 0 0 0 274.11038673513576 72.259753419717526 0 72.259753419717526 -1.5278706216513456 0 0 0 0 277.23133512824438 -36.166891247726028 0 -36.166891247726028 54.219508930436859 0 0 0 0 211.02803370268339 -44.246369014272204 0 -44.246369014272204 113.70189803213725 0 0 0 0 321.52418821773972 -33.355172789807966 0 -33.355172789807966 -25.241882884169172 0 0 0 0 -2412.9432986099782 944.98083913780283 0 944.98083913780283 -1213.0351091056946 0 0 0 0 330.55119595766882 35.393744323129795 0 35.393744323129795 15.111714885289416 0 0 0 0 330.99241156959033 48.662741354968603 0 48.662741354968603 -12.261782099958509 0 0 0 0 359.7252558936525 33.769228965858929 0 33.769228965858929 -8.1398416208830895 0 0 0 0 336.4774045838858 37.352603899971655 0 37.352603899971655 -2.4951737875890103 0 0 0 0 291.89928210471408 5.9100944753590738 0 5.9100944753590738 -22.833628629581654 0 0 0 0 272.62355719937477 12.71149648840219 0 12.71149648840219 -19.803596415677021 0 0 0 0 288.15505124967967 8.3399366086550799 0 8.3399366086550799 -39.287669358978746 0 0 0 0 276.015284306588 27.242376095327927 0 27.242376095327927 -16.040244799769425 0 0 0 0 334.47818796819411 51.227314378598294 0 51.227314378598294 -30.330874819308519 0 0 0 0 244.41921181911312 34.300836270791478 0 34.300836270791478 -21.029047577863821 0 0 0 0 155.93857186945388 -28.089658577533555 0 -28.089658577533555 -23.5960088738575 0 0 0 0 246.73287843414801 20.113759246477457 0 20.113759246477457 -5.0196301020478131 0 0 0 0 141.89513147181424 10.469398955847282 0 10.469398955847282 38.953386936265815 0 0 0 0 213.1743176022137 -81.474369824016321 0 -81.474369824016321 -46.566480646059063 0 0 0 0 12.765990459905879 -83.076266902318821 0 -83.076266902318821 29.476431830196816 0 0 0 0 184.97369638935743 76.825340683249351 0 76.825340683249351 -8.0178205597621854 0 0 0 0 311.7658602798856 13.443312191806854 0 13.443312191806854 274.16630476523096 0 0 0 0 460.05074417259129 -151.41820038412266 0 -151.41820038412266 70.906833636703595 0 0 0 0 486.29255437735446 -73.409055261079175 0 -73.409055261079175 252.22908119799899 0 0 0 0 503.69397854037561 -54.367917533999389 0 -54.367917533999389 43.565363260616778 0 0 0 0 504.62012473657887 -93.873879276741718 0 -93.873879276741718 96.462831351411296 0 0 0 0 540.34482828782347 -91.593204469452303 0 -91.593204469452303 93.226338121588014 0 0 0 0 585.8368544938221 48.263515056708229 0 48.263515056708229 511.42175662406953 0 0 0 0 4.346671745553806 -1.425503682502816 0 -1.425503682502816 1.2758602628970763 0 0 0 0 576.20432613238154 -278.08604764156098 0 -278.08604764156098 -245.04337768801724 0 0 0 0 798.60431368091304 -21.732556352212214 0 -21.732556352212214 -111.74571248863322 0 0 0 0 582.5353132451055 -137.47393050727078 0 -137.47393050727078 -107.1568294584437 0 0 0 0 690.38586922824288 -71.719722613947852 0 -71.719722613947852 -83.924699833898558 0 0 0 0 525.83869368926389 -25.727490712411964 0 -25.727490712411964 -26.900102029518166 0 0 0 0 675.5361442546382 -101.96756895853332 0 -101.96756895853332 -66.243948184683177 0 0 0 0 605.84306815970558 -18.179223923370955 0 -18.179223923370955 -48.85786826110234 0 0 0 0 642.49004141851492 -40.656361445297534 0 -40.656361445297534 -38.200412014884932 0 0 0 0 712.07751803161955 -24.81501959340676 0 -24.81501959340676 -51.848253120922891 0 0 0 0 753.03857721461827 -144.21361262856408 0 -144.21361262856408 -12.710049242505193 0 0 0 0 678.47774633728477 -87.119353076554944 0 -87.119353076554944 -39.513402017843873 0 0 0 0 690.03084511663485 -63.017590285203255 0 -63.017590285203255 -44.541121137515802 0 0 0 0 674.31845854053972 -79.834275171579065 0 -79.834275171579065 -52.261179183500644 0 0 0 0 509.65205878450888 -215.59257496057216 0 -215.59257496057216 44.713276190881516 0 0 0 0 281.95162509683541 -172.95101009059999 0 -172.95101009059999 42.029027135491788 0 0 0 0 5.0734893499177645 2.08150056817761 0 2.08150056817761 -1.4295716551459918 0 0 0 0 267.44597378182698 -167.91429324231103 0 -167.91429324231103 49.993408724258188 0 0 0 0 425.25202667580152 -72.907466546670548 0 -72.907466546670548 8.9292132058253628 0 0 0 0 291.39529275610403 -213.08544341859397 0 -213.08544341859397 20.151541480647211 0 0 0 0 -35.230172150178987 86.319430364267646 0 86.319430364267646 73.350175107429095 0 0 0 0 225.48149540132817 -186.17948154502346 0 -186.17948154502346 94.441185595593197 0 0 0 0 281.30416901844001 -159.08475343124519 0 -159.08475343124519 44.00322797644867 0 0 0 0 3.5860006388967989 1.0071889387786399 0 1.0071889387786399 -1.49062299253454 0 0 0 0 176.67128273995149 -42.89480764676091 0 -42.89480764676091 168.18494811084747 0 0 0 0 861.36570375956762 -337.9309380915829 0 -337.9309380915829 84.307072725087437 0 0 0 0 338.46855842845616 -149.25112539625388 0 -149.25112539625388 106.49833041599959 0 0 0 0 347.96027086003232 -9.4856275646588983 0 -9.4856275646588983 -6.6773958071221386 0 0 0 0 786.83741077473314 -358.58403469303266 0 -358.58403469303266 132.1962028027524 0 0 0 0 927.53805107172957 -278.69367225396218 0 -278.69367225396218 82.573583995925219 0 0 0 0 816.75293827068754 -123.30015111370392 0 -123.30015111370392 -9.7057142350986396 0 0 0 0 824.82675230796303 -177.19582991980678 0 -177.19582991980678 75.666087616365985 0 0 0 0 802.77138848582763 -60.974418976264133 0 -60.974418976264133 -42.925304618434893 0 0 0 0 751.52249537592434 -65.316494545248133 0 -65.316494545248133 -22.643326380335566 0 0 0 0 1452.5650386631096 -210.79011961958531 0 -210.79011961958531 -49.007831950405034 0 0 0 0 880.60120257331073 -203.53279164708238 0 -203.53279164708238 -36.133627605548099 0 0 0 0 959.90099850666229 -145.62480084169147 0 -145.62480084169147 2.6657551395346673 0 0 0 0 1327.0368278946262 -143.14316002254782 0 -143.14316002254782 271.80475670933356 0 0 0 0 1029.0675551789955 123.99405216565719 0 123.99405216565719 162.82984867102823 0 0 0 0 1774.4123557467117 500.60450722676126 0 500.60450722676126 939.72237721386045 0 0 0 0 266.0750088099303 850.68054179929641 0 850.68054179929641 931.31122953562226 0 0 0 0 1606.625636919149 -558.64230825117443 0 -558.64230825117443 280.62211224965358 0 0 0 0 -65.462703506022081 350.92871845048376 0 350.92871845048376 71.399231811838035 0 0 0 0 10.3382752683845 3.676102911481081 0 3.676102911481081 0.76793124975564098 0 0 0 0 802.57905512113757 -578.09093401208156 0 -578.09093401208156 292.99121341498721 0 0 0 0 230.6086161484418 -186.09718063725632 0 -186.09718063725632 200.13370234330023 0 0 0 0 21.961814663193877 9.6925270320415891 0 9.6925270320415891 2.0718448305338626 0 0 0 0 32.207204421960341 -265.32341061812349 0 -265.32341061812349 170.56041539670878 0 0 0 0 352.50329377977323 1122.226516687233 0 1122.226516687233 -1702.5770451323533 0 0 0 0 40.8978482941083 20.100190666861685 0 20.100190666861685 6.7612085637996415 0 0 0 0 -331.16082527442086 -62.650369206456162 0 -62.650369206456162 -249.37917465622741 0 0 0 0 -7.5084821920245304 306.85184167403531 0 306.85184167403531 -166.54262886363904 0 0 0 0 50.714825324708727 1.8699485843608272 0 1.8699485843608272 104.91730009040475 0 0 0 0 106.32213113727084 128.65933777594137 0 128.65933777594137 157.23283461757637 0 0 0 0 43.291643517656048 -2.9782237971237553 0 -2.9782237971237553 17.419100297700133 0 0 0 0 34.552344347794133 35.487497722726403 0 35.487497722726403 36.266901029435758 0 0 0 0 20.503283413539069 38.117602078489952 0 38.117602078489952 48.457902173781797 0 0 0 0 -19.556334495651527 168.888146262422 0 168.888146262422 25.732679432853729 0 0 0 0 -39.769262317629909 47.954103099847998 0 47.954103099847998 105.72825673326224 0 0 0 0 70.135098646128426 383.2607347422736 0 383.2607347422736 -362.51695294266608 0 0 0 0 -4.7020969932564185 -15.893908952349193 0 -15.893908952349193 44.829479217383778 0 0 0 0 161.19268003234174 47.53517420762546 0 47.53517420762546 21.457456863725383 0 0 0 0 69.184534317158978 11.658958421252464 0 11.658958421252464 -39.76431590748598 0 0 0 0 103.35035811618218 70.70363782100867 0 70.70363782100867 32.647928844417038 0 0 0 0 47.417259547923095 74.037628289244822 0 74.037628289244822 91.05868005213415 0 0 0 0 161.26232646767494 42.763889733264477 0 42.763889733264477 55.974314880579186 0 0 0 0 194.66860655946766 98.9525025413609 0 98.9525025413609 38.568523210618878 0 0 0 0 437.91126542410348 122.47350967365128 0 122.47350967365128 12.84762076671359 0 0 0 0 353.96570277948922 73.643017383887127 0 73.643017383887127 32.509595963312677 0 0 0 0 502.91859049670529 184.30249734593053 0 184.30249734593053 58.607367528868053 0 0 0 0 257.33860211246792 124.21450606566486 0 124.21450606566486 64.19809793382592 0 0 0 0 713.74205548209648 58.324011360027043 0 58.324011360027043 -42.239155717903486 0 0 0 0 454.51599457454631 82.508051264414917 0 82.508051264414917 0.85246168372395914 0 0 0 0 655.5328350304917 100.18590088518431 0 100.18590088518431 -16.283491350995064 0 0 0 0 645.94071100985457 42.87575993050632 0 42.87575993050632 3.402607428644842 0 0 0 0 859.97315921448535 -2.3749833778165339 0 -2.3749833778165339 71.912749710737444 0 0 0 0 760.80068224517527 268.34131135682401 0 268.34131135682401 72.010642606106558 0 0 0 0 870.08134606570275 86.651527756876476 0 86.651527756876476 -19.228433737949672 0 0 0 0 327.9259719708898 79.994969072395179 0 79.994969072395179 62.441117782186268 0 0 0 0 328.2920904912753 142.14042076334044 0 142.14042076334044 96.043534340397855 0 0 0 0 224.80291104120261 19.605533759064201 0 19.605533759064201 71.628293585295978 0 0 0 0 183.25735063744355 272.69926678245963 0 272.69926678245963 280.11212662886101 0 0 0 0 18.091531809037605 -14.424185966490892 0 -14.424185966490892 8.7491093387913565 0 0 0 0 1078.0949012995115 444.832293023288 0 444.832293023288 271.951931148521 0 0 0 0 6.9998989544256602 -4.9536364344536556 0 -4.9536364344536556 4.512104945511723 0 0 0 0 -335.87416508491151 -856.97917839190268 0 -856.97917839190268 632.67849908886274 0 0 0 0 -240.20896227444609 -125.3006768412979 0 -125.3006768412979 1006.8945056175071 0 0 0 0 1282.7680080164719 99.212114505136014 0 99.212114505136014 77.754482801599806 0 0 0 0 -169.34060856821452 -414.74947141124358 0 -414.74947141124358 223.86603653835164 0 0 0 0 -273.14102331144159 -374.99393754446749 0 -374.99393754446749 217.61748248609911 0 0 0 0 267.12751365952863 -448.41948310517182 0 -448.41948310517182 -148.45007278302637 0 0 0 0 329.03520520830307 167.1756016423318 0 167.1756016423318 -269.61807689382658 0 0 0 0 67.395349447346234 156.67463641682298 0 156.67463641682298 -198.06955560523238 0 0 0 0 164.9915885845985 -27.013293429234182 0 -27.013293429234182 -119.10838330700062 0 0 0 0 -610.0202514139678 -59.491660406797735 0 -59.491660406797735 201.81904560801945 0 0 0 0 -23.019072171673542 16.904442846078865 0 16.904442846078865 -4.1545924564985057 0 0 0 0 45.669371672658286 80.932274249434627 0 80.932274249434627 59.80345949923732 0 0 0 0 -542.56186918183812 889.65023221054935 0 889.65023221054935 547.01212084154395 0 0 0 0 420.91640151781348 106.60654159180774 0 106.60654159180774 -23.097750615696015 0 0 0 0 -157.03952439888712 67.794155155151216 0 67.794155155151216 79.627937205521093 0 0 0 0 46.633853083762375 73.037017804568478 0 73.037017804568478 39.525024878565098 0 0 0 0 -78.705796543628821 14.152240741384162 0 14.152240741384162 41.618000684321999 0 0 0 0 -73.408693413026185 56.73448220715801 0 56.73448220715801 139.57303864977831 0 0 0 0 -5.718785060153218 2.2825742844507504 0 2.2825742844507504 -4.5276571953451894 0 0 0 0 89.624476713659988 19.841245436611302 0 19.841245436611302 -112.31205646364799 0 0 0 0 -3.0571766439476518 24.173959161367691 0 24.173959161367691 1.4080444501064329 0 0 0 0 -235.69575744593794 503.0060332265009 0 503.0060332265009 223.10657637910936 0 0 0 0 -271.99916685026528 -126.53785573295954 0 -126.53785573295954 11.668562781267951 0 0 0 0 173.64421916762831 129.91006380334619 0 129.91006380334619 43.00238892060085 0 0 0 0 537.62362460436361 317.04100774186543 0 317.04100774186543 79.363532326500348 0 0 0 0 528.56961388434502 530.72029379357946 0 530.72029379357946 37.457694094083934 0 0 0 0 107.99861742202586 349.6471269078524 0 349.6471269078524 230.51033598061593 0 0 0 0 282.2688549069685 302.19069657200782 0 302.19069657200782 -168.55731744005641 0 0 0 0 985.72591586636463 455.28577725015236 0 455.28577725015236 -90.033739132101289 0 0 0 0 673.31478292454176 271.86329591239058 0 271.86329591239058 155.49443798720213 0 0 0 0 945.96943162640218 295.19989511127085 0 295.19989511127085 261.8615126651178 0 0 0 0 1689.9488254466551 -121.52436314192755 0 -121.52436314192755 245.13457398957928 0 0 0 0 1024.8344916485471 415.29164141090303 0 415.29164141090303 12.937730110400423 0 0 0 0 1047.8238916551709 -720.17435363056211 0 -720.17435363056211 -842.83998593567628 0 0 0 0 2223.6150189394702 66.196062035188106 0 66.196062035188106 -234.50992873705991 0 0 0 0 7.6834525163533627 -9.7930789734484538 0 -9.7930789734484538 -0.91540742145134102 0 0 0 0 2719.8734202379983 -225.2519303502724 0 -225.2519303502724 -76.739029691147664 0 0 0 0 3499.3097279133681 -308.87696922338301 0 -308.87696922338301 -798.51756850768584 0 0 0 0 1734.0327040691482 305.33947684948487 0 305.33947684948487 -315.73342064038457 0 0 0 0 2221.1671794964413 413.04070847382928 0 413.04070847382928 -293.49921157912007 0 0 0 0 1062.842915206862 -334.58972729162451 0 -334.58972729162451 929.80636684897775 0 0 0 0 3501.3535586171565 218.26298733872136 0 218.26298733872136 108.08178124902555 0 0 0 0 5.5811464663953538 -4.559535396079621 0 -4.559535396079621 0.32880044054814195 0 0 0 0 4453.8565955830745 -693.47909925777844 0 -693.47909925777844 808.96636329774992 0 0 0 0 619.69460584189437 611.09935108456341 0 611.09935108456341 305.18490144760995 0 0 0 0 1667.5258045605442 285.00336284082641 0 285.00336284082641 -0.32669162450563149 0 0 0 0 3249.7212577857845 -152.3781271072819 0 -152.3781271072819 7.9719220129145469 0 0 0 0 2057.4675309367594 1453.7192475297477 0 1453.7192475297477 344.5493767935377 0 0 0 0 1440.5554042315307 627.64639788615068 0 627.64639788615068 82.718205520718811 0 0 0 0 29.65567756836208 81.891666185249051 0 81.891666185249051 591.73960945113276 0 0 0 0 518.33561858315625 927.48513313456124 0 927.48513313456124 874.97801116915525 0 0 0 0 19.566391828750234 10.44870832036632 0 10.44870832036632 6.8496828240062655 0 0 0 0 3272.0928508437246 -1201.8104095361359 0 -1201.8104095361359 -77.259361184744392 0 0 0 0 3499.1061118810376 -574.65478890261102 0 -574.65478890261102 955.02413972257546 0 0 0 0 3340.2675969717639 -164.08116584014164 0 -164.08116584014164 1461.3026667476875 0 0 0 0 2046.5883011590477 -1033.7843539616756 0 -1033.7843539616756 1365.7569197302764 0 0 0 0 3672.0768207529773 12.599350452764114 0 12.599350452764114 145.32372654366813 0 0 0 0 3408.2307677543513 -296.68786102694651 0 -296.68786102694651 232.20777091101891 0 0 0 0 3456.6225109164225 -255.78250856657894 0 -255.78250856657894 205.95919022223876 0 0 0 0 3500.5396272147045 -476.94843574414807 0 -476.94843574414807 -236.77933968851769 0 0 0 0 2842.5942472865208 -555.74834700885276 0 -555.74834700885276 -170.89486648170782 0 0 0 0 3600.5542698735298 -550.56101467679639 0 -550.56101467679639 -429.80464630588142 0 0 0 0 3319.4931352458725 -699.14142523382839 0 -699.14142523382839 -343.68578264418687 0 0 0 0 3388.0640290107358 -538.12907993218516 0 -538.12907993218516 -51.460226692480752 0 0 0 0 853.32280854470548 525.41123200416541 0 525.41123200416541 -641.75488411028186 0 0 0 0 928.24229888354603 -727.04620421488994 0 -727.04620421488994 261.65847948150235 0 0 0 0 2807.2053415293867 -394.95573237640866 0 -394.95573237640866 -514.83637404747878 0 0 0 0 2497.7753181066637 -752.13863304214669 0 -752.13863304214669 -302.24704292067753 0 0 0 0 1441.769896283291 386.59681511809708 0 386.59681511809708 -25.76792557433356 0 0 0 0 382.01745353530896 -297.73438244071866 0 -297.73438244071866 34.584944027499091 0 0 0 0 -55.426364736257938 71.443399613850943 0 71.443399613850943 61.554281661777623 0 0 0 0 51.056388836267267 37.954962831058367 0 37.954962831058367 26.59198964562178 0 0 0 0 9.510495743960746 661.5285348865857 0 661.5285348865857 -303.2208689616707 0 0 0 0 25.60317949341038 173.03180228192196 0 173.03180228192196 -48.098115154483821 0 0 0 0 83.240356574034223 132.58001929742954 0 132.58001929742954 -51.227191621241218 0 0 0 0 -10.53876125753095 95.955578566017266 0 95.955578566017266 -47.723529364640854 0 0 0 0 87.461040210432202 100.60486682885403 0 100.60486682885403 -42.410160648372084 0 0 0 0 108.90358698980208 126.43183282382051 0 126.43183282382051 -15.397226606088225 0 0 0 0 -53.129741355993929 127.35540666699444 0 127.35540666699444 -16.968572202096311 0 0 0 0 20.901893799997879 183.66488526254534 0 183.66488526254534 13.153336606195808 0 0 0 0 45.639361134284172 157.28421611255453 0 157.28421611255453 0.2252811486578139 0 0 0 0 -109.16897500509708 173.22905738916188 0 173.22905738916188 29.234119068566997 0 0 0 0 101.99289591309167 210.66887739433969 0 210.66887739433969 -1.8167187888302578 0 0 0 0 189.16150710085913 99.996222614845465 0 99.996222614845465 4.7512586624807227 0 0 0 0 111.71159795066524 141.50904589158336 0 141.50904589158336 7.5784797187766344 0 0 0 0 238.61853295983155 169.81604698727233 0 169.81604698727233 -17.428730283001642 0 0 0 0 219.85157178806548 143.80177036336045 0 143.80177036336045 -33.968343963835196 0 0 0 0 77.670199284119008 112.64287256555031 0 112.64287256555031 -7.0024618898726203 0 0 0 0 203.61623440573294 207.53077754351216 0 207.53077754351216 -29.314287892985703 0 0 0 0 313.19201036060986 112.02203316862779 0 112.02203316862779 -9.615711277746982 0 0 0 0 246.88647259355002 64.835568825851283 0 64.835568825851283 -108.8403501634927 0 0 0 0 253.49369662342269 138.47688456366177 0 138.47688456366177 18.868494104281808 0 0 0 0 -13.933108040031357 -14.621527478353755 0 -14.621527478353755 -105.45321748530205 0 0 0 0 -149.39500579988226 273.18851834983019 0 273.18851834983019 -190.78728267631777 0 0 0 0 3.931973605212761 -4.0196927643884806 0 -4.0196927643884806 -410.48730651656524 0 0 0 0 76.758525465192065 228.58077518950358 0 228.58077518950358 -148.04772337111808 0 0 0 0 46.940884932184417 -211.57314551855825 0 -211.57314551855825 -273.17044954241487 0 0 0 0 194.50836864932035 -20.645610146288845 0 -20.645610146288845 -160.71674114531197 0 0 0 0 43.545572925772937 28.356781077738127 0 28.356781077738127 17.609333070345283 0 0 0 0 -29.446096385586316 -125.59697590444512 0 -125.59697590444512 -115.9139799944428 0 0 0 0 -419.10413203862618 -18.837395575352957 0 -18.837395575352957 8.7251757558315148 0 0 0 0 15.695265047596877 103.05343101190101 0 103.05343101190101 24.329874456961534 0 0 0 0 67.649219907694714 6.0018723427692748 0 6.0018723427692748 4.1499302319656977 0 0 0 0 52.940887410236833 18.708462706307056 0 18.708462706307056 -15.239856446348423 0 0 0 0 109.40234850750858 -23.356639196149899 0 -23.356639196149899 -45.159507689415022 0 0 0 0 132.58578269389636 -26.375070710010505 0 -26.375070710010505 -44.864844021349654 0 0 0 0 28.44462449553248 -118.49379398506449 0 -118.49379398506449 -120.41161910227675 0 0 0 0 51.595373595455705 22.038000659040506 0 22.038000659040506 -13.923946434219232 0 0 0 0 61.819408929273777 -7.537337297774684 0 -7.537337297774684 3.2047429214908334 0 0 0 0 85.538781230875429 105.36325896285041 0 105.36325896285041 -90.538311535796765 0 0 0 0 57.797868819940049 9.2299427337566158 0 9.2299427337566158 10.834323626936566 0 0 0 0 6.4019610424038547 -9.3626229492956554 0 -9.3626229492956554 8.3037556009348918 0 0 0 0 29.558781675966202 9.4823471266352044 0 9.4823471266352044 16.69408831293913 0 0 0 0 30.841483731540393 -3.5084192408353374 0 -3.5084192408353374 10.441783300998395 0 0 0 0 58.977850772273086 -5.5734794716540819 0 -5.5734794716540819 -8.7837858290795339 0 0 0 0 52.782952654811197 6.9747769008340583 0 6.9747769008340583 -1.1585442112145756 0 0 0 0 32.745599570817376 3.2385701285052164 0 3.2385701285052164 -2.9957554581433214 0 0 0 0 39.868619086577382 21.167531812473499 0 21.167531812473499 -69.5079171609691 0 0 0 0 44.004236675584252 -7.0609291363855391 0 -7.0609291363855391 -23.372499195810633 0 0 0 0 32.307392997081479 10.159753862165417 0 10.159753862165417 -12.013450268323595 0 0 0 0 71.566008643409077 -11.497434141308986 0 -11.497434141308986 -6.7961663208770915 0 0 0 0 76.135451768321673 -3.8687900738609642 0 -3.8687900738609642 -6.9871282280073501 0 0 0 0 17.858022801624653 -12.350762847469646 0 -12.350762847469646 5.1011580973407007 0 0 0 0 95.930885990321258 4.0209957992010459 0 4.0209957992010459 -8.4239841923764516 0 0 0 0 118.55468953326681 -31.07365750681538 0 -31.07365750681538 24.90816635500687 0 0 0 0 284.0623386902007 -43.78643798649307 0 -43.78643798649307 -31.994652633857868 0 0 0 0 65.238703373703558 24.497816188394012 0 24.497816188394012 -27.615609220003549 0 0 0 0 131.71638847027498 -27.989618485747911 0 -27.989618485747911 -29.054426482582244 0 0 0 0 77.929647894212394 -56.147781186477687 0 -56.147781186477687 138.34389069883309 0 0 0 0 248.56609359544382 -164.19337647904058 0 -164.19337647904058 85.597373350896305 0 0 0 0 83.866712921604631 73.660432310184888 0 73.660432310184888 22.320691818142677 0 0 0 0 216.61433124207542 -27.990601581749161 0 -27.990601581749161 -32.834304840700042 0 0 0 0 65.599652723236545 23.163568954110808 0 23.163568954110808 -27.662018404182312 0 0 0 0 41.506099579848524 10.871462450938282 0 10.871462450938282 15.866772149251801 0 0 0 0 32.316250200106879 3.7264694958248583 0 3.7264694958248583 34.569721282455248 0 0 0 0 54.563712866121932 -15.150711183522645 0 -15.150711183522645 25.71474600115198 0 0 0 0 60.313402865976968 -2.8203620745060221 0 -2.8203620745060221 23.393409544617555 0 0 0 0 44.178719343915873 -62.744915253214913 0 -62.744915253214913 26.252269105522601 0 0 0 0 120.10615014080395 -65.801424590822307 0 -65.801424590822307 24.549239354431961 0 0 0 0 135.11034135755835 -154.23889068292215 0 -154.23889068292215 34.144576099752157 0 0 0 0 -47.924242250244788 -67.322465171582849 0 -67.322465171582849 68.234902262518517 0 0 0 0 7.0240243020452908 -128.83659858671808 0 -128.83659858671808 45.493993607205084 0 0 0 0 -204.92175060143563 -88.372458672097991 0 -88.372458672097991 74.90311405194052 0 0 0 0 -4.3948931728673415 18.055003353243904 0 18.055003353243904 29.011592040100595 0 0 0 0 11.053355449672381 6.3495692185992993 0 6.3495692185992993 9.9024786217169094 0 0 0 0 -24.48674907952045 -41.054856855623484 0 -41.054856855623484 40.208255140953952 0 0 0 0 -60.241601714235003 13.795494801140876 0 13.795494801140876 -41.369541219564326 0 0 0 0 -129.28952765468057 -85.099912964798023 0 -85.099912964798023 20.235979150574849 0 0 0 0 97.622110816620989 -88.126444038843601 0 -88.126444038843601 -15.621711378498276 0 0 0 0 0.83135784333306262 -2.3784561088397069 0 -2.3784561088397069 4.8276777711062806 0 0 0 0 159.76314228684441 -64.776413586875435 0 -64.776413586875435 26.403642743879118 0 0 0 0 24.571193926586854 -3.345502503325946 0 -3.345502503325946 -3.500751608430626 0 0 0 0 285.19117454428124 -44.352061831633364 0 -44.352061831633364 -16.807125670236928 0 0 0 0 0.17825661316759067 -0.4036376385562761 0 -0.4036376385562761 2.2251368182443159 0 0 0 0 472.30664706487732 -60.289340938132455 0 -60.289340938132455 -43.513419202542082 0 0 0 0 284.08723117024056 -21.815360521719867 0 -21.815360521719867 -8.1808198954809086 0 0 0 0 172.71535152096112 -16.284637244465557 0 -16.284637244465557 0.92022630344081335 0 0 0 0 -0.95368077183713496 1.6793942311203267 0 1.6793942311203267 -0.21214661396669143 0 0 0 0 279.69833339477918 -123.88467069734929 0 -123.88467069734929 -75.63792457661566 0 0 0 0 422.03084615473927 -36.044648378240254 0 -36.044648378240254 -59.322124914527649 0 0 0 0 203.39938285760581 -134.48277450905925 0 -134.48277450905925 -68.480444451608037 0 0 0 0 189.76898949726274 -156.63287014989089 0 -156.63287014989089 158.857833635102 0 0 0 0 154.04198602519136 -120.76670224884174 0 -120.76670224884174 39.7387698492048 0 0 0 0 162.36305529866877 -20.090930604813821 0 -20.090930604813821 3.0288705125130946 0 0 0 0 49.15840575855691 -72.069014122012049 0 -72.069014122012049 17.472942267790131 0 0 0 0 202.50521659411606 -61.66124686615035 0 -61.66124686615035 14.594182325237853 0 0 0 0 309.20241347843694 71.833996258259731 0 71.833996258259731 162.96413436754028 0 0 0 0 79.606707220813405 -60.188221714094652 0 -60.188221714094652 -33.931792174779048 0 0 0 0 -15.431230885104014 -16.435072542627267 0 -16.435072542627267 -11.377537075572945 0 0 0 0 101.67003996770836 -24.163661185265937 0 -24.163661185265937 -67.10677891344767 0 0 0 0 -66.198735360303544 -12.9069213949806 0 -12.9069213949806 41.111450941429666 0 0 0 0 48.5016667696691 -109.72905651503879 0 -109.72905651503879 -27.183452717192267 0 0 0 0 0.75000425531358061 -2.6531339662653295 0 -2.6531339662653295 5.6000800630295267 0 0 0 0 -120.19147461078501 -161.92828232854663 0 -161.92828232854663 -63.055301730488281 0 0 0 0 -18.091475210125282 -62.26363212356182 0 -62.26363212356182 -5.5067578779080577 0 0 0 0 116.53793604619568 -14.609973349920438 0 -14.609973349920438 -26.703085069615554 0 0 0 0 184.74690620323963 -23.608723685179939 0 -23.608723685179939 -29.960746789124642 0 0 0 0 175.47573672802537 -20.964583962775578 0 -20.964583962775578 -30.48851779853976 0 0 0 0 44.646357255638577 13.723139868478484 0 13.723139868478484 26.350845330403899 0 0 0 0 25.915566527302872 -39.465711631751901 0 -39.465711631751901 136.42812206792769 0 0 0 0 -44.220527508856321 104.18232598121995 0 104.18232598121995 -148.31974919164418 0 0 0 0 77.108559382534622 -53.6641018513576 0 -53.6641018513576 28.271800558715768 0 0 0 0 76.527510095176694 -65.579185314613596 0 -65.579185314613596 59.224686734982242 0 0 0 0 73.854897431549034 -57.14116898456723 0 -57.14116898456723 42.406222426585373 0 0 0 0 72.969021645229077 -73.787563554491499 0 -73.787563554491499 77.260332102685425 0 0 0 0 -475.09796664622263 -169.2203371075052 0 -169.2203371075052 161.77552344270043 0 0 0 0 -422.94130602035148 -200.0221239669354 0 -200.0221239669354 147.109597712697 0 0 0 0 -0.71524293364287672 -0.052713765348954666 0 -0.052713765348954666 2.1701778745488802 0 0 0 0 -0.21666175908599072 -0.5459626337152983 0 -0.5459626337152983 3.0918337978063377 0 0 0 0 223.51995331055514 -58.033736283222424 0 -58.033736283222424 -7.1859839324770292 0 0 0 0 201.55214062822051 -121.38461696427566 0 -121.38461696427566 69.4292231546533 0 0 0 0 190.07703818758227 -80.747000291037239 0 -80.747000291037239 13.996133770691813 0 0 0 0 227.09690162165862 15.730221505650661 0 15.730221505650661 32.314265499351677 0 0 0 0 224.25334155414021 -24.117995007862191 0 -24.117995007862191 -1.9462950692714003 0 0 0 0 355.81758874075604 -37.154109129110566 0 -37.154109129110566 -35.555502777844595 0 0 0 0 346.62313220008218 -2.1890553625999019 0 -2.1890553625999019 -8.8554970051254713 0 0 0 0 160.43159974998707 -43.699779124681299 0 -43.699779124681299 22.689279941472705 0 0 0 0 140.53458277648315 -11.274444665897136 0 -11.274444665897136 -22.796926092329613 0 0 0 0 108.88439334587019 -57.596164822630271 0 -57.596164822630271 -71.264555806882527 0 0 0 0 224.79960164305521 -13.758493284813994 0 -13.758493284813994 5.306592287627609 0 0 0 0 120.18659951914833 -21.824596730291319 0 -21.824596730291319 45.208809240362825 0 0 0 0 114.40438297200308 -43.564780115294525 0 -43.564780115294525 69.905933485750211 0 0 0 0 101.39596082222852 -44.500186462444617 0 -44.500186462444617 69.871769418696886 0 0 0 0 124.64483954078605 -68.191931039221345 0 -68.191931039221345 63.7039672267274 0 0 0 0 180.91588830821274 -35.658340476024932 0 -35.658340476024932 47.416463566412858 0 0 0 0 221.25538821835653 -84.611345110134607 0 -84.611345110134607 50.68900082488949 0 0 0 0 326.73603167616966 -61.175638633703784 0 -61.175638633703784 -4.0630993932045385 0 0 0 0 257.21184692256793 -59.072987893596746 0 -59.072987893596746 2.4378933502339351 0 0 0 0 381.54422150166647 -115.8639466337072 0 -115.8639466337072 20.938325524687571 0 0 0 0 400.19284600883839 -55.972080400893901 0 -55.972080400893901 -29.509262450188658 0 0 0 0 436.79365654097637 -78.428588615251101 0 -78.428588615251101 -24.048633811562468 0 0 0 0 399.00103799926728 -52.898901562072751 0 -52.898901562072751 -64.98111593853173 0 0 0 0 381.51008971044939 -60.463258742685866 0 -60.463258742685866 -29.920093464613956 0 0 0 0 356.24968779774645 -37.670104109657586 0 -37.670104109657586 -35.527571306824029 0 0 0 0 461.26898289054952 40.22123507143715 0 40.22123507143715 -14.858215248819874 0 0 0 0 327.94279856597859 15.549546121780622 0 15.549546121780622 -16.631638069595681 0 0 0 0 179.9114558539477 -69.013424447982288 0 -69.013424447982288 15.003515960268487 0 0 0 0 12.544523091757441 -9.8119121546281178 0 -9.8119121546281178 3.3020594764967584 0 0 0 0 79.129331543172157 -7.4528037640702678 0 -7.4528037640702678 -12.453751527849818 0 0 0 0 167.58021954793549 16.147508043522521 0 16.147508043522521 -4.2684671972419892 0 0 0 0 50.33968109577836 -38.210576820702954 0 -38.210576820702954 52.968060817777314 0 0 0 0 361.61727685148071 -125.01997425183708 0 -125.01997425183708 -23.460267995801587 0 0 0 0 4.1218557161048608 0.6657668185769694 0 0.6657668185769694 -3.1147905008513952 0 0 0 0 382.11650260532406 -21.752615599048568 0 -21.752615599048568 -37.393920621989309 0 0 0 0 408.85280488660646 -33.713182715436233 0 -33.713182715436233 -62.213453568784644 0 0 0 0 523.9221229242612 -8.4109827531660812 0 -8.4109827531660812 -36.725089845921957 0 0 0 0 4.32504336526587 2.4736295503543175 0 2.4736295503543175 -1.9741472429546532 0 0 0 0 375.45447504468211 -167.71668707261483 0 -167.71668707261483 79.239732521580663 0 0 0 0 0.21549002753454261 13.680720272141116 0 13.680720272141116 -40.125397350238927 0 0 0 0 9.2657385553757194 53.678755194194309 0 53.678755194194309 99.778051489421046 0 0 0 0 -20.760679498685931 28.894270249870715 0 28.894270249870715 55.977543263371444 0 0 0 0 64.638333561946638 35.980488559443529 0 35.980488559443529 -86.863033994239004 0 0 0 0 -34.121958694067871 148.03883026169001 0 148.03883026169001 35.705062443643328 0 0 0 0 285.70446237979831 214.6132824294275 0 214.6132824294275 23.108649252329997 0 0 0 0 435.61974874050793 -109.79724234183732 0 -109.79724234183732 -126.89468788969953 0 0 0 0 2.5266405435458914 6.2572048006728744 0 6.2572048006728744 -2.8820787022813228 0 0 0 0 20.964929957377535 -0.77190191569616218 0 -0.77190191569616218 -8.5686109991420381 0 0 0 0 35.324522141363133 11.64130393792631 0 11.64130393792631 16.930849843497526 0 0 0 0 35.468817848223807 14.286083260819851 0 14.286083260819851 9.8677128556178104 0 0 0 0 43.83644530224008 29.362363488393214 0 29.362363488393214 -16.111679025987762 0 0 0 0 -32.520408081147252 146.42684301435531 0 146.42684301435531 -28.005252432421003 0 0 0 0 3.4765326245815231 97.171570786798839 0 97.171570786798839 -113.94091908748487 0 0 0 0 -16.713713773807093 42.266567675053558 0 42.266567675053558 -33.829303801938977 0 0 0 0 -21.780561021892936 39.943449948033049 0 39.943449948033049 -63.496196642664245 0 0 0 0 -16.751687476789812 25.935358003525835 0 25.935358003525835 -45.270899633718727 0 0 0 0 0.12661588988191497 4.385521275861791 0 4.385521275861791 1.2241586287382624 0 0 0 0 8.0013829564299073 16.344205617315065 0 16.344205617315065 9.3402130265903125 0 0 0 0 -23.899596782641311 79.584912467541471 0 79.584912467541471 10.683942852245309 0 0 0 0 -31.16922988020815 17.507198708800388 0 17.507198708800388 -1.2700506864275667 0 0 0 0 -185.97635994853408 128.03214192800169 0 128.03214192800169 43.93236045701633 0 0 0 0 77.060246789624216 0.85011697725531121 0 0.85011697725531121 0.57768155895826112 0 0 0 0 -70.339881634157791 188.83779325758769 0 188.83779325758769 -111.46588214071372 0 0 0 0 65.654314448343939 -14.487799879412705 0 -14.487799879412705 2.0742540263045157 0 0 0 0 79.461805915905671 12.349969309791817 0 12.349969309791817 -18.380679983999151 0 0 0 0 69.790284933522344 -16.385232941318463 0 -16.385232941318463 0.070567884416959714 0 0 0 0 74.33366323543305 -15.325115299024219 0 -15.325115299024219 -3.5039587476167071 0 0 0 0 73.02985438030737 -12.56998405221384 0 -12.56998405221384 -8.1072800089514203 0 0 0 0 70.627779881986498 -2.1143001650771112 0 -2.1143001650771112 -13.586184441452133 0 0 0 0 68.096952705542208 -18.316499982770438 0 -18.316499982770438 -30.110943994211993 0 0 0 0 94.737987643195083 -16.335885670162497 0 -16.335885670162497 -32.133859224664775 0 0 0 0 59.646398641954875 -14.113549435974164 0 -14.113549435974164 -8.222294513383531 0 0 0 0 57.035321137977007 -59.352576731987028 0 -59.352576731987028 -76.426932655323981 0 0 0 0 40.646488328173291 -23.790762554025605 0 -23.790762554025605 -5.6828068656459436 0 0 0 0 110.94478871029014 24.135712583060069 0 24.135712583060069 -92.234741793932699 0 0 0 0 111.81177321376163 14.308291385900702 0 14.308291385900702 -43.063266590644162 0 0 0 0 139.32354636534001 -13.625423950305048 0 -13.625423950305048 -95.512824577936044 0 0 0 0 100.46679621324074 -19.709555916505678 0 -19.709555916505678 -93.872058183173067 0 0 0 0 102.62042081854545 17.881669675171405 0 17.881669675171405 -10.896673730965205 0 0 0 0 386.36677300907832 819.65650791428197 0 819.65650791428197 -80.994201795567278 0 0 0 0 146.88924236103776 13.049124166038382 0 13.049124166038382 -105.48599060518063 0 0 0 0 124.13605361603913 32.021874528893022 0 32.021874528893022 -99.706778435871456 0 0 0 0 498.01214173486005 -19.447428152529028 0 -19.447428152529028 -20.965366326404364 0 0 0 0 4.2762305204919322 3.7069641926837456 0 3.7069641926837456 4.6651792967818153 0 0 0 0 -35.740202919666899 111.22618570246505 0 111.22618570246505 -488.8445100123663 0 0 0 0 227.42612576335887 -77.340153580378683 0 -77.340153580378683 -32.354963739132472 0 0 0 0 336.47378010312241 103.89694950697321 0 103.89694950697321 -27.315430298753199 0 0 0 0 212.20573659926231 136.35976261520409 0 136.35976261520409 26.874935694897431 0 0 0 0 364.82343784788191 227.02408005072266 0 227.02408005072266 80.535089820114081 0 0 0 0 333.08738643037941 104.9744787144009 0 104.9744787144009 -27.339463349539074 0 0 0 0 594.17950075830595 211.87677574723239 0 211.87677574723239 1.5857863257715508 0 0 0 0 -1.4512053983780788 132.62731035580873 0 132.62731035580873 138.9607961503707 0 0 0 0 69.057501784995111 -287.2039230349028 0 -287.2039230349028 -375.16882783902111 0 0 0 0 360.56335699105148 402.07702779598185 0 402.07702779598185 306.76909547227842 0 0 0 0 -837.9464488629601 -235.38641346368058 0 -235.38641346368058 556.45941100222626 0 0 0 0 187.09202550058217 60.939658603972021 0 60.939658603972021 -492.8523744833069 0 0 0 0 108.59668991976105 52.800251239696081 0 52.800251239696081 -178.04749487674735 0 0 0 0 151.0333832748147 -107.47054502978426 0 -107.47054502978426 -119.48034679569719 0 0 0 0 91.25669673028824 -17.210427984224225 0 -17.210427984224225 -25.014901286465829 0 0 0 0 189.80016879766845 -47.59805464243982 0 -47.59805464243982 -98.815573962349163 0 0 0 0 240.29966820355185 -98.28102333617062 0 -98.28102333617062 -88.989851149988681 0 0 0 0 216.19612909504804 -38.925592591890563 0 -38.925592591890563 -59.423979009894538 0 0 0 0 197.48523979134097 -79.547240404890545 0 -79.547240404890545 -33.305877305010654 0 0 0 0 228.09683773661345 -34.669759913090274 0 -34.669759913090274 -0.39951266064599622 0 0 0 0 282.33159953283757 -95.510649018204276 0 -95.510649018204276 -32.210933703377236 0 0 0 0 73.666852235557599 -37.6578287668965 0 -37.6578287668965 -7.102323260220146 0 0 0 0 196.13057862904498 -62.477521451641223 0 -62.477521451641223 -23.940749960758694 0 0 0 0 182.87377502331401 44.233669381430445 0 44.233669381430445 48.187358611818127 0 0 0 0 200.88127764009914 59.064003664034317 0 59.064003664034317 10.599099039925932 0 0 0 0 293.85842707902884 62.106419730096604 0 62.106419730096604 10.411403552723641 0 0 0 0 302.31471224262805 -26.361370967271114 0 -26.361370967271114 4.0440935471669945 0 0 0 0 384.57011185531883 -21.743728704988825 0 -21.743728704988825 -4.0872850387022481 0 0 0 0 287.57531145262601 51.798735633304659 0 51.798735633304659 -6.1789798359168344 0 0 0 0 380.94524331449065 29.594861980596761 0 29.594861980596761 -5.0066986129743327 0 0 0 0 325.66226165597982 -130.07537204377513 0 -130.07537204377513 15.872402537272137 0 0 0 0 255.61045896178803 -99.736065511328889 0 -99.736065511328889 3.1524647065289173 0 0 0 0 325.11185232512435 -35.708910325223769 0 -35.708910325223769 -1.1003645053938271 0 0 0 0 280.31943719910123 -71.349564755946631 0 -71.349564755946631 13.655891809914465 0 0 0 0 365.72392397794465 -81.22616362014378 0 -81.22616362014378 16.402172087702638 0 0 0 0 377.31427186798101 -85.78745209041881 0 -85.78745209041881 13.611097330878962 0 0 0 0 349.34900245866993 -134.26269909667008 0 -134.26269909667008 29.819316788270953 0 0 0 0 353.85038149964748 -130.58152812304434 0 -130.58152812304434 12.393471100382158 0 0 0 0 673.91677498200806 -329.13909771914223 0 -329.13909771914223 25.847219274268355 0 0 0 0 437.66245229858214 -225.73020724592607 0 -225.73020724592607 87.796388617683988 0 0 0 0 357.84378479466795 -192.80833536593445 0 -192.80833536593445 87.524747026804107 0 0 0 0 398.71112090470706 -138.23728253870468 0 -138.23728253870468 45.141075272458693 0 0 0 0 401.10817938750552 -132.25035018651397 0 -132.25035018651397 27.271237828981612 0 0 0 0 508.19763330210117 -151.10035146474729 0 -151.10035146474729 29.969447237205713 0 0 0 0 442.14053656754368 -84.913417785126512 0 -84.913417785126512 6.7047774080674571 0 0 0 0 448.54336378484004 -104.36727973714733 0 -104.36727973714733 30.232552089375531 0 0 0 0 549.31440600799397 -173.55336799111501 0 -173.55336799111501 61.115259401394724 0 0 0 0 470.07288121604506 -97.569603003106749 0 -97.569603003106749 25.32881291042213 0 0 0 0 474.79000497503148 -164.05667132256349 0 -164.05667132256349 156.84435004924308 0 0 0 0 353.12305959339028 43.512013604994536 0 43.512013604994536 -3.1214569707572082 0 0 0 0 366.35735049689538 -22.777313848093399 0 -22.777313848093399 10.043496578691702 0 0 0 0 445.64789129274271 -28.086793254096278 0 -28.086793254096278 -9.1525367334579641 0 0 0 0 453.12922790103767 -48.587621449123617 0 -48.587621449123617 12.394783571224252 0 0 0 0 529.20655253289806 -73.639426218860535 0 -73.639426218860535 -34.362522205670757 0 0 0 0 443.1673986781509 30.443676991892971 0 30.443676991892971 -42.352224801434204 0 0 0 0 556.7376172299173 16.591865167824835 0 16.591865167824835 -47.840977859522354 0 0 0 0 247.4106375770607 118.73223622696696 0 118.73223622696696 24.076409923882238 0 0 0 0 359.50200021576984 107.41890730862053 0 107.41890730862053 -22.094279730816197 0 0 0 0 226.25433544125917 59.982925821772369 0 59.982925821772369 -8.9359030025924824 0 0 0 0 114.10194758599482 124.65176404820295 0 124.65176404820295 68.911718273468068 0 0 0 0 13.871611508529895 17.840807246222539 0 17.840807246222539 48.976017419628079 0 0 0 0 179.84685524816268 55.464087782936986 0 55.464087782936986 1.9617956364072597 0 0 0 0 184.80726991619031 50.75342473898354 0 50.75342473898354 -26.752778779726214 0 0 0 0 -20.042725597033041 -10.865637010431982 0 -10.865637010431982 37.12526102821721 0 0 0 0 323.49552369926823 90.747935575825977 0 90.747935575825977 -40.108558354470006 0 0 0 0 259.46694528893659 112.70797910572583 0 112.70797910572583 -15.572266160772415 0 0 0 0 288.86384707556499 141.67765215484906 0 141.67765215484906 12.575060845867483 0 0 0 0 276.54950258586905 90.508368234519367 0 90.508368234519367 -1.0715870578442264 0 0 0 0 270.73364168088301 108.48873225442912 0 108.48873225442912 -9.7974879023968811 0 0 0 0 49.042761842818322 -241.59828062043198 0 -241.59828062043198 160.20616060582142 0 0 0 0 55.475140595057432 21.981635867422767 0 21.981635867422767 4.075561100371317 0 0 0 0 -34.411200877642841 459.16923286354722 0 459.16923286354722 -934.58128274572937 0 0 0 0 20.827832013477746 -276.59500185699653 0 -276.59500185699653 -581.88880270903701 0 0 0 0 79.15678593172197 -101.52352396342576 0 -101.52352396342576 -300.79857654641819 0 0 0 0 245.50603277014307 -62.879035684150949 0 -62.879035684150949 -368.02494140394992 0 0 0 0 108.47343932763761 -409.25645294443348 0 -409.25645294443348 104.93057844955729 0 0 0 0 1242.9877552054822 -156.75961659759923 0 -156.75961659759923 121.38618853675143 0 0 0 0 226.51074976487689 -193.78671647651527 0 -193.78671647651527 533.1314336449941 0 0 0 0 -240.40597476780385 102.194927240982 0 102.194927240982 -8.2486142801153619 0 0 0 0 261.88013466529083 319.30020248991423 0 319.30020248991423 -584.04096427140439 0 0 0 0 587.61588566841237 93.708052004167257 0 93.708052004167257 -251.69181754463716 0 0 0 0 233.39661015453021 -149.33463681431022 0 -149.33463681431022 -362.8566343923776 0 0 0 0 -22.732385776866934 -49.135765748385388 0 -49.135765748385388 -24.07984192656582 0 0 0 0 639.09367698086589 -405.46021536314538 0 -405.46021536314538 -141.80538348160189 0 0 0 0 -39.906308117708249 73.083155787757278 0 73.083155787757278 149.09442819455398 0 0 0 0 182.47201363312888 -118.18587218100947 0 -118.18587218100947 -17.561555835312262 0 0 0 0 474.74000929846807 -382.23622316827823 0 -382.23622316827823 225.82852913404349 0 0 0 0 1.7176580943245057 -5.0358509222409751 0 -5.0358509222409751 -5.8997796703712453 0 0 0 0 134.74509472160571 -92.469707802492849 0 -92.469707802492849 -18.000958240528433 0 0 0 0 180.53052422828659 -98.025737603992638 0 -98.025737603992638 -44.585667363130597 0 0 0 0 197.84641526045198 -83.708950397096487 0 -83.708950397096487 -32.943130005003695 0 0 0 0 195.09841935534496 -123.76114026626146 0 -123.76114026626146 0.22419704512867611 0 0 0 0 283.96076670391449 -175.01082068099095 0 -175.01082068099095 19.463772583706032 0 0 0 0 -37.482088121615725 -43.081361146592094 0 -43.081361146592094 -22.029814125946132 0 0 0 0 314.30575866377694 -162.69946604989218 0 -162.69946604989218 19.921375603624256 0 0 0 0 357.65861748181123 -150.34780880920789 0 -150.34780880920789 -252.10840722797366 0 0 0 0 311.00926841550245 -156.086498474584 0 -156.086498474584 59.5716046759444 0 0 0 0 73.685294824124853 22.142499268930337 0 22.142499268930337 -1.669783446223633 0 0 0 0 164.33588410822631 -139.75855805651918 0 -139.75855805651918 16.543599199612913 0 0 0 0 87.719347726990236 -52.679624614196655 0 -52.679624614196655 19.865758401909261 0 0 0 0 109.19417342091765 53.33059101904928 0 53.33059101904928 -9.2240160233595816 0 0 0 0 -21.849201245320963 -41.031173869752649 0 -41.031173869752649 -22.969262688686619 0 0 0 0 118.51596775858343 -2.8161119035066804 0 -2.8161119035066804 -45.66793518189661 0 0 0 0 90.620613159815548 20.067822785107637 0 20.067822785107637 -46.453452704932715 0 0 0 0 -20.859382916980394 37.521095876536492 0 37.521095876536492 -47.826270303558886 0 0 0 0 71.721304713975769 -94.04971981370818 0 -94.04971981370818 -59.046318202621478 0 0 0 0 278.4454929057647 4.4441087304221583 0 4.4441087304221583 -86.246209728943541 0 0 0 0 110.49586918552814 75.465935433641789 0 75.465935433641789 141.80527879958026 0 0 0 0 271.65134848409821 -194.68797174953949 0 -194.68797174953949 -45.948234804371168 0 0 0 0 98.543214907222136 -278.91431418625689 0 -278.91431418625689 261.95540390436872 0 0 0 0 63.691882570013917 23.182496970344914 0 23.182496970344914 3.1544553779120221 0 0 0 0 -172.73395860146047 -50.47316701444106 0 -50.47316701444106 24.604340451701319 0 0 0 0 91.319683896399511 -75.767400822412128 0 -75.767400822412128 -202.61531610073325 0 0 0 0 93.829695136744704 171.94187088879335 0 171.94187088879335 -239.26462414113053 0 0 0 0 22.386336451435326 4.6395172004628158 0 4.6395172004628158 -3.5866712696849774 0 0 0 0 -15.071043376704893 23.503293482584695 0 23.503293482584695 -12.388739053319114 0 0 0 0 3.835163807334439 -0.84753362185345082 0 -0.84753362185345082 -0.64875718130817006 0 0 0 0 -23.121435008040862 18.293075538280391 0 18.293075538280391 78.661040153621798 0 0 0 0 44.953474161634404 -22.770538900464999 0 -22.770538900464999 -55.727695674380811 0 0 0 0 23.408125764717582 10.241891815917178 0 10.241891815917178 1.180535739521325 0 0 0 0 138.45568564318091 222.86263049396803 0 222.86263049396803 -234.76740680443436 0 0 0 0 -51.680982263118494 337.52845072194395 0 337.52845072194395 -175.60643916455228 0 0 0 0 -5.7026745527400635 89.827178420158816 0 89.827178420158816 -4.3428060800251842 0 0 0 0 -210.42310363394517 192.63983137127025 0 192.63983137127025 -44.023270266436157 0 0 0 0 275.11294730757874 65.701733510351204 0 65.701733510351204 -141.268594354784 0 0 0 0 4.2726057547431644 2.1650154557054151 0 2.1650154557054151 -0.47693650853610237 0 0 0 0 146.42891610673541 -103.32744446043216 0 -103.32744446043216 96.280217554564842 0 0 0 0 232.90305703226841 -233.17365269381389 0 -233.17365269381389 128.91799692791028 0 0 0 0 99.444081589866983 -145.9861922992568 0 -145.9861922992568 81.708173342884947 0 0 0 0 278.77075928534327 -144.41848049089174 0 -144.41848049089174 28.191650200933509 0 0 0 0 -46.684332199801247 0.89322423245539539 0 0.89322423245539539 37.074869708219921 0 0 0 0 170.58477850900454 -110.21110591961497 0 -110.21110591961497 27.554580368405368 0 0 0 0 6.9061834691493686 2.322144106020918 0 2.322144106020918 -1.3942062728885745 0 0 0 0 57.044836549803222 -9.0830300563875426 0 -9.0830300563875426 -21.586321651016988 0 0 0 0 78.574770240155885 58.51125031931997 0 58.51125031931997 -122.50482965684387 0 0 0 0 93.541870258764902 -41.149314564328961 0 -41.149314564328961 -100.14944819132324 0 0 0 0 189.52165453809721 -110.12191662007626 0 -110.12191662007626 64.770873736686553 0 0 0 0 144.99835986474864 -159.08486005919258 0 -159.08486005919258 18.002273358609727 0 0 0 0 69.862362848978592 -145.36085486153479 0 -145.36085486153479 22.695744967768405 0 0 0 0 17.896775298749162 155.4228400447646 0 155.4228400447646 -379.61608132655601 0 0 0 0 105.22007890709233 -14.604395208310393 0 -14.604395208310393 -113.46494227881885 0 0 0 0 16.474065295222317 10.998272413551604 0 10.998272413551604 -135.55943960638069 0 0 0 0 -71.292575320560672 -150.97083651196976 0 -150.97083651196976 143.58763609733069 0 0 0 0 -106.53110610323347 38.741784523313981 0 38.741784523313981 -80.553979826888281 0 0 0 0 6.0896349682119641 -2.5731907370379474 0 -2.5731907370379474 -5.3188758611279745 0 0 0 0 18.712928620895379 5.1392539411323597 0 5.1392539411323597 -1.7732228620493764 0 0 0 0 130.58434217950344 -79.896370892112827 0 -79.896370892112827 -111.81543276930825 0 0 0 0 62.947545409333543 -69.507464947029803 0 -69.507464947029803 -68.659441256901118 0 0 0 0 185.02028436779437 -40.223633884023002 0 -40.223633884023002 -120.00997632344115 0 0 0 0 174.88775548719423 -29.696840644883196 0 -29.696840644883196 -55.479607805981686 0 0 0 0 175.82174394731192 16.308721072908156 0 16.308721072908156 -88.372649116154207 0 0 0 0 145.19503600906864 14.928785955694366 0 14.928785955694366 -85.535148151051544 0 0 0 0 245.19002100762191 53.086539254991294 0 53.086539254991294 -68.904503479308914 0 0 0 0 12.498420798743609 -127.57990286958011 0 -127.57990286958011 -411.4529129969676 0 0 0 0 -328.73039845763196 -198.17527594436069 0 -198.17527594436069 -134.92553816884538 0 0 0 0 -66.050697763297649 1.0555811100675783 0 1.0555811100675783 -2.4631529704165587 0 0 0 0 -488.27047882609395 172.17985253996358 0 172.17985253996358 92.900406252472749 0 0 0 0 274.79645745150992 17.929775329734184 0 17.929775329734184 307.78543181383066 0 0 0 0 -27.725040194576195 267.09700119517572 0 267.09700119517572 106.32188280208356 0 0 0 0 -36.998516056175504 50.656081560361599 0 50.656081560361599 399.88406726401172 0 0 0 0 -70.427823140170403 -132.1619794096805 0 -132.1619794096805 185.03088944314004 0 0 0 0 61.466101301137542 -11.99895005313374 0 -11.99895005313374 439.38562122397161 0 0 0 0 210.56128471777265 166.00387249129426 0 166.00387249129426 488.6195104376111 0 0 0 0 120.9084179824722 277.93318538072913 0 277.93318538072913 573.07534713841233 0 0 0 0 463.11376510567061 201.88021685476997 0 201.88021685476997 482.45463151910189 0 0 0 0 290.93901098069909 127.36133021822843 0 127.36133021822843 421.06219127930763 0 0 0 0 83.459066300645645 106.52428849606622 0 106.52428849606622 556.78305567190455 0 0 0 0 192.53954899818109 161.12338632067122 0 161.12338632067122 613.21060300983299 0 0 0 0 448.78738421717208 301.70056897578979 0 301.70056897578979 522.58898924518007 0 0 0 0 137.91115161661673 32.912913492692951 0 32.912913492692951 361.55256699937127 0 0 0 0 153.98351531118442 80.832370170883223 0 80.832370170883223 474.67837325162782 0 0 0 0 214.62962514930541 -49.561515406449871 0 -49.561515406449871 64.123964108794098 0 0 0 0 24.190292119317746 -65.806834135052668 0 -65.806834135052668 374.59312072343903 0 0 0 0 65.995854153136861 -68.819141041589774 0 -68.819141041589774 157.87565799503864 0 0 0 0 144.69769516544875 -167.78327286596925 0 -167.78327286596925 167.08232341407438 0 0 0 0 2.3313748141350921 1.0806137050680746 0 1.0806137050680746 -0.27011478570684844 0 0 0 0 382.10960012454143 -82.562767627572839 0 -82.562767627572839 190.5494072113861 0 0 0 0 -31.882121472290237 17.000003984233444 0 17.000003984233444 362.3517100921481 0 0 0 0 183.50943657177595 -154.98008510860745 0 -154.98008510860745 53.139592573808841 0 0 0 0 3.4278114952012402 13.165500976080693 0 13.165500976080693 84.464643275585331 0 0 0 0 -2.1282570989943252 0.53231958976148785 0 0.53231958976148785 -0.60333762010015235 0 0 0 0 132.97161170584263 105.99217583813675 0 105.99217583813675 145.011215982051 0 0 0 0 151.99316954173355 11.827510468624041 0 11.827510468624041 -1.6154541793030148 0 0 0 0 455.91476815195529 178.91159209680154 0 178.91159209680154 14.306456368424733 0 0 0 0 797.11174835771271 -21.367295092714812 0 -21.367295092714812 -220.67985506633613 0 0 0 0 645.61881983277272 -104.84758582793984 0 -104.84758582793984 -183.47377034197689 0 0 0 0 523.30577604783684 -27.298523776437833 0 -27.298523776437833 -86.541231429389882 0 0 0 0 19.946344846754073 -497.61220584153307 0 -497.61220584153307 644.09344036856874 0 0 0 0 86.86366228405808 143.83115546375808 0 143.83115546375808 -62.597790870313474 0 0 0 0 17.105484519157407 -3.3895786602617157 0 -3.3895786602617157 -7.3172343034612304 0 0 0 0 697.13692520794029 -175.5107888215216 0 -175.5107888215216 -99.946043235111574 0 0 0 0 314.90826089724578 206.45213201199294 0 206.45213201199294 -94.617309525761812 0 0 0 0 280.73847523114455 -886.71250283710742 0 -886.71250283710742 -164.73300602791585 0 0 0 0 232.36156500111247 681.74492549008482 0 681.74492549008482 -329.30459048520424 0 0 0 0 1.4200609712962127 0.64814532895294263 0 0.64814532895294263 -0.45789734657306269 0 0 0 0 7.1381496951878418 0.082962496740879743 0 0.082962496740879743 -0.26986029488333152 0 0 0 0 1250.9070717297291 37.399906823749006 0 37.399906823749006 -24.789163924385548 0 0 0 0 12.518906463634721 116.09719864404587 0 116.09719864404587 -19.374251728675517 0 0 0 0 1877.6600121260872 596.75032097929306 0 596.75032097929306 132.65125359865851 0 0 0 0 435.74044236762347 160.30590834865507 0 160.30590834865507 54.778549755459608 0 0 0 0 467.22310710600323 425.72456254032386 0 425.72456254032386 316.66712871756863 0 0 0 0 415.25598232617085 169.8430016714392 0 169.8430016714392 404.7177945151775 0 0 0 0 1203.6117982929773 209.74634010822501 0 209.74634010822501 47.290764448289337 0 0 0 0 169.79601439295311 304.11343344892703 0 304.11343344892703 124.39161113748423 0 0 0 0 967.6593196334702 500.81110712039026 0 500.81110712039026 -274.20151332112255 0 0 0 0 -10.165073900458992 -112.19005301086145 0 -112.19005301086145 128.84839240472149 0 0 0 0 9.4316830418017723 1.8389604730014568 0 1.8389604730014568 0.18206114191723621 0 0 0 0 1097.3331312079044 464.59523686668763 0 464.59523686668763 -475.55131828395315 0 0 0 0 258.2366244247678 312.89171323856863 0 312.89171323856863 236.65388391253873 0 0 0 0 837.20371202214483 -200.77359015188085 0 -200.77359015188085 654.68914553240029 0 0 0 0 1453.6112694252661 142.21300339657137 0 142.21300339657137 -293.8602148830887 0 0 0 0 460.82502051208576 441.06574321664539 0 441.06574321664539 939.13124727913373 0 0 0 0 1328.7892809845844 204.57282741767176 0 204.57282741767176 309.58442805851882 0 0 0 0 621.33493746312524 -9.2560466627974165 0 -9.2560466627974165 318.56798121070915 0 0 0 0 815.32516267984875 -509.27255253176554 0 -509.27255253176554 551.07250766582183 0 0 0 0 206.14635815420888 -296.88768913819058 0 -296.88768913819058 478.66250249131826 0 0 0 0 23.716961014275011 5.5684437640226463 0 5.5684437640226463 0.57691536083297201 0 0 0 0 28.621373083851722 18.497377033138946 0 18.497377033138946 -152.11705695772434 0 0 0 0 -1.9809547217414547 -90.087023500888108 0 -90.087023500888108 -54.823768945131633 0 0 0 0 36.730459771290953 -12.654744236068836 0 -12.654744236068836 -37.939570616112178 0 0 0 0 121.56158587910886 -193.53991004085924 0 -193.53991004085924 204.8499335353481 0 0 0 0 131.14806142454313 -171.20312874713454 0 -171.20312874713454 256.89373481187067 0 0 0 0 103.66348211065201 -246.52591042109634 0 -246.52591042109634 214.13175741238319 0 0 0 0 166.1479281912188 -255.94261653190142 0 -255.94261653190142 164.24621700679836 0 0 0 0 156.48933553469055 -235.30662598728986 0 -235.30662598728986 302.56260150446178 0 0 0 0 54.67898700293199 -205.62593532290839 0 -205.62593532290839 181.08057768264746 0 0 0 0 158.83227867176629 -214.88261009107555 0 -214.88261009107555 180.79321692720441 0 0 0 0 174.52663578542342 -188.3400169589986 0 -188.3400169589986 314.5004570342735 0 0 0 0 129.39580819893035 -210.60051983303356 0 -210.60051983303356 383.63989940912552 0 0 0 0 528.72468279195073 -212.58173098125735 0 -212.58173098125735 218.2493244855732 0 0 0 0 427.14055739557011 27.836964565838798 0 27.836964565838798 314.88004362038919 0 0 0 0 260.77710324326199 -191.21479830834824 0 -191.21479830834824 136.07494745366103 0 0 0 0 313.7819985486733 -49.672924009007829 0 -49.672924009007829 134.950137691284 0 0 0 0 268.03919026474705 -213.96419700401748 0 -213.96419700401748 156.19932211795003 0 0 0 0 242.23558720445453 -146.0638194705698 0 -146.0638194705698 206.00734279397921 0 0 0 0 151.42144194811681 -192.56175795823265 0 -192.56175795823265 156.94229269523623 0 0 0 0 247.18091888704021 -138.46251452787396 0 -138.46251452787396 37.312865913370842 0 0 0 0 202.23713501287739 -157.92469415108303 0 -157.92469415108303 32.928827535054438 0 0 0 0 246.31067298477865 -124.67063350889248 0 -124.67063350889248 67.800020595087972 0 0 0 0 149.90980826908753 -97.474163401609985 0 -97.474163401609985 60.17792230309351 0 0 0 0 228.90870208981528 -178.6130726025591 0 -178.6130726025591 -90.751048827229624 0 0 0 0 134.62594913256271 -217.08223702346731 0 -217.08223702346731 -98.597876822564444 0 0 0 0 115.28146737755515 -114.53115966725863 0 -114.53115966725863 -103.62019422290911 0 0 0 0 200.15710072452134 -133.26454890859952 0 -133.26454890859952 -100.38672633450415 0 0 0 0 -0.29173163973035454 -0.24050846835307693 0 -0.24050846835307693 1.2030783750369345 0 0 0 0 -397.03284561407168 -347.94278656087073 0 -347.94278656087073 78.423954185203002 0 0 0 0 -390.82323385676727 -143.89175873282682 0 -143.89175873282682 39.528063825685763 0 0 0 0 332.93311948261999 38.195500663782695 0 38.195500663782695 -6.7733633867292156 0 0 0 0 2.8876850608321547 -126.79671228908501 0 -126.79671228908501 33.085993710212961 0 0 0 0 167.20668738566008 -281.41818718006061 0 -281.41818718006061 92.102161943324063 0 0 0 0 -87.233371217111966 -397.86803492383007 0 -397.86803492383007 39.465892968631124 0 0 0 0 75.217127704614043 -304.78182193042682 0 -304.78182193042682 138.22128180176514 0 0 0 0 169.81620503214208 -191.87017420632196 0 -191.87017420632196 83.732003553545837 0 0 0 0 26.012382964625431 -162.17305273970578 0 -162.17305273970578 83.60953234005774 0 0 0 0 258.87009562174126 11.609084714989763 0 11.609084714989763 311.69047857480246 0 0 0 0 202.47584197929973 87.101455510670348 0 87.101455510670348 377.3002251553653 0 0 0 0 222.66104084717881 68.404707992288877 0 68.404707992288877 394.13302225648567 0 0 0 0 226.7065328556946 9.1008293503864479 0 9.1008293503864479 459.17113721429678 0 0 0 0 227.50733149249254 -18.41608729684765 0 -18.41608729684765 319.08364083640026 0 0 0 0 205.17639789038913 22.822168385802797 0 22.822168385802797 388.64213915877804 0 0 0 0 226.37224161205449 47.017353224608087 0 47.017353224608087 233.83055805070853 0 0 0 0 203.27546332739803 23.694760173148552 0 23.694760173148552 317.60849438170726 0 0 0 0 223.2798807721997 41.394392647084828 0 41.394392647084828 312.57863754569189 0 0 0 0 211.15923981603373 72.825825436847936 0 72.825825436847936 361.90650979058046 0 0 0 0 275.11913438009742 115.21337536113242 0 115.21337536113242 417.6953047312436 0 0 0 0 412.31299448060599 -13.654419944293295 0 -13.654419944293295 232.7566494072471 0 0 0 0 296.47618763438822 -25.132699300326067 0 -25.132699300326067 158.39663050751369 0 0 0 0 244.83836498556411 -55.374983501531915 0 -55.374983501531915 226.73813081179514 0 0 0 0 170.65182109015132 -104.4244176824966 0 -104.4244176824966 73.299432219413575 0 0 0 0 222.19920399739999 -10.821572293114684 0 -10.821572293114684 156.87500423572328 0 0 0 0 20.968389787165506 -133.92912315812714 0 -133.92912315812714 -43.854604651068868 0 0 0 0 239.7703059516316 -85.156149271470213 0 -85.156149271470213 -46.700997162175554 0 0 0 0 178.43666205369118 -85.583113425483134 0 -85.583113425483134 -15.392143774365081 0 0 0 0 207.47884861470493 18.741507133169762 0 18.741507133169762 41.271311232098924 0 0 0 0 206.28887863502496 -59.454098650413243 0 -59.454098650413243 192.42092233224946 0 0 0 0 269.07923373011772 7.2249984730231063 0 7.2249984730231063 77.781202789345571 0 0 0 0 257.09433105967673 7.179953691755145 0 7.179953691755145 -100.80603035878403 0 0 0 0 284.687738524628 -78.65895264638948 0 -78.65895264638948 55.782172378689836 0 0 0 0 402.43578511144096 -19.613882460430204 0 -19.613882460430204 -123.24520799634229 0 0 0 0 287.14120979674226 -111.75048247486939 0 -111.75048247486939 323.74628612907577 0 0 0 0 279.9280392666733 -25.447308040796997 0 -25.447308040796997 -222.45769309247143 0 0 0 0 327.983794130555 -30.881444819735179 0 -30.881444819735179 -123.83347978678921 0 0 0 0 324.26265456684996 7.5615597539729151 0 7.5615597539729151 -216.59921545084921 0 0 0 0 234.02118930153893 -63.88849379324347 0 -63.88849379324347 -116.44972598267896 0 0 0 0 240.21399966564024 -3.8113385740346857 0 -3.8113385740346857 -221.27805953478219 0 0 0 0 237.20430953055438 -57.874708892756075 0 -57.874708892756075 -259.71791358222049 0 0 0 0 122.92074729208252 -97.069732552024789 0 -97.069732552024789 -230.1945590340008 0 0 0 0 77.870293962939286 -65.022509060670927 0 -65.022509060670927 -225.76945915380384 0 0 0 0 26.127250132210975 -199.67086366884041 0 -199.67086366884041 -340.60649146701758 0 0 0 0 226.06011510753524 -15.603690523420482 0 -15.603690523420482 -235.23007128451763 0 0 0 0 191.14244218573458 -13.380821941183171 0 -13.380821941183171 -147.32878989938263 0 0 0 0 87.721593505767032 -129.94315657449124 0 -129.94315657449124 -186.86110598274308 0 0 0 0 -330.63771156597954 -437.12924214825205 0 -437.12924214825205 -311.86733186774813 0 0 0 0 -1.9550924629966175 -71.135607793609324 0 -71.135607793609324 -224.49154036850859 0 0 0 0 0.32013285427441573 -0.35487933363364377 0 -0.35487933363364377 -0.67644796902023163 0 0 0 0 61.087547183739616 -256.74255294411171 0 -256.74255294411171 -490.25501927509185 0 0 0 0 137.56984231675813 -188.20927772108291 0 -188.20927772108291 122.2122358179372 0 0 0 0 -242.42536786283608 -144.66047427051632 0 -144.66047427051632 -166.98063530607442 0 0 0 0 57.861457572158429 267.73059621701782 0 267.73059621701782 -75.877437485579549 0 0 0 0 9.3585473283000002 -6.9998031953181039 0 -6.9998031953181039 2.3696263758736409 0 0 0 0 3.3576619978274316 -2.1466912025375038 0 -2.1466912025375038 -1.8465308993167313 0 0 0 0 -90.721679098288405 -137.97912674163666 0 -137.97912674163666 -142.43036305637543 0 0 0 0 -34.53636701808864 -34.066010660603752 0 -34.066010660603752 -69.29680674397207 0 0 0 0 17.529841865114577 -18.105435725885627 0 -18.105435725885627 -65.303923720231637 0 0 0 0 -48.330607954254447 -82.707625870939637 0 -82.707625870939637 -171.23912353816138 0 0 0 0 47.840772569325054 -142.33269697242116 0 -142.33269697242116 -261.89702657636008 0 0 0 0 81.312231460079602 -73.533147584602716 0 -73.533147584602716 -209.82316309816724 0 0 0 0 176.82521514527252 -31.36232675738836 0 -31.36232675738836 -194.5748856615154 0 0 0 0 180.74957555939727 -44.299050809873449 0 -44.299050809873449 -225.08171818488472 0 0 0 0 116.91062713418432 -27.813503572350385 0 -27.813503572350385 -114.07350238254753 0 0 0 0 33.599641920270187 -85.383624868283732 0 -85.383624868283732 -153.42171377792783 0 0 0 0 124.13736802820131 7.6552036692456227 0 7.6552036692456227 -87.465285066269985 0 0 0 0 17.623913949981215 -25.578299764643816 0 -25.578299764643816 -41.404054107690172 0 0 0 0 271.77145441680295 58.400252907264729 0 58.400252907264729 -136.82111873986048 0 0 0 0 233.86394494933484 7.9219870063742519 0 7.9219870063742519 -196.48992719348826 0 0 0 0 258.84059909614916 14.183693119883856 0 14.183693119883856 -196.29665049767735 0 0 0 0 -239.89014531944736 -308.05935734222248 0 -308.05935734222248 51.542944930207682 0 0 0 0 57.212354841898787 180.8582332480583 0 180.8582332480583 -23.634736817383896 0 0 0 0 123.47953610947667 32.870041347279404 0 32.870041347279404 -58.053968297269989 0 0 0 0 1.6368085926163898 -2.1846648203186341 0 -2.1846648203186341 -0.37693576378298355 0 0 0 0 -81.034381789777058 -78.011849852351531 0 -78.011849852351531 0.035248364738890814 0 0 0 0 73.849151937040574 -89.815795881220254 0 -89.815795881220254 -121.27642153400916 0 0 0 0 -78.698187803962128 179.89390896915847 0 179.89390896915847 57.610643441704383 0 0 0 0 -76.523131695100801 100.99320985165764 0 100.99320985165764 -105.57894376888362 0 0 0 0 124.45615955433368 -117.72590211977854 0 -117.72590211977854 -246.22203595588121 0 0 0 0 127.04994825075076 -172.66879776557016 0 -172.66879776557016 130.18932951661645 0 0 0 0 390.59251916198127 -213.35179068705082 0 -213.35179068705082 -281.09050432721097 0 0 0 0 374.00390929009473 18.257507906466458 0 18.257507906466458 -107.75731597989625 0 0 0 0 191.19067330311282 -164.62140437241374 0 -164.62140437241374 -205.37265821699339 0 0 0 0 -64.411511891783448 -131.06461394760061 0 -131.06461394760061 -209.75546924818093 0 0 0 0 168.78280912547598 -347.36163951445303 0 -347.36163951445303 -358.82324924827572 0 0 0 0 171.05395169585609 364.17903450297922 0 364.17903450297922 -220.02942661607153 0 0 0 0 -37.108516680808862 -461.79633413439865 0 -461.79633413439865 -250.94179629832919 0 0 0 0 779.93950291393139 -184.14554866549929 0 -184.14554866549929 -173.47428435258894 0 0 0 0 846.06100715936066 507.22327756870095 0 507.22327756870095 40.75972346404842 0 0 0 0 3.1376024988686586 -2.3221485131680608 0 -2.3221485131680608 1.3219215308617116 0 0 0 0 368.4738267345125 -63.757707801204354 0 -63.757707801204354 -196.20784725561657 0 0 0 0 305.48278572926802 108.86175882964466 0 108.86175882964466 253.85681775172668 0 0 0 0 378.21925890328475 167.09924292480571 0 167.09924292480571 -5.4454847639199215 0 0 0 0 257.59768109303695 7.7313775889874705 0 7.7313775889874705 45.301417728558533 0 0 0 0 471.58173443383589 40.13721056824204 0 40.13721056824204 -6.8044470094262124 0 0 0 0 451.93329904912525 140.23868915358696 0 140.23868915358696 -52.28427448056982 0 0 0 0 379.65916617887433 108.52623773764708 0 108.52623773764708 -57.58126234417341 0 0 0 0 376.67682293118105 70.52445300172235 0 70.52445300172235 -60.145156132412296 0 0 0 0 371.51744118762781 87.489936441263239 0 87.489936441263239 -104.76901854604012 0 0 0 0 382.45661621096133 79.43966104357844 0 79.43966104357844 -94.339552531199388 0 0 0 0 384.14077608474713 74.086820856817326 0 74.086820856817326 -77.498467759573032 0 0 0 0 382.56801885402729 130.56098173967848 0 130.56098173967848 -15.944627400598847 0 0 0 0 411.06737506027093 79.13190275528882 0 79.13190275528882 -95.023558666262943 0 0 0 0 240.9428737496828 43.928819831109763 0 43.928819831109763 -30.408095553455951 0 0 0 0 174.19980652038885 -17.454867549296523 0 -17.454867549296523 -47.187570592467978 0 0 0 0 401.44270110481602 55.334699514726935 0 55.334699514726935 -71.219591166762712 0 0 0 0 287.50774327910858 58.369281871225667 0 58.369281871225667 -66.787801605783443 0 0 0 0 269.45541847286404 86.4127445104956 0 86.4127445104956 -103.67344091776795 0 0 0 0 230.94517770857965 32.936465344315366 0 32.936465344315366 -107.20197070156883 0 0 0 0 314.72737783142111 61.517595465631075 0 61.517595465631075 -88.820329575043615 0 0 0 0 311.84305548447173 70.674255959898346 0 70.674255959898346 -113.2874634843979 0 0 0 0 231.63722019283523 51.375651116768495 0 51.375651116768495 -70.370707484238665 0 0 0 0 235.17059141501477 48.068909716994995 0 48.068909716994995 -128.49955610800862 0 0 0 0 193.08623232972241 20.660910489071284 0 20.660910489071284 -87.268191236424173 0 0 0 0 0.5033818088766111 113.48887460971582 0 113.48887460971582 -167.42312073113499 0 0 0 0 5.6923626083889758 67.656111988090515 0 67.656111988090515 -47.826633940917873 0 0 0 0 109.67497702562832 17.0907140696836 0 17.0907140696836 -29.366113007021795 0 0 0 0 181.13673082084097 36.304195040824197 0 36.304195040824197 -56.68063891192287 0 0 0 0 141.41055200896335 -22.518711452036769 0 -22.518711452036769 -142.8032285866766 0 0 0 0 189.46397731370303 72.747886562088581 0 72.747886562088581 -187.83211112642402 0 0 0 0 185.02013838160565 64.729967767027574 0 64.729967767027574 -88.684834480910013 0 0 0 0 2.4153492071162033 0.64662942844138005 0 0.64662942844138005 -1.9588273633041346 0 0 0 0 80.284956124480232 -24.375306094438656 0 -24.375306094438656 -22.201439929769549 0 0 0 0 1.8189845611116198 -18.612462084985509 0 -18.612462084985509 -5.9707378732252891 0 0 0 0 3.0239330967392206 -1.9789549509084878 0 -1.9789549509084878 -5.2935899892635661 0 0 0 0 34.184486516574289 -0.46067000580723061 0 -0.46067000580723061 -25.090080691304252 0 0 0 0 -44.814387668369932 -117.12021376197796 0 -117.12021376197796 -3.3662710518501626 0 0 0 0 6.0623404933330685 -6.7913367072811974 0 -6.7913367072811974 2.5659912827792386 0 0 0 0 111.68020035335883 -171.17939620952009 0 -171.17939620952009 -85.992200024864928 0 0 0 0 3.0360054196413273 -45.053454212240183 0 -45.053454212240183 -14.27648499928938 0 0 0 0 -19.325081377219931 11.785531412232856 0 11.785531412232856 23.3126399112397 0 0 0 0 2.9139134254176042 -5.8216756488400279 0 -5.8216756488400279 -0.26254982322234355 0 0 0 0 2.6493676087153855 -4.5412826193052211 0 -4.5412826193052211 4.9477843091114497 0 0 0 0 1.8126071024500807 -3.0129640517630358 0 -3.0129640517630358 0.8829995185712054 0 0 0 0 126.48974889145347 30.451832241014301 0 30.451832241014301 44.664338743929761 0 0 0 0 227.83574213848624 -3.3269034611169843 0 -3.3269034611169843 24.713112423529736 0 0 0 0 340.78470188147139 -60.128523499900894 0 -60.128523499900894 15.437015047227305 0 0 0 0 297.9027235036101 4.9810791165754154 0 4.9810791165754154 15.449471340392961 0 0 0 0 363.7480350843407 -74.452517274987486 0 -74.452517274987486 58.629611122096321 0 0 0 0 343.618923191053 -63.314496498580866 0 -63.314496498580866 79.319612231180599 0 0 0 0 338.49580034445762 85.607414029122538 0 85.607414029122538 2.5301880908064049 0 0 0 0 -2.2797149343840122 -0.80740525198944191 0 -0.80740525198944191 2.2816130122445699 0 0 0 0 255.3941427899581 -218.18949148628357 0 -218.18949148628357 93.175884964229596 0 0 0 0 335.00086587607757 -26.557560767016099 0 -26.557560767016099 14.678539225298664 0 0 0 0 299.20962786431119 -37.775269972887372 0 -37.775269972887372 178.09571229876224 0 0 0 0 354.5101138051441 -144.01007497702085 0 -144.01007497702085 117.41939425390137 0 0 0 0 460.00687520703013 -172.75231070900077 0 -172.75231070900077 88.519374722377961 0 0 0 0 382.35938091734806 -180.06779895401735 0 -180.06779895401735 163.36356211586394 0 0 0 0 1.2243520071108804 -1.0646060982781833 0 -1.0646060982781833 1.6640250083496611 0 0 0 0 -17.003447123286605 -0.18982539867283776 0 -0.18982539867283776 216.23937812578572 0 0 0 0 -45.228793380038042 -106.65045796277002 0 -106.65045796277002 262.16956304738511 0 0 0 0 455.9075445901608 -218.42884440373973 0 -218.42884440373973 5.0565529166169654 0 0 0 0 -65.489131962354804 121.52369807031164 0 121.52369807031164 82.344103850114607 0 0 0 0 287.75352066627147 -120.69502676272168 0 -120.69502676272168 93.502195697450134 0 0 0 0 394.28581928338554 -128.59616931155529 0 -128.59616931155529 59.413737970699458 0 0 0 0 389.63962122674957 -167.64209973504023 0 -167.64209973504023 68.816124667756412 0 0 0 0 438.14558760542968 -168.65786478196401 0 -168.65786478196401 53.832350438598496 0 0 0 0 255.4376286447432 -161.32315319206441 0 -161.32315319206441 90.685621858103332 0 0 0 0 351.90988640816431 -208.17729431435225 0 -208.17729431435225 105.06798495527073 0 0 0 0 292.32077163881786 -151.97760117066127 0 -151.97760117066127 103.73645827605917 0 0 0 0 300.19986825434512 -150.89015606382497 0 -150.89015606382497 -12.697668394795983 0 0 0 0 99.58480380706078 60.966931161361572 0 60.966931161361572 -15.560729453482054 0 0 0 0 -0.26198845425633088 0.28407395209850783 0 0.28407395209850783 2.178397716124076 0 0 0 0 22.030950016576298 -20.436151940602258 0 -20.436151940602258 22.377134557001227 0 0 0 0 2.5206511202804207 -4.743775420509726 0 -4.743775420509726 6.2934307931536075 0 0 0 0 347.77585873865337 48.200643303203833 0 48.200643303203833 23.981049281041123 0 0 0 0 238.26989530821265 -99.083552447546253 0 -99.083552447546253 46.763096389888005 0 0 0 0 465.93544741434198 -96.197641973294139 0 -96.197641973294139 58.414441042926455 0 0 0 0 430.10790749657735 -130.95214932066415 0 -130.95214932066415 25.152781328587025 0 0 0 0 509.35646443114911 -151.87771035995411 0 -151.87771035995411 105.23764485027732 0 0 0 0 638.46270702415586 -207.44349608740458 0 -207.44349608740458 32.648511913476796 0 0 0 0 0.82632799790407896 -1.282619072325895 0 -1.282619072325895 3.2585929668522962 0 0 0 0 1052.9238378383518 -85.772259956405378 0 -85.772259956405378 -67.908283505946656 0 0 0 0 -250.41579408705536 -219.84531366780061 0 -219.84531366780061 218.25958588972026 0 0 0 0 645.70629393700278 39.673937391542637 0 39.673937391542637 13.554584033296578 0 0 0 0 266.99347029519663 -516.02186718289931 0 -516.02186718289931 155.43248531536028 0 0 0 0 164.64945995283267 -293.66683951471623 0 -293.66683951471623 137.78935366460883 0 0 0 0 444.89491130571923 -445.27045755864856 0 -445.27045755864856 181.61375235348578 0 0 0 0 580.05117611319338 -119.49441959205137 0 -119.49441959205137 59.038463884368866 0 0 0 0 332.04802019792942 -280.29746563765229 0 -280.29746563765229 89.271806344214383 0 0 0 0 257.94981764098657 -118.46520213289568 0 -118.46520213289568 59.038079364287029 0 0 0 0 813.79750334437949 -400.20536428532796 0 -400.20536428532796 117.64011642125843 0 0 0 0 397.96515365327809 -68.009274374262134 0 -68.009274374262134 51.957359471620293 0 0 0 0 447.44837285172707 -259.50696924020724 0 -259.50696924020724 94.216750074133415 0 0 0 0 365.68048567904452 -199.85270125294551 0 -199.85270125294551 428.77093490429434 0 0 0 0 139.59456823824803 68.263281700813195 0 68.263281700813195 -60.757548910349215 0 0 0 0 49.706083940460303 -22.35115539044773 0 -22.35115539044773 117.59932969050897 0 0 0 0 -28.391711796546588 99.744825899649186 0 99.744825899649186 59.014929708452655 0 0 0 0 259.83199954611973 -44.769772232353262 0 -44.769772232353262 -9.9864375410934372 0 0 0 0 231.93141098457272 -90.952789285252038 0 -90.952789285252038 203.31951069755132 0 0 0 0 30.973931844073604 22.047655744488225 0 22.047655744488225 2.4318340168338182 0 0 0 0 -14.079069195791817 -13.26013404833293 0 -13.26013404833293 44.568979184812633 0 0 0 0 56.653818545355307 -20.12790767709123 0 -20.12790767709123 27.269610490713603 0 0 0 0 -109.54046901125457 8.0424957168461333 0 8.0424957168461333 109.487521688181 0 0 0 0 4.3025815079731835 1.6527029863342646 0 1.6527029863342646 13.489554069719532 0 0 0 0 3.0436069917469011 2.4205669100304785 0 2.4205669100304785 5.1075851310439973 0 0 0 0 -15.077082137715479 39.547397604659636 0 39.547397604659636 -61.926239750860987 0 0 0 0 35.958844023973782 0.56168312380957985 0 0.56168312380957985 22.330314100026037 0 0 0 0 21.036938322550668 -9.2592037116301071 0 -9.2592037116301071 3.6098545614440809 0 0 0 0 154.9729459461314 -79.38065971568949 0 -79.38065971568949 146.38944348423593 0 0 0 0 114.01528757102278 63.32577959928085 0 63.32577959928085 46.342691633495178 0 0 0 0 90.840955530352176 89.431369650709712 0 89.431369650709712 -56.285537973155442 0 0 0 0 84.697500918586229 5.9702810146500269 0 5.9702810146500269 -9.7963271494600122 0 0 0 0 51.999509446743851 15.60676025777699 0 15.60676025777699 4.4373004858374223 0 0 0 0 60.731527724401531 51.281267113280592 0 51.281267113280592 68.427703283046867 0 0 0 0 11.083783847422442 -7.1856694263700227 0 -7.1856694263700227 -2.5327571581378621 0 0 0 0 97.693246828936935 16.240317109797161 0 16.240317109797161 -12.989662251422487 0 0 0 0 70.107772145176568 16.861591147297986 0 16.861591147297986 2.7659587414987072 0 0 0 0 45.934326763154104 4.1980860949043972 0 4.1980860949043972 1.7996489843608288 0 0 0 0 43.185397465086339 13.095773989386355 0 13.095773989386355 2.8228612129197632 0 0 0 0 50.085994397732293 19.823062298209379 0 19.823062298209379 -29.268887014670327 0 0 0 0 33.96247529403766 8.9475069888101402 0 8.9475069888101402 1.3605293856644227 0 0 0 0 145.7888669968836 -172.73238337510065 0 -172.73238337510065 168.90356368507537 0 0 0 0 178.3922582399457 -237.21937933493734 0 -237.21937933493734 85.200147690547055 0 0 0 0 176.06264646183376 -39.842607892823253 0 -39.842607892823253 -29.545359368984919 0 0 0 0 257.12203647778233 -131.46785503798856 0 -131.46785503798856 28.389058617886803 0 0 0 0 68.075608187689156 21.966888592075406 0 21.966888592075406 -24.306046972870046 0 0 0 0 144.10365218925267 -17.446466876816885 0 -17.446466876816885 -208.72787444090511 0 0 0 0 115.83480306890851 -105.07668607624238 0 -105.07668607624238 46.6213437967061 0 0 0 0 83.442899175149506 -37.633307485128498 0 -37.633307485128498 11.406306166742937 0 0 0 0 477.57954512048798 -275.7874853922558 0 -275.7874853922558 -181.42166940230891 0 0 0 0 -85.385565153095285 -238.34398242030875 0 -238.34398242030875 128.2526411844683 0 0 0 0 -235.54496922097383 9.6061820915620046 0 9.6061820915620046 -159.01974127604626 0 0 0 0 57.72165004402801 9.6245957583456665 0 9.6245957583456665 -5.4097661878149346 0 0 0 0 99.771495142318372 -88.881726173348852 0 -88.881726173348852 42.164990976822082 0 0 0 0 -188.46114808622565 490.82501565254159 0 490.82501565254159 24.542702758421001 0 0 0 0 52.952813693419557 4.4351765994494734 0 4.4351765994494734 47.331618016088328 0 0 0 0 22.287681699629552 -10.924563386061816 0 -10.924563386061816 11.266169735089036 0 0 0 0 59.519045875399115 -21.161118656707977 0 -21.161118656707977 19.988009173750243 0 0 0 0 156.42697506577679 -16.947545903186807 0 -16.947545903186807 20.692301668299926 0 0 0 0 176.52537942877098 -7.405556636938087 0 -7.405556636938087 49.503537466946 0 0 0 0 17.513747411936926 -10.546192175534998 0 -10.546192175534998 1.0045244376282312 0 0 0 0 168.83145057385627 -69.14496540572982 0 -69.14496540572982 7.9656483978562846 0 0 0 0 147.45274332222834 -60.206410719752654 0 -60.206410719752654 4.8019172880221532 0 0 0 0 108.46036113968148 -43.946518059974551 0 -43.946518059974551 21.049710180431248 0 0 0 0 107.67522990461271 -3.2883761518960455 0 -3.2883761518960455 -3.7555471126443081 0 0 0 0 71.434367064259732 -2.183988938762468 0 -2.183988938762468 -0.4485158036050052 0 0 0 0 76.31251418721115 -11.669935243584746 0 -11.669935243584746 7.3800994787743548 0 0 0 0 82.523129743773097 -21.804939819814535 0 -21.804939819814535 -2.5269634372471046 0 0 0 0 135.73897908559411 -35.320827827222729 0 -35.320827827222729 -7.2230721563792031 0 0 0 0 44.908339487615649 -57.613315860513467 0 -57.613315860513467 -11.818062555510551 0 0 0 0 50.83845689671729 -5.8898297281078573 0 -5.8898297281078573 -5.2990254125254914 0 0 0 0 102.43870616727327 27.722686261823128 0 27.722686261823128 33.955693019477621 0 0 0 0 53.813963817309059 -45.155615775230444 0 -45.155615775230444 19.340375748943188 0 0 0 0 -92.058367461413354 -30.759914726249917 0 -30.759914726249917 30.303216800880364 0 0 0 0 51.325251344558637 -21.64702625346581 0 -21.64702625346581 8.0475955645961221 0 0 0 0 33.713548490961095 2.3740894701094506 0 2.3740894701094506 -14.569862246437946 0 0 0 0 59.904517510326514 -24.234196725768015 0 -24.234196725768015 25.745631689290803 0 0 0 0 41.373252473391588 -1.0637417474306528 0 -1.0637417474306528 -3.753280240324596 0 0 0 0 53.127711381650442 -15.961589663216728 0 -15.961589663216728 17.191046337578882 0 0 0 0 46.110291537306693 -22.976613705373893 0 -22.976613705373893 23.544750346574801 0 0 0 0 7.958304737466241 -1.3868157563289039 0 -1.3868157563289039 10.081465162868506 0 0 0 0 48.287406775722047 -27.319592163052221 0 -27.319592163052221 20.58701863601118 0 0 0 0 131.10784037194753 -60.210208620523645 0 -60.210208620523645 -33.239462254712635 0 0 0 0 40.390602813320584 -30.883999596794638 0 -30.883999596794638 13.166057262438244 0 0 0 0 62.668048150832533 -32.8055135458766 0 -32.8055135458766 9.3231145988871802 0 0 0 0 141.60210393182933 -73.030296347907097 0 -73.030296347907097 -227.61172764011644 0 0 0 0 117.85028008713998 8.1400453412868075 0 8.1400453412868075 -15.007511769395729 0 0 0 0 689.68639302610552 186.58751236798821 0 186.58751236798821 -118.68978703858136 0 0 0 0 169.67077049208558 -12.908195956871396 0 -12.908195956871396 -7.8181656842180018 0 0 0 0 874.69488960652529 113.54499155724443 0 113.54499155724443 -158.46136532517448 0 0 0 0 426.44305188083194 -725.10537177760193 0 -725.10537177760193 531.93402114016862 0 0 0 0 -25.167894355722353 485.47691109917696 0 485.47691109917696 -52.426132012639755 0 0 0 0 144.6162697534337 -263.07558876925532 0 -263.07558876925532 267.79329786008202 0 0 0 0 9.1491669495292065 2.960272255629377 0 2.960272255629377 0.1506539251366128 0 0 0 0 184.16952614934058 7.8525985358528487 0 7.8525985358528487 -24.452688777017102 0 0 0 0 -225.20989122829928 228.05735648620521 0 228.05735648620521 -149.21555483647171 0 0 0 0 20.902465748152778 -5.3808633146647935 0 -5.3808633146647935 2.1050096172987303 0 0 0 0 154.45779094770023 -105.98062260056565 0 -105.98062260056565 89.246096276763524 0 0 0 0 105.62315940582194 8.5106725109846799 0 8.5106725109846799 -15.419138457738292 0 0 0 0 60.742571603674151 2.9732827125499171 0 2.9732827125499171 -166.71234723782436 0 0 0 0 491.45942594943335 278.06208710720603 0 278.06208710720603 -684.87238026127852 0 0 0 0 817.63326117263932 -254.22995350833662 0 -254.22995350833662 -165.1899705957793 0 0 0 0 165.28447168869025 -215.82224590683018 0 -215.82224590683018 -106.31177060885511 0 0 0 0 66.386645318228602 -159.44116622205181 0 -159.44116622205181 28.662762699739687 0 0 0 0 -17.155520661330229 -143.23807202339822 0 -143.23807202339822 200.20058479820636 0 0 0 0 70.103237545241427 -182.90020304045356 0 -182.90020304045356 44.996670785713832 0 0 0 0 -10.44880506676418 -51.714430414703202 0 -51.714430414703202 390.82064130150593 0 0 0 0 538.35884269043527 -362.57539504275564 0 -362.57539504275564 554.323894985675 0 0 0 0 471.87904153918862 259.28035671417774 0 259.28035671417774 575.00566722392614 0 0 0 0 146.37806360045215 -389.67077740915192 0 -389.67077740915192 470.04520026251703 0 0 0 0 -23.048881333834288 11.064335359951428 0 11.064335359951428 30.836073068981023 0 0 0 0 -98.322449826958746 -38.703240758080256 0 -38.703240758080256 25.550070271186996 0 0 0 0 8.4498819719524363 5.2794196375677984 0 5.2794196375677984 6.0614113276669741 0 0 0 0 28.145982415766369 -38.544734241929731 0 -38.544734241929731 21.07957051052659 0 0 0 0 32.588879868537333 -103.45474363374797 0 -103.45474363374797 30.487377307068527 0 0 0 0 36.51107736803533 -110.22626524970292 0 -110.22626524970292 -56.51373912449526 0 0 0 0 66.121090628680804 -164.085554583006 0 -164.085554583006 12.531986323876481 0 0 0 0 -34.963001000585791 -97.013227323310275 0 -97.013227323310275 105.61683182814158 0 0 0 0 -41.191271865016461 -63.42731958181821 0 -63.42731958181821 33.729879656894809 0 0 0 0 -8.0614593410186615 -2.6441621202633705 0 -2.6441621202633705 8.0743393899997837 0 0 0 0 -23.487257897375056 -35.081008753982459 0 -35.081008753982459 19.200909312795666 0 0 0 0 -49.370086856738453 7.468915933204471 0 7.468915933204471 1.5107879412685179 0 0 0 0 -0.29519307956843477 31.837513943527625 0 31.837513943527625 12.664402870281265 0 0 0 0 3.8153192163863423 -105.49939150911212 0 -105.49939150911212 96.180655054806948 0 0 0 0 -21.078263068676879 -38.96872274139433 0 -38.96872274139433 18.547218616885818 0 0 0 0 -27.332427256444134 -21.033914969580337 0 -21.033914969580337 3.3407358402082536 0 0 0 0 -79.989811961125724 -46.53379709142402 0 -46.53379709142402 97.176956419126327 0 0 0 0 320.33434654781013 92.64828808405673 0 92.64828808405673 57.988086643541465 0 0 0 0 861.98514656085354 142.08621913083289 0 142.08621913083289 48.005429923619886 0 0 0 0 4.3732350183985602 -3.5287225901238628 0 -3.5287225901238628 4.4408100350541275 0 0 0 0 -3.40576000969304 42.219393117591608 0 42.219393117591608 37.489232727788476 0 0 0 0 258.26064262620639 77.561769667912813 0 77.561769667912813 37.139936271796614 0 0 0 0 -0.075143000081482114 -12.42042107661814 0 -12.42042107661814 15.703004308666937 0 0 0 0 275.88608972796828 20.743023144380913 0 20.743023144380913 -24.895358747507998 0 0 0 0 261.19382398104062 4.7802303362877865 0 4.7802303362877865 -19.154426702910314 0 0 0 0 443.62398113809104 19.679846880087553 0 19.679846880087553 -93.409572776372443 0 0 0 0 345.36852427981194 29.343422851438163 0 29.343422851438163 -81.387833312202929 0 0 0 0 346.89225220061508 39.853206134543484 0 39.853206134543484 -269.22674197692322 0 0 0 0 -4.4968775335000828 979.93665096095447 0 979.93665096095447 -959.07598311595939 0 0 0 0 208.82709664327558 -68.787497103485293 0 -68.787497103485293 -1.1339170010360249 0 0 0 0 15.7806225092597 -11.209817690537172 0 -11.209817690537172 0.4730987635095687 0 0 0 0 264.7854275918944 -34.936858935190685 0 -34.936858935190685 -310.40854763557218 0 0 0 0 166.32653446352197 136.39334197970857 0 136.39334197970857 -52.850315258114279 0 0 0 0 -509.66329880152261 -444.06441270223695 0 -444.06441270223695 1004.042644510715 0 0 0 0 36.486336732981727 367.07745708681796 0 367.07745708681796 -437.23241616686528 0 0 0 0 397.97926219631336 -3.8410327477504325 0 -3.8410327477504325 25.316033263675308 0 0 0 0 595.7591620695348 -450.10992338432243 0 -450.10992338432243 127.82341930970142 0 0 0 0 806.81146642882231 11.129294342994399 0 11.129294342994399 -120.03911673543257 0 0 0 0 318.54688239113602 -116.61219232859457 0 -116.61219232859457 -134.60841957974844 0 0 0 0 293.05930059013917 123.16950208599019 0 123.16950208599019 33.143876471061958 0 0 0 0 281.69097094770405 87.226272677630732 0 87.226272677630732 -56.008877694886905 0 0 0 0 277.91922130129024 140.36888456249903 0 140.36888456249903 85.314753969771118 0 0 0 0 324.32572469238949 64.548041917897535 0 64.548041917897535 49.602465748471104 0 0 0 0 447.76681665432261 204.49559814912936 0 204.49559814912936 151.82538024204223 0 0 0 0 -99.675182181577838 -249.45537841264468 0 -249.45537841264468 380.43586094150669 0 0 0 0 1042.9384190023338 726.76339173126235 0 726.76339173126235 344.1396039993665 0 0 0 0 9.6309793270824002 -6.1927303544587744 0 -6.1927303544587744 5.1109091544623766 0 0 0 0 -144.92251046021238 41.392852300100969 0 41.392852300100969 180.87612760303455 0 0 0 0 -366.41303330784285 -715.88303031794931 0 -715.88303031794931 625.2382685130151 0 0 0 0 -157.72788398637203 197.6757632158151 0 197.6757632158151 -338.40401844281587 0 0 0 0 1455.4580614302522 -451.40484283392993 0 -451.40484283392993 37.756920533716766 0 0 0 0 -150.68801694502326 -50.914259997700356 0 -50.914259997700356 917.24166761988317 0 0 0 0 -111.98964292008895 146.8981535979101 0 146.8981535979101 -38.081715894179069 0 0 0 0 721.72962460276722 -192.52722254396826 0 -192.52722254396826 -380.87632421227136 0 0 0 0 -95.310014543763828 -76.045749736208563 0 -76.045749736208563 -29.293854149254003 0 0 0 0 4.4873580921209779 -13.151716682310891 0 -13.151716682310891 33.042100520842517 0 0 0 0 83.592683835176558 -144.30195167275548 0 -144.30195167275548 -24.222954348834293 0 0 0 0 49.351419681227171 -44.765312092908026 0 -44.765312092908026 28.631047830004629 0 0 0 0 -248.92260325815005 -221.67963116049486 0 -221.67963116049486 8.7937006715558255 0 0 0 0 643.28977143453085 -349.54775219642306 0 -349.54775219642306 -194.61308665743127 0 0 0 0 -193.5370436352905 -16.341178103011771 0 -16.341178103011771 -203.74121483548697 0 0 0 0 1.6437345000000221 -4.8921863415254734 0 -4.8921863415254734 12.514361737631084 0 0 0 0 81.968148391344585 -611.43612869370736 0 -611.43612869370736 253.92094487400027 0 0 0 0 45.582446344328602 -55.923086661923413 0 -55.923086661923413 38.166038269660255 0 0 0 0 -25.916006877974723 -150.03888286672367 0 -150.03888286672367 38.699610393799276 0 0 0 0 33.553297531986573 -71.333698705596419 0 -71.333698705596419 37.09091580132764 0 0 0 0 318.88647055288584 -72.995231945073414 0 -72.995231945073414 -49.939424378591269 0 0 0 0 209.39526172885144 -56.320255357783253 0 -56.320255357783253 -40.444129041174449 0 0 0 0 247.24912563602038 -35.347051758511526 0 -35.347051758511526 -59.519804036622872 0 0 0 0 181.11282475807548 -19.392206202869545 0 -19.392206202869545 -34.683933792606013 0 0 0 0 186.78502382029887 40.160375241590984 0 40.160375241590984 -16.892797705971077 0 0 0 0 229.99254664224964 19.425454775020462 0 19.425454775020462 -19.104202116779788 0 0 0 0 270.13633560674634 2.7268617086044671 0 2.7268617086044671 -30.641499778996973 0 0 0 0 255.94398218595597 -18.266714568832754 0 -18.266714568832754 17.597331360661304 0 0 0 0 213.4136592088812 -21.031979423997427 0 -21.031979423997427 -36.740369914692451 0 0 0 0 233.43767782515533 -17.88169801746244 0 -17.88169801746244 -41.082141775824141 0 0 0 0 149.93746935447507 -5.7002594447225192 0 -5.7002594447225192 -14.940966398452929 0 0 0 0 155.3435845275435 -12.008339756621126 0 -12.008339756621126 -7.7449250604731787 0 0 0 0 171.07016058275894 -11.198585514887156 0 -11.198585514887156 -18.600367089848078 0 0 0 0 175.48968525410282 -27.672447570223426 0 -27.672447570223426 -16.993333611071648 0 0 0 0 145.4929937151428 -25.747625242509457 0 -25.747625242509457 -16.164493845872585 0 0 0 0 130.51792470183864 -28.508703620769666 0 -28.508703620769666 -5.4015686860529968 0 0 0 0 255.45382810078934 -36.573888551145885 0 -36.573888551145885 -60.145235769899728 0 0 0 0 176.49133294683088 -31.894261163417468 0 -31.894261163417468 -39.95041908389544 0 0 0 0 250.13855561516812 -54.233222838467441 0 -54.233222838467441 -41.77547660071582 0 0 0 0 160.37076158795844 -86.517713000073854 0 -86.517713000073854 -36.381403487969465 0 0 0 0 -2.169457915847488 -187.842968204621 0 -187.842968204621 16.387256399636044 0 0 0 0 266.30972778574915 -57.425113865119215 0 -57.425113865119215 -57.387917095309149 0 0 0 0 563.8725089536747 -15.757470904421552 0 -15.757470904421552 -92.60809145489884 0 0 0 0 282.02421658225057 -97.514043048689956 0 -97.514043048689956 -36.909939242104429 0 0 0 0 111.84579904788552 -25.445275961917332 0 -25.445275961917332 7.9299069402823079 0 0 0 0 43.517860031426935 28.814978360673479 0 28.814978360673479 -15.920243191161145 0 0 0 0 3.3590790536391637 -4.3780865163058369 0 -4.3780865163058369 18.06429940550629 0 0 0 0 148.15131411589755 -22.394164721436027 0 -22.394164721436027 -9.0484809305507952 0 0 0 0 138.70161881713466 -18.892954060424245 0 -18.892954060424245 -3.00280138137623 0 0 0 0 42.093384078894957 -35.518419087508576 0 -35.518419087508576 16.526544450745529 0 0 0 0 161.37560628909068 -45.631645094793726 0 -45.631645094793726 -33.390747039990963 0 0 0 0 239.96838862884169 57.181161508026207 0 57.181161508026207 22.591105622291707 0 0 0 0 295.65192229178683 -48.338298430849591 0 -48.338298430849591 -65.688194519988883 0 0 0 0 -114.37083306591921 -115.97567340773035 0 -115.97567340773035 -10.551106682318675 0 0 0 0 -35.988901003795036 -48.85158052764109 0 -48.85158052764109 1.580478713166201 0 0 0 0 -51.884043275673321 -73.6540750635927 0 -73.6540750635927 14.861404469673289 0 0 0 0 29.12491266446991 -26.982699079522344 0 -26.982699079522344 4.539381727306286 0 0 0 0 347.46957214451868 90.669552485486065 0 90.669552485486065 7.5337572350439359 0 0 0 0 346.49536901667 112.62447546366307 0 112.62447546366307 66.874396316974526 0 0 0 0 985.04671337392938 576.21883350624466 0 576.21883350624466 143.55450965279533 0 0 0 0 -5.3220637903061672 -1.8547343751920575 0 -1.8547343751920575 1.3000627292367497 0 0 0 0 1019.3708131498061 -464.8189504116408 0 -464.8189504116408 183.28760624271763 0 0 0 0 5.8766926201835936 -7.6718657285269298 0 -7.6718657285269298 -4.7909463298745116 0 0 0 0 1197.2234441337969 -220.41389337499186 0 -220.41389337499186 353.37682986885739 0 0 0 0 331.93598362054763 -157.22243645835852 0 -157.22243645835852 -343.52846627352028 0 0 0 0 -6.149344913141249 -168.05146187488344 0 -168.05146187488344 139.32425683031943 0 0 0 0 508.32138857349219 83.891666473894475 0 83.891666473894475 316.78268901492993 0 0 0 0 -138.66167272897292 -86.766222762967118 0 -86.766222762967118 624.2554854355385 0 0 0 0 280.17221517435974 -382.48868427892285 0 -382.48868427892285 119.91054301505028 0 0 0 0 61.155406622958253 -97.337118832959277 0 -97.337118832959277 -122.73033222272807 0 0 0 0 -32.471290341140048 -121.89868506414768 0 -121.89868506414768 119.63672454086782 0 0 0 0 -46.683389802753318 -27.927635012834109 0 -27.927635012834109 7.7363389037596946 0 0 0 0 41.417180939186395 -57.276034584627453 0 -57.276034584627453 34.676742542633903 0 0 0 0 73.561611645718585 -25.85452110387692 0 -25.85452110387692 23.810010172970578 0 0 0 0 421.51710628511137 72.331598916092389 0 72.331598916092389 -123.31378669436893 0 0 0 0 328.22359749737916 -253.93549446702355 0 -253.93549446702355 -107.1989000374715 0 0 0 0 389.64361777645354 -65.999094476906976 0 -65.999094476906976 -30.303563254744404 0 0 0 0 426.04538770465297 188.5985437843301 0 188.5985437843301 634.71753216052821 0 0 0 0 742.69379850561972 -205.30362474245578 0 -205.30362474245578 24.140595162336467 0 0 0 0 62.140452289239704 16.449335598633354 0 16.449335598633354 -22.790707991633024 0 0 0 0 112.71340516366035 317.06698472803691 0 317.06698472803691 265.40321667977969 0 0 0 0 119.14741420800419 -278.20205529142413 0 -278.20205529142413 -15.782585210715297 0 0 0 0 115.00297489811965 -18.946658419875462 0 -18.946658419875462 -35.69836488068222 0 0 0 0 99.447569594954331 -0.016012241607814559 0 -0.016012241607814559 -10.425159075170333 0 0 0 0 76.752488558193363 6.2947759034930186 0 6.2947759034930186 -1.7535774681905423 0 0 0 0 247.16765894487253 3.1352560848076791 0 3.1352560848076791 -360.69671194491184 0 0 0 0 168.09466048479953 -709.25897122103561 0 -709.25897122103561 422.41330419326664 0 0 0 0 7.3622793027533362 -2.6542512531232365 0 -2.6542512531232365 0.38486216979760268 0 0 0 0 276.37540512162377 218.72531945546507 0 218.72531945546507 104.3747431786785 0 0 0 0 559.52838724335538 49.572216954957447 0 49.572216954957447 -338.85074952326977 0 0 0 0 553.57179589691555 243.28751414470497 0 243.28751414470497 -51.353137203310325 0 0 0 0 446.0728417046048 146.69795741159214 0 146.69795741159214 -133.41756664115928 0 0 0 0 -41.960776802734472 -0.36626749727565766 0 -0.36626749727565766 93.241418124594929 0 0 0 0 455.31493017605681 114.18004415085034 0 114.18004415085034 -47.736396482301643 0 0 0 0 126.59389040441602 158.0559588067099 0 158.0559588067099 87.073974530763735 0 0 0 0 311.53502372255025 -47.579336501503349 0 -47.579336501503349 -0.34793569839530392 0 0 0 0 217.15284907456953 -44.253146605240545 0 -44.253146605240545 6.137773591266523 0 0 0 0 161.33513197423599 72.204722822110853 0 72.204722822110853 99.101014888718055 0 0 0 0 30.205472222180106 -64.102660560789445 0 -64.102660560789445 68.96942526858038 0 0 0 0 41.628998917673016 -34.517982308718274 0 -34.517982308718274 19.755094122265291 0 0 0 0 3.1395033717101342 -4.0195957451566144 0 -4.0195957451566144 -1.2006171160459616 0 0 0 0 24.889678130133689 -30.259838003039818 0 -30.259838003039818 72.02609888290317 0 0 0 0 -0.26715964814997051 0.48106388976185599 0 0.48106388976185599 1.2222183801950202 0 0 0 0 -34.687728084750233 -96.53183491212269 0 -96.53183491212269 44.978806139097287 0 0 0 0 76.441572954023286 -41.935230563868629 0 -41.935230563868629 26.832981148068029 0 0 0 0 81.042010203920654 -25.746939650666718 0 -25.746939650666718 24.562303126816914 0 0 0 0 90.440511663851794 -33.696391752712771 0 -33.696391752712771 23.320697941759136 0 0 0 0 163.26180340049177 -11.204918379367427 0 -11.204918379367427 4.8429544188520595 0 0 0 0 135.82835880517086 -6.081172542096283 0 -6.081172542096283 11.669736075130459 0 0 0 0 90.994299678088282 -3.9640545433057923 0 -3.9640545433057923 11.607551492032144 0 0 0 0 100.67359881690936 -19.26593566557608 0 -19.26593566557608 18.18960875812445 0 0 0 0 -333.28416705929885 609.42395371043017 0 609.42395371043017 844.70034548615786 0 0 0 0 186.00544808593258 -9.3605510072998186 0 -9.3605510072998186 -26.169384671756688 0 0 0 0 55.848673060121712 15.843667729070056 0 15.843667729070056 -11.313980951799255 0 0 0 0 132.42570598484599 -7.5175762453709467 0 -7.5175762453709467 78.487316066653875 0 0 0 0 115.76814545790313 -5.3205568795194509 0 -5.3205568795194509 -11.073516375370158 0 0 0 0 30.112909593309126 0.19420344863451078 0 0.19420344863451078 -6.1494342367465302 0 0 0 0 177.23590265732491 -114.19375878465507 0 -114.19375878465507 76.233599305305688 0 0 0 0 15.001921748931636 -176.11224888453444 0 -176.11224888453444 -114.74359879119265 0 0 0 0 211.74266227259795 -44.181578868398105 0 -44.181578868398105 10.980109998180865 0 0 0 0 108.6660291528824 -46.978784716873633 0 -46.978784716873633 13.434573891640866 0 0 0 0 134.45111455905135 -32.414130869718974 0 -32.414130869718974 21.456708829238778 0 0 0 0 190.76769801910268 17.475022858880038 0 17.475022858880038 13.6704466281642 0 0 0 0 136.66874714017467 29.197462252418063 0 29.197462252418063 12.494945193579042 0 0 0 0 97.278829065060563 17.1315608500081 0 17.1315608500081 42.452335201333881 0 0 0 0 63.737404407889699 40.145092392690231 0 40.145092392690231 29.051288444985857 0 0 0 0 -18.227874229414738 137.89751342577119 0 137.89751342577119 505.36768202787925 0 0 0 0 200.5322320819032 292.6623753814049 0 292.6623753814049 -126.16881696488076 0 0 0 0 56.134729788565892 62.627601519622658 0 62.627601519622658 185.93454392704643 0 0 0 0 192.65620405024674 14.323836606619125 0 14.323836606619125 -269.94379560146319 0 0 0 0 152.10308139300872 -35.808000970168891 0 -35.808000970168891 -8.2549104685943639 0 0 0 0 101.23034631977498 -24.736894471040728 0 -24.736894471040728 -22.816577804560211 0 0 0 0 679.45422959843563 -622.72779444062007 0 -622.72779444062007 -478.50515042514689 0 0 0 0 141.81294879684251 -30.9040337530231 0 -30.9040337530231 -10.873375577355137 0 0 0 0 137.35892545134993 372.203552555756 0 372.203552555756 233.10826411375092 0 0 0 0 7.4683983561965022 2.4407000316423577 0 2.4407000316423577 -0.41973906889143464 0 0 0 0 673.8719350782867 -22.76341133630217 0 -22.76341133630217 -294.07301983998696 0 0 0 0 -140.60279792113579 120.08652688959683 0 120.08652688959683 212.39637992714643 0 0 0 0 605.32233596978949 -67.433491046131394 0 -67.433491046131394 12.11511447279463 0 0 0 0 109.17379550807527 -91.04706015696047 0 -91.04706015696047 11.682170193989805 0 0 0 0 730.04643207686604 -501.31672824229372 0 -501.31672824229372 247.84936304327971 0 0 0 0 1030.4485571738651 199.78548013139698 0 199.78548013139698 -64.830564449478516 0 0 0 0 3.7817571200032845 -18.745557341294429 0 -18.745557341294429 45.683392945394409 0 0 0 0 -408.33709846866986 -38.993920636712119 0 -38.993920636712119 180.92794862309711 0 0 0 0 -21.479528167554236 146.15911180639978 0 146.15911180639978 -130.39594454986991 0 0 0 0 72.216335930060495 -9.1215244864398244 0 -9.1215244864398244 64.007556803299849 0 0 0 0 24.395848310517749 -2.587495355368393 0 -2.587495355368393 8.50829422121482 0 0 0 0 -77.471551931295835 97.665355275627917 0 97.665355275627917 -73.747093521038209 0 0 0 0 39.607837824735128 -0.30015459581313308 0 -0.30015459581313308 -5.4130324903460236 0 0 0 0 122.62438660148473 59.76705303435665 0 59.76705303435665 32.270301066790125 0 0 0 0 123.052110440045 59.446360708055636 0 59.446360708055636 31.797408260002157 0 0 0 0 83.535450391565973 66.062668284886058 0 66.062668284886058 34.829675413711129 0 0 0 0 13.545576351300639 14.573639053864134 0 14.573639053864134 2.8547102329740301 0 0 0 0 81.798310547984329 16.745296069613971 0 16.745296069613971 -20.153105158264225 0 0 0 0 65.001232417974279 -15.832790658828969 0 -15.832790658828969 -10.396755559366738 0 0 0 0 18.596726310249668 -2.831469991174747 0 -2.831469991174747 2.1687158585423871 0 0 0 0 23.974525665033859 -1.8817746394588983 0 -1.8817746394588983 5.7902665950018486 0 0 0 0 120.39998683477825 75.734788920679136 0 75.734788920679136 39.25602074443151 0 0 0 0 50.74464805616595 20.380438613835885 0 20.380438613835885 25.068233948399666 0 0 0 0 114.00972890759931 105.39273241160319 0 105.39273241160319 -0.10138170778827771 0 0 0 0 116.3094930019397 28.027265037235658 0 28.027265037235658 -49.565613960851152 0 0 0 0 101.36840390284125 43.845193194972104 0 43.845193194972104 14.194193769686184 0 0 0 0 239.56472630813369 9.074036718630623 0 9.074036718630623 -48.612495513912741 0 0 0 0 146.81709038197823 -55.80295093223188 0 -55.80295093223188 -5.2205783601312987 0 0 0 0 185.15528896369142 75.593681647643734 0 75.593681647643734 -22.218345439747964 0 0 0 0 89.518755686334771 -17.683697997903124 0 -17.683697997903124 34.881123279685454 0 0 0 0 25.334901318890843 -44.841566801928309 0 -44.841566801928309 -39.494241385116084 0 0 0 0 81.86303029874216 4.0701997773347216 0 4.0701997773347216 -15.32945273445705 0 0 0 0 -3.7724543922013254 -13.826533965039459 0 -13.826533965039459 6.7181029132570416 0 0 0 0 102.82221677040957 -7.6167666012466739 0 -7.6167666012466739 -12.980785774896447 0 0 0 0 195.15300154839497 -16.367447319971575 0 -16.367447319971575 36.891867052109319 0 0 0 0 105.19276877646553 2.9708880126217565 0 2.9708880126217565 -21.18707911296417 0 0 0 0 -6.0554612032252066 92.667064469377237 0 92.667064469377237 56.229257910939396 0 0 0 0 65.323947640136481 99.121805845218717 0 99.121805845218717 -30.849050536137838 0 0 0 0 121.17302138227569 -27.877336489948448 0 -27.877336489948448 -26.936368075723635 0 0 0 0 3.2182723229151904 -5.0662362959911329 0 -5.0662362959911329 0.65189185320024001 0 0 0 0 8.9022887186728745 -9.1395459639803267 0 -9.1395459639803267 3.3352014366109568 0 0 0 0 41.3903319905221 187.21179248792896 0 187.21179248792896 22.167442868673788 0 0 0 0 -13.477896779962975 -48.705311643129392 0 -48.705311643129392 -12.163879423694198 0 0 0 0 182.21399001507962 -88.52762399916935 0 -88.52762399916935 75.400307268283427 0 0 0 0 21.1944649878169 -34.897642526288223 0 -34.897642526288223 -58.529415156013556 0 0 0 0 70.666622409367392 -96.225449952784402 0 -96.225449952784402 66.4696288211926 0 0 0 0 36.910504351418581 -32.837901663642697 0 -32.837901663642697 149.69953769660196 0 0 0 0 221.84742248821635 111.06371331648984 0 111.06371331648984 -17.88749742746279 0 0 0 0 190.30619841714565 -10.21228872548204 0 -10.21228872548204 67.334421455457232 0 0 0 0 210.24971272458288 -62.929220909840865 0 -62.929220909840865 203.62299043399253 0 0 0 0 292.75630798009996 67.969125700450832 0 67.969125700450832 86.798353520000319 0 0 0 0 144.25729444406591 -72.974442312880683 0 -72.974442312880683 60.170001410667282 0 0 0 0 125.75637246575445 92.142491741931281 0 92.142491741931281 33.259625769935155 0 0 0 0 76.657170322936594 56.203522196122435 0 56.203522196122435 117.8044274832173 0 0 0 0 138.04823589368846 36.237326101406779 0 36.237326101406779 224.46005017178277 0 0 0 0 264.25340008468095 176.25078886599999 0 176.25078886599999 -13.73821009876383 0 0 0 0 167.61816624056797 84.012246906574774 0 84.012246906574774 -73.989529586564458 0 0 0 0 62.393868445318105 59.692865459580617 0 59.692865459580617 40.774367367751438 0 0 0 0 -11.417905146526095 38.264462849039091 0 38.264462849039091 26.33550122041288 0 0 0 0 41.227673813900935 65.158704062799416 0 65.158704062799416 -14.135059380303346 0 0 0 0 79.940452956114882 113.67759270775173 0 113.67759270775173 45.479419588497905 0 0 0 0 66.215466317423235 10.420856879469804 0 10.420856879469804 2.616462858744574 0 0 0 0 104.82905175998889 63.475066356879097 0 63.475066356879097 -14.443669736870675 0 0 0 0 63.216961535804593 10.015766726214647 0 10.015766726214647 -1.5083921080180021 0 0 0 0 28.900267318931014 -17.755247234002688 0 -17.755247234002688 -15.934855347734191 0 0 0 0 123.31512815713666 23.985616897619821 0 23.985616897619821 -184.05879149083921 0 0 0 0 174.47389611482049 132.11748104887829 0 132.11748104887829 -99.67418124228675 0 0 0 0 165.61115032686212 -34.82422210864047 0 -34.82422210864047 -113.03138264269751 0 0 0 0 116.21958070790058 -3.4171400594249146 0 -3.4171400594249146 -3.877891065844163 0 0 0 0 240.72488831567409 -133.32318557726808 0 -133.32318557726808 -263.64777614405932 0 0 0 0 102.06881286950251 -3.8784070992389288 0 -3.8784070992389288 -1.1827297092912212 0 0 0 0 28.076991051317762 0.9403098622954289 0 0.9403098622954289 2.0705108264614083 0 0 0 0 72.561243609601661 -37.123143493996508 0 -37.123143493996508 -81.168879883948648 0 0 0 0 161.10776310871734 38.756292057425185 0 38.756292057425185 -48.558104078396127 0 0 0 0 131.16891762468072 -138.50925197994388 0 -138.50925197994388 -78.446573440421616 0 0 0 0 -95.445959593209068 -130.01780067797858 0 -130.01780067797858 -69.097854828173013 0 0 0 0 26.923321558463982 6.1710010765740702 0 6.1710010765740702 -0.87177585241730426 0 0 0 0 265.50579706309168 193.9842653763144 0 193.9842653763144 138.65862215243214 0 0 0 0 242.53438708735942 -290.33237537695788 0 -290.33237537695788 122.29131391100191 0 0 0 0 497.59068597069916 26.369266064843032 0 26.369266064843032 -110.75756534240558 0 0 0 0 68.834824068411478 -81.443178061250137 0 -81.443178061250137 -116.02014473830377 0 0 0 0 482.45449762217731 -221.05575383064479 0 -221.05575383064479 496.84399517976499 0 0 0 0 743.78376019954067 159.1608277518028 0 159.1608277518028 6.8460614721243473 0 0 0 0 2.6250296123556334 -2.0345425668078674 0 -2.0345425668078674 1.165133321887641 0 0 0 0 543.07118750550671 327.55175606025205 0 327.55175606025205 175.53085526575069 0 0 0 0 490.76399756964906 -24.582349889065654 0 -24.582349889065654 -12.119588887996542 0 0 0 0 466.51119738564785 94.054873020757213 0 94.054873020757213 -12.901002903883636 0 0 0 0 460.12997309968705 76.300946908090737 0 76.300946908090737 24.016396857545601 0 0 0 0 448.10819315509224 195.9630239836373 0 195.9630239836373 65.550298863687203 0 0 0 0 387.84626540222962 85.611658796002303 0 85.611658796002303 -59.590102398169165 0 0 0 0 385.84094644794936 50.571163529606224 0 50.571163529606224 -36.106271594891041 0 0 0 0 339.42690232069344 54.026363190997927 0 54.026363190997927 -79.654464082946561 0 0 0 0 413.24361261828608 66.770784991448181 0 66.770784991448181 -80.355433299893775 0 0 0 0 370.71809363409511 13.209306528770412 0 13.209306528770412 -21.972519122614813 0 0 0 0 94.80671249453826 28.603965246118605 0 28.603965246118605 38.931999056398126 0 0 0 0 1.7788074680140653 -4.7806723003741354 0 -4.7806723003741354 -2.5329112870131212 0 0 0 0 4.1378292572246318 -4.1945946320962246 0 -4.1945946320962246 -2.6936944804274647 0 0 0 0 144.36108470857926 24.848142040347739 0 24.848142040347739 -34.212768400679124 0 0 0 0 236.45399340907352 31.844053667362004 0 31.844053667362004 -80.047218421000025 0 0 0 0 146.75687463244253 46.067003482354551 0 46.067003482354551 -2.7160657624299347 0 0 0 0 233.40923816438954 44.432323728483425 0 44.432323728483425 -73.283497986761176 0 0 0 0 297.6436080117569 88.894043694755055 0 88.894043694755055 -40.860755159652399 0 0 0 0 338.39318499221008 133.63035136617066 0 133.63035136617066 -8.5395084366309675 0 0 0 0 237.2581245326428 64.948749246927036 0 64.948749246927036 -33.786405797158636 0 0 0 0 212.77591319965995 99.188048328868263 0 99.188048328868263 32.566154459014797 0 0 0 0 95.352065183424202 81.783591628343856 0 81.783591628343856 73.85222710257267 0 0 0 0 314.31008452141759 102.71949061152827 0 102.71949061152827 2.3356982876132406 0 0 0 0 154.23576668701571 149.8628539029819 0 149.8628539029819 161.82892697736588 0 0 0 0 266.84725107719623 217.43996511228261 0 217.43996511228261 201.8891646556367 0 0 0 0 115.97061062833836 45.110327237947217 0 45.110327237947217 8.5377484940308932 0 0 0 0 5.2773931601650226 -5.2779206121800275 0 -5.2779206121800275 1.6809438839447033 0 0 0 0 11.741174958560805 -22.254226437220041 0 -22.254226437220041 -10.495045115647827 0 0 0 0 2.090009381928676 -6.1687014366456463 0 -6.1687014366456463 2.1665834953398537 0 0 0 0 -12.966025587383228 -21.272569966703031 0 -21.272569966703031 -2.7411652005557698 0 0 0 0 5.4383340269992004 -19.808478432848915 0 -19.808478432848915 36.278031258919327 0 0 0 0 15.243513058235749 -12.076134028752222 0 -12.076134028752222 -1.374107699394699 0 0 0 0 8.7426273613429544 -1.4224623020741092 0 -1.4224623020741092 27.870847347872314 0 0 0 0 -4.0037369708184087 -62.271131899776719 0 -62.271131899776719 251.2904722354674 0 0 0 0 -2.0223062744928484 -3.1758193133355235 0 -3.1758193133355235 56.124582007184472 0 0 0 0 6.8628377675593129 -59.779224769737084 0 -59.779224769737084 85.943689007317289 0 0 0 0 23.11092190630734 -29.053879724466924 0 -29.053879724466924 17.070748237897078 0 0 0 0 5.4506586467587459 -3.0845448218839691 0 -3.0845448218839691 -7.6278498085508524 0 0 0 0 11.326809521254972 -16.507310844878248 0 -16.507310844878248 3.8654058818638077 0 0 0 0 0.63085934167450652 -5.9120831944848486 0 -5.9120831944848486 -6.5136315164195366 0 0 0 0 8.7244447866301016 -13.646207128349943 0 -13.646207128349943 4.8616716902827193 0 0 0 0 12.263158466683308 -9.4314325068081359 0 -9.4314325068081359 -3.6344303712412511 0 0 0 0 5.7848387924728968 -11.080953649477152 0 -11.080953649477152 -3.7638079899220429 0 0 0 0 6.8528669494754553 -6.1229433669991948 0 -6.1229433669991948 -5.3947814840336452 0 0 0 0 3.202966792032953 -5.849947775847113 0 -5.849947775847113 -1.071926152672404 0 0 0 0 9.6812864662440461 -4.2004266331781821 0 -4.2004266331781821 -0.94254853399183958 0 0 0 0 19.981008202069916 -6.5347299864710067 0 -6.5347299864710067 -4.4961004413494265 0 0 0 0 119.5664996030539 0.17818867266822735 0 0.17818867266822735 -6.3642331472680098 0 0 0 0 140.92783205466367 5.1854475851530424 0 5.1854475851530424 -11.080516860315925 0 0 0 0 4.1148159429985007 -2.4252387953767025 0 -2.4252387953767025 -3.5941170262946467 0 0 0 0 47.023099819862182 1.3261011547016057 0 1.3261011547016057 -7.0128320044661976 0 0 0 0 31.059835196301812 6.6311779907021799 0 6.6311779907021799 -6.3965478512534357 0 0 0 0 31.456032069905564 -13.806015340359295 0 -13.806015340359295 -5.5182148827165882 0 0 0 0 95.808139852296335 8.5666145158943436 0 8.5666145158943436 2.2197904216254756 0 0 0 0 126.19517602705309 -58.083008728204049 0 -58.083008728204049 8.1801909633304604 0 0 0 0 6.501037944477325 19.17096100446992 0 19.17096100446992 -5.4334827486325059 0 0 0 0 6.4784010957907867 -53.925747795517736 0 -53.925747795517736 2.2633459602841413 0 0 0 0 194.88795533586301 2.4630588427713747 0 2.4630588427713747 -30.539144569794871 0 0 0 0 71.185976324376497 -44.569762668145813 0 -44.569762668145813 -14.488530227258821 0 0 0 0 83.136265552122495 -5.3724784503215233 0 -5.3724784503215233 13.612251829024899 0 0 0 0 20.06757785794839 -7.61158334059553 0 -7.61158334059553 6.3247681841251167 0 0 0 0 107.79126557370546 2.9496112222893203 0 2.9496112222893203 -24.285190748249079 0 0 0 0 86.812126911917588 -5.8652859360674139 0 -5.8652859360674139 -1.1967651775794113 0 0 0 0 96.465606166959333 -10.158342911578984 0 -10.158342911578984 8.210467882334342 0 0 0 0 99.527027315831219 -4.0221591898582574 0 -4.0221591898582574 19.538071332381946 0 0 0 0 57.498983625102923 -6.9451490328305407 0 -6.9451490328305407 -1.9858659700468566 0 0 0 0 88.049715460540028 -22.912497761872146 0 -22.912497761872146 14.493512773706698 0 0 0 0 85.313606271635763 5.7391128286715798 0 5.7391128286715798 -3.1723860544070703 0 0 0 0 13.828747436040143 -7.2384441910533681 0 -7.2384441910533681 -9.0403033392543453 0 0 0 0 101.04751477914033 18.67018482045205 0 18.67018482045205 22.744764977020168 0 0 0 0 65.796839778500726 -11.622818568315324 0 -11.622818568315324 -17.451968935135483 0 0 0 0 99.121261047581356 30.183923163152258 0 30.183923163152258 1.9516713138414161 0 0 0 0 86.679494866017194 -9.1389254738405725 0 -9.1389254738405725 6.145114402519539 0 0 0 0 94.512572772315252 16.524883014668262 0 16.524883014668262 25.269857955689076 0 0 0 0 69.568892734750989 -51.749591612253425 0 -51.749591612253425 8.4876217952814841 0 0 0 0 17.597143584981787 -34.44452914058926 0 -34.44452914058926 13.116941540192514 0 0 0 0 1.845920063696056 -6.5902122730660899 0 -6.5902122730660899 -1.1701794851823344 0 0 0 0 30.124110670185473 -18.612388775835825 0 -18.612388775835825 30.430107998985477 0 0 0 0 91.834865561693732 4.6524171317021228 0 4.6524171317021228 -47.151517586049977 0 0 0 0 72.1639558170085 -16.878727971593392 0 -16.878727971593392 -4.1805642638670601 0 0 0 0 109.3626546664309 -70.776954434531945 0 -70.776954434531945 -67.981836962578654 0 0 0 0 31.238651453575585 -54.365839642620813 0 -54.365839642620813 216.4665767058641 0 0 0 0 21.95784996356295 -7.5072829232933103 0 -7.5072829232933103 0.027350608742722105 0 0 0 0 48.723212481621886 -69.008180088254448 0 -69.008180088254448 -81.834293774651371 0 0 0 0 28.042289498273021 -202.31378506469673 0 -202.31378506469673 62.331010924244765 0 0 0 0 14.39112602642669 -7.5838008659751353 0 -7.5838008659751353 1.3813382060434662 0 0 0 0 -6.4854650234844939 -13.485850339655755 0 -13.485850339655755 -3.5416347410363223 0 0 0 0 16.185419970985095 -24.394695984974078 0 -24.394695984974078 -11.235656569743696 0 0 0 0 -8.0755681566079147 -18.062504410932888 0 -18.062504410932888 11.545855529595428 0 0 0 0 3.2583854017575504 -2.8297207670766511 0 -2.8297207670766511 -0.40772120288329461 0 0 0 0 -3.4013529248453267 -2.0627643539968687 0 -2.0627643539968687 2.5915067109932259 0 0 0 0 8.8693578184393118 -8.2728901181130823 0 -8.2728901181130823 -2.642294509133535 0 0 0 0 30.891324161804732 -12.356894592118579 0 -12.356894592118579 -15.153946415828614 0 0 0 0 12.798242301119899 -23.823801783353247 0 -23.823801783353247 5.116572230630112 0 0 0 0 22.064364740030129 -16.58191305444814 0 -16.58191305444814 -0.98983237220743958 0 0 0 0 30.869192355290579 -23.988916812181287 0 -23.988916812181287 0.4649600090142485 0 0 0 0 10.722157146124516 -13.537020010219429 0 -13.537020010219429 -0.52574852436310948 0 0 0 0 38.923107226510183 -86.432260607572971 0 -86.432260607572971 -12.282971257648114 0 0 0 0 17.94173639595714 -16.277080286876881 0 -16.277080286876881 5.0950308898187089 0 0 0 0 52.358269434975227 -7.8665101387407503 0 -7.8665101387407503 16.5773031638455 0 0 0 0 59.639171489950968 -11.833048467397475 0 -11.833048467397475 -5.7978719312850444 0 0 0 0 28.13869335689941 -7.1926373648081992 0 -7.1926373648081992 -1.7099384997807781 0 0 0 0 18.203853906481527 8.0348485505992358 0 8.0348485505992358 -3.8286625615255616 0 0 0 0 78.383435362724413 -20.185228551012187 0 -20.185228551012187 -2.2537208048893262 0 0 0 0 15.440006486426846 -8.8423904764839847 0 -8.8423904764839847 -4.6348857005767314 0 0 0 0 30.090099731118244 -10.148915724357948 0 -10.148915724357948 -7.7702161119484927 0 0 0 0 23.744302720146152 -17.359590768001453 0 -17.359590768001453 2.7694498714454312 0 0 0 0 115.96535825438332 -105.06052452492258 0 -105.06052452492258 96.375047728004574 0 0 0 0 -5.6804788018838224 -4.4784100246992082 0 -4.4784100246992082 4.3486991201607381 0 0 0 0 22.289196891430038 -15.709937163372615 0 -15.709937163372615 3.4269037257090531 0 0 0 0 161.15810201530985 -88.505407494314568 0 -88.505407494314568 23.897801943930062 0 0 0 0 210.47935693299223 -80.343342483942251 0 -80.343342483942251 24.527297945687678 0 0 0 0 13.139190107342586 -2.163562096440895 0 -2.163562096440895 3.0214695859313299 0 0 0 0 113.54975524823385 115.86372355473577 0 115.86372355473577 145.00495252480687 0 0 0 0 -13.775051395437913 5.0229678090768175 0 5.0229678090768175 7.9009750799650647 0 0 0 0 13.704434974053584 -1.1117883915924267 0 -1.1117883915924267 4.9189682890355471 0 0 0 0 5.3104693361043545 -4.8682998272314251 0 -4.8682998272314251 4.335622900005923 0 0 0 0 127.48510322653601 -38.500106494825104 0 -38.500106494825104 -38.751647214672104 0 0 0 0 3.0040192372378058 -5.6594296091268106 0 -5.6594296091268106 5.3910360726795279 0 0 0 0 179.17131768502441 84.19482630019661 0 84.19482630019661 33.951314628588989 0 0 0 0 27.449724391924974 25.608949551593469 0 25.608949551593469 -35.320506404636035 0 0 0 0 102.20209325676115 -85.493710250679214 0 -85.493710250679214 19.058043607024274 0 0 0 0 7.5876588434324646 -1.83618273013861 0 -1.83618273013861 6.4745365970055673 0 0 0 0 70.323461145385409 -44.723508259340605 0 -44.723508259340605 71.932471754223116 0 0 0 0 51.492250483148382 -32.43707303377505 0 -32.43707303377505 42.145254183227735 0 0 0 0 -3.8845172172004823 5.7900269189249229 0 5.7900269189249229 196.1532176154833 0 0 0 0 -274.96987569972407 683.4833908260407 0 683.4833908260407 321.11650340631331 0 0 0 0 98.278284154395806 32.26161394064593 0 32.26161394064593 34.042003493225252 0 0 0 0 105.57115331171008 81.231204850348377 0 81.231204850348377 -214.93481769482969 0 0 0 0 197.04803152862223 98.339343976121199 0 98.339343976121199 5.0868334690862866 0 0 0 0 59.581283036852255 -143.57180380186037 0 -143.57180380186037 573.35088702072972 0 0 0 0 110.69531972264667 53.834835877735713 0 53.834835877735713 38.277942784473908 0 0 0 0 164.14374018741364 -28.600715020091229 0 -28.600715020091229 -118.92936779948423 0 0 0 0 121.47222626768598 -18.932820193688229 0 -18.932820193688229 -59.657994388223869 0 0 0 0 176.80528703723394 33.539344941493255 0 33.539344941493255 -23.600167252043775 0 0 0 0 172.10502003815782 -5.0272845252670777 0 -5.0272845252670777 -60.845493912040865 0 0 0 0 154.01249488552276 32.906880115632475 0 32.906880115632475 -0.14376825228589496 0 0 0 0 165.28294782465673 5.8663262864432681 0 5.8663262864432681 -70.84277821886576 0 0 0 0 169.03188270445935 -6.9472453168994548 0 -6.9472453168994548 -108.6230395470302 0 0 0 0 101.9602970994456 -14.86290210906327 0 -14.86290210906327 -107.41160255061845 0 0 0 0 109.23005231528077 54.084873343011395 0 54.084873343011395 -161.50090933491515 0 0 0 0 119.22423880947463 0.50924805486010882 0 0.50924805486010882 -99.809816504819764 0 0 0 0 97.631650984832959 -12.607247347454177 0 -12.607247347454177 -43.455624897258986 0 0 0 0 167.10741222887009 -13.698798428284135 0 -13.698798428284135 -44.231187287739886 0 0 0 0 153.50661922348081 -36.487349523205012 0 -36.487349523205012 22.41435628049021 0 0 0 0 146.35368763394217 9.6333957713229665 0 9.6333957713229665 9.1919785143618356 0 0 0 0 115.03439127072488 -26.458656881123147 0 -26.458656881123147 -23.204442587199992 0 0 0 0 102.14912426293449 -2.8135516336255932 0 -2.8135516336255932 1.0429451037925901 0 0 0 0 153.20600437210669 -14.320280554884448 0 -14.320280554884448 79.338195552671095 0 0 0 0 151.91104763242765 2.0200325060113755 0 2.0200325060113755 20.95393778485726 0 0 0 0 229.63319347927063 51.640955891487749 0 51.640955891487749 19.805023610295393 0 0 0 0 217.84399629055406 -28.934247524577131 0 -28.934247524577131 28.445049353312243 0 0 0 0 158.13964527221106 -15.239681359307724 0 -15.239681359307724 -20.102140590877752 0 0 0 0 216.27491799194831 58.540186189531596 0 58.540186189531596 -13.235935055940217 0 0 0 0 185.10630223265616 19.024068884926237 0 19.024068884926237 0.065494559282342379 0 0 0 0 275.24470277733053 106.3371185996516 0 106.3371185996516 38.859457751168293 0 0 0 0 297.05572452022898 -0.0031738909792693448 0 -0.0031738909792693448 59.333560930314889 0 0 0 0 224.43143533636885 -34.984345662910414 0 -34.984345662910414 156.59461122158245 0 0 0 0 230.49670805181086 19.403650178428506 0 19.403650178428506 208.83460841622218 0 0 0 0 284.94725945804385 93.160599582590294 0 93.160599582590294 233.43142661938782 0 0 0 0 284.57015658488837 28.565973484013142 0 28.565973484013142 125.35828616490471 0 0 0 0 189.61928171096952 36.573610154478956 0 36.573610154478956 166.2335367321466 0 0 0 0 387.26156524231396 25.774752174863067 0 25.774752174863067 67.159402542249154 0 0 0 0 291.79905493794649 25.619632057931085 0 25.619632057931085 123.91124700747423 0 0 0 0 289.98822729032736 63.646050710076622 0 63.646050710076622 100.47200935375076 0 0 0 0 582.02462186975754 -175.39159547838517 0 -175.39159547838517 60.115321041987045 0 0 0 0 0.43559999551060002 -1.7852667714896597 0 -1.7852667714896597 3.1352430128401139 0 0 0 0 527.34540710270812 116.82768625511926 0 116.82768625511926 126.66284490114776 0 0 0 0 642.35208108849474 -74.628560539098544 0 -74.628560539098544 45.063342318851937 0 0 0 0 384.95665909181116 -78.133075471774646 0 -78.133075471774646 86.559925599904091 0 0 0 0 399.68460460734786 -85.307929888818762 0 -85.307929888818762 47.304363029514207 0 0 0 0 498.0764993322955 -154.43767541582201 0 -154.43767541582201 70.754625917797966 0 0 0 0 507.1604980523116 -140.02732875293805 0 -140.02732875293805 49.30129192939421 0 0 0 0 -0.25416777919562605 -0.79838146465339577 0 -0.79838146465339577 1.0071101924646029 0 0 0 0 -1.5558215182707258 1.0847132430098796 0 1.0847132430098796 1.6067228428341274 0 0 0 0 208.93743086623726 -56.053739072071039 0 -56.053739072071039 63.637272120711714 0 0 0 0 231.57909319779719 -19.581873825911316 0 -19.581873825911316 41.334899364726994 0 0 0 0 316.79694804226165 -23.200868157484365 0 -23.200868157484365 41.476580006717995 0 0 0 0 289.99371232328485 -42.187120003359723 0 -42.187120003359723 73.046171599271474 0 0 0 0 309.03176519926637 -130.00945984949976 0 -130.00945984949976 89.511885944602909 0 0 0 0 277.10277463839157 31.034981509350473 0 31.034981509350473 67.685189336234089 0 0 0 0 208.65256298336317 28.3475267472204 0 28.3475267472204 89.405565929440854 0 0 0 0 207.74102905762993 64.830790824115411 0 64.830790824115411 67.939743148617708 0 0 0 0 254.7177698054511 6.8581346826540539 0 6.8581346826540539 41.795930396672702 0 0 0 0 254.91672700826894 21.821473688696642 0 21.821473688696642 21.021859204600332 0 0 0 0 170.64393893114175 22.048322032303986 0 22.048322032303986 21.707134931721384 0 0 0 0 196.47832760676829 28.615857473242613 0 28.615857473242613 -16.688021111642229 0 0 0 0 154.35699399598479 -0.54210265028268623 0 -0.54210265028268623 -8.3669938553466636 0 0 0 0 239.43516778112098 -26.610251485612025 0 -26.610251485612025 12.110275185892533 0 0 0 0 209.47907899561687 -34.498261707683923 0 -34.498261707683923 10.662148171021727 0 0 0 0 137.66002001713059 72.228024675080633 0 72.228024675080633 25.16671274616823 0 0 0 0 131.20527573738218 44.674582152976654 0 44.674582152976654 32.412709423809019 0 0 0 0 133.60713785262487 45.072885380076514 0 45.072885380076514 82.368268235746655 0 0 0 0 198.8447451352331 45.971598204081602 0 45.971598204081602 32.002574728789114 0 0 0 0 133.20576892077861 39.944001168826105 0 39.944001168826105 26.600875895901481 0 0 0 0 83.869580176280579 30.00758454124616 0 30.00758454124616 90.280368092006938 0 0 0 0 179.99933276468073 69.339356470460189 0 69.339356470460189 90.646118190043126 0 0 0 0 187.72017993027112 19.158517160118208 0 19.158517160118208 94.149111198842093 0 0 0 0 128.21160728386349 16.38393774196868 0 16.38393774196868 142.7493573466254 0 0 0 0 210.97986551867507 4.4452163420064608 0 4.4452163420064608 66.9202420820111 0 0 0 0 93.834600174537627 -12.513063050270375 0 -12.513063050270375 89.534844264187086 0 0 0 0 130.06001689256391 13.204845531254932 0 13.204845531254932 43.897220503673452 0 0 0 0 57.235285238028155 5.7393818023219865 0 5.7393818023219865 74.478838737539263 0 0 0 0 93.201841886158945 -1.0054917960806051 0 -1.0054917960806051 17.142819152319134 0 0 0 0 83.915162895973481 34.886090564757069 0 34.886090564757069 22.382905300400125 0 0 0 0 56.554501511003764 14.126649040842949 0 14.126649040842949 3.7950757208873256 0 0 0 0 61.195123996280017 18.404798152050716 0 18.404798152050716 13.506278466194999 0 0 0 0 81.856393867550651 63.557044349366151 0 63.557044349366151 3.8108342786956655 0 0 0 0 34.597275196905684 26.338136127149937 0 26.338136127149937 7.0861732141856919 0 0 0 0 37.289110012359743 16.321660105214505 0 16.321660105214505 39.073041966900746 0 0 0 0 23.228321906766723 -3.81897931109404 0 -3.81897931109404 -15.779808196292834 0 0 0 0 40.927434416204051 -15.939821604392591 0 -15.939821604392591 -8.7616091196734942 0 0 0 0 40.566761758995881 -7.1846386795388639 0 -7.1846386795388639 34.171930446602346 0 0 0 0 68.655077393676038 -23.183326050504547 0 -23.183326050504547 42.974153411843872 0 0 0 0 70.354390991742548 -16.461731789318947 0 -16.461731789318947 -19.902042266354783 0 0 0 0 56.32745485084294 -0.25209926340297706 0 -0.25209926340297706 -6.132936706693175 0 0 0 0 53.212266896265646 -35.545988996693495 0 -35.545988996693495 -11.380160215069736 0 0 0 0 61.329915851580154 2.0030698849034252 0 2.0030698849034252 -37.835535526640797 0 0 0 0 52.406165817403235 27.638704765424336 0 27.638704765424336 14.656011837374535 0 0 0 0 23.299397389139799 -6.1223012886507107 0 -6.1223012886507107 -11.199581380100877 0 0 0 0 40.849625349968846 -33.389375170487483 0 -33.389375170487483 -17.320171744886729 0 0 0 0 53.0561067854469 -21.496070005295451 0 -21.496070005295451 -56.0830020065996 0 0 0 0 13.703434732289288 -0.87725573834013204 0 -0.87725573834013204 -2.537613050624131 0 0 0 0 31.453867570494282 2.2819101779657149 0 2.2819101779657149 -10.633533279583883 0 0 0 0 71.509412712301128 25.807227793162383 0 25.807227793162383 12.600854890288247 0 0 0 0 125.21369058792334 -17.456103804050372 0 -17.456103804050372 -32.405734109241621 0 0 0 0 55.456302117121311 5.9613654475291895 0 5.9613654475291895 -13.735625868684174 0 0 0 0 -187.56951035137172 76.192403043697823 0 76.192403043697823 386.02088841512636 0 0 0 0 5.5030677753096313 -4.3249726565490292 0 -4.3249726565490292 -3.1136623623557345 0 0 0 0 63.000049583177315 25.234212330726677 0 25.234212330726677 24.049967930104685 0 0 0 0 22.75718681061295 6.6778395230060568 0 6.6778395230060568 2.5228208985661307 0 0 0 0 30.121429654047688 9.3135010247062979 0 9.3135010247062979 7.885846408159443 0 0 0 0 60.425237822986674 24.974375148497984 0 24.974375148497984 28.51921578139445 0 0 0 0 61.603627606004011 25.479618511005356 0 25.479618511005356 27.653507348783705 0 0 0 0 61.587877128707078 25.998097651887662 0 25.998097651887662 26.767568494993611 0 0 0 0 59.811034888378344 26.382916837930679 0 26.382916837930679 27.351668199943106 0 0 0 0 60.073891697626095 25.254904865681056 0 25.254904865681056 28.660856358968431 0 0 0 0 29.698712719054953 3.6446074889889672 0 3.6446074889889672 1.4257251424719126 0 0 0 0 -18.698657606131746 48.554448482893349 0 48.554448482893349 1.9492368833598448 0 0 0 0 41.139698932759927 21.005823088158152 0 21.005823088158152 -3.1291393314359128 0 0 0 0 84.510322131296562 65.724013740587111 0 65.724013740587111 -4.7617184431892383 0 0 0 0 17.885027374184574 -22.841936743208862 0 -22.841936743208862 55.774955950129879 0 0 0 0 52.456287444646748 23.878221204477349 0 23.878221204477349 9.810199860843781 0 0 0 0 120.06596601246292 204.60944535689782 0 204.60944535689782 -55.009094232874304 0 0 0 0 47.226076769416977 56.060874577106006 0 56.060874577106006 -42.236053904236542 0 0 0 0 40.675287350650251 47.027910625054574 0 47.027910625054574 1.6592666126998665 0 0 0 0 90.564451434205694 34.843847830719824 0 34.843847830719824 -4.4607105471841351 0 0 0 0 89.022067757028708 26.475989455975196 0 26.475989455975196 -44.00998557996536 0 0 0 0 61.410528333087285 21.0630279920899 0 21.0630279920899 4.0527293082725677 0 0 0 0 99.443233872691053 42.594419916455081 0 42.594419916455081 -50.669140889806386 0 0 0 0 104.01178251632518 18.658390611145478 0 18.658390611145478 -38.090473442853181 0 0 0 0 93.487799429349252 16.971280321702579 0 16.971280321702579 -21.133870128780472 0 0 0 0 133.23136701920157 21.187856798229404 0 21.187856798229404 -52.019780255770456 0 0 0 0 104.94268411147641 13.82919248957387 0 13.82919248957387 -53.88080487346997 0 0 0 0 124.02272116532549 55.545275799804585 0 55.545275799804585 -20.315938885667492 0 0 0 0 135.6264419978661 20.127346415889406 0 20.127346415889406 -51.599879320623586 0 0 0 0 139.41294192789792 42.852135739858568 0 42.852135739858568 -19.738664411474474 0 0 0 0 166.40664525626926 -12.951026729720979 0 -12.951026729720979 -26.734297299033642 0 0 0 0 119.5783159990533 29.677157683277073 0 29.677157683277073 -64.801212637852586 0 0 0 0 127.868394681871 -16.616859045750971 0 -16.616859045750971 -101.77512458809269 0 0 0 0 70.595690903603099 -38.324830919409578 0 -38.324830919409578 -42.885763507958472 0 0 0 0 19.629912120914447 2.0252344183663169 0 2.0252344183663169 -1.8120657052069546 0 0 0 0 91.471561208287312 3.9564969173607096 0 3.9564969173607096 -33.388619974513858 0 0 0 0 36.198521286990001 -6.5511446602217731 0 -6.5511446602217731 -5.032112185306362 0 0 0 0 86.272134324848594 -9.5852394360126709 0 -9.5852394360126709 -23.164203021253343 0 0 0 0 41.939336797783781 0.35283980226262912 0 0.35283980226262912 -1.0909913354908376 0 0 0 0 23.058653162035625 -3.8314262666099239 0 -3.8314262666099239 -4.4195603951638986 0 0 0 0 61.718925954242877 5.7407969564956147 0 5.7407969564956147 -0.37748005529829243 0 0 0 0 53.114053671408328 8.3900186033688442 0 8.3900186033688442 -0.28699948084900484 0 0 0 0 54.663308887036692 0.24777247136921687 0 0.24777247136921687 5.0853954668646111 0 0 0 0 56.16043399440241 1.5686390065122851 0 1.5686390065122851 3.6349854336149292 0 0 0 0 31.460202915723016 -2.8855046016621486 0 -2.8855046016621486 0.29113303373238075 0 0 0 0 36.543827934122419 8.8706514772277103 0 8.8706514772277103 5.9235372981934535 0 0 0 0 40.419453247709356 15.884620301220494 0 15.884620301220494 3.0200664316242811 0 0 0 0 59.332027500640834 48.999340888661891 0 48.999340888661891 55.896527734361371 0 0 0 0 37.55006416287506 8.6402365098947485 0 8.6402365098947485 -20.518948645289129 0 0 0 0 60.879934250017186 9.8325945733813853 0 9.8325945733813853 -6.1748721347839277 0 0 0 0 47.251085243204869 5.4670491121271638 0 5.4670491121271638 -4.4863317170365207 0 0 0 0 42.326769076380515 7.0117180844052598 0 7.0117180844052598 5.1435129776050417 0 0 0 0 40.536524902992824 14.786943760009763 0 14.786943760009763 6.2002493810746273 0 0 0 0 20.536820350622293 4.9825702115401782 0 4.9825702115401782 -7.4940809360487037 0 0 0 0 39.269196886702247 25.616920500821394 0 25.616920500821394 14.208800366088569 0 0 0 0 38.655910888424842 -7.4252174610162456 0 -7.4252174610162456 17.706208071533638 0 0 0 0 26.368018418763143 1.0888496744730247 0 1.0888496744730247 2.5071665188526584 0 0 0 0 38.950561479578028 14.247933086506009 0 14.247933086506009 7.0310703898894644 0 0 0 0 30.889452247982547 4.6925354519978342 0 4.6925354519978342 2.6789085575457916 0 0 0 0 18.680737784906704 4.3932291014012321 0 4.3932291014012321 4.7955783925313185 0 0 0 0 39.425031339065754 -41.52165229711909 0 -41.52165229711909 24.802676510446645 0 0 0 0 45.951018040726041 12.92227033654077 0 12.92227033654077 0.94200510758844214 0 0 0 0 27.325586859849864 -1.3915408165353256 0 -1.3915408165353256 2.2111098229902382 0 0 0 0 164.67210579355014 35.510364740661316 0 35.510364740661316 24.444474363030224 0 0 0 0 393.92639522487298 -43.177830907847238 0 -43.177830907847238 17.490302590671945 0 0 0 0 0.36200872140213392 0.56268432994653494 0 0.56268432994653494 0.33109184007480863 0 0 0 0 52.24671036680229 -1.932100702387288 0 -1.932100702387288 42.702851090585568 0 0 0 0 28.511141170703922 -16.026927655761938 0 -16.026927655761938 28.486763680955391 0 0 0 0 -62.221867116866633 52.365453216974856 0 52.365453216974856 106.61970591963654 0 0 0 0 48.627355779724894 -17.383402046860283 0 -17.383402046860283 59.909614524688095 0 0 0 0 34.936483770579798 4.7885098865826876 0 4.7885098865826876 38.48356857343606 0 0 0 0 50.522927317782887 -3.1662052248266264 0 -3.1662052248266264 19.657206347688771 0 0 0 0 24.273927058296977 1.7613743089383433 0 1.7613743089383433 -0.61131277420736296 0 0 0 0 11.464486976212555 -3.5786700339139657 0 -3.5786700339139657 -2.2905908929705063 0 0 0 0 3.6794857384036419 5.1770224677929093 0 5.1770224677929093 0.63795512279708788 0 0 0 0 128.05154109088653 -19.554467867417884 0 -19.554467867417884 1.1307049533515965 0 0 0 0 20.088856331261923 -7.0961468466693987 0 -7.0961468466693987 42.369425600347313 0 0 0 0 -1.3732407856229258 -0.091720152746475492 0 -0.091720152746475492 2.6090435510621539 0 0 0 0 135.33897662974414 3.7632091991812331 0 3.7632091991812331 -10.148614521209311 0 0 0 0 -11.065460792175145 -0.49526594901453791 0 -0.49526594901453791 3.4607508060744294 0 0 0 0 30.451499969128932 -7.7115419795015043 0 -7.7115419795015043 1.2428264947177823 0 0 0 0 54.056847971136449 1.191337804538307 0 1.191337804538307 3.6210346151533486 0 0 0 0 48.296915140554205 -8.991652288404488 0 -8.991652288404488 -9.8613988881681358 0 0 0 0 146.40328396744735 -13.602473822577394 0 -13.602473822577394 -18.359095010836882 0 0 0 0 74.809595261587674 2.9579273026920418 0 2.9579273026920418 -36.531391917584187 0 0 0 0 46.100781270365133 -6.3790156015129043 0 -6.3790156015129043 -4.019885354010631 0 0 0 0 43.399944583041361 -6.7024457694060402 0 -6.7024457694060402 -12.599592792712428 0 0 0 0 36.060264200994425 -7.0917010242013703 0 -7.0917010242013703 -12.560913874592188 0 0 0 0 87.118427709139013 -1.9485539035776753 0 -1.9485539035776753 -11.172749905586699 0 0 0 0 85.096250522386981 -56.301748021299318 0 -56.301748021299318 10.264330892667203 0 0 0 0 2.7236003464637264 -13.364864140436303 0 -13.364864140436303 -9.1574138642934422 0 0 0 0 107.55659221946553 -58.233757854623491 0 -58.233757854623491 -38.02599549655497 0 0 0 0 37.735927159679704 -16.468155313681564 0 -16.468155313681564 -3.2980954147242301 0 0 0 0 29.824198375092237 -8.768138200645808 0 -8.768138200645808 -8.039187290098198 0 0 0 0 17.574294516462757 -20.54004688385826 0 -20.54004688385826 -6.4058394347073015 0 0 0 0 9.8906823248034925 -24.799816517978797 0 -24.799816517978797 18.704326588394906 0 0 0 0 20.936588973030396 -6.8221723364133595 0 -6.8221723364133595 -2.4087018274588701 0 0 0 0 3.3150204735866282 2.0420817650992831 0 2.0420817650992831 -5.6259746849118528 0 0 0 0 20.199204455333529 3.5820377513641688 0 3.5820377513641688 -6.3256509969978651 0 0 0 0 21.801676309781072 -4.2205938415785482 0 -4.2205938415785482 -3.1358061790007206 0 0 0 0 40.295935999864014 -11.052067147120397 0 -11.052067147120397 -10.22371083512553 0 0 0 0 39.837825600684454 -7.7457459842365637 0 -7.7457459842365637 -7.8912901505877731 0 0 0 0 38.770927048361131 -2.4108398603600563 0 -2.4108398603600563 -7.4034917287152577 0 0 0 0 20.162267746418365 0.53852545396239293 0 0.53852545396239293 2.0051592617005554 0 0 0 0 15.003977523517889 0.90243559255087291 0 0.90243559255087291 -1.6602735278783722 0 0 0 0 19.455703698333622 3.6208244911214678 0 3.6208244911214678 -5.5847849595854866 0 0 0 0 15.701953049716678 -9.4777144749078985 0 -9.4777144749078985 2.7817397729542659 0 0 0 0 6.4006387948902557 11.838884002147552 0 11.838884002147552 4.6878520372977164 0 0 0 0 47.495835999376141 -38.964269441820306 0 -38.964269441820306 12.880713952240512 0 0 0 0 78.549851447273795 33.091000365898026 0 33.091000365898026 16.350708002387364 0 0 0 0 54.329203636660168 13.31253734756649 0 13.31253734756649 -16.47471609735021 0 0 0 0 0.19967315705997635 -0.29145589375749381 0 -0.29145589375749381 0.61497916840370159 0 0 0 0 12.945767298559076 -20.898021139240427 0 -20.898021139240427 34.936430370739799 0 0 0 0 67.492320438512252 -44.093332582904623 0 -44.093332582904623 7.7585144515887805 0 0 0 0 18.229057409804483 -12.345541744534358 0 -12.345541744534358 1.9607239288797214 0 0 0 0 29.574242199349101 -20.534684308326177 0 -20.534684308326177 -12.462720258934382 0 0 0 0 32.733917879137152 -17.400886744705986 0 -17.400886744705986 -11.87809632337212 0 0 0 0 22.514592874998925 -3.179932620324621 0 -3.179932620324621 -2.4201240355650953 0 0 0 0 38.196136618877063 50.328910400136238 0 50.328910400136238 57.735774831260642 0 0 0 0 10.552939795904507 -5.2953150484999583 0 -5.2953150484999583 0.17425551633685465 0 0 0 0 -0.21623601493774913 -10.590365235384979 0 -10.590365235384979 -0.84977311527200072 0 0 0 0 -5.6390785312541993 6.6640128803360312 0 6.6640128803360312 -3.0971993770335757 0 0 0 0 71.678957710010764 60.917735015164169 0 60.917735015164169 60.898941351822941 0 0 0 0 109.65478103951318 45.882408806126477 0 45.882408806126477 -23.03600840035233 0 0 0 0 144.17979394373833 85.57254999998122 0 85.57254999998122 9.6698052597616879 0 0 0 0 117.03443824975693 24.983042262786512 0 24.983042262786512 18.057908704884994 0 0 0 0 6.469693046658378 -1.7612944898482965 0 -1.7612944898482965 -0.32409925858063282 0 0 0 0 25.632232940319227 44.059182846688145 0 44.059182846688145 -11.26820479701928 0 0 0 0 50.337303875418485 -13.168284427389352 0 -13.168284427389352 0.033958269201697533 0 0 0 0 47.245700909610605 -15.970932300129789 0 -15.970932300129789 63.669370636777785 0 0 0 0 104.41807994368719 22.354780693314751 0 22.354780693314751 39.423833550568816 0 0 0 0 116.48332599477726 -18.311017676544566 0 -18.311017676544566 30.618575362295815 0 0 0 0 19.762880935736462 2.7765820321137369 0 2.7765820321137369 -7.1690848857477967 0 0 0 0 89.343024538396946 -22.538114857569738 0 -22.538114857569738 -4.8640143787151828 0 0 0 0 2.0015291809395421 -95.810000011888405 0 -95.810000011888405 -34.585182603473186 0 0 0 0 125.19128798309566 29.306634389017574 0 29.306634389017574 -19.166983743846231 0 0 0 0 94.082444052288338 -8.3603650342319042 0 -8.3603650342319042 17.667549886610232 0 0 0 0 47.272835910531285 -39.069296742029621 0 -39.069296742029621 8.4996537241311216 0 0 0 0 28.95838486685534 -44.024440280661167 0 -44.024440280661167 11.226250626343472 0 0 0 0 48.413610195246292 -26.765210522758935 0 -26.765210522758935 12.756602154457596 0 0 0 0 -0.35782355941987021 -6.1055435906235402 0 -6.1055435906235402 6.3511623179972192 0 0 0 0 47.523951839066285 -14.544532383218097 0 -14.544532383218097 -5.645994953283207 0 0 0 0 50.738269699941156 -23.033408178045875 0 -23.033408178045875 -0.78157985312827805 0 0 0 0 16.250135775086306 -14.430552194990355 0 -14.430552194990355 -10.497492204008715 0 0 0 0 40.314540619204308 -8.0785904307117136 0 -8.0785904307117136 -5.3616896728185566 0 0 0 0 37.899042675917428 -3.5381710617402433 0 -3.5381710617402433 -9.3689395247873151 0 0 0 0 40.57166750831675 -6.4465884339192598 0 -6.4465884339192598 -4.2956356118334043 0 0 0 0 39.536819049972109 -18.51932369039082 0 -18.51932369039082 6.2852026267210022 0 0 0 0 24.63705908097802 -2.4888048743834474 0 -2.4888048743834474 -6.7712030677570016 0 0 0 0 33.438891088801029 -5.2670919835045993 0 -5.2670919835045993 4.3116496462605483 0 0 0 0 23.297514236604911 86.445409614455528 0 86.445409614455528 -91.160745272766462 0 0 0 0 28.990107988010038 0.31926947939724215 0 0.31926947939724215 -5.3351832373520116 0 0 0 0 -6.9258666061941767 28.846765804112181 0 28.846765804112181 -25.667298312224602 0 0 0 0 3.6963620761816856 -28.331385524436179 0 -28.331385524436179 37.352319253332382 0 0 0 0 24.362613667559344 -5.6989325461099725 0 -5.6989325461099725 4.4006337739783703 0 0 0 0 14.789527688451926 -8.3513311824981429 0 -8.3513311824981429 12.586852545789952 0 0 0 0 21.36190225975156 -5.171796119006359 0 -5.171796119006359 5.4010889859250248 0 0 0 0 11.427229049646769 0.84816432539710718 0 0.84816432539710718 -2.3595604812331272 0 0 0 0 -58.238489906085306 49.81405649542495 0 49.81405649542495 -5.0285248516655088 0 0 0 0 -19.673991697836755 11.442089649259081 0 11.442089649259081 -19.73789644719136 0 0 0 0 -77.519746002687498 -86.592344114385952 0 -86.592344114385952 51.395008434629062 0 0 0 0 2.8785860402567778 0.91427317585531709 0 0.91427317585531709 0.0016386811730219693 0 0 0 0 -0.30686009564712435 0.90457496584775754 0 0.90457496584775754 -0.34828043835048711 0 0 0 0 -86.492774162587011 -30.971556616438541 0 -30.971556616438541 206.40555415615026 0 0 0 0 284.93411207781173 86.85676187394381 0 86.85676187394381 -11.350922280240752 0 0 0 0 4.8406227914529154 11.46896427590093 0 11.46896427590093 -21.310707938313271 0 0 0 0 87.995970549905906 53.521118620041477 0 53.521118620041477 -86.306523157404243 0 0 0 0 10.739478098006657 100.0002972547084 0 100.0002972547084 177.66041763009753 0 0 0 0 50.288578633349971 -120.02157626482774 0 -120.02157626482774 222.92355288632186 0 0 0 0 219.1499181631516 -131.30878397297903 0 -131.30878397297903 -6.6476381681245584 0 0 0 0 283.72147611115361 19.502098816405294 0 19.502098816405294 -0.38219089147465718 0 0 0 0 128.83406760004436 105.06436239339389 0 105.06436239339389 39.128559971840431 0 0 0 0 3.0288961147899158 -0.22734623465611747 0 -0.22734623465611747 -0.10365997814475605 0 0 0 0 10.847043158741144 -6.7499470632253038 0 -6.7499470632253038 0.19657234118699815 0 0 0 0 23.794133722974948 -57.386622053399037 0 -57.386622053399037 51.792782003943103 0 0 0 0 2.9111644176882692 -58.67222932921095 0 -58.67222932921095 7.2108672611489055 0 0 0 0 46.328277890119352 -21.714290444425785 0 -21.714290444425785 20.2759964934462 0 0 0 0 51.323986685836644 -41.661399616366147 0 -41.661399616366147 -17.023801881495729 0 0 0 0 42.222009260876803 -7.4213770167909843 0 -7.4213770167909843 -40.266856037116213 0 0 0 0 40.753902961820131 -5.8439774880049526 0 -5.8439774880049526 -23.565157185419594 0 0 0 0 29.697872225536116 -0.1204794781003784 0 -0.1204794781003784 -3.9275252271734487 0 0 0 0 30.790210201637819 0.5868652510685024 0 0.5868652510685024 -6.3409935459258122 0 0 0 0 25.056737946437032 -12.187724298855699 0 -12.187724298855699 -1.2966621545579464 0 0 0 0 51.485923573793116 -39.464738006202452 0 -39.464738006202452 -92.152891881255073 0 0 0 0 3.8436726011667588 -1.2855920612880993 0 -1.2855920612880993 0.2156353522258172 0 0 0 0 33.607848881685641 36.227858369943078 0 36.227858369943078 -71.260654725699169 0 0 0 0 6.8086723400301707 35.975147839988423 0 35.975147839988423 -145.86376339957633 0 0 0 0 4.3286196149449552 -3.8286689199729977 0 -3.8286689199729977 -0.11600883043323762 0 0 0 0 86.727905341278529 0.078557185211820979 0 0.078557185211820979 -52.196365341773344 0 0 0 0 169.18754636019003 -97.194716265399734 0 -97.194716265399734 -28.405576937392482 0 0 0 0 120.59331676720467 26.561130320209827 0 26.561130320209827 -160.65602959565217 0 0 0 0 59.021535266001592 4.306305883024379 0 4.306305883024379 -13.436538136418221 0 0 0 0 49.857875549121047 1.4475123327384338 0 1.4475123327384338 -3.6033149403034512 0 0 0 0 35.120395435815965 8.475645573256962 0 8.475645573256962 2.247861688288852 0 0 0 0 51.679597328606178 7.6875760368732244 0 7.6875760368732244 -6.4520908870294988 0 0 0 0 35.562728164048167 -4.1801790464961641 0 -4.1801790464961641 9.3111249135379239 0 0 0 0 60.717521197435417 -2.1127086262472403 0 -2.1127086262472403 -4.4591363406889286 0 0 0 0 27.457753659254102 -0.168624664293759 0 -0.168624664293759 1.7473411648377564 0 0 0 0 33.376811878055321 2.242193649020173 0 2.242193649020173 0.34157556868900496 0 0 0 0 23.491963357779014 -0.11365960204170733 0 -0.11365960204170733 3.364474017528118 0 0 0 0 22.904353132820688 1.8148800659837434 0 1.8148800659837434 8.3763533816272684 0 0 0 0 87.731615896540461 -37.641770096707887 0 -37.641770096707887 -2.5599177294952824 0 0 0 0 49.750145022058859 2.9480150481958844 0 2.9480150481958844 -2.2746578773603687 0 0 0 0 16.335796576691791 -5.2151117246617105 0 -5.2151117246617105 -11.083635490647794 0 0 0 0 43.068181040237505 -7.5242158793933243 0 -7.5242158793933243 -3.122793327605196 0 0 0 0 43.065401338738525 -9.332907143603947 0 -9.332907143603947 0.21603596174791351 0 0 0 0 53.43153489936163 -2.0538127217933777 0 -2.0538127217933777 -2.0060795874068296 0 0 0 0 27.67373959688382 3.1925276413345287 0 3.1925276413345287 1.5270410823251757 0 0 0 0 24.534591776435263 -2.4279848576122731 0 -2.4279848576122731 16.232151643283032 0 0 0 0 35.007098772533936 -3.8814159181383729 0 -3.8814159181383729 11.351956034774958 0 0 0 0 20.32463398098389 -0.64188347377340449 0 -0.64188347377340449 0.52488955794731806 0 0 0 0 31.114384416563553 -0.073611395567922955 0 -0.073611395567922955 14.579682551619953 0 0 0 0 34.314580000602291 -6.1443313303801688 0 -6.1443313303801688 15.897984534621173 0 0 0 0 24.619105303326819 7.5977902204444945 0 7.5977902204444945 4.677086167149759 0 0 0 0 19.288172879445483 -4.6293943555674559 0 -4.6293943555674559 19.025634101715582 0 0 0 0 29.879961710452335 -9.7753685113991651 0 -9.7753685113991651 19.613020750279475 0 0 0 0 26.762705631932477 1.752901505794398 0 1.752901505794398 7.8322961861604199 0 0 0 0 20.342854855951998 -3.2123912798025316 0 -3.2123912798025316 -1.18374605040577 0 0 0 0 22.52561698028876 -14.097034429172709 0 -14.097034429172709 -12.260501884363975 0 0 0 0 45.868431164533831 -16.215949393719256 0 -16.215949393719256 -19.949881970104798 0 0 0 0 23.090307371356175 -16.386569228589337 0 -16.386569228589337 0.15959054463985467 0 0 0 0 27.931507301540591 -5.7038295120649991 0 -5.7038295120649991 0.66402184637297168 0 0 0 0 29.442830524421879 -17.857775371542743 0 -17.857775371542743 23.400854138123123 0 0 0 0 7.9715715665001312 1.3202143306615142 0 1.3202143306615142 0.28454089394895421 0 0 0 0 27.250091929628979 -2.1856259573612249 0 -2.1856259573612249 -12.754356916086778 0 0 0 0 12.484304202647763 -1.7628669026979447 0 -1.7628669026979447 -15.124402641847444 0 0 0 0 10.610219413865707 -3.2840613899243589 0 -3.2840613899243589 -2.6672466740775294 0 0 0 0 21.64653202140471 2.5665961776717388 0 2.5665961776717388 -0.073442030280280554 0 0 0 0 23.633150433233823 1.8389382623272432 0 1.8389382623272432 -10.680703049577957 0 0 0 0 27.696602013194934 -4.616913098047271 0 -4.616913098047271 -8.2180459473969378 0 0 0 0 17.195081642770674 -21.197012222054937 0 -21.197012222054937 -2.7316384022205966 0 0 0 0 15.103477217810621 -1.6122093986043069 0 -1.6122093986043069 -1.8233792450459969 0 0 0 0 29.898938952224853 -3.0227764114405318 0 -3.0227764114405318 -5.0700293815032964 0 0 0 0 34.540750784624834 0.53393176062064862 0 0.53393176062064862 -10.615547191692174 0 0 0 0 35.091449319850653 2.085682342500613 0 2.085682342500613 -20.553634708610787 0 0 0 0 1.2000764577387599 -3.2250455856194939 0 -3.2250455856194939 -1.4538643621590506 0 0 0 0 28.298333522943722 9.1537734927216849 0 9.1537734927216849 0.044960505742234466 0 0 0 0 39.344835226627765 15.6883674826482 0 15.6883674826482 -15.910384973744334 0 0 0 0 28.822794110426912 -27.413078001760631 0 -27.413078001760631 1.1296795532531823 0 0 0 0 -0.73797216487582773 26.251195109241053 0 26.251195109241053 15.535136286981924 0 0 0 0 -39.904281835391885 -12.325121004003108 0 -12.325121004003108 46.878560928128991 0 0 0 0 -35.63712168794882 -57.265759416995252 0 -57.265759416995252 -10.389999181751023 0 0 0 0 27.886266271059867 -49.880389855840349 0 -49.880389855840349 35.047425078937067 0 0 0 0 7.5420293971620254 -4.1453816466982829 0 -4.1453816466982829 1.4938201358735488 0 0 0 0 -38.325677132044802 39.451978282631501 0 39.451978282631501 69.265390422941636 0 0 0 0 63.613846094904147 77.177283672683586 0 77.177283672683586 63.520441490627491 0 0 0 0 16.247876096353139 3.3261723848756617 0 3.3261723848756617 4.4193905516967789 0 0 0 0 36.686419039673638 8.1853346849854915 0 8.1853346849854915 -21.371516762197643 0 0 0 0 25.776871627793298 -12.015416807745737 0 -12.015416807745737 20.632418825740842 0 0 0 0 42.456654167559464 -4.3047854536101795 0 -4.3047854536101795 -11.990957807938912 0 0 0 0 58.006743053148966 23.968887112342145 0 23.968887112342145 28.89985983148199 0 0 0 0 15.902456673328686 -4.7380531185660999 0 -4.7380531185660999 6.6331000124989501 0 0 0 0 29.773878700150817 12.165566871666222 0 12.165566871666222 27.171296910641104 0 0 0 0 55.085598335281247 25.788458587911919 0 25.788458587911919 33.208113337974282 0 0 0 0 61.051383254991379 28.15457047645441 0 28.15457047645441 28.731308393582367 0 0 0 0 60.911226014053682 29.232339917638456 0 29.232339917638456 23.966623450880434 0 0 0 0 68.943593888106989 34.269727039547433 0 34.269727039547433 18.417456901637479 0 0 0 0 64.028418322675861 34.900161465951896 0 34.900161465951896 33.825355686390594 0 0 0 0 70.866123035142664 37.290716517042256 0 37.290716517042256 18.763789651200568 0 0 0 0 93.120513133995701 35.425186837613182 0 35.425186837613182 11.500979864173758 0 0 0 0 56.854406429643859 67.115168696568958 0 67.115168696568958 29.151867838590988 0 0 0 0 49.807996127346996 49.087295480010198 0 49.087295480010198 69.822773765874558 0 0 0 0 55.694094952239539 29.342096139056736 0 29.342096139056736 42.593943229041543 0 0 0 0 220.50207262080221 -69.321508555277333 0 -69.321508555277333 33.271967565111034 0 0 0 0 664.47796898796514 -89.945200170770022 0 -89.945200170770022 33.639222254602373 0 0 0 0 -102.47707767506654 365.62116108990068 0 365.62116108990068 -94.436780118528304 0 0 0 0 -4.652009031442617 -0.13562804274693008 0 -0.13562804274693008 -2.0931307852371823 0 0 0 0 466.90352977651492 218.04791744458635 0 218.04791744458635 140.42537277302506 0 0 0 0 283.6716971926694 177.91676177436062 0 177.91676177436062 116.96097775236365 0 0 0 0 289.96345047299064 109.16805657502675 0 109.16805657502675 93.079702311430992 0 0 0 0 272.2159651372931 133.23291809033174 0 133.23291809033174 86.78358800358825 0 0 0 0 274.25063143634179 121.54202403852857 0 121.54202403852857 44.293338789512632 0 0 0 0 152.47770708242024 77.878004950241746 0 77.878004950241746 34.44329074306512 0 0 0 0 199.47693120833719 54.807993963075575 0 54.807993963075575 36.63954982930403 0 0 0 0 192.89129839705129 4.1463119806643789 0 4.1463119806643789 -10.805397012355513 0 0 0 0 194.29682755358476 -44.163804638015563 0 -44.163804638015563 -71.750692844375749 0 0 0 0 360.62437451902224 0.0020626424387053532 0 0.0020626424387053532 -20.515327839405131 0 0 0 0 25.984126057249341 -10.428435330911498 0 -10.428435330911498 -12.529622776972943 0 0 0 0 225.9018891331034 -61.953431272450537 0 -61.953431272450537 -10.019302899011336 0 0 0 0 153.72106218521913 -125.68798886583642 0 -125.68798886583642 -40.285240267680535 0 0 0 0 162.08557141575267 -36.591422156646473 0 -36.591422156646473 -9.9384511336180985 0 0 0 0 176.92170462438298 19.194260577379509 0 19.194260577379509 23.570336173468149 0 0 0 0 62.322489274125694 19.641098831422326 0 19.641098831422326 -10.68283797107452 0 0 0 0 -180.4466104440362 9.7516362951071187 0 9.7516362951071187 32.649215644837568 0 0 0 0 199.95996419110452 -46.163902742992946 0 -46.163902742992946 -168.02489014158482 0 0 0 0 -23.021135763206985 -223.92332201938575 0 -223.92332201938575 -84.941550650518934 0 0 0 0 103.37467445013064 -24.935249260980676 0 -24.935249260980676 -3.2244678836592158 0 0 0 0 36.357336708984803 95.648158672085628 0 95.648158672085628 231.49391341384671 0 0 0 0 4.6209743309894122 1.7210195110365447 0 1.7210195110365447 0.68300226440010903 0 0 0 0 565.33056116913212 -213.4450000319589 0 -213.4450000319589 71.850451322732397 0 0 0 0 455.8514284009434 198.80465691361155 0 198.80465691361155 112.08607083932111 0 0 0 0 695.76095135443029 15.760434051273478 0 15.760434051273478 -138.55262191570731 0 0 0 0 -73.597712842391047 -157.13837808066501 0 -157.13837808066501 299.47271465801941 0 0 0 0 560.71431403248425 131.21456547024991 0 131.21456547024991 -137.64275777691637 0 0 0 0 169.44711879533861 -92.756015977893185 0 -92.756015977893185 -222.41456715063032 0 0 0 0 147.6350693655113 -177.46155086461181 0 -177.46155086461181 -180.19924102015545 0 0 0 0 96.817786146613884 -26.134332249117868 0 -26.134332249117868 -1.8457009465114496 0 0 0 0 -8.6002516891094274 -55.671719498736422 0 -55.671719498736422 66.381085168176355 0 0 0 0 133.29688703256397 75.11520327819926 0 75.11520327819926 -178.65802582374999 0 0 0 0 70.005655532746459 -62.745032024932584 0 -62.745032024932584 -88.01441245624892 0 0 0 0 400.5400381815125 -178.88246433901872 0 -178.88246433901872 -49.212778250128508 0 0 0 0 187.75957639392436 40.251510022228729 0 40.251510022228729 102.48086945667251 0 0 0 0 178.20280829907279 -57.469425194031942 0 -57.469425194031942 -119.60947243726275 0 0 0 0 375.64657036033168 -176.94866177470328 0 -176.94866177470328 144.06672977405265 0 0 0 0 305.96174643045379 -213.73884547342638 0 -213.73884547342638 127.82882143070265 0 0 0 0 336.47172296149074 -167.30906983536337 0 -167.30906983536337 40.605606979750746 0 0 0 0 69.391880763563677 -30.923721486125999 0 -30.923721486125999 58.961162729763373 0 0 0 0 62.075012660818174 -37.237102420163296 0 -37.237102420163296 57.296770469777229 0 0 0 0 462.44207584481046 -199.6527267240063 0 -199.6527267240063 43.907035933101497 0 0 0 0 4.7165549871424446 -37.667292309007223 0 -37.667292309007223 38.744090063886652 0 0 0 0 7.4146664995205356 -18.065291199493785 0 -18.065291199493785 60.653356380302768 0 0 0 0 245.90752085931308 18.627488703865652 0 18.627488703865652 -47.0659136810973 0 0 0 0 1.9817851247935323 -46.909714569139958 0 -46.909714569139958 314.74323898492531 0 0 0 0 0.041809481778471991 -1.4397719743981412 0 -1.4397719743981412 2.7559613930284907 0 0 0 0 -37.696843522673589 -30.23224057882112 0 -30.23224057882112 -14.890101898296166 0 0 0 0 -21.767098771437304 17.249542986044162 0 17.249542986044162 123.76986550057404 0 0 0 0 6.0791602533169282 -2.0213257410863861 0 -2.0213257410863861 5.2722514779582399 0 0 0 0 21.341638794387109 5.41311697106255 0 5.41311697106255 55.09082510452356 0 0 0 0 12.049390978273038 -1.5068251522556722 0 -1.5068251522556722 1.816518650876223 0 0 0 0 16.632019095006399 -5.9390237698055444 0 -5.9390237698055444 30.428381760377704 0 0 0 0 7.6695636252864006 -1.6866152601956017 0 -1.6866152601956017 0.1911908458159004 0 0 0 0 11.637849619277404 -3.3217485343232909 0 -3.3217485343232909 0.6963610596288845 0 0 0 0 10.525459185589483 -1.9511936825925602 0 -1.9511936825925602 0.10112461053754576 0 0 0 0 13.784476710716262 -2.9661673609246755 0 -2.9661673609246755 1.0132863998634427 0 0 0 0 13.784476710599847 -2.9661673608806991 0 -2.9661673608806991 1.0132863998561126 0 0 0 0 13.784476710694435 -2.9661673608362071 0 -2.9661673608362071 1.0132863998251738 0 0 0 0 13.487526469182001 2.70649162368737 0 2.70649162368737 1.4241316109238711 0 0 0 0 2.3274234686165869 -2.5563469243509616 0 -2.5563469243509616 0.055938405627035226 0 0 0 0 15.078350222262088 -2.5188266924905194 0 -2.5188266924905194 -6.2113890478221467 0 0 0 0 -4.7390167367702816 86.399233105739086 0 86.399233105739086 -30.531714597744418 0 0 0 0 76.142350996204186 15.282768667745017 0 15.282768667745017 7.1070817785759459 0 0 0 0 1.593770049221348 -1.5505005649992496 0 -1.5505005649992496 0.042816429352441454 0 0 0 0 15.9908244170947 -5.7513096694892747 0 -5.7513096694892747 -5.018026727602817 0 0 0 0 16.494569051035796 -6.9981751083945714 0 -6.9981751083945714 -3.3588846874430569 0 0 0 0 0.69408492978169534 -0.024104993508871075 0 -0.024104993508871075 -0.10897595930826437 0 0 0 0 606.44409975943563 -180.21317380280857 0 -180.21317380280857 55.298952396891082 0 0 0 0 608.69739708653651 -187.1317048126997 0 -187.1317048126997 74.585656234707358 0 0 0 0 274.18337222852279 -197.41928350056332 0 -197.41928350056332 97.137177020676063 0 0 0 0 144.74022181985492 -269.07312467561098 0 -269.07312467561098 212.60585832439014 0 0 0 0 -138.94419730801019 -110.93363580633167 0 -110.93363580633167 202.74638689541209 0 0 0 0 284.06118587573292 -172.03758864648714 0 -172.03758864648714 84.087513890233367 0 0 0 0 -92.434602343768347 87.806251731947768 0 87.806251731947768 86.353230958069261 0 0 0 0 -0.73783320517344464 0.22240681281800789 0 0.22240681281800789 0.19480146319030531 0 0 0 0 -133.27059345660382 -98.228204685491221 0 -98.228204685491221 28.465713906743943 0 0 0 0 17.208911253517726 13.539652905063601 0 13.539652905063601 -0.93981135592767306 0 0 0 0 5.9440334263265981 0.89386697684787464 0 0.89386697684787464 -0.074112763166063078 0 0 0 0 67.3403247143724 -1.5806511902751779 0 -1.5806511902751779 -0.066675973797603649 0 0 0 0 978.03525752294809 95.370451525321386 0 95.370451525321386 -38.946691589890847 0 0 0 0 608.63112352443568 -315.58007977732757 0 -315.58007977732757 217.25057258624054 0 0 0 0 141.62632823213062 63.197497674404246 0 63.197497674404246 -26.999748849432606 0 0 0 0 1043.368126582267 -185.43223183034297 0 -185.43223183034297 52.271158308619306 0 0 0 0 1132.1389845110534 -226.18341468211491 0 -226.18341468211491 269.16126796476397 0 0 0 0 982.23363817932841 230.42123421055203 0 230.42123421055203 60.020410409241862 0 0 0 0 1190.1359300976765 87.898397226549321 0 87.898397226549321 -44.418319244216036 0 0 0 0 784.87236666152603 86.400239852675043 0 86.400239852675043 0.1235021178782716 0 0 0 0 384.45965649992286 -1.4926963603879528 0 -1.4926963603879528 134.73879355994697 0 0 0 0 703.65834330315192 212.29422703713448 0 212.29422703713448 -65.277362993997315 0 0 0 0 696.77879231754196 61.504026122228815 0 61.504026122228815 -81.735056709950527 0 0 0 0 760.0897537975834 113.56264708279741 0 113.56264708279741 43.130114656199169 0 0 0 0 855.83826520858565 50.938026114674045 0 50.938026114674045 -19.004532355812216 0 0 0 0 944.82859855715651 40.956578137668146 0 40.956578137668146 -22.541557902631098 0 0 0 0 768.67049019911792 195.63264614879319 0 195.63264614879319 87.360046763981529 0 0 0 0 508.95449052190452 12.713872331388885 0 12.713872331388885 189.40222291126702 0 0 0 0 5.9266445552020741 -0.041864774268447036 0 -0.041864774268447036 -0.72587831487585852 0 0 0 0 425.14086975034297 731.30970989559785 0 731.30970989559785 675.28236221950101 0 0 0 0 299.04723073374771 -78.354027331239649 0 -78.354027331239649 156.76471187189213 0 0 0 0 808.00047627138338 152.62849208924683 0 152.62849208924683 -92.486050157854834 0 0 0 0 15.89717361053539 -0.86525663176620071 0 -0.86525663176620071 -2.3851064685843992 0 0 0 0 302.26934729157438 251.47273435440752 0 251.47273435440752 272.00254469188917 0 0 0 0 36.09361673615058 -129.44726759227012 0 -129.44726759227012 -287.2692699050059 0 0 0 0 345.05912202665058 216.1718179280449 0 216.1718179280449 151.88255945694698 0 0 0 0 298.591401294354 -195.7593654658192 0 -195.7593654658192 -469.56161595967819 0 0 0 0 8.8976472595240921 143.14072573344498 0 143.14072573344498 2.879525894986557 0 0 0 0 50.595930370429414 125.71303485029659 0 125.71303485029659 -176.57855683913081 0 0 0 0 117.38091656442703 97.45950479489737 0 97.45950479489737 18.988634317996254 0 0 0 0 310.11714400466735 181.63032824840047 0 181.63032824840047 0.069625293625085877 0 0 0 0 101.81946115435494 189.48593112658048 0 189.48593112658048 -1.3792048060918773 0 0 0 0 95.66956457014021 191.6589539428721 0 191.6589539428721 0.04957633506248027 0 0 0 0 86.624679861663026 188.78231500536188 0 188.78231500536188 3.3683472995101624 0 0 0 0 85.505333915510164 193.52840310871352 0 193.52840310871352 0.0093377714979167026 0 0 0 0 95.298937879771984 186.8833241930048 0 186.8833241930048 2.5986389689676912 0 0 0 0 78.486825303725709 205.3997007816136 0 205.3997007816136 -47.005499640863775 0 0 0 0 73.163634967299004 193.61242141741036 0 193.61242141741036 -0.057940750544351799 0 0 0 0 -39.915762284537777 184.71500627667706 0 184.71500627667706 43.887057490539959 0 0 0 0 78.662625820274116 210.4582229528994 0 210.4582229528994 37.465153019171225 0 0 0 0 212.37607587399543 312.20000377460678 0 312.20000377460678 25.339588949192944 0 0 0 0 401.56245911787846 623.49961007106378 0 623.49961007106378 196.35849123464345 0 0 0 0 -8.6060415374668082 350.11218807441412 0 350.11218807441412 58.354015643385424 0 0 0 0 18.723528787639225 275.4232003246953 0 275.4232003246953 164.0959693710181 0 0 0 0 -192.97600888094166 50.319361469622663 0 50.319361469622663 338.47061241435301 0 0 0 0 16.568467876932118 133.907854248121 0 133.907854248121 261.58735330191297 0 0 0 0 112.55863021037658 86.349855133672804 0 86.349855133672804 136.01062787620663 0 0 0 0 8.2389088168560534 0.89111042151499475 0 0.89111042151499475 -2.0529067334436162 0 0 0 0 -16.484357907014783 -394.060331023115 0 -394.060331023115 -575.68854917889462 0 0 0 0 43.04566404709476 55.364244582327615 0 55.364244582327615 138.82122016500841 0 0 0 0 52.042573399237881 70.368104670496848 0 70.368104670496848 93.706284447911003 0 0 0 0 -716.7056809195492 -1025.1762872355232 0 -1025.1762872355232 2706.5916371593185 0 0 0 0 919.25831607041255 2510.4289385702714 0 2510.4289385702714 62.738899962266487 0 0 0 0 163.61889458482619 203.39757895044335 0 203.39757895044335 6.425055305008442 0 0 0 0 4.3300452197108825 206.20085155039951 0 206.20085155039951 111.39145851276385 0 0 0 0 -65.517366097723425 -91.457378949004209 0 -91.457378949004209 -181.04754120047596 0 0 0 0 114.44381883701135 105.4471738613415 0 105.4471738613415 -8.051075096611612 0 0 0 0 22.93559492166969 210.45279167769843 0 210.45279167769843 501.47675473123479 0 0 0 0 292.28209229863569 233.16560923937212 0 233.16560923937212 -27.05450510610882 0 0 0 0 3.1793019706131531 0.67410958259770837 0 0.67410958259770837 -0.2509871896799114 0 0 0 0 -62.926658209922607 -95.520984231164391 0 -95.520984231164391 34.851245557494551 0 0 0 0 97.036768686855794 151.07598712716538 0 151.07598712716538 231.58597027217996 0 0 0 0 184.5184624393296 153.48046366011539 0 153.48046366011539 111.49892526933704 0 0 0 0 152.72508755992749 106.56770895042922 0 106.56770895042922 112.57263062546548 0 0 0 0 43.532910879090196 74.061239275214803 0 74.061239275214803 124.68612814112197 0 0 0 0 129.28976213442729 100.82871779370095 0 100.82871779370095 131.51753354382186 0 0 0 0 20.972838171664819 -2.0142481472005613 0 -2.0142481472005613 -4.6780636241537605 0 0 0 0 147.98075453389902 -93.952726729716673 0 -93.952726729716673 -155.36004928693131 0 0 0 0 -9.7696925120035303 113.97579258893086 0 113.97579258893086 129.8418369815073 0 0 0 0 83.069389935175423 113.65501801722887 0 113.65501801722887 10.852771302788234 0 0 0 0 38.655351125293237 103.3084234259389 0 103.3084234259389 88.707308386602676 0 0 0 0 28.637259295617696 79.587654283255461 0 79.587654283255461 103.6867732652845 0 0 0 0 34.795096312882379 92.44203717968341 0 92.44203717968341 129.272366386578 0 0 0 0 23.684308881071047 74.651705677196901 0 74.651705677196901 61.104743487006829 0 0 0 0 60.645894551416859 47.517751726131223 0 47.517751726131223 -5.1832905204879864 0 0 0 0 60.03420933149755 66.471933097640999 0 66.471933097640999 94.36777880481759 0 0 0 0 37.701377969366149 71.371918354148079 0 71.371918354148079 58.492506149400015 0 0 0 0 12.053643409444959 31.404931153758355 0 31.404931153758355 61.264073692039076 0 0 0 0 -13.37322351365583 15.656102364178878 0 15.656102364178878 29.73711624696989 0 0 0 0 12.51015495302272 -41.504132041399089 0 -41.504132041399089 45.04917553027974 0 0 0 0 -3.4808426758650342 -3.7094814328739716 0 -3.7094814328739716 13.431733278263151 0 0 0 0 13.111661640177715 33.171205659270541 0 33.171205659270541 83.915654838971037 0 0 0 0 84.61022918423987 34.969227231293871 0 34.969227231293871 92.983040424774572 0 0 0 0 23.653717504808014 2.9254014838701607 0 2.9254014838701607 4.8456128693005187 0 0 0 0 86.443294408392831 49.575015101542625 0 49.575015101542625 67.37751457547121 0 0 0 0 172.72401580699807 86.335887286527168 0 86.335887286527168 74.324136184286061 0 0 0 0 88.373937205373295 38.650465706349877 0 38.650465706349877 113.64487548809916 0 0 0 0 6.3577014225434709 18.742601348659861 0 18.742601348659861 56.501560912803924 0 0 0 0 25.395208192319842 54.234021375597138 0 54.234021375597138 127.43221839944084 0 0 0 0 10.613888472449617 -38.571446485711931 0 -38.571446485711931 88.774251325870864 0 0 0 0 30.118131043025642 -7.8038857491849285 0 -7.8038857491849285 76.759464004141023 0 0 0 0 5.0332664230210753 12.550925513187565 0 12.550925513187565 31.684337207027156 0 0 0 0 -119.82082384367823 -24.07648177306146 0 -24.07648177306146 127.74084698593651 0 0 0 0 98.608816155850946 -87.586742973804576 0 -87.586742973804576 43.761283382890724 0 0 0 0 123.37431993459177 12.833972000024573 0 12.833972000024573 18.600330414179609 0 0 0 0 218.24976458952005 50.340595328567815 0 50.340595328567815 33.24116138220154 0 0 0 0 201.76519577428553 88.834613890216872 0 88.834613890216872 38.665309717439413 0 0 0 0 226.09463623308693 136.30922927550796 0 136.30922927550796 66.691547499002553 0 0 0 0 199.91669133631876 149.38933707127393 0 149.38933707127393 84.975082759788506 0 0 0 0 157.80722399666411 116.03707393104062 0 116.03707393104062 65.303104072095891 0 0 0 0 113.0228703104076 -117.00572547821503 0 -117.00572547821503 268.66938841214778 0 0 0 0 960.18659584462876 -332.20648248480575 0 -332.20648248480575 -77.169668223581539 0 0 0 0 -0.89551508554745851 5.4530022419750921 0 5.4530022419750921 -0.096866642201009157 0 0 0 0 305.22519330537762 -83.799455969012342 0 -83.799455969012342 233.49995523488178 0 0 0 0 -1.345419908342592 -86.159505564890424 0 -86.159505564890424 289.73082832941873 0 0 0 0 -98.93139634943509 251.48001616183683 0 251.48001616183683 443.86533517223506 0 0 0 0 -316.48335950322871 -51.939653802881367 0 -51.939653802881367 366.01148562458548 0 0 0 0 -275.50961852932232 0.5357423811838089 0 0.5357423811838089 410.27515208093246 0 0 0 0 203.70608370502305 141.33665985926928 0 141.33665985926928 235.41452049564305 0 0 0 0 602.23613303265302 113.65371578981285 0 113.65371578981285 223.57920904150524 0 0 0 0 602.67130755392679 -308.14645107611767 0 -308.14645107611767 304.33146746356215 0 0 0 0 391.27230702171801 -174.62341448371444 0 -174.62341448371444 221.26229240785324 0 0 0 0 194.76720017586194 -234.75999865626727 0 -234.75999865626727 420.54388029638721 0 0 0 0 185.25059948574199 -181.71821785944121 0 -181.71821785944121 191.27136875950237 0 0 0 0 350.86653638249845 -334.39020191034797 0 -334.39020191034797 483.60158338367 0 0 0 0 19.363158845814127 40.460718038647144 0 40.460718038647144 70.942897504780788 0 0 0 0 39.336522549456276 -53.571559146417712 0 -53.571559146417712 385.94683781021376 0 0 0 0 -131.40020763558823 56.899588303012479 0 56.899588303012479 117.80531248374609 0 0 0 0 -9.1966036749455782 15.210844058196244 0 15.210844058196244 53.079657172853857 0 0 0 0 -11.306019296012892 54.814492015320184 0 54.814492015320184 61.077654724515014 0 0 0 0 114.55656728433678 -162.31914040813717 0 -162.31914040813717 541.19124245351941 0 0 0 0 -19.004117031057831 69.564212232988211 0 69.564212232988211 20.851768794105737 0 0 0 0 406.98391253472073 21.69197843396978 0 21.69197843396978 12.834161462847987 0 0 0 0 13.852812209356472 5.3436649580390991 0 5.3436649580390991 7.0095396122994558 0 0 0 0 410.87740043587473 208.90085698629719 0 208.90085698629719 254.69434002377966 0 0 0 0 439.98992733705381 105.23164229425311 0 105.23164229425311 110.91719528352769 0 0 0 0 -4.8900648461927574 -3.5691788620054723 0 -3.5691788620054723 21.670106254167223 0 0 0 0 -109.42230555452625 -454.66430819176458 0 -454.66430819176458 26.847039633110398 0 0 0 0 396.31573421544454 17.597529581491472 0 17.597529581491472 149.92661988039617 0 0 0 0 -23.785946154814155 88.619671325854142 0 88.619671325854142 142.60292990812013 0 0 0 0 12.487289365932682 34.457989351359572 0 34.457989351359572 81.958420568115571 0 0 0 0 0.037870631029363722 62.702881962599349 0 62.702881962599349 167.73004457144998 0 0 0 0 5.8908593970554648 73.467796212635221 0 73.467796212635221 33.783813225152699 0 0 0 0 21.646606014609461 91.960345056594548 0 91.960345056594548 86.645795146851924 0 0 0 0 31.509720674533682 48.696088464503688 0 48.696088464503688 57.910736053516565 0 0 0 0 9.8209799602463477 46.035543078017973 0 46.035543078017973 87.411207834887207 0 0 0 0 23.288923750485992 94.019675591036076 0 94.019675591036076 88.696430119685601 0 0 0 0 5.3601485507792859 82.928215880740765 0 82.928215880740765 60.967296972150507 0 0 0 0 811.96822298160987 1447.9960034795658 0 1447.9960034795658 418.07561767837979 0 0 0 0 43.14906212297754 60.044975934398508 0 60.044975934398508 58.754896580764189 0 0 0 0 -440.21035816647054 -417.29604463973374 0 -417.29604463973374 610.44776145423816 0 0 0 0 2.2798115690045222 21.216833732331665 0 21.216833732331665 31.413355065279113 0 0 0 0 56.914528376189992 -347.36565430666815 0 -347.36565430666815 -96.547889415262034 0 0 0 0 2.1738007196836406 -51.589472938587278 0 -51.589472938587278 137.12237288309552 0 0 0 0 -56.969319740412175 -48.521840925699507 0 -48.521840925699507 301.4470967574598 0 0 0 0 131.51870306656929 229.79468986932625 0 229.79468986932625 583.28344160064216 0 0 0 0 228.0971912099194 74.517531863697513 0 74.517531863697513 291.63978683209643 0 0 0 0 45.466342267853179 -56.331719249788875 0 -56.331719249788875 250.56755434630031 0 0 0 0 252.66471409206861 65.143597293648781 0 65.143597293648781 138.77085111664201 0 0 0 0 -2.0592771937679117 -71.256813069073814 0 -71.256813069073814 -19.151936361304251 0 0 0 0 63.695635729782225 -98.362328595500912 0 -98.362328595500912 239.60871848598617 0 0 0 0 -86.924201169305888 -113.94010849737242 0 -113.94010849737242 259.02119034536008 0 0 0 0 -162.43504433216913 -83.700679728442992 0 -83.700679728442992 629.96318187806901 0 0 0 0 -1.1708819994258306 2.7280693629874264 0 2.7280693629874264 -4.4766843058112968 0 0 0 0 -253.62849531317624 -29.493579308047629 0 -29.493579308047629 315.23499383189483 0 0 0 0 -306.87931016710354 117.60591678038509 0 117.60591678038509 222.47457421613944 0 0 0 0 63.102399080303002 110.87332503059818 0 110.87332503059818 129.27339137129013 0 0 0 0 30.576836584630655 184.86565312387393 0 184.86565312387393 109.1321557883457 0 0 0 0 44.060568790271645 52.275755675613254 0 52.275755675613254 179.61212041705403 0 0 0 0 21.518169757240685 72.218277095208805 0 72.218277095208805 185.53943314242497 0 0 0 0 48.698045658753472 129.3257804059117 0 129.3257804059117 74.139522643337841 0 0 0 0 54.597765545093623 98.239515299155215 0 98.239515299155215 131.66888089922648 0 0 0 0 -1647.0667165622726 381.81131684880165 0 381.81131684880165 212.36662674086983 0 0 0 0 34.426744489479461 84.000392565651964 0 84.000392565651964 84.838218834281861 0 0 0 0 0.27053731269631953 17.215879395828416 0 17.215879395828416 6.3016442837629389 0 0 0 0 601.66895629590726 246.27533518150858 0 246.27533518150858 -1298.9834741909131 0 0 0 0 -675.98170259283506 261.6709135949344 0 261.6709135949344 143.28988120787608 0 0 0 0 61.123197983688442 81.719109048770406 0 81.719109048770406 170.31861260967105 0 0 0 0 27.18585738290858 207.45509213766718 0 207.45509213766718 106.33701195465346 0 0 0 0 223.91431422305322 147.31968050845171 0 147.31968050845171 -12.999613877298543 0 0 0 0 47.321922335429321 79.373120859772087 0 79.373120859772087 48.534655057030648 0 0 0 0 8.1750885204613155 9.7499956661625902 0 9.7499956661625902 -11.656448683080285 0 0 0 0 44.438254079197577 58.262198539550127 0 58.262198539550127 191.03346054395661 0 0 0 0 128.05998509518395 -75.780665522879644 0 -75.780665522879644 342.62753131645695 0 0 0 0 32.877120479985024 5.693604945556217 0 5.693604945556217 273.49488540315724 0 0 0 0 -155.75329654017696 172.54085108816207 0 172.54085108816207 424.44777766438983 0 0 0 0 5.4041731824152066 11.963397025158827 0 11.963397025158827 22.638371446656361 0 0 0 0 210.63744552653225 -593.62217609476465 0 -593.62217609476465 995.34004382530838 0 0 0 0 534.85542875410465 199.503127698133 0 199.503127698133 -81.279707319831004 0 0 0 0 -508.8712445134006 145.06890533538626 0 145.06890533538626 1495.6018745683245 0 0 0 0 -92.285356752036023 143.83397107463389 0 143.83397107463389 -14.068225793207262 0 0 0 0 154.73501949172532 105.32887748929789 0 105.32887748929789 -98.38996773917097 0 0 0 0 -99.861583005797002 184.54443235272331 0 184.54443235272331 -46.133271788147397 0 0 0 0 -132.66214304091409 162.75959578205664 0 162.75959578205664 -41.220440580583499 0 0 0 0 29.733474623589245 40.35601322464575 0 40.35601322464575 47.982022277686426 0 0 0 0 104.98987595969811 -53.039252767759535 0 -53.039252767759535 242.35144715711158 0 0 0 0 105.25238621945226 2.5617606530018762 0 2.5617606530018762 186.53804600288277 0 0 0 0 -108.60367791802855 138.7609601995257 0 138.7609601995257 -0.087520831882938771 0 0 0 0 -109.93092748882191 182.91391241815273 0 182.91391241815273 -63.206332206374746 0 0 0 0 -4.4789125359463355 13.048784716863914 0 13.048784716863914 11.357859703443669 0 0 0 0 -47.873766018936294 110.72988645136802 0 110.72988645136802 -27.570864759693386 0 0 0 0 -44.874863038741751 150.47712023078842 0 150.47712023078842 -61.141289565129107 0 0 0 0 71.057195041285013 45.047016577148497 0 45.047016577148497 162.41161091760659 0 0 0 0 65.738865490580793 53.464131847231329 0 53.464131847231329 152.53088177263271 0 0 0 0 74.713195993914269 10.743452834751224 0 10.743452834751224 221.59269591271186 0 0 0 0 105.98038968785841 11.138521268938348 0 11.138521268938348 170.60910707204857 0 0 0 0 78.953129017240769 57.718335844128333 0 57.718335844128333 25.475415816691925 0 0 0 0 83.409442167947418 9.0626282334687858 0 9.0626282334687858 191.16311179723198 0 0 0 0 217.09003948236932 2.0495025961509379 0 2.0495025961509379 -165.86154345204201 0 0 0 0 11.84937038638904 1.4432994187303336 0 1.4432994187303336 -10.70495579970188 0 0 0 0 27.252491121980711 45.91888496518748 0 45.91888496518748 1.2587497985521305 0 0 0 0 198.11131734866649 252.81124768917408 0 252.81124768917408 15.637784687211195 0 0 0 0 119.35995398728718 57.87503850615655 0 57.87503850615655 12.236341767668339 0 0 0 0 67.360255752268131 58.055847749585155 0 58.055847749585155 200.97517314008655 0 0 0 0 82.278368569503073 34.504425645433393 0 34.504425645433393 0.044441357466884011 0 0 0 0 16.004836293775782 22.999071938688303 0 22.999071938688303 25.015293432276831 0 0 0 0 73.764556800429347 64.304729177780786 0 64.304729177780786 35.59157974428345 0 0 0 0 203.12141765202978 67.870027968695382 0 67.870027968695382 -2.7675181875089478 0 0 0 0 122.00617405883179 47.262003499177112 0 47.262003499177112 9.7295963648135348 0 0 0 0 132.18543961542309 140.26143652182327 0 140.26143652182327 6.4148022969748126 0 0 0 0 66.519543803265037 156.69128041066639 0 156.69128041066639 142.45352292247844 0 0 0 0 -4298.8443687354193 2719.7379069071212 0 2719.7379069071212 -60.176830752963724 0 0 0 0 33.701145942344738 100.02012588445785 0 100.02012588445785 112.32643142119602 0 0 0 0 -94.465148269846139 37.136279399718262 0 37.136279399718262 41.04676202521032 0 0 0 0 -3185.6998863175504 104.63826864842849 0 104.63826864842849 1078.8826127177053 0 0 0 0 -192559.51969081571 -31501.339441306249 0 -31501.339441306249 23539.575597669653 0 0 0 0 164.33205795840107 101.29930072395283 0 101.29930072395283 23.61923107474432 0 0 0 0 149.07837233486771 87.772615085641519 0 87.772615085641519 -99.306680672536459 0 0 0 0 138.53587457819958 83.815568301649648 0 83.815568301649648 -1.8708478310047809 0 0 0 0 243.7610055357722 130.80476122391138 0 130.80476122391138 12.113642371278722 0 0 0 0 12336.174067260581 -14395.673308566198 0 -14395.673308566198 -14924.231054330037 0 0 0 0 -31.505231469299844 -214.30527497831207 0 -214.30527497831207 -113.05371162103529 0 0 0 0 82494.967373186111 -186453.06304999196 0 -186453.06304999196 -16715.997177919522 0 0 0 0 200663.42677121123 -31258.443305405261 0 -31258.443305405261 -81625.229996075301 0 0 0 0 3800.6015822541449 177.90942524412458 0 177.90942524412458 -12130.628145286308 0 0 0 0 16018.059413148963 12409.738476006416 0 12409.738476006416 -28.401019533797516 0 0 0 0 -10153.715569397813 -31279.332989937313 0 -31279.332989937313 -24253.633350360469 0 0 0 0 -5986.9667948279148 -16.493536125862079 0 -16.493536125862079 -5054.093056891732 0 0 0 0 6477.0411167474085 10147.037393458333 0 10147.037393458333 -11798.289807061839 0 0 0 0 26.177701492467513 -31.3747098911671 0 -31.3747098911671 -71.128062418352286 0 0 0 0 -2970.3157290929121 -797.44189492116129 0 -797.44189492116129 8791.1721851068069 0 0 0 0 2089.6301454597451 -4330.8726511252789 0 -4330.8726511252789 3668.0868377687002 0 0 0 0 -2246.1454423486157 883.12292784452893 0 883.12292784452893 1662.0261093599547 0 0 0 0 189.95661381246464 -220.19692043790928 0 -220.19692043790928 -6265.0584984057195 0 0 0 0 109.68768128580442 -90.987644616887366 0 -90.987644616887366 -149.47353319362918 0 0 0 0 3965.5103991132778 -1115.891686702359 0 -1115.891686702359 102.2643849633605 0 0 0 0 73.57219710056961 -1593.9952375651992 0 -1593.9952375651992 1116.8841204924975 0 0 0 0 -762.50036245742376 -1546.1916629787593 0 -1546.1916629787593 1136.9056115346011 0 0 0 0 -827.87433326791142 -1268.4167295327206 0 -1268.4167295327206 808.67796082285349 0 0 0 0 -1177.3876799775571 -1170.6609739388878 0 -1170.6609739388878 1427.555971296737 0 0 0 0 -1181.3752821890339 -917.57945845538052 0 -917.57945845538052 980.27091295653372 0 0 0 0 -1516.0123874470446 124.56693460233691 0 124.56693460233691 555.02829923990066 0 0 0 0 -1788.7612367841684 -1968.0517751067127 0 -1968.0517751067127 3686.7574804307369 0 0 0 0 -2723.5588730503769 -149.39651242398759 0 -149.39651242398759 1430.445306379577 0 0 0 0 368.99690824902427 1441.8472427973195 0 1441.8472427973195 -1877.7388052816168 0 0 0 0 596.6770123995957 2216.4171162769139 0 2216.4171162769139 -3.5291589965107049 0 0 0 0 1986.7553563123511 1842.6361467652737 0 1842.6361467652737 -2704.1007168194315 0 0 0 0 985.6429666003678 3842.6555468237325 0 3842.6555468237325 2.0992991993117274 0 0 0 0 692.44902227639977 2662.2002488726512 0 2662.2002488726512 -3208.7971827072215 0 0 0 0 3210.1111560296122 4765.7044130737104 0 4765.7044130737104 -3891.6175716060243 0 0 0 0 1852.6576694372925 799.12034573301935 0 799.12034573301935 -7715.825334679269 0 0 0 0 154.29109523932857 -338.84923497670241 0 -338.84923497670241 -4866.1186035319279 0 0 0 0 47.871851051383658 -9.3389706316243917 0 -9.3389706316243917 -28.471675674242121 0 0 0 0 1147.6889844818215 -727.41023198045332 0 -727.41023198045332 -311.92196212558252 0 0 0 0 1203.5188846774072 -1116.0437560186015 0 -1116.0437560186015 -1456.0825775675057 0 0 0 0 956.64264313226158 225.4366630095501 0 225.4366630095501 -920.63458600758577 0 0 0 0 1389.2150487034669 -21.034471216622421 0 -21.034471216622421 -1633.8937265031118 0 0 0 0 1426.281263911711 62.890353368883098 0 62.890353368883098 -4164.012070190025 0 0 0 0 196.42627437299234 -203.85182899103165 0 -203.85182899103165 -1616.7562009786611 0 0 0 0 446.10593890312884 509.33528990352147 0 509.33528990352147 -1131.6804200926808 0 0 0 0 490.50162416123203 551.62784868342396 0 551.62784868342396 -1538.6473017597407 0 0 0 0 206.02696517359072 722.56398352114002 0 722.56398352114002 -657.99265595473662 0 0 0 0 935.78213260532357 -452.61730714327678 0 -452.61730714327678 -1545.7439696400556 0 0 0 0 765.95665176112198 456.24006016609201 0 456.24006016609201 162.23888494056155 0 0 0 0 920.66986160221859 559.74112124888597 0 559.74112124888597 -70.824980648396377 0 0 0 0 806.54526889456611 163.80088164953668 0 163.80088164953668 -143.65502251313956 0 0 0 0 1608.2751594121219 562.89784811079517 0 562.89784811079517 -50.703760938269852 0 0 0 0 41.045329118538689 9.249176314157495 0 9.249176314157495 -14.207979118398029 0 0 0 0 2409.7439477329171 128.92496214573293 0 128.92496214573293 24.457124135424237 0 0 0 0 1554.8599128487112 913.51448142586014 0 913.51448142586014 -94.208046632429614 0 0 0 0 1370.202294305258 -311.53268033985296 0 -311.53268033985296 -265.26825446915791 0 0 0 0 512.95796916725521 384.12932898627878 0 384.12932898627878 323.65769738927884 0 0 0 0 1350.4743743982399 344.1258316436606 0 344.1258316436606 -254.69797607789877 0 0 0 0 72.765421277870914 -85.154230512696216 0 -85.154230512696216 -66.428198240437368 0 0 0 0 160.66809450806977 -174.68116489992008 0 -174.68116489992008 -375.85917479352065 0 0 0 0 519.55990234861747 -431.53603700704662 0 -431.53603700704662 -498.61895203503809 0 0 0 0 -48.262120875597532 -79.712216528856601 0 -79.712216528856601 -31.896005661183793 0 0 0 0 -543.9895488096372 -759.93089498731842 0 -759.93089498731842 -484.45609331580272 0 0 0 0 -98.404548398353654 -292.32301753759066 0 -292.32301753759066 -628.56112421333091 0 0 0 0 119.24555771959422 -705.34433602830404 0 -705.34433602830404 -1158.1421901897265 0 0 0 0 -30.981609018490417 -606.82425629970385 0 -606.82425629970385 194.37166187906405 0 0 0 0 24.347807105116203 -26.958905817229976 0 -26.958905817229976 -11.308333118532232 0 0 0 0 -10.817834510118701 -588.75177617751979 0 -588.75177617751979 -818.83008342569883 0 0 0 0 -1569.9037744920606 -1770.9856498194786 0 -1770.9856498194786 -1041.5532441152318 0 0 0 0 -1144.3410839665303 -633.71308715748637 0 -633.71308715748637 -659.90936735027026 0 0 0 0 -6.3583616548462345 -4.7911177558812597 0 -4.7911177558812597 -30.1433200003396 0 0 0 0 1608.7687465297931 569.95728329602025 0 569.95728329602025 -38.646027169662375 0 0 0 0 1147.8539467652008 265.04997784918396 0 265.04997784918396 183.36689751386803 0 0 0 0 1043.194257295545 611.26102755412649 0 611.26102755412649 463.40833635238778 0 0 0 0 3.5428491334712646 0.88397431981627506 0 0.88397431981627506 -9.3175501694458518 0 0 0 0 2098.0026846256224 1051.0715576857565 0 1051.0715576857565 -3.4603025385658839 0 0 0 0 1627.748456863279 176.75801940667225 0 176.75801940667225 -510.91027072381985 0 0 0 0 544.88583246302733 286.00210351770284 0 286.00210351770284 -112.63963800436977 0 0 0 0 588.92231902891945 424.66008348628839 0 424.66008348628839 288.04841598066923 0 0 0 0 537.92504126857966 343.88312773565849 0 343.88312773565849 -74.406581983013893 0 0 0 0 313.2042600303248 333.0829389373539 0 333.0829389373539 226.37025648661802 0 0 0 0 322.07072792957183 71.271580259967891 0 71.271580259967891 6.2822322193133004 0 0 0 0 1021.0329078973373 320.73233624357351 0 320.73233624357351 53.826731644447136 0 0 0 0 -714.5765035553959 -1717.2823088719342 0 -1717.2823088719342 -401.61772512580501 0 0 0 0 -178.71230953851955 -1392.3064328175878 0 -1392.3064328175878 -412.18974739270197 0 0 0 0 -1893.316321200422 -2814.2133537368645 0 -2814.2133537368645 -1453.5514327204364 0 0 0 0 -160.29985542760733 -1345.5291097426889 0 -1345.5291097426889 -918.723706483157 0 0 0 0 -307.28526900662109 -337.14880944918332 0 -337.14880944918332 291.70391217767974 0 0 0 0 -264.45214991024477 -1085.9176468358019 0 -1085.9176468358019 -422.81709918769047 0 0 0 0 -1229.0565809905384 -530.82040501706433 0 -530.82040501706433 130.34861284858198 0 0 0 0 -828.49291334641021 -998.57359336565423 0 -998.57359336565423 411.17193574648263 0 0 0 0 -601.01475138053502 -1358.9342693375329 0 -1358.9342693375329 346.30205749366723 0 0 0 0 974.81333549518604 -938.89214848646952 0 -938.89214848646952 241.37323300435673 0 0 0 0 -1118.1223423225092 -528.11726363982234 0 -528.11726363982234 264.21553845753806 0 0 0 0 12.793143541322095 -51.805747826748004 0 -51.805747826748004 -72.121521129912679 0 0 0 0 167.90155373402376 -139.92356739633033 0 -139.92356739633033 -433.67964290335294 0 0 0 0 685.14577737433501 -111.00884750322075 0 -111.00884750322075 -174.86558533298103 0 0 0 0 147.98516956992171 -84.294960815394006 0 -84.294960815394006 -521.88839007786373 0 0 0 0 -23.856426230207823 -16.141209062734671 0 -16.141209062734671 -12.543539215924682 0 0 0 0 165.43245596750057 0.59949985356979596 0 0.59949985356979596 -2618.4388349048531 0 0 0 0 -2237.5315956813647 -888.14690817326482 0 -888.14690817326482 150.87874658293731 0 0 0 0 -6.0878414360764594 0.55014871010980926 0 0.55014871010980926 -0.23284992785364489 0 0 0 0 -3738.1274664133234 -600.47870874182627 0 -600.47870874182627 -494.04099808607134 0 0 0 0 -219.31682679244841 105.74396035376776 0 105.74396035376776 162.29786225614225 0 0 0 0 -19.564676768597565 -1583.3254161001969 0 -1583.3254161001969 -979.02581778734702 0 0 0 0 402.29000865497801 -164.85636357390922 0 -164.85636357390922 -1077.7836262233686 0 0 0 0 -86.296123462767298 -82.447822384806699 0 -82.447822384806699 -19.107050265118673 0 0 0 0 406.85085338904901 -1229.8938792089029 0 -1229.8938792089029 -695.40547777442771 0 0 0 0 -1066.9727910618385 -1230.040880739667 0 -1230.040880739667 -172.52774607552419 0 0 0 0 65.857111912708206 -359.56297380954857 0 -359.56297380954857 495.50804179991974 0 0 0 0 -127.21226085865055 -345.71743076870553 0 -345.71743076870553 555.20384826050213 0 0 0 0 -210.7804141962697 521.4627849226963 0 521.4627849226963 696.45076992205577 0 0 0 0 2.2573783196831698 -10.701938944623421 0 -10.701938944623421 0.92087529121739919 0 0 0 0 215.53601620448171 93.780616982621723 0 93.780616982621723 368.45207297690285 0 0 0 0 -1037.9405561362978 23.702864069254474 0 23.702864069254474 649.65945900432416 0 0 0 0 34.508111462484521 -184.51935340980799 0 -184.51935340980799 52.934857349177037 0 0 0 0 87.102290695758711 -365.32058986714765 0 -365.32058986714765 423.73138613227638 0 0 0 0 -54.162829419903574 -94.313566664997779 0 -94.313566664997779 217.63157719973242 0 0 0 0 -242.96236371515261 -127.20795780860499 0 -127.20795780860499 1256.214735336489 0 0 0 0 231.83785417824402 -685.72482995298196 0 -685.72482995298196 1055.1688459890956 0 0 0 0 -93.429014060660847 682.93235839960107 0 682.93235839960107 964.85036622841471 0 0 0 0 1696.3086865365403 169.09158200067031 0 169.09158200067031 -1036.1517284199053 0 0 0 0 852.65757978253532 -1440.6309479606389 0 -1440.6309479606389 -2691.5190183760678 0 0 0 0 -35.854501905443612 144.15876164272777 0 144.15876164272777 -29.851352387593579 0 0 0 0 -7.0495591224720044 4.6034965778333969 0 4.6034965778333969 -0.0067358951833034197 0 0 0 0 164.36410955471001 215.34518950168058 0 215.34518950168058 302.76976047116841 0 0 0 0 -25.385606340008962 541.40297985883444 0 541.40297985883444 318.56282934916817 0 0 0 0 -269.17761882094419 -102.25415636987964 0 -102.25415636987964 273.93566480322625 0 0 0 0 -214.27365434205421 -41.892818831140175 0 -41.892818831140175 320.22872332087354 0 0 0 0 -222.54843533532403 -124.98441558865306 0 -124.98441558865306 567.26944740473664 0 0 0 0 -51.871916670381324 -183.23168635672846 0 -183.23168635672846 304.37674595745193 0 0 0 0 -238.24157582422777 -65.859308052366032 0 -65.859308052366032 439.53751188921888 0 0 0 0 -108.83853147603259 -40.091590658469613 0 -40.091590658469613 152.16185579751618 0 0 0 0 -111.68596615666502 -35.030985987967597 0 -35.030985987967597 203.52496803209215 0 0 0 0 -39.463442766733351 -97.371494990638894 0 -97.371494990638894 61.922920546578098 0 0 0 0 -29.63055821157468 50.406556409234327 0 50.406556409234327 -54.120632949453466 0 0 0 0 -15.369025756707032 -2.929179027143971 0 -2.929179027143971 -0.86091419968646221 0 0 0 0 583.79882733405975 362.91287018032563 0 362.91287018032563 -62.349845688811911 0 0 0 0 91.010925147500529 -214.55485409431003 0 -214.55485409431003 -155.20824810902195 0 0 0 0 160.6821256991243 58.022228465119042 0 58.022228465119042 -12.05494309032224 0 0 0 0 -839.21180317468315 -307.08377675598149 0 -307.08377675598149 579.46038142398174 0 0 0 0 4.6029541323487422 -0.14200687101560305 0 -0.14200687101560305 -2.0495795273486062 0 0 0 0 680.9537516910641 -249.06172013664036 0 -249.06172013664036 -139.83029449843627 0 0 0 0 -33.969614281816092 -14.818942690021331 0 -14.818942690021331 -0.24145442437277609 0 0 0 0 15.803307477726776 25.155075932339969 0 25.155075932339969 -65.245949064352317 0 0 0 0 -85.317678847575735 -0.14773507448717282 0 -0.14773507448717282 68.306972132937517 0 0 0 0 67.539998938678764 -145.03919898140157 0 -145.03919898140157 104.59855881502881 0 0 0 0 479.43197997985408 122.45494920193596 0 122.45494920193596 -127.19354108437619 0 0 0 0 17.722780543081171 -37.59768215639815 0 -37.59768215639815 -61.120836959711596 0 0 0 0 -387.99957800142874 -245.93505129167352 0 -245.93505129167352 7.3643517710152082 0 0 0 0 -417.37288523416646 -192.09098090835687 0 -192.09098090835687 -6.5855001698073465 0 0 0 0 -483.88436533113418 -209.05718294697726 0 -209.05718294697726 43.668865816154721 0 0 0 0 -300.613892066478 -81.928286727594241 0 -81.928286727594241 127.89389085830044 0 0 0 0 252.86648750757013 -184.12731141101722 0 -184.12731141101722 -44.897858607073431 0 0 0 0 -37.798804536823411 -52.179215443385445 0 -52.179215443385445 -6.5686100034855528 0 0 0 0 8.0723872836533701 -52.637699302071269 0 -52.637699302071269 15.618873533549049 0 0 0 0 -26.41667906574952 -49.514846544024046 0 -49.514846544024046 1.1977364458362558 0 0 0 0 -24.152640628734758 -44.217967191481108 0 -44.217967191481108 19.115828426970197 0 0 0 0 -519.55965275035123 -145.85716521010909 0 -145.85716521010909 14.148011071431029 0 0 0 0 17.272786963132702 -10.494705637881957 0 -10.494705637881957 3.9141429443983995 0 0 0 0 231.33552349453385 -5.1130648687758367 0 -5.1130648687758367 3.5575013854504505 0 0 0 0 66.606263499874331 -76.76327891524852 0 -76.76327891524852 -59.900852329676127 0 0 0 0 54.754422597659868 -60.524405502230366 0 -60.524405502230366 -27.910067020069619 0 0 0 0 -50.57449980649244 -412.26877700831255 0 -412.26877700831255 144.18520384627482 0 0 0 0 -5.9114914122305322 -40.096762216291879 0 -40.096762216291879 9.7571688813563391 0 0 0 0 83.143855008728622 -62.015804618863498 0 -62.015804618863498 13.529653965433369 0 0 0 0 45.51757713072584 -75.836559804483841 0 -75.836559804483841 -12.944762175367941 0 0 0 0 27.940646037968691 -14.990024993003317 0 -14.990024993003317 -37.531217747568689 0 0 0 0 0.90851664373448671 -16.602721401427956 0 -16.602721401427956 -5.5331499741119119 0 0 0 0 -189.70176091487519 144.68681943145202 0 144.68681943145202 394.73972909611621 0 0 0 0 -101.07712500344496 147.49651907825319 0 147.49651907825319 201.44783406378156 0 0 0 0 0.57587709073811677 -3.7758255546384163 0 -3.7758255546384163 1.5009657163580385 0 0 0 0 323.45209997454367 109.84605036044741 0 109.84605036044741 154.58715706029034 0 0 0 0 -148.88786031805648 459.7222943785132 0 459.7222943785132 23.531484084291151 0 0 0 0 -209.37982462701621 -153.21649403907213 0 -153.21649403907213 -136.54763352603186 0 0 0 0 8.5392456534641994 -8.3630961829323667 0 -8.3630961829323667 -11.15527460676384 0 0 0 0 23.695413922432635 -35.056247907633406 0 -35.056247907633406 6.8663546353654965 0 0 0 0 4.3726492548012175 -35.683591756191163 0 -35.683591756191163 42.290403727392913 0 0 0 0 34.834270840465479 -23.116897691702565 0 -23.116897691702565 -29.739096088495188 0 0 0 0 84.62842969466692 -38.079638736962494 0 -38.079638736962494 -39.296645804977516 0 0 0 0 7.7828894410849898 -4.1463105643451854 0 -4.1463105643451854 16.561918561295897 0 0 0 0 69.984730038373527 -76.349252502177507 0 -76.349252502177507 11.280266953659975 0 0 0 0 43.174474505722173 -67.574193075113726 0 -67.574193075113726 10.638860860319255 0 0 0 0 46.639832350354936 -31.294411284403083 0 -31.294411284403083 -16.26008062165193 0 0 0 0 64.92680176912836 -65.957551960972523 0 -65.957551960972523 -9.3942776583594423 0 0 0 0 116.18819676130806 -86.684582705433513 0 -86.684582705433513 -6.1344963084615074 0 0 0 0 105.83176247482697 -57.308846270383583 0 -57.308846270383583 -22.984981332821462 0 0 0 0 31.665023808131082 -1.7169509387795188 0 -1.7169509387795188 -20.9222516930231 0 0 0 0 24.392085928770726 -1.9299188500489857 0 -1.9299188500489857 -9.2733341899551736 0 0 0 0 8.6613057924554475 0.92653020033590394 0 0.92653020033590394 -31.576822111374458 0 0 0 0 99.037824649010872 -120.02828485188729 0 -120.02828485188729 -97.321235853538383 0 0 0 0 280.71032276151527 -56.998589201389223 0 -56.998589201389223 -99.280176409814885 0 0 0 0 11.584231626144174 -11.274141248537035 0 -11.274141248537035 -14.323882986995159 0 0 0 0 136.38641226146865 -59.172108511409533 0 -59.172108511409533 1.5095057007965806 0 0 0 0 1883.0354253283731 -662.41535188519265 0 -662.41535188519265 -410.15794342858135 0 0 0 0 -52.119370899512433 260.52107914567023 0 260.52107914567023 -1235.5919055602717 0 0 0 0 -354.81964315025834 -227.04299289134542 0 -227.04299289134542 -782.9005796827114 0 0 0 0 -5.5976749759449262 -2.3625978831285863 0 -2.3625978831285863 -0.20192795920251783 0 0 0 0 -404.73261368631211 -63.365521329484181 0 -63.365521329484181 883.24299681567209 0 0 0 0 841.94145168247633 -201.13759988810489 0 -201.13759988810489 -1911.0253972149148 0 0 0 0 658.85930400824873 -731.14272919597715 0 -731.14272919597715 -1211.3604335507771 0 0 0 0 700.82607944760821 412.70163857000625 0 412.70163857000625 -503.89947738833143 0 0 0 0 384.37369471782586 -52.569901196238789 0 -52.569901196238789 -169.69950423810224 0 0 0 0 535.02567327866564 350.02364993884657 0 350.02364993884657 -80.222144664629013 0 0 0 0 780.13303870696109 140.45250903226952 0 140.45250903226952 -685.73547694498848 0 0 0 0 -106.53701871261001 -162.39504371622024 0 -162.39504371622024 -657.66448657816363 0 0 0 0 547.07774421526119 -139.32796268459424 0 -139.32796268459424 -1100.3588001609023 0 0 0 0 -201.30616659956286 -405.77407169929938 0 -405.77407169929938 -636.7365780237451 0 0 0 0 -32.489827614335809 -447.42733346235764 0 -447.42733346235764 -700.9186012725695 0 0 0 0 164.20661801873939 -265.45105968225471 0 -265.45105968225471 -810.81091192315944 0 0 0 0 375.94493610314385 -420.52759690955645 0 -420.52759690955645 -783.74383898518136 0 0 0 0 326.2964770286053 -610.48690211241046 0 -610.48690211241046 -1805.8723917782481 0 0 0 0 -212.78904003110438 -308.45831835006948 0 -308.45831835006948 -711.78525373940647 0 0 0 0 -112.05052557471208 -322.95359730186465 0 -322.95359730186465 -710.91521207218466 0 0 0 0 178.51508815186389 -233.42662345857752 0 -233.42662345857752 108.30927902688927 0 0 0 0 -145.39306431787554 -364.98683810011789 0 -364.98683810011789 -755.63766104227398 0 0 0 0 129.98106490386999 -120.15805373358126 0 -120.15805373358126 53.40757523188222 0 0 0 0 13.347222254778899 -7.9148108573851914 0 -7.9148108573851914 -8.5920253030515994 0 0 0 0 -16.804612003310751 -21.005227180066157 0 -21.005227180066157 10.067813562132454 0 0 0 0 -84.362564701761585 -356.44085339941375 0 -356.44085339941375 -764.18794101159074 0 0 0 0 94.581121185066877 -67.737284295946665 0 -67.737284295946665 86.93344351809742 0 0 0 0 -105.24693646117521 -2.2591251051217114 0 -2.2591251051217114 54.407394038316852 0 0 0 0 61.286267943040002 -92.481592509047914 0 -92.481592509047914 29.710729084632476 0 0 0 0 31.500592330438053 -33.987765189273894 0 -33.987765189273894 7.8273377335755541 0 0 0 0 96.391719403291063 -54.31660689320961 0 -54.31660689320961 21.820749967220763 0 0 0 0 399.15418411028804 -67.841249311462889 0 -67.841249311462889 -47.718239628430183 0 0 0 0 392.52636286205961 -116.67751388120087 0 -116.67751388120087 -324.16251775476849 0 0 0 0 82.276625466342381 -45.005225954403329 0 -45.005225954403329 9.2212860231506077 0 0 0 0 -58.543131715443451 -311.8968084340122 0 -311.8968084340122 -405.43372101849673 0 0 0 0 -40.854237921863387 -104.1020096036882 0 -104.1020096036882 -648.6067792102549 0 0 0 0 -712.63355977807078 -907.9512613340994 0 -907.9512613340994 -990.12831127805111 0 0 0 0 -3.5765726264799014 -1237.2718439446035 0 -1237.2718439446035 -1910.3299030128837 0 0 0 0 -369.0777503123245 -222.52891605773311 0 -222.52891605773311 -503.65682025832211 0 0 0 0 -223.87499174183904 71.426172773864891 0 71.426172773864891 -196.94354104292142 0 0 0 0 16.942964293673867 -276.24854221301939 0 -276.24854221301939 -524.68937359948904 0 0 0 0 204.05306576748262 -127.24727980339958 0 -127.24727980339958 -95.076749576312068 0 0 0 0 237.69855275512964 -58.298240460677334 0 -58.298240460677334 -178.10561316039275 0 0 0 0 -11.532109391697304 -206.86809110994454 0 -206.86809110994454 -101.60219941278046 0 0 0 0 -32.759756755505805 -161.61944957439482 0 -161.61944957439482 -61.907226020741291 0 0 0 0 66.347224058152477 -30.401444967158241 0 -30.401444967158241 -2.801306410329981 0 0 0 0 49.501267958054086 -35.48355882434771 0 -35.48355882434771 -11.119570962750004 0 0 0 0 54.936258366593393 -42.91394308991039 0 -42.91394308991039 6.5235320293468249 0 0 0 0 49.452738532973399 -20.255611024577277 0 -20.255611024577277 -13.736530137921513 0 0 0 0 72.380465649279358 -77.181848100060961 0 -77.181848100060961 11.569604421501424 0 0 0 0 73.525871423485569 -60.364228927033331 0 -60.364228927033331 19.227803623130882 0 0 0 0 62.432119211920508 -81.713162311066526 0 -81.713162311066526 12.766758508575094 0 0 0 0 41.760681541098165 -77.921056938787842 0 -77.921056938787842 12.217947308812654 0 0 0 0 39.284468457306502 -63.871903414574547 0 -63.871903414574547 18.927094564638367 0 0 0 0 45.752364649111769 -55.526154230983423 0 -55.526154230983423 19.427527583650317 0 0 0 0 54.656336286466228 -44.129764937967295 0 -44.129764937967295 29.566486703339976 0 0 0 0 79.513946691848105 -63.670499942432798 0 -63.670499942432798 -13.049895314001333 0 0 0 0 60.440900848419886 -50.34779834551783 0 -50.34779834551783 28.984984525955955 0 0 0 0 35.2585624113417 -95.862346132853418 0 -95.862346132853418 31.71226497740281 0 0 0 0 37.886010811965207 -50.928469656571565 0 -50.928469656571565 23.883641801163321 0 0 0 0 95.287101988142467 -42.547616127782163 0 -42.547616127782163 3.4061594548838912 0 0 0 0 74.337319006182952 -53.475870099994609 0 -53.475870099994609 34.814251407711708 0 0 0 0 57.250456878635134 -63.846865404439868 0 -63.846865404439868 42.165084949363312 0 0 0 0 144.05787292599962 -114.69734265222631 0 -114.69734265222631 131.28869267995924 0 0 0 0 81.399051363533147 -12.185737089574957 0 -12.185737089574957 -29.726017142239293 0 0 0 0 120.84467323990248 4.7338572077260324 0 4.7338572077260324 -65.363083166048455 0 0 0 0 236.37940493966744 -370.46706751434522 0 -370.46706751434522 188.86842211953808 0 0 0 0 75.529618528218464 -93.934754857038484 0 -93.934754857038484 49.729354736656177 0 0 0 0 147.08040491720658 -157.04244349663105 0 -157.04244349663105 67.280916732694095 0 0 0 0 109.75732255465118 177.76734844335806 0 177.76734844335806 -244.59268799046367 0 0 0 0 34.770304936782736 -24.833191017506664 0 -24.833191017506664 2.9195082833432195 0 0 0 0 -248.86444416141603 471.23732153181118 0 471.23732153181118 315.4920324877894 0 0 0 0 1508.3107741022022 -1221.8695848810787 0 -1221.8695848810787 89.259009327368403 0 0 0 0 -206.06015152501641 322.36746803681672 0 322.36746803681672 -56.045926134640467 0 0 0 0 -1.9792328254332006 -1.6553223280929501 0 -1.6553223280929501 6.2545597553735348 0 0 0 0 1503.2126566837251 -178.2929085405558 0 -178.2929085405558 -650.61365101597039 0 0 0 0 -277.10673971278857 -711.82782914171628 0 -711.82782914171628 1392.1994717699563 0 0 0 0 -40.531795646529645 -59.29843374259508 0 -59.29843374259508 -29.600672243588633 0 0 0 0 67.420320782475812 -63.773409730795876 0 -63.773409730795876 1.3200396173763203 0 0 0 0 104.95055370854243 -67.854803672522394 0 -67.854803672522394 45.035518563800906 0 0 0 0 12.395288632495067 -115.82137867893289 0 -115.82137867893289 24.936835050741138 0 0 0 0 1.599966195234515 -0.068946431001947417 0 -0.068946431001947417 -0.33266818214048044 0 0 0 0 40.678454644577869 -44.922673462241391 0 -44.922673462241391 34.439992779822205 0 0 0 0 230.33639021754061 -129.8566408164138 0 -129.8566408164138 -20.647677482232211 0 0 0 0 277.46241370250937 -200.29716573016026 0 -200.29716573016026 35.167940143926899 0 0 0 0 255.37004507611709 -90.016690377026407 0 -90.016690377026407 23.397941841033571 0 0 0 0 153.2400252997395 -73.393456490997778 0 -73.393456490997778 12.321507465845571 0 0 0 0 161.02377874576086 -115.91760245219149 0 -115.91760245219149 127.10487963381274 0 0 0 0 0.54598115101913436 1.3763033371261528 0 1.3763033371261528 -4.1619602470265846 0 0 0 0 215.39964666126616 -67.248062325797946 0 -67.248062325797946 35.722492848789443 0 0 0 0 2.8775119928468484 -51.103123974609389 0 -51.103123974609389 22.483213921621427 0 0 0 0 10.677863387701407 -6.3552144875481389 0 -6.3552144875481389 -2.7765931655121019 0 0 0 0 23.717141028577316 -85.688895962073275 0 -85.688895962073275 22.284978362224138 0 0 0 0 -228.84618574408159 -13.446422166906814 0 -13.446422166906814 101.690909963987 0 0 0 0 32.351233034689358 -75.818319816047278 0 -75.818319816047278 10.639253455824473 0 0 0 0 12.912942377326544 -185.87023774199679 0 -185.87023774199679 35.705226493306327 0 0 0 0 -54.530935762442823 -45.60641047239551 0 -45.60641047239551 159.19917987434383 0 0 0 0 63.901626437346323 -6.7724452757591287 0 -6.7724452757591287 -2.8106665759282334 0 0 0 0 126.56448943657597 -107.59360889693107 0 -107.59360889693107 77.468155301685329 0 0 0 0 37.913530085042041 5.2278198644907157 0 5.2278198644907157 -13.866497556823205 0 0 0 0 266.66322994022266 -187.59699183183693 0 -187.59699183183693 68.731292542301162 0 0 0 0 106.25356321688014 -102.31824586593029 0 -102.31824586593029 67.370857210064059 0 0 0 0 33.393524502995746 -16.29577208192196 0 -16.29577208192196 -3.8503009148075105 0 0 0 0 30.094622995180544 -36.644624389176897 0 -36.644624389176897 -30.610249919074704 0 0 0 0 36.546834233071422 -31.641928469799495 0 -31.641928469799495 -46.222330382524888 0 0 0 0 43.32447369851414 -6.2937716019275385 0 -6.2937716019275385 -16.171113542761141 0 0 0 0 143.51412083618197 -53.912575968535293 0 -53.912575968535293 6.1022106405362138 0 0 0 0 11.588348214079737 -0.30511065334014376 0 -0.30511065334014376 -3.148903066738157 0 0 0 0 32.626480277860537 -3.4618886307835055 0 -3.4618886307835055 5.8747067521399003 0 0 0 0 80.490139182635176 -29.802241671383854 0 -29.802241671383854 -55.876745327290337 0 0 0 0 40.60273442268408 -27.316201648165134 0 -27.316201648165134 -16.032982339416776 0 0 0 0 25.160413366058492 -11.980783883122967 0 -11.980783883122967 7.7397152799603646 0 0 0 0 39.787423951704113 -7.3898551050565402 0 -7.3898551050565402 -39.8029359323682 0 0 0 0 41.763995277963915 -23.975652655178738 0 -23.975652655178738 -4.5985566080625881 0 0 0 0 32.301409798173481 -6.0355356619437295 0 -6.0355356619437295 -17.131195972794387 0 0 0 0 89.046698267858119 -6.3439956992308453 0 -6.3439956992308453 -3.7324392510599864 0 0 0 0 30.727462408955034 -38.24789116926604 0 -38.24789116926604 15.590663269699689 0 0 0 0 23.034659643071791 3.5007335419722949 0 3.5007335419722949 -17.142172241109165 0 0 0 0 33.29470947215998 -0.82669489181256495 0 -0.82669489181256495 -22.093683902248813 0 0 0 0 27.995598114102904 2.9340634466379925 0 2.9340634466379925 -17.442555309874024 0 0 0 0 2.4674910837502058 7.257767668144794 0 7.257767668144794 -18.59828572971205 0 0 0 0 94.0145458859879 -59.833789178247116 0 -59.833789178247116 -20.748551451118601 0 0 0 0 235.20858603213856 -73.651410789702823 0 -73.651410789702823 -21.874354772896822 0 0 0 0 19.69876077913068 -88.013629467121973 0 -88.013629467121973 27.686644321447716 0 0 0 0 66.69927293931687 -112.17556117717481 0 -112.17556117717481 30.062879800114388 0 0 0 0 74.622970779693787 -152.95776933624347 0 -152.95776933624347 44.102058776637932 0 0 0 0 231.94279128613562 -130.18817554509587 0 -130.18817554509587 20.819867320072717 0 0 0 0 210.53524507989982 -58.461454823454332 0 -58.461454823454332 -9.5705361268155684 0 0 0 0 399.00577240178245 -14.324506982058665 0 -14.324506982058665 -1.2047423001140487 0 0 0 0 399.00577240177518 -14.324506982045932 0 -14.324506982045932 -1.2047423001076822 0 0 0 0 399.00577240178245 -14.324506982055027 0 -14.324506982055027 -1.2047423001131392 0 0 0 0 185.2199561016605 -112.762568736096 0 -112.762568736096 326.32690091002587 0 0 0 0 246.38144909141556 -170.40397255957259 0 -170.40397255957259 125.20999691214456 0 0 0 0 422.73887076191568 -302.47019950377171 0 -302.47019950377171 317.65059988454232 0 0 0 0 609.61323604764766 -177.72360637308248 0 -177.72360637308248 46.307326610221935 0 0 0 0 388.07783902902338 -162.00554235386585 0 -162.00554235386585 92.62915066775895 0 0 0 0 186.45093038020786 -123.23425822335139 0 -123.23425822335139 129.5551323457039 0 0 0 0 50.43822227394412 -90.208539292843852 0 -90.208539292843852 196.04011782006637 0 0 0 0 22.712697125505656 7.6953957381920191 0 7.6953957381920191 148.13584467367946 0 0 0 0 38.064686787509345 -43.500029409584386 0 -43.500029409584386 281.44366448558139 0 0 0 0 190.15398186451057 -30.170578541292343 0 -30.170578541292343 237.88534418343079 0 0 0 0 39.770451220440975 -7.0817883119943943 0 -7.0817883119943943 0.78582423920633404 0 0 0 0 222.45032183860167 29.334953617784777 0 29.334953617784777 426.77246964235019 0 0 0 0 212.84855382239402 -160.86441104925143 0 -160.86441104925143 545.76467842880811 0 0 0 0 251.13946935461354 -163.70579546252702 0 -163.70579546252702 321.5663355024044 0 0 0 0 285.2374815817675 10.140332096641941 0 10.140332096641941 254.97275865083793 0 0 0 0 13.75229740697533 -3.5853247663924392 0 -3.5853247663924392 0.8015496377615059 0 0 0 0 -322.8549034898424 -344.74522982384406 0 -344.74522982384406 1139.0563428046426 0 0 0 0 -49.509843303188973 -313.16366721370287 0 -313.16366721370287 582.96275940509406 0 0 0 0 256.26423805282684 -185.95039563900173 0 -185.95039563900173 589.5270875460883 0 0 0 0 22.185329636819432 3.7289843542910432 0 3.7289843542910432 -8.6037362287311829 0 0 0 0 2.137105903525927 1.4837030419914825 0 1.4837030419914825 3.0441208348250512 0 0 0 0 54.615190182648803 26.702330849549526 0 26.702330849549526 -227.89671190677836 0 0 0 0 -82.060802343836485 -37.591630248655804 0 -37.591630248655804 51.515816130606254 0 0 0 0 63.792105067848752 -313.97135697036174 0 -313.97135697036174 -234.4542629390653 0 0 0 0 -187.95808593218317 -745.95000151591466 0 -745.95000151591466 647.93702375402245 0 0 0 0 702.93722511414035 738.5118336113635 0 738.5118336113635 174.96996245963055 0 0 0 0 29.860826896460082 14.050167837339412 0 14.050167837339412 0.076163958246677765 0 0 0 0 29.720343093951669 40.776963994600919 0 40.776963994600919 9.2066373898587699 0 0 0 0 54.444559350295094 -2.750373152766997 0 -2.750373152766997 0.8889627635544457 0 0 0 0 161.55870940679597 9.234412125630115 0 9.234412125630115 -26.794339611025862 0 0 0 0 42.294068148396036 28.697640700621491 0 28.697640700621491 86.883009492912606 0 0 0 0 31.128271035049693 -11.706114120688653 0 -11.706114120688653 9.6545751531205752 0 0 0 0 23.129031046755813 -0.80815962848610923 0 -0.80815962848610923 -1.5984508921865199 0 0 0 0 -42.042490600731981 13.500197170596948 0 13.500197170596948 157.16231748844257 0 0 0 0 53.158201138528597 9.2434599531473793 0 9.2434599531473793 0.27109922110531492 0 0 0 0 60.26615327774789 23.919430686202645 0 23.919430686202645 -113.29030165745826 0 0 0 0 33.603937446488771 4.9684545368164947 0 4.9684545368164947 -43.386627488616796 0 0 0 0 52.25931617637616 -20.812006127302993 0 -20.812006127302993 -20.984747183657419 0 0 0 0 86.790735446818871 59.585651203349698 0 59.585651203349698 -12.367761917612825 0 0 0 0 80.127319543185877 50.220342030714164 0 50.220342030714164 -2.600585307680376 0 0 0 0 38.49965871450695 14.152115843437059 0 14.152115843437059 -18.091769989910972 0 0 0 0 144.61008532562118 40.760674825021852 0 40.760674825021852 -19.253474657200059 0 0 0 0 104.12920383502205 -89.510287777709891 0 -89.510287777709891 2.8429518874045243 0 0 0 0 63.115623922355127 23.086154693090911 0 23.086154693090911 -3.3711597847643375 0 0 0 0 114.08305029178428 170.98832418402401 0 170.98832418402401 -103.26488153940227 0 0 0 0 -30.342526380260097 51.378173012197749 0 51.378173012197749 34.340829549723821 0 0 0 0 -4.6616642742713594 5.7999284240872058 0 5.7999284240872058 -1.5452955121474474 0 0 0 0 194.57960672562331 53.653173622195936 0 53.653173622195936 20.087091182856057 0 0 0 0 224.13034747243364 -42.761921856124445 0 -42.761921856124445 -4.0088560481763125 0 0 0 0 165.6670976842579 -11.796272929650513 0 -11.796272929650513 -24.412598212024022 0 0 0 0 105.48312234358309 -1.8876675681958659 0 -1.8876675681958659 -1.3155370820422831 0 0 0 0 7.0606778848937779 3.159766756870745 0 3.159766756870745 -6.7440479455096565 0 0 0 0 144.03284649620036 -16.418882669717277 0 -16.418882669717277 -8.7927377199757757 0 0 0 0 75.639653420355899 -99.093318969009943 0 -99.093318969009943 62.275516607856844 0 0 0 0 64.796851156297635 46.540697226386328 0 46.540697226386328 0.10018531699279265 0 0 0 0 106.88085943467013 36.542837811170102 0 36.542837811170102 -23.184905302647167 0 0 0 0 57.389586516957706 23.532794503341051 0 23.532794503341051 -15.744496556574447 0 0 0 0 40.228416951384133 -49.393971180671542 0 -49.393971180671542 15.44938164476298 0 0 0 0 61.365232528995065 -30.197483895774653 0 -30.197483895774653 14.451777061117603 0 0 0 0 127.08175613921776 4.9285702367778867 0 4.9285702367778867 -263.0348906403724 0 0 0 0 139.41120055817009 102.52496145666373 0 102.52496145666373 -173.39688450496396 0 0 0 0 3.4936767439113225 46.838491979605834 0 46.838491979605834 -23.809667794520081 0 0 0 0 103.44814340991434 90.699577961754585 0 90.699577961754585 -91.204728207527296 0 0 0 0 291.88976615379215 42.596390626771608 0 42.596390626771608 -65.51756567754046 0 0 0 0 188.86754507401201 -25.352958936556206 0 -25.352958936556206 -15.535498213579558 0 0 0 0 132.18338922654948 5.0078025147522567 0 5.0078025147522567 -3.6315040513259191 0 0 0 0 38.16054502732004 -45.065621728184396 0 -45.065621728184396 54.118266582852812 0 0 0 0 44.484916513680432 -26.556411997484517 0 -26.556411997484517 14.731771641188402 0 0 0 0 153.19136512509431 -467.22703979455582 0 -467.22703979455582 -297.60198798868623 0 0 0 0 115.80038773577689 -36.232148368429989 0 -36.232148368429989 -14.88295374849622 0 0 0 0 124.38890688711399 75.925517967451924 0 75.925517967451924 59.14679835870993 0 0 0 0 -82.567257110684295 -341.92920398135175 0 -341.92920398135175 -144.31361503499284 0 0 0 0 29.754895817566023 -17.237659939217167 0 -17.237659939217167 9.7418761239383969 0 0 0 0 409.15378195679659 -507.27852987331426 0 -507.27852987331426 410.18577933987399 0 0 0 0 -73.432426127832514 -1.8494523011820263 0 -1.8494523011820263 -110.45065068866825 0 0 0 0 4.6861324752317159 159.89372680228553 0 159.89372680228553 358.50032300250615 0 0 0 0 121.57125041403924 177.13184535582332 0 177.13184535582332 117.04409452661639 0 0 0 0 72.055315378209343 323.10270862082871 0 323.10270862082871 -315.79524206515816 0 0 0 0 -7.854778327672733 9.1436632758775893 0 9.1436632758775893 -1.0364477663490597 0 0 0 0 60.651527684254688 234.80830348081508 0 234.80830348081508 548.70889899070244 0 0 0 0 116.59358867444917 112.45403097293024 0 112.45403097293024 -177.23521566102499 0 0 0 0 615.78855353057588 323.77140779488491 0 323.77140779488491 -118.69858906973877 0 0 0 0 687.78925235617498 -689.26704052436253 0 -689.26704052436253 714.26581175131287 0 0 0 0 -582.18197827486438 165.32622554284899 0 165.32622554284899 288.73477891893526 0 0 0 0 258.08454039868593 241.34548978810017 0 241.34548978810017 -336.34747332207553 0 0 0 0 11.034846845980056 5.6405630724722755 0 5.6405630724722755 -14.797219565510694 0 0 0 0 -510.56550772428818 354.46361483302007 0 354.46361483302007 624.3708595527969 0 0 0 0 76.747333826608156 36.409916688459816 0 36.409916688459816 94.068375618386199 0 0 0 0 0.33084380087204579 -0.96658282690299302 0 -0.96658282690299302 -4.3408273392056174 0 0 0 0 2561.548869149643 -726.46056949642661 0 -726.46056949642661 288.89566266760448 0 0 0 0 1085.3316508294956 -450.43161879834406 0 -450.43161879834406 -14.224119319062083 0 0 0 0 19.610621586680523 5.3932784926117563 0 5.3932784926117563 4.5625376403983964 0 0 0 0 1084.4224758509822 -521.19692913374251 0 -521.19692913374251 840.68895433327998 0 0 0 0 198.50941426327336 63.735318326892866 0 63.735318326892866 39.179744071978348 0 0 0 0 1239.3163888922209 -830.4182431613026 0 -830.4182431613026 145.7049495008614 0 0 0 0 11.053667262303321 9.5090681338222112 0 9.5090681338222112 3.8014068609642706 0 0 0 0 795.16912371218496 -231.80166871822166 0 -231.80166871822166 -611.94186581083113 0 0 0 0 100.79065105735242 -1.5643994817287279 0 -1.5643994817287279 -16.452023103998009 0 0 0 0 -137.3285453434255 597.8536802275421 0 597.8536802275421 319.6757984690671 0 0 0 0 622.07387056904554 -767.75176377932894 0 -767.75176377932894 293.82669574063561 0 0 0 0 36.73124754889497 55.146177337012432 0 55.146177337012432 79.063336075587429 0 0 0 0 560.73311571646082 -56.19685487639299 0 -56.19685487639299 62.17960614374897 0 0 0 0 -5.6676984096411616 23.857480596130699 0 23.857480596130699 145.50723285666845 0 0 0 0 -29.004364966058347 -102.00812967337288 0 -102.00812967337288 276.95464965606334 0 0 0 0 -109.01022348011611 12.174890117923951 0 12.174890117923951 166.57827408893718 0 0 0 0 36.151484453228477 -75.499852136988011 0 -75.499852136988011 -33.971895160388158 0 0 0 0 -70.479883251169667 -241.24861862732467 0 -241.24861862732467 -110.39733810326925 0 0 0 0 -141.37283065455267 -407.21545686299601 0 -407.21545686299601 -70.14913436065558 0 0 0 0 123.03427826738638 -22.722908203002497 0 -22.722908203002497 -16.035452523421071 0 0 0 0 103.12768435564067 94.272620518736744 0 94.272620518736744 72.15821636418616 0 0 0 0 130.98531271176853 432.91153541767488 0 432.91153541767488 481.94226654203976 0 0 0 0 -352.68023373035612 -110.09258088494579 0 -110.09258088494579 775.02170557961517 0 0 0 0 751.47133450026013 148.77431709733213 0 148.77431709733213 19.992934330330399 0 0 0 0 58.128989350636402 86.050151437591978 0 86.050151437591978 104.70185583400689 0 0 0 0 0.32798972743898958 2.5213678377410815 0 2.5213678377410815 12.24822417969358 0 0 0 0 219.9188455745898 -349.54972256171982 0 -349.54972256171982 179.33710825182391 0 0 0 0 191.0742483112117 78.448174183686433 0 78.448174183686433 29.241829018216549 0 0 0 0 -373.63238350142274 98.376710020988412 0 98.376710020988412 216.25064097663108 0 0 0 0 26.859639563693833 48.088350335739491 0 48.088350335739491 77.23644877236616 0 0 0 0 333.77778473843318 -207.22228064901174 0 -207.22228064901174 195.20051011279793 0 0 0 0 424.94062929090069 -342.39460160395902 0 -342.39460160395902 237.94480994596597 0 0 0 0 240.52142613417527 -141.90208575906217 0 -141.90208575906217 407.1390705614167 0 0 0 0 260.83359942580864 -72.908407978840842 0 -72.908407978840842 134.13504136933682 0 0 0 0 51.326924028352551 -230.96101479430013 0 -230.96101479430013 18.625803895904028 0 0 0 0 206.01693171139777 -296.67696433285892 0 -296.67696433285892 159.56030262868126 0 0 0 0 135.15606918267622 -104.73261996411611 0 -104.73261996411611 151.410669683999 0 0 0 0 301.21379647006688 -211.91226565812758 0 -211.91226565812758 206.34109459126012 0 0 0 0 71.111785311964923 70.228012167539418 0 70.228012167539418 149.71853330005615 0 0 0 0 138.03163589078758 -127.68730465011686 0 -127.68730465011686 102.45005476329243 0 0 0 0 -46.252964103281556 90.586897210079769 0 90.586897210079769 328.85463965028248 0 0 0 0 -10.585536966107611 4.9631204327888554 0 4.9631204327888554 185.88374599270901 0 0 0 0 -85.692389947216725 80.82985479513809 0 80.82985479513809 122.4799118027322 0 0 0 0 -53.122213253931477 -46.138660331860819 0 -46.138660331860819 42.165438421754516 0 0 0 0 -58.912954821520543 55.002659213241714 0 55.002659213241714 84.421958664082808 0 0 0 0 72.733549644610321 95.61528786668714 0 95.61528786668714 -151.68056744824753 0 0 0 0 -84.376687259500613 -67.107266453651391 0 -67.107266453651391 -38.914535864244499 0 0 0 0 -5.7230235609193301 1.2322007804162016 0 1.2322007804162016 1.8491472126258444 0 0 0 0 -46.425958299740159 106.12600640450546 0 106.12600640450546 -182.0199947346191 0 0 0 0 45.475630465662107 -24.02918783768564 0 -24.02918783768564 25.565755972798797 0 0 0 0 -238.90220590131139 -98.998887370824377 0 -98.998887370824377 13.834464681354802 0 0 0 0 -25.104666286912106 -142.77482466055335 0 -142.77482466055335 158.17046418806694 0 0 0 0 37.356345445578469 3.6940269185089556 0 3.6940269185089556 -2.4122801928101012 0 0 0 0 48.51189795026221 60.91563339155573 0 60.91563339155573 65.636828959359264 0 0 0 0 -82.77992442931361 87.528253469911107 0 87.528253469911107 93.650459264441452 0 0 0 0 46.283811671470175 84.281390371580528 0 84.281390371580528 93.708075330545398 0 0 0 0 195.02587160417897 -134.49461296202207 0 -134.49461296202207 247.92706089336025 0 0 0 0 104.39978683871595 90.537800588726896 0 90.537800588726896 61.926120334712323 0 0 0 0 256.71096337486233 -8.3074081568520342 0 -8.3074081568520342 47.226017024129305 0 0 0 0 128.2340188296148 153.70635148045039 0 153.70635148045039 -21.32457595017695 0 0 0 0 2827.3062898828866 -841.86588163358658 0 -841.86588163358658 -186.19763431815366 0 0 0 0 1567.5216341276773 -878.15037177197212 0 -878.15037177197212 392.06128490911544 0 0 0 0 2821.6085231113975 -716.6212540469129 0 -716.6212540469129 -428.97509579384877 0 0 0 0 3499.4438160347636 -502.16451701053484 0 -502.16451701053484 -720.61599888410444 0 0 0 0 1951.4973924684091 -290.820636107783 0 -290.820636107783 -338.08207502126976 0 0 0 0 871.26478493715695 -179.35530310048077 0 -179.35530310048077 -22.770234273155786 0 0 0 0 1393.8231106676685 -370.64432062617516 0 -370.64432062617516 -69.071679412247107 0 0 0 0 1743.5655953239475 -705.23292485089542 0 -705.23292485089542 97.508158808161454 0 0 0 0 816.4822740147938 -1.7384101829904637 0 -1.7384101829904637 -64.700017383584452 0 0 0 0 7.5847523827360419 368.2922278323324 0 368.2922278323324 -151.01295354808053 0 0 0 0 61.497906485201554 34.737117645919099 0 34.737117645919099 1.7119958758624148 0 0 0 0 -172.55248544475762 192.44921995108598 0 192.44921995108598 -59.129067530391694 0 0 0 0 88.931362711096881 -100.28796012253088 0 -100.28796012253088 290.20789763852827 0 0 0 0 737.07009742429364 -122.03386572767386 0 -122.03386572767386 -37.065236037388672 0 0 0 0 336.94730574887944 203.14723536127485 0 203.14723536127485 -207.87396061413165 0 0 0 0 410.24869897290773 -47.208920694028137 0 -47.208920694028137 -210.48314786217719 0 0 0 0 54.910818216382324 36.468538995296285 0 36.468538995296285 -1.8511772506550757 0 0 0 0 23.281661727158308 -2.7003377927149899 0 -2.7003377927149899 -1.6337460883590251 0 0 0 0 89.3573170297459 9.7161256803633762 0 9.7161256803633762 7.1058784316066976 0 0 0 0 63.760442232480273 35.305177755033355 0 35.305177755033355 1.9747754302292151 0 0 0 0 65.495546650068718 26.108732978995533 0 26.108732978995533 -21.101134364174385 0 0 0 0 33.590123575221355 23.102996780115262 0 23.102996780115262 1.9465385113441576 0 0 0 0 1449.5748824243783 -410.83222726418052 0 -410.83222726418052 149.92242107229987 0 0 0 0 82.973066045873566 17.238247676841752 0 17.238247676841752 -27.123920874175042 0 0 0 0 53.663741726602893 11.015615893515928 0 11.015615893515928 -24.663225783012592 0 0 0 0 217.87553193660278 -29.714262387000304 0 -29.714262387000304 -120.7283119771796 0 0 0 0 25.755130601323344 8.5712981250357245 0 8.5712981250357245 -5.3201030278011281 0 0 0 0 49.092744919147663 46.164377009246792 0 46.164377009246792 -28.875341835071708 0 0 0 0 54.450071886414662 44.806174873808814 0 44.806174873808814 -88.204888389183168 0 0 0 0 5.7404446018554154 67.122676684477881 0 67.122676684477881 -74.473897500662474 0 0 0 0 29.026900012104306 34.752314577317122 0 34.752314577317122 -36.302557051776972 0 0 0 0 291.75461425181129 -45.068751781425703 0 -45.068751781425703 -192.23921797190735 0 0 0 0 -68.782939708406047 93.701125103901234 0 93.701125103901234 169.7721322355477 0 0 0 0 28.451914479145444 14.606581781731236 0 14.606581781731236 0.53064192455296855 0 0 0 0 9.5715380832519656 11.522447454261993 0 11.522447454261993 -3.5895971542883331 0 0 0 0 2493.9736206470479 -1255.5315177134503 0 -1255.5315177134503 545.78120837121628 0 0 0 0 2516.7464028688501 -1421.739397777874 0 -1421.739397777874 672.96729667831744 0 0 0 0 3499.4119885856271 -1211.7866023865452 0 -1211.7866023865452 -136.38298032676045 0 0 0 0 3498.2052640834518 -2113.5286632875309 0 -2113.5286632875309 1160.3954837639355 0 0 0 0 165.52873289611307 96.844954027257685 0 96.844954027257685 0.3554998501016246 0 0 0 0 -140.27803741613752 170.46826951240627 0 170.46826951240627 155.48232664793699 0 0 0 0 13.126628132074359 3.9986308943567082 0 3.9986308943567082 0.5649537255167606 0 0 0 0 11.296945682397507 10.822354196842781 0 10.822354196842781 -0.74822022778427022 0 0 0 0 -71.755707508091291 189.56924892253923 0 189.56924892253923 -64.021931518118436 0 0 0 0 1360.0555531405844 591.27591947191422 0 591.27591947191422 271.2198567991008 0 0 0 0 3491.3881541444471 -825.8274754578523 0 -825.8274754578523 -364.79846469860092 0 0 0 0 3406.181935367254 413.54313994545981 0 413.54313994545981 -50.266673515331973 0 0 0 0 7.9160365704509275 4.8563558640319116 0 4.8563558640319116 0.13424476183823159 0 0 0 0 -75.585749029974977 208.99368452306302 0 208.99368452306302 -50.111947065408295 0 0 0 0 3501.016467628564 -822.2116581162079 0 -822.2116581162079 -363.47078003147681 0 0 0 0 -275.78520780482359 142.40076802749283 0 142.40076802749283 -41.277991075507394 0 0 0 0 4.2727563642984023 101.33130788236275 0 101.33130788236275 55.002234225857855 0 0 0 0 183.17594794986508 119.93087599814093 0 119.93087599814093 -146.62698431695793 0 0 0 0 129.33387193988528 -15.375058703874249 0 -15.375058703874249 -129.10363059700452 0 0 0 0 0.62369843762144228 0.30754196986552529 0 0.30754196986552529 0.024153125553067312 0 0 0 0 -23.92534328992042 97.780930752657369 0 97.780930752657369 -114.63372729156805 0 0 0 0 44.666423235103139 50.954007358352413 0 50.954007358352413 -82.904003093604189 0 0 0 0 45.83439577480749 49.56031468517979 0 49.56031468517979 -89.120936707666601 0 0 0 0 12.244887336248212 66.537617677181728 0 66.537617677181728 -88.247620913468381 0 0 0 0 4.9591913594776997 51.780812992182845 0 51.780812992182845 -109.49863700360729 0 0 0 0 4.0564125138480449 40.964554293093812 0 40.964554293093812 -118.94168907028086 0 0 0 0 50.065354112171917 40.120875017813319 0 40.120875017813319 -119.18044262231649 0 0 0 0 -11.048174010968069 51.960564804770492 0 51.960564804770492 -98.08633878697195 0 0 0 0 -57.6563287535173 80.141789556111675 0 80.141789556111675 -0.1624510723958367 0 0 0 0 21.987997851461841 65.401220649245715 0 65.401220649245715 -134.88289995872782 0 0 0 0 1.1838256979004314 0.74819285069965247 0 0.74819285069965247 0.069119709157469844 0 0 0 0 -17.594778118742397 106.9965549148223 0 106.9965549148223 -165.3875764098801 0 0 0 0 17.469495222852856 129.06182386400113 0 129.06182386400113 -24.068070652215738 0 0 0 0 0.5657638072381701 0.44624685596145497 0 0.44624685596145497 -0.034133533686876105 0 0 0 0 91.491689660524798 187.64598772316342 0 187.64598772316342 -305.98413744630852 0 0 0 0 92.05700166313909 145.05711393705829 0 145.05711393705829 -134.72442684422828 0 0 0 0 84.873216163139659 42.687181692120177 0 42.687181692120177 -93.624116839374665 0 0 0 0 68.405282525392977 38.401072871294481 0 38.401072871294481 -54.341992085880293 0 0 0 0 62.288335474135238 38.336151669897674 0 38.336151669897674 -70.592308733446401 0 0 0 0 64.675281328520214 21.717732978348586 0 21.717732978348586 -36.196641620268906 0 0 0 0 54.920836422366847 56.239823985420827 0 56.239823985420827 -71.22661933271479 0 0 0 0 87.233087739514303 43.931579757231475 0 43.931579757231475 -159.61399902624743 0 0 0 0 58.137012011968181 46.618427702307827 0 46.618427702307827 -66.9032518731251 0 0 0 0 59.806644184805918 59.21220686354846 0 59.21220686354846 -88.663733341686054 0 0 0 0 30.182036324353248 47.041551977311144 0 47.041551977311144 -54.604703456527147 0 0 0 0 48.78961377684027 38.162129718287019 0 38.162129718287019 -31.843371355341105 0 0 0 0 62.288597107486567 42.381325167082082 0 42.381325167082082 -54.40544790607342 0 0 0 0 52.626601797590411 52.442251066305332 0 52.442251066305332 -60.163486037484404 0 0 0 0 55.353705114888726 32.827654898859663 0 32.827654898859663 -29.822376733408021 0 0 0 0 50.746057135340379 38.621484984282397 0 38.621484984282397 -24.881703087414849 0 0 0 0 45.117970865219831 25.381677935200287 0 25.381677935200287 -8.7361676883703581 0 0 0 0 63.79971137305256 44.758287787278732 0 44.758287787278732 -29.170654310594841 0 0 0 0 69.789973823964829 33.016758635045221 0 33.016758635045221 -8.092066708899722 0 0 0 0 49.371671893293751 32.826111924740282 0 32.826111924740282 -6.3688314217059769 0 0 0 0 70.611262486941996 29.650939948267364 0 29.650939948267364 -1.149580548249105 0 0 0 0 63.810238079211558 32.059948143598689 0 32.059948143598689 9.7835540476631877 0 0 0 0 84.566042916238075 6.3755659224628971 0 6.3755659224628971 14.678703723791998 0 0 0 0 38.968113239345257 25.928130871126768 0 25.928130871126768 -6.9987135870484281 0 0 0 0 42.136632467139862 32.917580681953552 0 32.917580681953552 4.1728267688983465 0 0 0 0 41.341020381252747 20.405259128813725 0 20.405259128813725 -1.8901589741724933 0 0 0 0 39.996056365343975 16.808497790823992 0 16.808497790823992 -10.407782832643434 0 0 0 0 46.522334617708111 21.030848083580111 0 21.030848083580111 -10.650052479692672 0 0 0 0 77.490992479113629 -12.262642981848224 0 -12.262642981848224 8.0416728798268196 0 0 0 0 84.971821393395658 31.137021351106625 0 31.137021351106625 -28.11845118999139 0 0 0 0 63.48011881558341 29.958068183111834 0 29.958068183111834 -21.150526573450463 0 0 0 0 88.514789107153774 20.983398840344478 0 20.983398840344478 -44.169326364912081 0 0 0 0 64.610503443764173 24.990590833915718 0 24.990590833915718 -18.163456190799366 0 0 0 0 67.481782806578849 25.675602127771668 0 25.675602127771668 -36.079519641178877 0 0 0 0 81.428876007150393 22.999243347033769 0 22.999243347033769 -42.07391469166663 0 0 0 0 36.480867158723413 24.247789036813685 0 24.247789036813685 -26.996030733746295 0 0 0 0 83.567179784236941 25.609176567720397 0 25.609176567720397 -41.122979473519649 0 0 0 0 113.4090144445945 11.940504672329723 0 11.940504672329723 -36.715697034869436 0 0 0 0 67.429387036467233 9.9195064643649431 0 9.9195064643649431 33.711554967928578 0 0 0 0 82.56093074187811 43.585118826638649 0 43.585118826638649 -27.179009804295674 0 0 0 0 20.999121002518223 36.250047625056709 0 36.250047625056709 -21.158832010930411 0 0 0 0 4.7686095608037249 5.4282008880053638 0 5.4282008880053638 -20.312587315972642 0 0 0 0 10.1883963545406 4.5156047895343931 0 4.5156047895343931 -23.419547087406997 0 0 0 0 15.361389129160671 140.03679187490343 0 140.03679187490343 35.19955214172569 0 0 0 0 284.8655738151283 171.50661177675784 0 171.50661177675784 -66.290782551408483 0 0 0 0 4.2162148452943029 4.2463941577201751 0 4.2463941577201751 -21.340077412400912 0 0 0 0 -11.298965858361044 -31.534618791248249 0 -31.534618791248249 -12.656886022182334 0 0 0 0 15.841912319592666 10.296264454172388 0 10.296264454172388 -22.001165530329786 0 0 0 0 38.336995722322172 16.299556828023391 0 16.299556828023391 -28.696455310518786 0 0 0 0 7.976745691812539 -10.170267677048514 0 -10.170267677048514 -23.497035913147329 0 0 0 0 -461.48862644459587 -75.248684622289147 0 -75.248684622289147 -467.58469559522382 0 0 0 0 25.376129084615968 4.1059102029993255 0 4.1059102029993255 -24.612490499314468 0 0 0 0 0.66579289760335314 -2.5681660220166975 0 -2.5681660220166975 -7.9902499545504959 0 0 0 0 24.754960753962223 4.6312326024472839 0 4.6312326024472839 -13.314057717729156 0 0 0 0 -5.3026147541240789 -228.89073653401272 0 -228.89073653401272 -816.90115277193854 0 0 0 0 88.16213101685571 33.323271290201262 0 33.323271290201262 -734.30959607201112 0 0 0 0 280.86215261709776 -142.68735178910873 0 -142.68735178910873 -913.63407658483811 0 0 0 0 291.54632186524395 176.20656287259425 0 176.20656287259425 -703.65397216364499 0 0 0 0 716.25867706394638 49.894714675019713 0 49.894714675019713 -695.29445464237619 0 0 0 0 -35.329776318423683 778.60913436768692 0 778.60913436768692 -722.84461894224614 0 0 0 0 153.11965659115231 -106.73942282877613 0 -106.73942282877613 3.3861507619340614 0 0 0 0 50.191676937014563 -14.748049890160985 0 -14.748049890160985 -2.8122998787761162 0 0 0 0 -0.19750066437995883 -1.6341407027052242 0 -1.6341407027052242 -2.580758112059832 0 0 0 0 -95.277359621351934 632.36884151319055 0 632.36884151319055 -668.93565755633642 0 0 0 0 63.754773301248861 12.154669910388471 0 12.154669910388471 -47.007776751703545 0 0 0 0 112.90364166793006 -9.0685059209446308 0 -9.0685059209446308 -37.942587104455356 0 0 0 0 58.511504426060128 -2.3978039427889257 0 -2.3978039427889257 -24.877315258415592 0 0 0 0 99.604075003677281 21.24316318918045 0 21.24316318918045 -83.605850745257385 0 0 0 0 178.61491627547366 -40.827136094459092 0 -40.827136094459092 -240.23758917283249 0 0 0 0 -130.81728202387603 144.4331725749276 0 144.4331725749276 -93.216159336311648 0 0 0 0 -11.123416731585166 199.63430903892186 0 199.63430903892186 -81.002586821857051 0 0 0 0 31.320144979268662 142.91263287041812 0 142.91263287041812 0.017942238054606943 0 0 0 0 -26.494399587856606 287.50553874647284 0 287.50553874647284 -650.26036971976475 0 0 0 0 -12.917477226957999 136.01545464002413 0 136.01545464002413 5.9595535270600237 0 0 0 0 -50.141602054283794 107.62623127936517 0 107.62623127936517 34.352964240835547 0 0 0 0 -822.82043906220861 657.20707877388486 0 657.20707877388486 -41.835624569367155 0 0 0 0 301.78751084914256 69.469918219440714 0 69.469918219440714 -1.9634121646140272 0 0 0 0 -1.0335948423484353 2.7187986501501769 0 2.7187986501501769 -3.1729216584120983 0 0 0 0 142.44698561252699 453.89720592860158 0 453.89720592860158 -122.25573971703943 0 0 0 0 303.15889804951439 68.349362276722331 0 68.349362276722331 -78.46162226314857 0 0 0 0 -0.82914906198558924 4.5924124882587591 0 4.5924124882587591 -8.3039812689989496 0 0 0 0 -0.33313341120364015 2.5246616655701928 0 2.5246616655701928 -4.8905648429639133 0 0 0 0 -420.67802328008838 549.11830694938328 0 549.11830694938328 -333.15620455004978 0 0 0 0 -221.63767361027567 171.97106290242286 0 171.97106290242286 99.586031781633892 0 0 0 0 -57.154726271925028 212.78906806898976 0 212.78906806898976 19.51328523324014 0 0 0 0 295.52701039344538 -137.37686915544896 0 -137.37686915544896 -299.62373842509896 0 0 0 0 -155.54592109232908 -38.083991024384432 0 -38.083991024384432 -597.48421143576809 0 0 0 0 15.435206172347534 223.92064555564457 0 223.92064555564457 -539.76581020086178 0 0 0 0 117.66515188050107 314.20227924812139 0 314.20227924812139 -471.19267839876602 0 0 0 0 -121.72912163211731 656.46027799957778 0 656.46027799957778 -534.80446438140234 0 0 0 0 -42.627090492511343 447.17333621594787 0 447.17333621594787 -21.657351570198671 0 0 0 0 -275.77649743897109 903.91892802774544 0 903.91892802774544 -0.37895631466955515 0 0 0 0 -275.70699607861752 904.35314517268159 0 904.35314517268159 -0.18754129970424671 0 0 0 0 -45.467058963607997 1211.5043026512092 0 1211.5043026512092 0.33503166710426757 0 0 0 0 -85.009197971099638 1066.5385386117507 0 1066.5385386117507 -469.48909212822309 0 0 0 0 16.584446750450297 773.13982124520453 0 773.13982124520453 -443.73399399892105 0 0 0 0 366.98096358892872 1390.0315976692518 0 1390.0315976692518 -747.4163569813195 0 0 0 0 215.38503547151049 734.36162740370901 0 734.36162740370901 -1329.3828075173255 0 0 0 0 216.97507174980274 800.29114872300318 0 800.29114872300318 -885.22134057426138 0 0 0 0 75.857828984662774 482.10353415006784 0 482.10353415006784 -879.81115068176769 0 0 0 0 129.91134379264986 463.15903926494047 0 463.15903926494047 -1042.8744446407641 0 0 0 0 159.84251287775987 378.09301405879296 0 378.09301405879296 -1191.7882215753511 0 0 0 0 -243.31023783340788 480.59407070680618 0 480.59407070680618 -1203.3871497472701 0 0 0 0 -8.0410444592286581 5.3670584275099316 0 5.3670584275099316 -4.8359972988596169 0 0 0 0 52.954980227106716 -232.68846532458065 0 -232.68846532458065 -1813.4536265648937 0 0 0 0 -179.85284086278989 4.6707012760375619 0 4.6707012760375619 -15.972495684722162 0 0 0 0 75.383846714452375 151.69215230127793 0 151.69215230127793 49.433506844637122 0 0 0 0 16.092519510311831 47.294718970078748 0 47.294718970078748 -394.87957488425172 0 0 0 0 -11.011631315124305 18.337861341961002 0 18.337861341961002 -20.327977244568885 0 0 0 0 272.40506226204161 18.094673896599033 0 18.094673896599033 -993.96969816963417 0 0 0 0 73.874637390663338 -29.420962928020856 0 -29.420962928020856 -543.42885523830228 0 0 0 0 373.82894720831246 -43.532362090685183 0 -43.532362090685183 -858.15058169282793 0 0 0 0 360.97285229511908 242.95383925318129 0 242.95383925318129 -637.36573470350777 0 0 0 0 69.181963726077811 202.58539323562263 0 202.58539323562263 -694.19132873933177 0 0 0 0 314.20798704764456 -33.82746742573454 0 -33.82746742573454 -50.651350713101237 0 0 0 0 0.40560922641299157 2.036656246916408 0 2.036656246916408 -5.0305151486849038 0 0 0 0 77.354603654326638 267.74066808351336 0 267.74066808351336 -235.84882502154051 0 0 0 0 171.0793991486571 363.86257951149025 0 363.86257951149025 -153.85804102133625 0 0 0 0 2.0669116015318423 3.2606440756701431 0 3.2606440756701431 -2.1204414162076937 0 0 0 0 3.1191641279438045 85.760186159676778 0 85.760186159676778 -325.84687147100522 0 0 0 0 585.24433824408743 290.73021760124834 0 290.73021760124834 -292.19844813067175 0 0 0 0 15.550368461186423 -9.815447476195132 0 -9.815447476195132 2.8775014403164683 0 0 0 0 48.910614060048829 -51.11513225521503 0 -51.11513225521503 -107.07705651470155 0 0 0 0 612.36972824289114 -220.95456959665171 0 -220.95456959665171 351.84570453202468 0 0 0 0 47.479166420031106 116.55216116371685 0 116.55216116371685 224.09768497796449 0 0 0 0 4.9694587090543791 3.4329882962594809 0 3.4329882962594809 -2.4397648540381898 0 0 0 0 610.5922293892072 -169.56868243096233 0 -169.56868243096233 -90.902489640170415 0 0 0 0 51.973087494756328 274.54984326109297 0 274.54984326109297 161.66167794960847 0 0 0 0 124.32623935989977 289.80707692612441 0 289.80707692612441 135.78836029709419 0 0 0 0 45.406588310142979 -40.416622793598435 0 -40.416622793598435 -137.42080614464021 0 0 0 0 47.023652596137254 -7.5128901507769115 0 -7.5128901507769115 -156.70707261071539 0 0 0 0 45.635410047398182 -8.1266885613149498 0 -8.1266885613149498 -133.0778500680799 0 0 0 0 48.326553009552299 -43.935608890693402 0 -43.935608890693402 -101.94530913491599 0 0 0 0 42.237679020647192 -15.011740940774871 0 -15.011740940774871 -64.510234256025797 0 0 0 0 23.76439238535184 11.988091245579994 0 11.988091245579994 -47.342007607325783 0 0 0 0 132.23702328071522 3.3912889867788181 0 3.3912889867788181 -98.28203969841752 0 0 0 0 552.33718917204533 175.75660035916735 0 175.75660035916735 -144.1603226784955 0 0 0 0 345.29978046192264 307.69983986504758 0 307.69983986504758 148.39768313794411 0 0 0 0 -25.378091476031841 -51.789141917013239 0 -51.789141917013239 -43.258820110093438 0 0 0 0 -37.152533391265024 132.00965381862352 0 132.00965381862352 28.792079922837729 0 0 0 0 46.59695150796324 75.95368277133457 0 75.95368277133457 -70.790853219946257 0 0 0 0 94.095095912358374 55.270121370525885 0 55.270121370525885 -99.706195538239626 0 0 0 0 83.930208582736668 113.93743806694056 0 113.93743806694056 11.880913429142311 0 0 0 0 31.71915742623969 20.787143939560337 0 20.787143939560337 -107.03564320359965 0 0 0 0 -128.79928260014276 -3.5145716219931273 0 -3.5145716219931273 -34.307225378569456 0 0 0 0 7.9963522468132808 -0.43110633912053231 0 -0.43110633912053231 -67.817432581864466 0 0 0 0 1422.9519816818211 -1518.3768946316886 0 -1518.3768946316886 -294.70381860590714 0 0 0 0 9.0178922720718049 14.808947404813452 0 14.808947404813452 1.8470771880440395 0 0 0 0 331.82808146625757 384.49321731174859 0 384.49321731174859 1426.1552980037486 0 0 0 0 22.867868438508594 35.19059030561948 0 35.19059030561948 -126.59513615428386 0 0 0 0 36.297520147112664 68.417526600386736 0 68.417526600386736 -103.01143123941256 0 0 0 0 66.776283352490282 -13.752068708108709 0 -13.752068708108709 -100.36457236562273 0 0 0 0 22.397959557790557 7.0390007799941827 0 7.0390007799941827 -63.889788654842583 0 0 0 0 2236.6173468161433 500.46146857564963 0 500.46146857564963 -682.64095759749762 0 0 0 0 925.00352798892709 -17.369097818660521 0 -17.369097818660521 62.927450309915002 0 0 0 0 10.632813775172153 -8.5035693324349779 0 -8.5035693324349779 -0.28066555326068965 0 0 0 0 497.38828135259973 285.50831581338571 0 285.50831581338571 -145.78702353820699 0 0 0 0 39.780259423787356 53.006526727954792 0 53.006526727954792 -102.79504289916076 0 0 0 0 68.718803331954405 33.552117965030448 0 33.552117965030448 -98.374240257175188 0 0 0 0 87.438207691477146 47.813686113260701 0 47.813686113260701 -106.55328088039823 0 0 0 0 19.535508140412276 20.839055112916867 0 20.839055112916867 -123.62374317537524 0 0 0 0 45.883160778306774 3.5353513980512616 0 3.5353513980512616 -127.49948867805688 0 0 0 0 148.78354691807181 13.065322620599545 0 13.065322620599545 -127.34836355021788 0 0 0 0 -71.810073820208231 -192.4399629581626 0 -192.4399629581626 -97.399589257829575 0 0 0 0 -72.831939154857537 -63.724063638882399 0 -63.724063638882399 -106.08855293721717 0 0 0 0 49.436751666944474 -313.25155393161685 0 -313.25155393161685 -199.11322914594166 0 0 0 0 3.564346074544801 -3.3239178615244214 0 -3.3239178615244214 3.833668225636842 0 0 0 0 155.64353447839676 -178.88344564125873 0 -178.88344564125873 -81.776306427203963 0 0 0 0 138.46381239464972 -71.037894470330684 0 -71.037894470330684 -95.655160144237016 0 0 0 0 181.47779161669314 -51.703084426741043 0 -51.703084426741043 -114.68448399287104 0 0 0 0 149.17067620149464 -203.09339875906244 0 -203.09339875906244 -119.36755050344073 0 0 0 0 174.59318934736075 -34.787348369569372 0 -34.787348369569372 -64.861210013355048 0 0 0 0 115.84037886743317 -1.5697177727893177 0 -1.5697177727893177 -77.80298191600923 0 0 0 0 212.58162807073677 45.577901418340844 0 45.577901418340844 -99.246873805198049 0 0 0 0 340.29852290122653 43.706444576209833 0 43.706444576209833 -31.604336718452032 0 0 0 0 212.79972034928505 154.28329262692841 0 154.28329262692841 237.6502884158308 0 0 0 0 601.55084030065336 -65.438787587965635 0 -65.438787587965635 -9.1405541256860943 0 0 0 0 461.27491379513231 -311.2923673615951 0 -311.2923673615951 156.90811961078532 0 0 0 0 5.3627891402916816 2.3044169097240541 0 2.3044169097240541 0.76805266680106143 0 0 0 0 193.58473327284446 -215.14147639695238 0 -215.14147639695238 156.81051337626013 0 0 0 0 85.819888225109992 16.903151082829822 0 16.903151082829822 -17.627854124971442 0 0 0 0 -62.132110733393347 11.992011403548531 0 11.992011403548531 -25.447926924780404 0 0 0 0 201.22838820727156 402.62024873370143 0 402.62024873370143 -160.1783151194395 0 0 0 0 279.61329001601553 -287.55742485295195 0 -287.55742485295195 19.252046074807367 0 0 0 0 67.725710109021747 -163.12492172536895 0 -163.12492172536895 294.302808202905 0 0 0 0 40.349987709138077 -107.14701257617889 0 -107.14701257617889 -59.281825294224291 0 0 0 0 79.115602212259546 -72.929813191256471 0 -72.929813191256471 44.527979862492884 0 0 0 0 63.267046112305252 -160.15387776541684 0 -160.15387776541684 53.216586303962231 0 0 0 0 -85.748897263605613 -31.439199192838714 0 -31.439199192838714 -0.0081132757532031974 0 0 0 0 5.7368731299648061 21.959792141500657 0 21.959792141500657 82.549919208408483 0 0 0 0 26.052291084313765 -114.51332976961748 0 -114.51332976961748 51.354489090845163 0 0 0 0 118.26693769637495 -8.440667270456288 0 -8.440667270456288 -2.363903345009021 0 0 0 0 5.9001529639026558 63.733637103332057 0 63.733637103332057 -65.280555317620383 0 0 0 0 13.418343182886019 18.093112021922934 0 18.093112021922934 58.219196488500529 0 0 0 0 -67.58732919938484 78.525778028045806 0 78.525778028045806 6.7974638990908716 0 0 0 0 156.91859736003244 103.54216419272143 0 103.54216419272143 -139.41232010892782 0 0 0 0 -51.395676767489931 -73.370034253350696 0 -73.370034253350696 -71.674116109423267 0 0 0 0 -163.08052744837914 102.38529317215216 0 102.38529317215216 81.371379830947262 0 0 0 0 377.84345648565795 52.672038368800713 0 52.672038368800713 -131.6089770241415 0 0 0 0 165.09533138619736 -72.413243440292717 0 -72.413243440292717 -37.360395319983581 0 0 0 0 -167.61054552069982 -78.340355634945809 0 -78.340355634945809 41.347312062585843 0 0 0 0 3.4421406132468739 -1.2873234078699056 0 -1.2873234078699056 -33.236551594212443 0 0 0 0 308.71583443443524 -39.479557625640155 0 -39.479557625640155 20.979705354118778 0 0 0 0 62.801485980866346 5.0588340189397059 0 5.0588340189397059 -1.0519624859116448 0 0 0 0 152.67386805339629 54.831314032729097 0 54.831314032729097 6.4156733359977807 0 0 0 0 18.100531774374367 6.1303825096953233 0 6.1303825096953233 -3.7820055974178572 0 0 0 0 235.34095222584438 -12.626224324948453 0 -12.626224324948453 -17.3691820528976 0 0 0 0 4.2924156208933582 9.5505076415196015 0 9.5505076415196015 -3.2215590598153838 0 0 0 0 88.777069930394646 -88.639794869895923 0 -88.639794869895923 -76.491238325539598 0 0 0 0 39.883374700066213 -19.374551812770179 0 -19.374551812770179 -4.6411117686248176 0 0 0 0 67.948703389105503 3.4946532315507284 0 3.4946532315507284 -5.2414769184879333 0 0 0 0 95.817450076414389 11.933961718000319 0 11.933961718000319 -2.3047122169064096 0 0 0 0 48.811919337992947 9.4394928949397752 0 9.4394928949397752 0.19421387008507729 0 0 0 0 193.11965574193164 -3.1720177721012988 0 -3.1720177721012988 10.029640163714703 0 0 0 0 91.857117071012084 20.972304751130807 0 20.972304751130807 -11.275680293093057 0 0 0 0 25.042818007826298 -33.644471141300436 0 -33.644471141300436 -11.623367884916377 0 0 0 0 63.7451869694778 -19.537269158063282 0 -19.537269158063282 -10.809837014329787 0 0 0 0 63.801672662752253 -11.313617512066664 0 -11.313617512066664 -12.533673025114695 0 0 0 0 162.15015595591103 -26.915117488468923 0 -26.915117488468923 -26.280914840546757 0 0 0 0 27.367877719367755 -4.6592943241937945 0 -4.6592943241937945 -16.868166490723482 0 0 0 0 24.519555536874783 -1.7189687502247608 0 -1.7189687502247608 -0.72958205854250302 0 0 0 0 206.07855650162674 28.75329337903031 0 28.75329337903031 -69.36686644551628 0 0 0 0 103.17373522830894 -11.301292142465627 0 -11.301292142465627 -1.7920127712495741 0 0 0 0 16.926390393705262 0.63742197343374585 0 0.63742197343374585 -1.9866318477180815 0 0 0 0 90.920077893533744 -1.9194098215175472 0 -1.9194098215175472 -35.008980973458165 0 0 0 0 81.487593743721845 -37.283209206817475 0 -37.283209206817475 -33.00133209226442 0 0 0 0 78.863800178391102 -22.472502933166311 0 -22.472502933166311 -18.27679614446788 0 0 0 0 126.75106765914825 -30.672783528288619 0 -30.672783528288619 -40.626397821336468 0 0 0 0 127.06429609603947 -12.21590438721023 0 -12.21590438721023 19.098502956259836 0 0 0 0 99.441607194719836 8.9149380080507399 0 8.9149380080507399 -2.336182762860517 0 0 0 0 127.40826637508871 -19.632600077784446 0 -19.632600077784446 -2.3531972699838661 0 0 0 0 73.966264924656571 -41.548443336776131 0 -41.548443336776131 22.496017004968053 0 0 0 0 62.406905495387036 5.8616113100019902 0 5.8616113100019902 4.61599904689092 0 0 0 0 187.45461895976041 -18.667435252310042 0 -18.667435252310042 -10.599095872740691 0 0 0 0 88.68942084594164 -39.23291095210584 0 -39.23291095210584 49.699262043585804 0 0 0 0 53.121307817753404 -15.018652500090866 0 -15.018652500090866 -11.549575920778807 0 0 0 0 70.127918901969679 -15.075435768387251 0 -15.075435768387251 11.14863460915069 0 0 0 0 178.04599181358935 2.2069871494841209 0 2.2069871494841209 0.023658368380210959 0 0 0 0 -0.36844629734767409 -26.687411289769585 0 -26.687411289769585 -3.8062290399800212 0 0 0 0 15.110953024902471 -19.488237867588253 0 -19.488237867588253 -5.0894835911937442 0 0 0 0 18.461074041028041 -29.764654884129413 0 -29.764654884129413 -43.337913749819563 0 0 0 0 51.822234529965499 -9.7823784750394225 0 -9.7823784750394225 -12.715784674177371 0 0 0 0 55.843218822061075 -36.862406357988533 0 -36.862406357988533 -25.918878250824527 0 0 0 0 175.33801213733386 21.442805555935593 0 21.442805555935593 -11.926875909635783 0 0 0 0 14.322471027621219 -10.129317615700685 0 -10.129317615700685 -9.2745422716975323 0 0 0 0 199.43292671865493 -0.7675964202128398 0 -0.7675964202128398 -18.301316926656 0 0 0 0 198.30379598757281 -16.271387898000739 0 -16.271387898000739 -15.714285287042685 0 0 0 0 222.12375957806944 74.579121314882514 0 74.579121314882514 25.456892838689214 0 0 0 0 -42.653786573291654 -54.892024801443085 0 -54.892024801443085 29.171344509306891 0 0 0 0 -2.4684440630984739 -0.31110347203686217 0 -0.31110347203686217 1.9392002761563312 0 0 0 0 2.9823222767954576 30.107497195210499 0 30.107497195210499 -16.404467977828972 0 0 0 0 96.981281851665699 18.578572317084081 0 18.578572317084081 2.8332502294483675 0 0 0 0 147.04051379910379 -6.1565145101897087 0 -6.1565145101897087 -10.163044689455091 0 0 0 0 80.179969835233351 11.941556576749917 0 11.941556576749917 -11.950952731090183 0 0 0 0 83.5386456314518 54.955560047631025 0 54.955560047631025 -26.18209764133951 0 0 0 0 113.29714088167384 37.588363425887678 0 37.588363425887678 -20.404788191100124 0 0 0 0 114.42147097378256 -18.096765723610815 0 -18.096765723610815 -223.92831942632074 0 0 0 0 240.84831241056963 -166.74474960175303 0 -166.74474960175303 -189.56107180645813 0 0 0 0 88.573643666488181 12.522941432753441 0 12.522941432753441 -16.740918933992777 0 0 0 0 82.064173357468917 1.378943411171619 0 1.378943411171619 -32.9435192357696 0 0 0 0 44.189200891480141 55.879578128040521 0 55.879578128040521 -48.158989497332527 0 0 0 0 6.7327331851702183 -14.698684544202251 0 -14.698684544202251 9.6024897546227521 0 0 0 0 119.88908278375311 -53.933155923200047 0 -53.933155923200047 -5.7060643482169553 0 0 0 0 360.62877807165933 166.75791497813248 0 166.75791497813248 9.2334445940282421 0 0 0 0 113.28171962638226 31.230578436059204 0 31.230578436059204 34.39016152447266 0 0 0 0 169.66965826046362 -12.153812860539801 0 -12.153812860539801 -14.007906653628197 0 0 0 0 116.53415795620822 -15.052702231895864 0 -15.052702231895864 6.7133471307402033 0 0 0 0 115.96298025766009 -10.974846468860505 0 -10.974846468860505 -13.510893352477979 0 0 0 0 98.531353940314148 -17.205231879325083 0 -17.205231879325083 -1.9731634449581179 0 0 0 0 82.918269405847241 28.774761768207327 0 28.774761768207327 -16.536000046987681 0 0 0 0 103.73179513173272 -29.790746957158149 0 -29.790746957158149 30.903912860836044 0 0 0 0 139.22343011391058 148.35572361304764 0 148.35572361304764 -121.06937631663141 0 0 0 0 20.377078235535009 76.253885004122367 0 76.253885004122367 -85.859680502643641 0 0 0 0 95.520607000013115 168.94432791788495 0 168.94432791788495 -81.147201806725661 0 0 0 0 119.00748312857468 57.633015696006396 0 57.633015696006396 -25.864817626085937 0 0 0 0 134.13383908288961 107.97909969449915 0 107.97909969449915 -122.87013156008128 0 0 0 0 70.524314589667483 -96.925161011960427 0 -96.925161011960427 -190.3554697631082 0 0 0 0 745.88828616800311 -91.990236455176728 0 -91.990236455176728 -487.29129411493614 0 0 0 0 275.54702335454931 227.40867304579956 0 227.40867304579956 -81.776150876497013 0 0 0 0 421.78409657647717 157.20994765769865 0 157.20994765769865 136.59891713023899 0 0 0 0 56.37646522103384 20.801009822815821 0 20.801009822815821 -18.026096151838765 0 0 0 0 57.176650213399625 40.440505493461842 0 40.440505493461842 -1.9953415327609036 0 0 0 0 7.5533165343759663 -3.9888708945032718 0 -3.9888708945032718 -0.56718625194995553 0 0 0 0 95.876280332508031 128.57063584920888 0 128.57063584920888 -57.906803453205669 0 0 0 0 69.078947481913929 -101.57001010783688 0 -101.57001010783688 80.707807705890446 0 0 0 0 13.98694371212332 52.369885800419979 0 52.369885800419979 -128.67988264487008 0 0 0 0 54.317288121877937 -23.434498224839217 0 -23.434498224839217 -13.248161318166154 0 0 0 0 54.377826757520992 -18.697435349969105 0 -18.697435349969105 -2.1186953194213123 0 0 0 0 36.224235890568366 2.3199308811787347 0 2.3199308811787347 -16.753706706823806 0 0 0 0 108.89232923385862 18.546780150998302 0 18.546780150998302 -1.8787137097399649 0 0 0 0 14.143119106897757 -1.6244770323570208 0 -1.6244770323570208 1.4585592464523263 0 0 0 0 49.77174189199286 -21.70674527931169 0 -21.70674527931169 -26.926798751318074 0 0 0 0 50.067270367252604 -25.879788195549239 0 -25.879788195549239 -18.922183612171466 0 0 0 0 46.721406434964592 -35.601536412054884 0 -35.601536412054884 -14.951186957397113 0 0 0 0 64.194447960046091 -9.7588023173274223 0 -9.7588023173274223 -23.793646402079503 0 0 0 0 58.577329880258731 -14.910933735782042 0 -14.910933735782042 -16.685820810303824 0 0 0 0 36.202905471623296 -21.455268903374105 0 -21.455268903374105 -6.4479838837296732 0 0 0 0 91.911118405900197 1.7115204466600176 0 1.7115204466600176 -5.9129413699825051 0 0 0 0 16.937756267485383 100.59193836956865 0 100.59193836956865 -61.81807597876832 0 0 0 0 59.2086736707206 -62.867434562260712 0 -62.867434562260712 -46.351718619850374 0 0 0 0 76.924835098908886 11.375001710796575 0 11.375001710796575 -24.747967428953107 0 0 0 0 0.094951669794681948 -9.1370772518946524 0 -9.1370772518946524 -16.698742021423413 0 0 0 0 -0.67426735913335278 -1.7250052330505241 0 -1.7250052330505241 2.9547313146747367 0 0 0 0 -13.984646116108706 -41.63268820646681 0 -41.63268820646681 32.252286623439431 0 0 0 0 82.321704850631079 14.723285755810579 0 14.723285755810579 -17.354648139185457 0 0 0 0 431.80748546641553 225.94738002992153 0 225.94738002992153 93.821781914090025 0 0 0 0 350.77768433043821 -129.93315073394729 0 -129.93315073394729 -177.75438812505672 0 0 0 0 0.10487780897528864 26.129726419883809 0 26.129726419883809 -65.079992630838149 0 0 0 0 -19.942283557240444 144.71664678343404 0 144.71664678343404 -181.23806115776097 0 0 0 0 -99.249470614769962 92.528398654588273 0 92.528398654588273 -63.783281336620348 0 0 0 0 -78.242255143428338 -78.707963080628815 0 -78.707963080628815 33.395994417128648 0 0 0 0 41.600603704806417 49.945910496075157 0 49.945910496075157 -133.99084759686775 0 0 0 0 68.022652148356428 97.913666375150569 0 97.913666375150569 -94.846920604117258 0 0 0 0 -6.8436811884239432 82.04880591287656 0 82.04880591287656 -40.910893543266866 0 0 0 0 38.098308327947052 -429.78537991918148 0 -429.78537991918148 -193.56418415928783 0 0 0 0 18.198289306288075 11.792449886472895 0 11.792449886472895 -0.39483746975043843 0 0 0 0 -9.5127852930163499 67.750827578724056 0 67.750827578724056 27.770781035383152 0 0 0 0 23.404491169698304 45.934045635613074 0 45.934045635613074 -78.680960765193959 0 0 0 0 5.1578544594999016 1.4850863436919948 0 1.4850863436919948 -6.6067823210459427 0 0 0 0 15.498405217193067 127.30485689206216 0 127.30485689206216 -4.8668643526216329 0 0 0 0 -347.38873400512966 125.9450370290615 0 125.9450370290615 328.04681555439856 0 0 0 0 230.19473637887859 -20.086336950602345 0 -20.086336950602345 -256.77830272185383 0 0 0 0 12.714529168953447 8.1679001044609691 0 8.1679001044609691 5.358432194656185 0 0 0 0 -169.35491728060879 398.55326107102883 0 398.55326107102883 503.30503707141906 0 0 0 0 444.19467068294762 -96.058072126586922 0 -96.058072126586922 -300.87165557545268 0 0 0 0 72.360349376423983 -128.23740004639876 0 -128.23740004639876 -242.74779480683719 0 0 0 0 577.22971495630918 177.11190450711547 0 177.11190450711547 -60.761016432985343 0 0 0 0 482.60745353420498 -232.17015241002082 0 -232.17015241002082 -191.3738978670608 0 0 0 0 174.82977492461214 -167.17549917524229 0 -167.17549917524229 -180.64242620917139 0 0 0 0 669.74302541241195 19.710823367269768 0 19.710823367269768 -46.858428097946671 0 0 0 0 481.82836449907336 431.32881948375234 0 431.32881948375234 71.880071549160903 0 0 0 0 -161.8096162329457 256.12965407708089 0 256.12965407708089 418.59354713811445 0 0 0 0 44.102302555103961 74.389344370637446 0 74.389344370637446 -167.44636685916521 0 0 0 0 -28.154845219345589 -168.08887416974517 0 -168.08887416974517 6.8679937843098742 0 0 0 0 -64.698578393581556 299.28694834640874 0 299.28694834640874 -55.828497097307263 0 0 0 0 202.43615202591172 -185.48199843260772 0 -185.48199843260772 208.43418647051885 0 0 0 0 69.594847615924664 -53.825668552078355 0 -53.825668552078355 -20.387304345642406 0 0 0 0 3.3793454915999632 1.0956856361824521 0 1.0956856361824521 -6.0662731819509714 0 0 0 0 22.816272146309075 9.3141385802148022 0 9.3141385802148022 -26.755595621011512 0 0 0 0 26.952305757062277 -5.9797886748285691 0 -5.9797886748285691 -9.9720325568967212 0 0 0 0 74.728414055163739 4.7978775962724853 0 4.7978775962724853 -90.295496402410549 0 0 0 0 11.686947500158567 2.9427654287357541 0 2.9427654287357541 -35.696033155551788 0 0 0 0 145.7590061116498 47.830500679943725 0 47.830500679943725 -30.348197648006192 0 0 0 0 37.601179533824109 7.292970136093075 0 7.292970136093075 -12.83253807981186 0 0 0 0 42.578123649174813 -1.3860846979796406 0 -1.3860846979796406 -39.301794078755847 0 0 0 0 36.707271053741295 -10.268459599902997 0 -10.268459599902997 -12.945313200876297 0 0 0 0 61.891042872874209 -4.3450409626122495 0 -4.3450409626122495 -23.645825402139252 0 0 0 0 45.52329714222779 22.309256544138378 0 22.309256544138378 -35.483827538684608 0 0 0 0 37.130149794305908 2.3430918343474332 0 2.3430918343474332 -93.361198759171202 0 0 0 0 49.289068669939297 -0.51252192116709239 0 -0.51252192116709239 9.9767336480626909 0 0 0 0 57.067166513821576 -3.8496550437066084 0 -3.8496550437066084 0.243290661966995 0 0 0 0 57.339283350287587 -4.0731318709323006 0 -4.0731318709323006 -3.0054601451384162 0 0 0 0 61.904338772899109 -3.2529825152011331 0 -3.2529825152011331 -10.156983555600675 0 0 0 0 144.31940073304577 -110.45137319062155 0 -110.45137319062155 -59.07600651921166 0 0 0 0 7.4382931011518281 -3.9864975574181187 0 -3.9864975574181187 -0.72986851807394681 0 0 0 0 62.133452608635707 88.06045762141305 0 88.06045762141305 -62.288027023301993 0 0 0 0 53.648503960726885 5.5778595172402738 0 5.5778595172402738 -1.9015880785293986 0 0 0 0 53.762879313699216 0.69682148556616141 0 0.69682148556616141 -1.637408805551942 0 0 0 0 61.033299611706752 67.085470052871472 0 67.085470052871472 -92.762404539757995 0 0 0 0 32.708600899317389 119.97483130345667 0 119.97483130345667 69.7851712519697 0 0 0 0 30.6778077322233 9.1726183141291813 0 9.1726183141291813 -9.3277984125421654 0 0 0 0 37.968721350547639 30.705874334678093 0 30.705874334678093 4.6127615757849867 0 0 0 0 29.242425488700263 14.056819182329448 0 14.056819182329448 3.3140211216341453 0 0 0 0 46.985326280517143 9.8676220590877364 0 9.8676220590877364 -0.28901041110742132 0 0 0 0 33.611789979040623 15.766221079420134 0 15.766221079420134 9.1153172768458646 0 0 0 0 -9.5319317716570708 21.706945807392888 0 21.706945807392888 7.5044654576986964 0 0 0 0 -21.358622231069603 -92.779766554240041 0 -92.779766554240041 -42.754176456224627 0 0 0 0 -52.441850983377662 349.10676684361312 0 349.10676684361312 47.794117219456155 0 0 0 0 44.773258763802005 -5.8915216188582704 0 -5.8915216188582704 3.9629824594265699 0 0 0 0 -171.2539898201394 61.86834016562733 0 61.86834016562733 161.9392642407031 0 0 0 0 50.070592288248008 -4.0892056453442933 0 -4.0892056453442933 4.2639609392899018 0 0 0 0 14.191147786265049 9.8968506351384775 0 9.8968506351384775 -1.9758957728251036 0 0 0 0 -43.356093042180873 -167.92291607482446 0 -167.92291607482446 238.3746883504914 0 0 0 0 199.49170791649522 174.82286471451835 0 174.82286471451835 280.28644130974044 0 0 0 0 -88.028332463327388 -94.838271043175155 0 -94.838271043175155 138.71762739844507 0 0 0 0 -65.887328596814768 -198.21432369061449 0 -198.21432369061449 149.67587517739884 0 0 0 0 24.786347621426103 -89.417182271564343 0 -89.417182271564343 57.047531690053347 0 0 0 0 -64.718899075065565 -89.086835954582966 0 -89.086835954582966 78.860964526414591 0 0 0 0 -36.697974797381903 -187.61490216911488 0 -187.61490216911488 -90.229561321234542 0 0 0 0 22.001508226214327 -1.1741424116067805 0 -1.1741424116067805 -14.616175678310926 0 0 0 0 61.729131157655502 -89.047960777681055 0 -89.047960777681055 -17.165420559494123 0 0 0 0 56.94047148646132 -107.73282227539767 0 -107.73282227539767 -59.389861426179777 0 0 0 0 49.924117701472596 -8.5459945260649981 0 -8.5459945260649981 -2.0721952078676367 0 0 0 0 58.621054770183491 -14.055409735911455 0 -14.055409735911455 -7.6340222052807576 0 0 0 0 55.248685912723886 -12.024345889719285 0 -12.024345889719285 -0.16283542850226351 0 0 0 0 75.516697456565453 -13.773215392827865 0 -13.773215392827865 -0.22021474069952518 0 0 0 0 32.822757902192976 -20.824240283705819 0 -20.824240283705819 -7.8427229281537461 0 0 0 0 59.330903776029999 -23.961492401760253 0 -23.961492401760253 -18.509400469881847 0 0 0 0 119.73653746581113 -1.2101651172820311 0 -1.2101651172820311 -28.38112916895642 0 0 0 0 108.33550587572972 -40.554550377657051 0 -40.554550377657051 -137.30165600752662 0 0 0 0 75.852139067734242 -68.469626142165907 0 -68.469626142165907 -32.997284073592709 0 0 0 0 125.73052043066491 43.895008730915606 0 43.895008730915606 -135.13007067811395 0 0 0 0 25.557052551870584 12.596670837648048 0 12.596670837648048 -7.6640562523953122 0 0 0 0 22.400464969223947 32.194757151048179 0 32.194757151048179 -21.447460785345964 0 0 0 0 76.380886303275474 -5.0641872063428082 0 -5.0641872063428082 -12.32591642386069 0 0 0 0 106.00441573228454 -36.111567776618472 0 -36.111567776618472 -9.5491451152788613 0 0 0 0 111.67994188165903 18.166650966265024 0 18.166650966265024 -39.663531259888941 0 0 0 0 88.507079080405674 17.081456037847857 0 17.081456037847857 7.3146227892002571 0 0 0 0 56.936170455417596 -12.156589789067084 0 -12.156589789067084 -14.153606884690134 0 0 0 0 1.9937187891806047 -7.621817472113614 0 -7.621817472113614 -4.2474581890090137 0 0 0 0 50.882237264847817 6.7079190639065835 0 6.7079190639065835 -5.1658253176928017 0 0 0 0 30.888534165293095 27.535227544717145 0 27.535227544717145 -121.56229352265336 0 0 0 0 -34.862347609305289 -61.330107039267659 0 -61.330107039267659 -374.3419220462074 0 0 0 0 7.7690561095732846 174.96596752703726 0 174.96596752703726 -184.1621185214899 0 0 0 0 12.06819351418315 3.0831620268591493 0 3.0831620268591493 -5.2523903269074186 0 0 0 0 74.863031464061351 13.514591347729493 0 13.514591347729493 -251.17710507253491 0 0 0 0 78.044149795692647 33.753097053673173 0 33.753097053673173 -156.60440060423252 0 0 0 0 39.063248963138903 -16.701566397130591 0 -16.701566397130591 -223.66088166269037 0 0 0 0 7.4104506190645054 4.6254636075609241 0 4.6254636075609241 -0.84602809023925118 0 0 0 0 28.453018389895078 -53.754099579950434 0 -53.754099579950434 -263.34018950609334 0 0 0 0 68.306786022385495 -0.3397879013233478 0 -0.3397879013233478 -291.2115470610679 0 0 0 0 90.661583534951205 54.713092589186999 0 54.713092589186999 -200.04653840241849 0 0 0 0 87.399808899303025 52.502472283467569 0 52.502472283467569 -149.09573695449944 0 0 0 0 -0.62381586975243408 20.987946793995889 0 20.987946793995889 78.123010506551509 0 0 0 0 -26.796907511612517 129.70122654461693 0 129.70122654461693 -139.98915967270568 0 0 0 0 127.00776795399725 -120.13687546603182 0 -120.13687546603182 105.51903496809376 0 0 0 0 68.095294929109514 20.473833382712655 0 20.473833382712655 10.524346778321842 0 0 0 0 34.343133525879239 13.348069693151047 0 13.348069693151047 9.226526660908803 0 0 0 0 6.4854963652178412 109.09445017897315 0 109.09445017897315 -44.757500168658908 0 0 0 0 -72.602274541517545 30.050944580881946 0 30.050944580881946 -106.36176433073615 0 0 0 0 -21.467865882601473 132.2614940718795 0 132.2614940718795 -143.93897443962305 0 0 0 0 81.951000079425285 48.992134691690353 0 48.992134691690353 -104.36846263225652 0 0 0 0 514.56481663218437 -203.45530995022858 0 -203.45530995022858 387.43019086398886 0 0 0 0 267.28120137899532 -376.17897822086934 0 -376.17897822086934 301.7552038402975 0 0 0 0 -153.35081469250872 -206.12891713757062 0 -206.12891713757062 122.37963719738582 0 0 0 0 182.31301863685076 -76.137700994967304 0 -76.137700994967304 139.61108675589003 0 0 0 0 193.20823483639788 -107.48829730150599 0 -107.48829730150599 55.484273719036537 0 0 0 0 197.43540726303763 4.4260522596241572 0 4.4260522596241572 -298.04991781563695 0 0 0 0 -238.69265348477347 77.498099316810567 0 77.498099316810567 -67.768698003174904 0 0 0 0 4.7866907111310866 228.31270591325847 0 228.31270591325847 -126.88823972980299 0 0 0 0 140.28358720787946 102.08414435576969 0 102.08414435576969 -121.82645037463772 0 0 0 0 292.83929436017934 66.767156199083274 0 66.767156199083274 -73.670256198023708 0 0 0 0 197.36867836504825 186.90026059602405 0 186.90026059602405 4.1575193315311481 0 0 0 0 297.62058354682813 0.20163447194636319 0 0.20163447194636319 166.41164536280098 0 0 0 0 515.4314333623588 -281.35686936005095 0 -281.35686936005095 282.92207246454291 0 0 0 0 376.59928308508097 208.48101052716083 0 208.48101052716083 -58.31611173963438 0 0 0 0 228.86884865500542 86.487774394726785 0 86.487774394726785 276.17906388605206 0 0 0 0 1592.5584051286132 -265.69979471664556 0 -265.69979471664556 -768.5561935741398 0 0 0 0 91.554617611190309 4.2295512875840195 0 4.2295512875840195 -0.66487954508594882 0 0 0 0 566.13317405505222 240.55234053494041 0 240.55234053494041 -520.76089896832309 0 0 0 0 306.23807630398369 3.8245770014668778 0 3.8245770014668778 -268.66679573799229 0 0 0 0 119.10353458473401 110.64091741846823 0 110.64091741846823 -81.341225925862773 0 0 0 0 19.318249090632889 124.56967111426729 0 124.56967111426729 -89.738387727268901 0 0 0 0 110.18994663742191 6.8191950902292007 0 6.8191950902292007 -6.032132390705895 0 0 0 0 4.9227453729662614 4.9435432984361967 0 4.9435432984361967 -1.0498041065814565 0 0 0 0 31.771174585970584 -46.528605673114726 0 -46.528605673114726 -136.59610045923182 0 0 0 0 -1427.750680518162 224.74268305311125 0 224.74268305311125 430.25758597908862 0 0 0 0 88.931446143673384 -48.308030120531839 0 -48.308030120531839 -138.95153276085966 0 0 0 0 132.22365503298352 192.13443401777022 0 192.13443401777022 -88.469128343416742 0 0 0 0 70.373970158281736 -93.009712204691823 0 -93.009712204691823 -147.32541201653657 0 0 0 0 67.509804097018787 -100.33595402406399 0 -100.33595402406399 -154.41456011843729 0 0 0 0 57.602826709931833 -57.484836630043446 0 -57.484836630043446 -242.25876249555404 0 0 0 0 2.5779353920079302 -2.7352443302124811 0 -2.7352443302124811 -190.22056793430966 0 0 0 0 61.368656244449085 -153.54929180077943 0 -153.54929180077943 -198.53149323930484 0 0 0 0 42.859448968461948 -108.78845598487351 0 -108.78845598487351 -106.11162903835339 0 0 0 0 -21.72306020794349 -324.63075953980524 0 -324.63075953980524 -224.93513677565534 0 0 0 0 248.86934251646744 -133.47792642525246 0 -133.47792642525246 -812.721280204717 0 0 0 0 1.6499710411632122 46.794884640664591 0 46.794884640664591 -377.28701681970597 0 0 0 0 56.469179175066529 -104.19735415182609 0 -104.19735415182609 -429.22803117946933 0 0 0 0 -182.91397158517066 -566.27175601902104 0 -566.27175601902104 -371.5093537304931 0 0 0 0 4.3430017733262503 668.29513640064965 0 668.29513640064965 301.96428352609155 0 0 0 0 38.683582674859565 0.88704964852531987 0 0.88704964852531987 -0.34050784267315359 0 0 0 0 2412.1197125776744 977.45383863450252 0 977.45383863450252 -762.02017224975134 0 0 0 0 1007.9624866132544 -1247.119209783076 0 -1247.119209783076 698.03952208367537 0 0 0 0 2861.6102132641681 -1829.9028921266281 0 -1829.9028921266281 854.99168400863346 0 0 0 0 -39.689645682952687 249.42639974904546 0 249.42639974904546 158.68691053371776 0 0 0 0 462.08422848634382 -329.41497609135223 0 -329.41497609135223 592.87749414248492 0 0 0 0 1351.6342777646496 -658.71154729129967 0 -658.71154729129967 382.39690702697976 0 0 0 0 2444.0415628356204 -891.38934508980515 0 -891.38934508980515 95.313600833324017 0 0 0 0 1792.8346805795918 -244.49277595153501 0 -244.49277595153501 413.44909015017583 0 0 0 0 2322.9105529951194 -49.695189105704685 0 -49.695189105704685 516.11590370248564 0 0 0 0 1727.6942129163872 -652.21384427965302 0 -652.21384427965302 400.41963229432577 0 0 0 0 812.5694695259881 -557.94378410960485 0 -557.94378410960485 455.6202093785771 0 0 0 0 1251.8703492149652 -263.31084292948992 0 -263.31084292948992 463.29699717845858 0 0 0 0 585.63139372201113 -168.61284431009665 0 -168.61284431009665 462.82903775056457 0 0 0 0 3499.493845934132 -254.49424885996592 0 -254.49424885996592 -179.67457269789307 0 0 0 0 3077.8043480398337 -35.343494397296105 0 -35.343494397296105 37.74792195933734 0 0 0 0 6.4663628262342741 3.3733613894131622 0 3.3733613894131622 5.4967401607715116 0 0 0 0 3799.0419950454452 -564.42723644906073 0 -564.42723644906073 -126.5543013363466 0 0 0 0 2639.0182082244864 -182.7239006810477 0 -182.7239006810477 151.51098686024696 0 0 0 0 3608.8444256490329 -680.42034915328713 0 -680.42034915328713 28.26956132852024 0 0 0 0 3081.7477994112305 -486.2844502698731 0 -486.2844502698731 -57.543946104872042 0 0 0 0 3356.6177645064745 -511.4770908803568 0 -511.4770908803568 -60.272207274414164 0 0 0 0 3499.9355930085039 -604.916957341586 0 -604.916957341586 -28.522071057547315 0 0 0 0 3239.659078629782 -543.71195802398086 0 -543.71195802398086 57.95821316199455 0 0 0 0 3324.7624718949883 -719.91072566413766 0 -719.91072566413766 148.11543334434941 0 0 0 0 2957.3704684521617 -325.98560072102555 0 -325.98560072102555 157.74687167691627 0 0 0 0 5775.3267358364828 988.06362391554512 0 988.06362391554512 493.2775265389937 0 0 0 0 9.1040225928942178 7.2358940265839635 0 7.2358940265839635 18.666106072880257 0 0 0 0 4208.8224522418823 -2972.9282549769255 0 -2972.9282549769255 327.60559521903815 0 0 0 0 5716.3230976846389 -1921.9258617866867 0 -1921.9258617866867 -551.82928850736971 0 0 0 0 2947.2298414086545 -2432.0483589324349 0 -2432.0483589324349 421.73361388017747 0 0 0 0 3846.0419368082221 -1230.4265872325072 0 -1230.4265872325072 -602.0209403967574 0 0 0 0 4981.6142514037638 -12.793833926615662 0 -12.793833926615662 -717.33317899802387 0 0 0 0 3759.7556222372659 -472.74321417227571 0 -472.74321417227571 257.74568102612204 0 0 0 0 5.617510214774228 1.6747228929713884 0 1.6747228929713884 13.927218831764989 0 0 0 0 3500.3046161875172 -362.09815164428414 0 -362.09815164428414 1455.4495449939623 0 0 0 0 2421.4944501907557 -1435.6596695630681 0 -1435.6596695630681 644.92025568414283 0 0 0 0 2932.5263229552656 -921.31665943588951 0 -921.31665943588951 1106.0305526536624 0 0 0 0 3922.6143090735277 -638.73790125242033 0 -638.73790125242033 638.32540191050714 0 0 0 0 3761.5692940946647 408.99354061680708 0 408.99354061680708 456.40139836475646 0 0 0 0 2717.5982791920105 -2.1526189683523285 0 -2.1526189683523285 -83.50046727915543 0 0 0 0 1799.60813338976 255.28428713904057 0 255.28428713904057 473.02267732596601 0 0 0 0 2689.8175607452868 -9.7645815733485506 0 -9.7645815733485506 374.09663610406108 0 0 0 0 2429.6669362274915 -255.01407148568876 0 -255.01407148568876 280.91680978248928 0 0 0 0 2527.1072385658626 -55.746879396369764 0 -55.746879396369764 684.23216220138511 0 0 0 0 2565.5123467082449 -263.20620424251615 0 -263.20620424251615 1467.3009775193627 0 0 0 0 2926.0768180226723 -822.02459044370767 0 -822.02459044370767 33.448234712871454 0 0 0 0 2775.668320325698 464.81925798944394 0 464.81925798944394 -613.09532505172979 0 0 0 0 3567.5654391370335 -832.02023308106436 0 -832.02023308106436 -95.551703944660403 0 0 0 0 1650.6499473008153 398.93255345227169 0 398.93255345227169 140.78832626329154 0 0 0 0 1956.6770125362891 92.985831089633962 0 92.985831089633962 115.05484030898378 0 0 0 0 -112.80777610644691 -183.05581970193646 0 -183.05581970193646 275.97944643350365 0 0 0 0 315.73670931630477 106.08109069579677 0 106.08109069579677 253.94884901014788 0 0 0 0 596.93228274318972 -118.87234593966554 0 -118.87234593966554 272.43167483367847 0 0 0 0 885.28353449974384 260.47122224501283 0 260.47122224501283 307.66855723595586 0 0 0 0 709.55978033432621 187.11719905904044 0 187.11719905904044 476.17941880198396 0 0 0 0 956.33649473324476 -50.702708908968546 0 -50.702708908968546 268.94763642135683 0 0 0 0 1795.8411826391093 218.68597393901189 0 218.68597393901189 182.27930526579331 0 0 0 0 1995.2109475841207 -183.78497960261177 0 -183.78497960261177 -221.32326968595476 0 0 0 0 1398.1992765579344 259.18363867767187 0 259.18363867767187 160.24214353205954 0 0 0 0 863.66271402468556 -176.3747932075197 0 -176.3747932075197 20.860032269336216 0 0 0 0 295.83993374874444 -84.473133623373357 0 -84.473133623373357 238.21165884494056 0 0 0 0 791.52401645971986 189.2920163463607 0 189.2920163463607 94.546032298019298 0 0 0 0 138.88249934322084 37.537415045087755 0 37.537415045087755 115.67316006457906 0 0 0 0 55.303009373943496 -81.65565501387681 0 -81.65565501387681 -13.275063448935725 0 0 0 0 291.14272192906355 -29.771943524332983 0 -29.771943524332983 -36.431781236274219 0 0 0 0 877.19359017602983 9.7312720630864078 0 9.7312720630864078 -89.126923789744751 0 0 0 0 828.90289050289357 -88.972216867802274 0 -88.972216867802274 -179.70705676817124 0 0 0 0 445.77840447798371 136.74290394664536 0 136.74290394664536 -147.18928848871701 0 0 0 0 -49.54541383695323 295.65502619879499 0 295.65502619879499 -581.37172371936322 0 0 0 0 252.62329151199083 -120.11271173630132 0 -120.11271173630132 -223.62740461850672 0 0 0 0 419.0153582532439 26.186721628157954 0 26.186721628157954 -453.7839216798493 0 0 0 0 2027.394181566473 -52.481970368825898 0 -52.481970368825898 -292.42725270972596 0 0 0 0 1463.9360320338192 -97.895704943454263 0 -97.895704943454263 -119.96922280501371 0 0 0 0 1461.9041310859902 -121.41455378425326 0 -121.41455378425326 -205.40944191555468 0 0 0 0 875.8347191074281 17.900071562387211 0 17.900071562387211 13.274166004307133 0 0 0 0 1090.5056545918633 10.204083543350293 0 10.204083543350293 -197.28759348587869 0 0 0 0 831.2776130798884 -74.275582160752379 0 -74.275582160752379 -89.134487048001802 0 0 0 0 2386.7137205502804 -492.02927424166671 0 -492.02927424166671 -326.38809969608934 0 0 0 0 2937.3026844940687 -219.36115684061997 0 -219.36115684061997 -539.94359865991657 0 0 0 0 3596.9930105992316 17.423506515897401 0 17.423506515897401 -420.59919799199844 0 0 0 0 3001.7786050023424 -299.28748732037519 0 -299.28748732037519 -539.4557878889832 0 0 0 0 3500.0479314455442 -17.774409894224551 0 -17.774409894224551 -58.935379524671902 0 0 0 0 2327.6029522106182 243.27889194043399 0 243.27889194043399 17.849323090345877 0 0 0 0 144.01070038217949 295.37377620196031 0 295.37377620196031 -407.47158380315784 0 0 0 0 16.171684923188877 319.74741764027362 0 319.74741764027362 -411.42032628805509 0 0 0 0 -1.3188717541343067 224.69381205448406 0 224.69381205448406 -379.69243481134447 0 0 0 0 11.091262267300849 21.229466276626134 0 21.229466276626134 3.8114786358569717 0 0 0 0 3499.5148373747543 -656.04815456949575 0 -656.04815456949575 119.25262899515094 0 0 0 0 -70.387829647377657 335.24561523933949 0 335.24561523933949 -536.62650389251462 0 0 0 0 -241.55547775282321 364.36668100338966 0 364.36668100338966 -296.13040494684094 0 0 0 0 -226.4350778670123 323.02472348757539 0 323.02472348757539 -246.96519682531817 0 0 0 0 3487.4534512313348 -629.62799850012925 0 -629.62799850012925 124.57450007035624 0 0 0 0 102.21536853941507 37.936387087320099 0 37.936387087320099 -30.383009001098344 0 0 0 0 -91.240170357988973 162.83454655304405 0 162.83454655304405 -62.492902768224212 0 0 0 0 73.672335417548311 118.52028802529173 0 118.52028802529173 -114.67494311232804 0 0 0 0 222.86740052647656 67.852156921634275 0 67.852156921634275 -156.24118297090058 0 0 0 0 255.34691739685513 150.63616385416674 0 150.63616385416674 -253.23860871062146 0 0 0 0 169.72453095830133 138.12055946864825 0 138.12055946864825 -248.75578596086893 0 0 0 0 222.90418719298759 30.220491702837137 0 30.220491702837137 -308.99774196868418 0 0 0 0 393.83826254162705 6.7989440374117294 0 6.7989440374117294 -310.36205073142037 0 0 0 0 292.36071197787169 -140.72740566429411 0 -140.72740566429411 -503.17067666140736 0 0 0 0 325.43493337237305 125.680502101597 0 125.680502101597 -486.19989085560735 0 0 0 0 408.02096790224459 109.28096735758604 0 109.28096735758604 -485.03550929792232 0 0 0 0 654.89116343191563 131.5743592722734 0 131.5743592722734 -534.03829674130418 0 0 0 0 527.38362453026275 -104.74494209033887 0 -104.74494209033887 -393.08766956083127 0 0 0 0 473.40745511623027 -38.086892020406935 0 -38.086892020406935 -474.59227449957376 0 0 0 0 836.11090848250842 -33.686962307957586 0 -33.686962307957586 -386.89512029732066 0 0 0 0 683.56812687496858 23.403133379304563 0 23.403133379304563 -357.82752869337378 0 0 0 0 778.06036987498373 217.08781523464381 0 217.08781523464381 -144.84060072888644 0 0 0 0 742.69134447386568 443.01746445656312 0 443.01746445656312 -447.9506737328029 0 0 0 0 559.22623975188617 380.3870018603954 0 380.3870018603954 -133.26152886727573 0 0 0 0 756.60307021170411 1045.3098899983561 0 1045.3098899983561 -104.30846357117537 0 0 0 0 160.58707062317262 233.69017160748831 0 233.69017160748831 -466.94809134453141 0 0 0 0 107.81884985874785 743.97696646864483 0 743.97696646864483 -489.33045678012309 0 0 0 0 448.62247508555083 329.59925824477375 0 329.59925824477375 -586.90521642678618 0 0 0 0 4.3967712820589711 7.8019197168955188 0 7.8019197168955188 2.4976732380182587 0 0 0 0 4000.1121140975374 -578.95629393656327 0 -578.95629393656327 130.56279834851929 0 0 0 0 -1983.2514203530118 1338.1752492997236 0 1338.1752492997236 365.66254918630301 0 0 0 0 -858.23016290439409 118.60252802579839 0 118.60252802579839 -416.99402696829719 0 0 0 0 3504.3366452532537 2605.9910044858061 0 2605.9910044858061 923.10916762130148 0 0 0 0 -339.83665298731989 2154.0648474857471 0 2154.0648474857471 79.320312231830144 0 0 0 0 -242.30668756931846 567.83277833025409 0 567.83277833025409 -269.01670443184827 0 0 0 0 500.29938225622755 1188.4421828855275 0 1188.4421828855275 -62.866887117946646 0 0 0 0 3265.6163571273355 2000.4198319356608 0 2000.4198319356608 -304.43084634914828 0 0 0 0 1605.2941578555656 2461.9898914623818 0 2461.9898914623818 127.87515145703387 0 0 0 0 2054.959361657202 1953.5164383218939 0 1953.5164383218939 -303.79025708850776 0 0 0 0 3497.185793979992 1342.0162014425646 0 1342.0162014425646 -653.92559021364741 0 0 0 0 2241.4310462175927 1457.09010674263 0 1457.09010674263 -66.81000833841496 0 0 0 0 1364.256072706441 669.60772742215886 0 669.60772742215886 -81.920158552735643 0 0 0 0 1332.4867756666426 683.47528354681992 0 683.47528354681992 -63.896110409382217 0 0 0 0 2261.4889942372611 840.97508850556915 0 840.97508850556915 -107.07880316794672 0 0 0 0 2524.8595308996701 638.03456524376156 0 638.03456524376156 -398.4571108912852 0 0 0 0 3499.5065930591045 459.32879170049296 0 459.32879170049296 -366.17909661847381 0 0 0 0 2876.9462333148504 -195.60124207183648 0 -195.60124207183648 -4.1848788439869509 0 0 0 0 2802.3996669936905 210.70120807003863 0 210.70120807003863 -9.7554818234804763 0 0 0 0 1077.4346292363334 -561.8841266627087 0 -561.8841266627087 465.43321714814567 0 0 0 0 1737.033375029474 -217.21175830401927 0 -217.21175830401927 313.66300146720101 0 0 0 0 1942.1780690646483 -500.71588092087416 0 -500.71588092087416 485.38021523214985 0 0 0 0 1870.4543737953281 137.57062367791082 0 137.57062367791082 56.710930158089582 0 0 0 0 1441.8385330357487 -468.38281767902532 0 -468.38281767902532 316.63601271576471 0 0 0 0 1112.3970304824797 -181.07165966169015 0 -181.07165966169015 206.25094812311769 0 0 0 0 1011.9675896982808 -344.3175884912078 0 -344.3175884912078 233.26968136208623 0 0 0 0 1740.545426190225 33.656846587586692 0 33.656846587586692 9.9487908135135399 0 0 0 0 1225.9146200988907 263.10072375513141 0 263.10072375513141 44.633271204637083 0 0 0 0 1073.5438853509713 41.480745791113627 0 41.480745791113627 -44.688912941190893 0 0 0 0 398.20296411005256 -97.344473374431232 0 -97.344473374431232 91.851345453370612 0 0 0 0 719.92343950060604 -101.96696783515831 0 -101.96696783515831 91.716055038685951 0 0 0 0 193.45096898818883 -212.84862287038766 0 -212.84862287038766 175.54548229826875 0 0 0 0 71.867898251861334 -590.51183704909681 0 -590.51183704909681 391.34237030562605 0 0 0 0 386.06738215380983 -510.47183984420485 0 -510.47183984420485 282.74304126233665 0 0 0 0 445.9024357880553 -575.67440473327315 0 -575.67440473327315 340.81992348472761 0 0 0 0 376.09431599253003 -420.48136156669307 0 -420.48136156669307 393.80114448591581 0 0 0 0 598.13047202787493 -430.29477385325958 0 -430.29477385325958 286.26856736474298 0 0 0 0 752.05915939764236 -531.13496283883728 0 -531.13496283883728 433.58214044981503 0 0 0 0 574.5215664227253 -356.4829039359737 0 -356.4829039359737 351.55682707463382 0 0 0 0 398.54358762968695 -483.1333746308589 0 -483.1333746308589 372.87368482088073 0 0 0 0 316.98264877404654 -436.28234697744494 0 -436.28234697744494 373.95986864321941 0 0 0 0 178.98437344167542 -333.69635067730275 0 -333.69635067730275 335.97930363972591 0 0 0 0 311.82681573886657 -252.88675630748207 0 -252.88675630748207 354.43319439033945 0 0 0 0 517.31616017426131 -498.05030699436918 0 -498.05030699436918 429.39142802885021 0 0 0 0 839.06430369817099 -294.88840688977962 0 -294.88840688977962 416.38788768946495 0 0 0 0 161.35648017877247 -78.93419950870998 0 -78.93419950870998 146.21012615804966 0 0 0 0 209.69308204983827 -42.150082448431363 0 -42.150082448431363 62.346235513875627 0 0 0 0 182.17076338549577 -2.0524775501767607 0 -2.0524775501767607 33.115861708506827 0 0 0 0 100.93549491793505 69.681319625509431 0 69.681319625509431 3.1483265451429361 0 0 0 0 102.16800409458392 -48.074218388892419 0 -48.074218388892419 78.638906096427036 0 0 0 0 134.75915494780929 -101.57986709442818 0 -101.57986709442818 129.41567313961923 0 0 0 0 135.83579359306896 -160.87315407479673 0 -160.87315407479673 237.47286046552472 0 0 0 0 329.17985465395759 -309.16214607687152 0 -309.16214607687152 236.81110525479221 0 0 0 0 339.11890473758103 -338.33884036902344 0 -338.33884036902344 178.3337210657179 0 0 0 0 225.48020483503205 -67.51559040503048 0 -67.51559040503048 73.794708140539342 0 0 0 0 314.74110243843961 -112.10677512587542 0 -112.10677512587542 85.280911589264861 0 0 0 0 482.29082923850001 -769.7345958547113 0 -769.7345958547113 406.18151788170718 0 0 0 0 663.12669910654222 -150.58730546822761 0 -150.58730546822761 46.805674180544088 0 0 0 0 449.49739500321448 -401.93429579776767 0 -401.93429579776767 214.5632841658437 0 0 0 0 473.26876992125472 -507.53923264100888 0 -507.53923264100888 98.940332385029663 0 0 0 0 1068.0378057810126 120.49008537555034 0 120.49008537555034 -26.523771504622971 0 0 0 0 1044.7575779106592 -682.88476067707632 0 -682.88476067707632 152.1796949624306 0 0 0 0 -183.16244896812714 -527.50594071103626 0 -527.50594071103626 458.85218591889532 0 0 0 0 1105.6116583503626 -297.4176181839253 0 -297.4176181839253 -340.45639746699635 0 0 0 0 767.8131267360659 129.06591093289126 0 129.06591093289126 -577.9190593084279 0 0 0 0 -32.598731508296623 233.75970694595213 0 233.75970694595213 -325.90935651357017 0 0 0 0 429.00402672596101 -239.3989839881219 0 -239.3989839881219 69.391526375108384 0 0 0 0 365.3599424340282 -301.12167454071658 0 -301.12167454071658 -838.80498924665039 0 0 0 0 0.070849928061529566 1.2336705331703399 0 1.2336705331703399 -13.058565198021816 0 0 0 0 -143.62281328599784 -347.78441137246051 0 -347.78441137246051 -312.27568645229132 0 0 0 0 -66.065167166921015 188.27336441652784 0 188.27336441652784 -128.60379148175434 0 0 0 0 86.722398080426501 -125.9022210144355 0 -125.9022210144355 -99.479874469610365 0 0 0 0 179.17995207858621 35.693101554996019 0 35.693101554996019 -100.25649767812146 0 0 0 0 213.32672643136902 17.580525562917501 0 17.580525562917501 -102.40458787636123 0 0 0 0 569.88577211976371 -89.841594644546603 0 -89.841594644546603 -178.00125820277003 0 0 0 0 442.31282771455517 53.305964974194239 0 53.305964974194239 -334.52488405216309 0 0 0 0 695.43222818220238 -185.28889368634009 0 -185.28889368634009 -171.54672723004569 0 0 0 0 373.94624312915403 -46.799373422121334 0 -46.799373422121334 -112.04831585309006 0 0 0 0 685.48934074952194 -36.123122008626524 0 -36.123122008626524 48.45285223880046 0 0 0 0 664.43470206709026 -198.74225192665108 0 -198.74225192665108 -48.219286129854481 0 0 0 0 795.16167982041952 -98.019284440823867 0 -98.019284440823867 -139.63316467318623 0 0 0 0 629.73011442325515 -141.7766724761309 0 -141.7766724761309 -141.59774560255937 0 0 0 0 648.36768832533562 -83.055690194088129 0 -83.055690194088129 -116.52308783673902 0 0 0 0 -2.6313719794325081 2.0463257558434762 0 2.0463257558434762 3.4428133078217229 0 0 0 0 69.683404516381415 -95.352609686180585 0 -95.352609686180585 70.202768737803694 0 0 0 0 34.991824780877323 71.780230711772674 0 71.780230711772674 43.94728907955232 0 0 0 0 2.7540484002026346 -3.0852910114288044 0 -3.0852910114288044 1.1250039834434746 0 0 0 0 715.94069709649921 -53.97572296081421 0 -53.97572296081421 -118.95688284862445 0 0 0 0 293.9970939891009 -232.82313050953769 0 -232.82313050953769 59.834459735953715 0 0 0 0 238.48579157450149 201.4001967902754 0 201.4001967902754 172.51564298666796 0 0 0 0 70.954686532255437 36.8791990460238 0 36.8791990460238 30.968233105798632 0 0 0 0 58.398660242834012 66.751372747921096 0 66.751372747921096 34.249666297314505 0 0 0 0 73.951654350374156 56.678231973765719 0 56.678231973765719 -20.744712939663714 0 0 0 0 93.327049287603586 17.156004615030042 0 17.156004615030042 -18.518536147771215 0 0 0 0 513.44500475487803 -275.66648855110952 0 -275.66648855110952 159.79391592623313 0 0 0 0 545.00806518085483 -270.74332089815107 0 -270.74332089815107 137.82127646330832 0 0 0 0 930.76375596490743 -671.90422268108352 0 -671.90422268108352 60.283816036529515 0 0 0 0 518.57504613270794 -379.84961981320771 0 -379.84961981320771 -139.76155227944827 0 0 0 0 171.12663444743885 -617.33888017560196 0 -617.33888017560196 421.03991724643959 0 0 0 0 10.61526713779547 -5.5521421103490738 0 -5.5521421103490738 2.9670739977384346 0 0 0 0 26.603752328206298 -14.545872596930494 0 -14.545872596930494 7.2681052167591407 0 0 0 0 62.499616652039549 -4.8125815550491922 0 -4.8125815550491922 19.464646172236144 0 0 0 0 223.98765007642214 98.504868869271974 0 98.504868869271974 86.376005488521287 0 0 0 0 77.428073331171618 -40.889274462206544 0 -40.889274462206544 105.02378853605865 0 0 0 0 163.23992139889742 77.939267705309589 0 77.939267705309589 62.194694151040949 0 0 0 0 227.21800709750096 -63.868555202814036 0 -63.868555202814036 80.519910213052754 0 0 0 0 49.305049648573913 30.606274345751928 0 30.606274345751928 50.437008636677092 0 0 0 0 141.08054226685999 70.003819706950139 0 70.003819706950139 -51.130113507635542 0 0 0 0 88.991619041647937 97.437548251192084 0 97.437548251192084 -32.15660587939783 0 0 0 0 154.35360929344461 46.507357936609537 0 46.507357936609537 -18.714122425315622 0 0 0 0 116.61742188793869 17.463518117211606 0 17.463518117211606 60.42221918208611 0 0 0 0 127.1418398393289 86.817188032211561 0 86.817188032211561 -38.79745174901791 0 0 0 0 -49.342895065330595 61.641825955404499 0 61.641825955404499 -20.11043770507456 0 0 0 0 58.622191727640711 51.42948417083926 0 51.42948417083926 -30.181749004204221 0 0 0 0 51.37791194672289 27.888182368747024 0 27.888182368747024 -16.290788423473607 0 0 0 0 6.3535457840043819 26.57798006612029 0 26.57798006612029 43.373460537601545 0 0 0 0 63.529564305640378 22.71528077173194 0 22.71528077173194 -14.223140077901656 0 0 0 0 4.5400009110444444 43.0592888088769 0 43.0592888088769 6.1800067834004722 0 0 0 0 128.06227101414333 30.722432745780679 0 30.722432745780679 -7.2410870727071597 0 0 0 0 114.63382943236866 -6.133042240737268 0 -6.133042240737268 -177.93352824381168 0 0 0 0 25.128038582419322 9.2752257552283481 0 9.2752257552283481 -11.463736195509227 0 0 0 0 46.722126271168548 -11.292454961491122 0 -11.292454961491122 1.9269012295996086 0 0 0 0 35.844125977906515 -14.854885715233536 0 -14.854885715233536 35.452359607102807 0 0 0 0 98.634933975280092 96.314903999041661 0 96.314903999041661 -39.664975429780498 0 0 0 0 147.79654473909432 -133.12270794470282 0 -133.12270794470282 -270.65714979135441 0 0 0 0 104.81867342175246 70.851283154580187 0 70.851283154580187 -129.24150242227006 0 0 0 0 77.373137274982582 59.07514492301641 0 59.07514492301641 -20.896060503945137 0 0 0 0 74.711743605235824 43.356031173422707 0 43.356031173422707 -2.7047766007931386 0 0 0 0 82.96556066201083 44.850459860409046 0 44.850459860409046 -75.717509251187039 0 0 0 0 54.599695080648416 -4.7860087390440071 0 -4.7860087390440071 -56.219606310608469 0 0 0 0 83.088543018915516 -10.113745713214371 0 -10.113745713214371 -12.239990043055286 0 0 0 0 87.160014175038668 7.1335512708820943 0 7.1335512708820943 -23.26709527458604 0 0 0 0 31.64365708285095 91.675246624592319 0 91.675246624592319 -16.962746351716532 0 0 0 0 41.644753024013824 22.260823626736876 0 22.260823626736876 -17.40968105171163 0 0 0 0 50.446128614785266 1.9976068898522499 0 1.9976068898522499 -3.7063356578191815 0 0 0 0 94.658222605816263 34.158936621190151 0 34.158936621190151 4.4438710495487612 0 0 0 0 159.22318903958876 -40.334886519426846 0 -40.334886519426846 -0.55660262818855699 0 0 0 0 117.41994232396974 67.927335016652023 0 67.927335016652023 37.921526966229067 0 0 0 0 27.98166316980496 -70.328071520242702 0 -70.328071520242702 96.898254235654349 0 0 0 0 55.879659467718739 -57.818123626570014 0 -57.818123626570014 -55.504107285993086 0 0 0 0 93.210525399761536 -1.1787516716849495 0 -1.1787516716849495 -83.628154628146945 0 0 0 0 40.067777275842673 21.230891325147354 0 21.230891325147354 -31.757801778057001 0 0 0 0 92.453187878112658 -1.2991406472569906 0 -1.2991406472569906 -63.392166853741628 0 0 0 0 52.026705165015386 5.035213027543854 0 5.035213027543854 -24.600737639761732 0 0 0 0 151.25674889258516 -4.8705676099009452 0 -4.8705676099009452 -54.812834815032829 0 0 0 0 80.278627572167281 -7.8855835985644944 0 -7.8855835985644944 -9.2430870948491233 0 0 0 0 16.516889335282031 -39.387285259081182 0 -39.387285259081182 3.3631201849048011 0 0 0 0 67.289646742792684 -48.910049730204946 0 -48.910049730204946 -0.89523831091673856 0 0 0 0 13.661285577196509 -6.6644274938869543 0 -6.6644274938869543 -3.7213287985120722 0 0 0 0 96.272506823785079 -18.611530490763926 0 -18.611530490763926 0.75634762877962203 0 0 0 0 87.999743396008853 -11.8548195094736 0 -11.8548195094736 11.816111806954723 0 0 0 0 -7.2720441310857495 -6.9641971118777093 0 -6.9641971118777093 5.1432397213317138 0 0 0 0 37.922137887098188 -32.309386160524838 0 -32.309386160524838 -5.9894846283349494 0 0 0 0 50.819402319655637 -114.78792396727204 0 -114.78792396727204 3.8365555960475035 0 0 0 0 90.698036721369135 6.5953815318360967 0 6.5953815318360967 -20.509380280200276 0 0 0 0 70.073599764247774 -35.013727645199197 0 -35.013727645199197 -59.280705981785559 0 0 0 0 58.333889516915406 -14.475911057297722 0 -14.475911057297722 -5.1231231635265004 0 0 0 0 19.465155657476949 -2.532579427280254 0 -2.532579427280254 -7.9165163154497158 0 0 0 0 62.440705588920537 -13.301607862372748 0 -13.301607862372748 -5.3681014411522483 0 0 0 0 71.878283244965132 7.7266472768992571 0 7.7266472768992571 -36.68931917610189 0 0 0 0 53.080301162512114 -15.439389244550341 0 -15.439389244550341 3.9189421670907905 0 0 0 0 100.62539178194129 15.957290967295194 0 15.957290967295194 -23.456732503367675 0 0 0 0 66.221674647473264 -28.84752921864947 0 -28.84752921864947 2.3813910701173882 0 0 0 0 69.946068678176744 -28.84083501432815 0 -28.84083501432815 -13.358560469519944 0 0 0 0 55.480013344002145 2.0621539942522418 0 2.0621539942522418 -27.380722327628973 0 0 0 0 34.201072232148164 -5.9476294101540095 0 -5.9476294101540095 -10.553254002171341 0 0 0 0 52.534153596840042 -17.050829961840918 0 -17.050829961840918 -1.1997261393566987 0 0 0 0 40.858891669274456 -5.3720396571041746 0 -5.3720396571041746 -9.5027536482409687 0 0 0 0 6.426469264322094 -7.4515792169742454 0 -7.4515792169742454 -4.0272760009017263 0 0 0 0 56.413415532838371 -12.506355325943332 0 -12.506355325943332 -8.280131775314203 0 0 0 0 58.395104353692659 -17.695880238213704 0 -17.695880238213704 -2.5833742945278573 0 0 0 0 27.034143895157285 -21.722169988839376 0 -21.722169988839376 -5.8045771920652225 0 0 0 0 54.029866869288526 -10.498140975254501 0 -10.498140975254501 -11.235740466256175 0 0 0 0 37.925471035438932 -14.982293417025062 0 -14.982293417025062 -16.266970643014247 0 0 0 0 40.294345524005621 -7.8778033411090291 0 -7.8778033411090291 -7.7315260321502137 0 0 0 0 51.583778674063069 -13.927342884485597 0 -13.927342884485597 -13.67612747935982 0 0 0 0 34.732972914614948 -7.5587761266692723 0 -7.5587761266692723 -12.30996835165206 0 0 0 0 46.840550255183189 -17.104473314485404 0 -17.104473314485404 -11.131394138357336 0 0 0 0 45.153535082519738 -15.356038421585254 0 -15.356038421585254 -12.535977533826554 0 0 0 0 24.672517567640689 -5.4402555923658937 0 -5.4402555923658937 -4.1089521353901013 0 0 0 0 29.897838282429575 -5.8542629692973378 0 -5.8542629692973378 -15.437075925481622 0 0 0 0 28.998114842488349 -14.5734331996008 0 -14.5734331996008 -10.221970820704882 0 0 0 0 29.235150814398324 -3.775894727978276 0 -3.775894727978276 -4.675415534757974 0 0 0 0 42.122334646817762 3.1250059008043536 0 3.1250059008043536 -7.1905802122810201 0 0 0 0 17.6527862673247 -1.9565757848281464 0 -1.9565757848281464 -12.388833001336252 0 0 0 0 24.155266655061013 0.1073230630460813 0 0.1073230630460813 -7.8471329641760992 0 0 0 0 20.45196402849615 11.044228344718022 0 11.044228344718022 10.143641369863872 0 0 0 0 17.874078643300791 -0.47837297943950574 0 -0.47837297943950574 -5.7533446690159202 0 0 0 0 43.431438026549586 10.405404319200557 0 10.405404319200557 -48.110283254774913 0 0 0 0 5.7922852065929717 -0.22160192491916675 0 -0.22160192491916675 -3.4923241900267996 0 0 0 0 49.513602897077362 -8.8999826306089744 0 -8.8999826306089744 -17.143555632830612 0 0 0 0 69.448025152356422 -15.675869750942184 0 -15.675869750942184 -16.54497973780235 0 0 0 0 47.665562013644376 -12.921449233216435 0 -12.921449233216435 -6.5017766361434042 0 0 0 0 69.776505814164238 -27.899191237712884 0 -27.899191237712884 -7.5840930679132725 0 0 0 0 38.357126805763983 5.5479647144541104 0 5.5479647144541104 -5.4186069097864547 0 0 0 0 16.141285784098208 6.6576516757940567 0 6.6576516757940567 -9.6191879070676354 0 0 0 0 22.257991339958856 18.408225081375534 0 18.408225081375534 -21.318964561716946 0 0 0 0 -1.6641438173705652 3.734255066621639 0 3.734255066621639 -3.8857485233695019 0 0 0 0 -36.426848833230906 45.094896108432977 0 45.094896108432977 -47.314986797103415 0 0 0 0 7.5595019693282666 27.278044962135482 0 27.278044962135482 -19.889863455451632 0 0 0 0 49.98763264335139 35.184542978038507 0 35.184542978038507 18.570299393723644 0 0 0 0 71.527092791468021 55.695296696755292 0 55.695296696755292 4.0505430862183402 0 0 0 0 103.31437546470988 21.415002782863183 0 21.415002782863183 -5.9770044809072829 0 0 0 0 87.76846302438571 56.370060593245057 0 56.370060593245057 -16.322503061373283 0 0 0 0 56.281434771098247 53.549313124287892 0 53.549313124287892 47.567101360934885 0 0 0 0 8.339449744425437 -4.4349029266052487 0 -4.4349029266052487 1.6228671763687006 0 0 0 0 11.655145942535455 4.4683976462085866 0 4.4683976462085866 -4.0310937973586078 0 0 0 0 42.47810710923477 -7.6735692653030583 0 -7.6735692653030583 -40.691009457251766 0 0 0 0 68.350520861225959 16.374857305711885 0 16.374857305711885 -32.084705119071714 0 0 0 0 5.2057180319828618 2.8882064893023482 0 2.8882064893023482 -2.3513451212165783 0 0 0 0 16.08311145057575 -1.2167276340592483 0 -1.2167276340592483 -1.2125773854858264 0 0 0 0 -4.6747989129980851 -47.098655175193016 0 -47.098655175193016 107.87854305212022 0 0 0 0 67.904773594389553 21.715216735795366 0 21.715216735795366 -24.648079608114131 0 0 0 0 56.86108278429856 38.405781654113184 0 38.405781654113184 -1.4820604201258902 0 0 0 0 56.304729033181502 -69.223394469542654 0 -69.223394469542654 88.164756667214533 0 0 0 0 -4.9629787864905666 -51.111765052117335 0 -51.111765052117335 59.808965960612113 0 0 0 0 -1.0717087993207493 2.432269480104793 0 2.432269480104793 4.1543991308907451 0 0 0 0 -6.0077559884666698 20.827776428181551 0 20.827776428181551 -16.53080965148547 0 0 0 0 -35.621519206204539 47.956172319477446 0 47.956172319477446 57.731214487732359 0 0 0 0 7.3527509160558111 39.773043098874041 0 39.773043098874041 32.567669962245418 0 0 0 0 67.450553100992693 -96.872678592979355 0 -96.872678592979355 123.79817029280457 0 0 0 0 78.212103327918157 -19.04355491491151 0 -19.04355491491151 43.018639082212758 0 0 0 0 165.43279306053591 -3.2482470499580813 0 -3.2482470499580813 52.614823769064969 0 0 0 0 62.108503224953893 -57.749773236864712 0 -57.749773236864712 62.306447215247317 0 0 0 0 81.896967421314912 -57.090546340023138 0 -57.090546340023138 61.714515236824809 0 0 0 0 36.077702794544166 -83.276686920328757 0 -83.276686920328757 121.77087943799052 0 0 0 0 88.707267315374338 -60.90744691463442 0 -60.90744691463442 62.058674844360212 0 0 0 0 226.65445884919609 -129.16147481836379 0 -129.16147481836379 82.100063863790638 0 0 0 0 210.00902958048755 14.184789162459538 0 14.184789162459538 -60.529638477877597 0 0 0 0 78.413254727842286 68.094503317624913 0 68.094503317624913 104.47510981642449 0 0 0 0 13.264460266967944 6.5163429905405792 0 6.5163429905405792 60.587921014383028 0 0 0 0 85.01753195693891 50.527777835170127 0 50.527777835170127 17.7347722052873 0 0 0 0 58.11680519865331 -11.792019908471048 0 -11.792019908471048 52.234440005418946 0 0 0 0 54.854004440232529 44.415645876635608 0 44.415645876635608 87.340303754161141 0 0 0 0 40.293166286275664 21.413031200443584 0 21.413031200443584 47.784363011827736 0 0 0 0 44.091419184594997 -42.153179838086544 0 -42.153179838086544 40.671816387439321 0 0 0 0 19.385533635304455 -15.122135873548359 0 -15.122135873548359 43.078955257791677 0 0 0 0 35.859464081215265 -38.288800588356025 0 -38.288800588356025 47.954534643657098 0 0 0 0 19.507645168807358 -35.246484235864045 0 -35.246484235864045 40.384883133672702 0 0 0 0 4.2736835391770001 -75.669178969208588 0 -75.669178969208588 31.348306863355901 0 0 0 0 5.5436047848634189 -70.920730883631222 0 -70.920730883631222 59.17344210277588 0 0 0 0 34.512506131803548 -70.057522787218204 0 -70.057522787218204 56.894388546192204 0 0 0 0 21.190253669912636 -55.729875383542094 0 -55.729875383542094 43.69897740925262 0 0 0 0 17.054338417234248 -60.820200621965341 0 -60.820200621965341 82.642495003437944 0 0 0 0 24.061709923887975 -61.584314346624524 0 -61.584314346624524 82.695117769671015 0 0 0 0 20.306086560362928 -66.896350595955482 0 -66.896350595955482 57.032545763238886 0 0 0 0 4.2206270796159515 -45.910616416071207 0 -45.910616416071207 85.59130449039003 0 0 0 0 6.4522166680653754 -65.75954938054565 0 -65.75954938054565 109.25281183631887 0 0 0 0 3.6731786927412031 -15.582481214886684 0 -15.582481214886684 75.911519519271678 0 0 0 0 -5.2796310101875861 -10.810648149803455 0 -10.810648149803455 91.911469174616741 0 0 0 0 4.1458847042304114 -48.191775664539819 0 -48.191775664539819 75.269104391431028 0 0 0 0 12.070080079753097 -35.458147528271184 0 -35.458147528271184 25.147911936295714 0 0 0 0 10.571995741102 -68.130505489918505 0 -68.130505489918505 38.408422610820253 0 0 0 0 15.522743918327251 -65.988763025336084 0 -65.988763025336084 20.937387849662628 0 0 0 0 4.4754038025312184 -22.966217391890041 0 -22.966217391890041 16.110083572229996 0 0 0 0 8.5504437316589179 -11.104526553954468 0 -11.104526553954468 -4.8690038645184117 0 0 0 0 18.033382957328286 -66.170538482683696 0 -66.170538482683696 -27.230471611378562 0 0 0 0 29.499407544319183 -16.30780471382468 0 -16.30780471382468 -6.3284527997657278 0 0 0 0 4.9068795233652054 -5.4890188749350273 0 -5.4890188749350273 -5.9666947373293624 0 0 0 0 15.241572617624925 -6.7903127219794976 0 -6.7903127219794976 -2.4906310098750826 0 0 0 0 29.222825102366187 -7.605338010588639 0 -7.605338010588639 -17.432539106663171 0 0 0 0 12.302043913552986 -6.8676336929486945 0 -6.8676336929486945 -4.3520914668880009 0 0 0 0 22.779833233587851 -9.2663591457417169 0 -9.2663591457417169 -12.563637954804108 0 0 0 0 0.65827250912843738 2.3350427425757516 0 2.3350427425757516 -0.35424425031305873 0 0 0 0 10.583167116346885 -4.5588231019683008 0 -4.5588231019683008 -15.523062282090905 0 0 0 0 -0.41595390670140375 0.34122074871519459 0 0.34122074871519459 1.4060026414072766 0 0 0 0 3.6442452738738211 -48.928856765171986 0 -48.928856765171986 136.41564847763129 0 0 0 0 2.4324858901200059 -0.9351870450241222 0 -0.9351870450241222 3.7441057575069863 0 0 0 0 -0.66137268154756157 -3.9442290996679432 0 -3.9442290996679432 1.6033158562205321 0 0 0 0 7.090353375140694 -2.7733580744406936 0 -2.7733580744406936 -4.5884870501577097 0 0 0 0 8.4223279944683433 -4.1452393353915511 0 -4.1452393353915511 -3.4577044096067162 0 0 0 0 -0.1718471062630087 0.47105547460086816 0 0.47105547460086816 -0.85474480838895239 0 0 0 0 14.31986768386929 -2.1834237066079787 0 -2.1834237066079787 -12.34603225611753 0 0 0 0 2.9039025149832014 13.77940254616442 0 13.77940254616442 -15.05427166514346 0 0 0 0 13.369336460120394 17.866386443062765 0 17.866386443062765 12.216473807215152 0 0 0 0 -9.6432349311398866 -21.707443286952184 0 -21.707443286952184 115.291184308879 0 0 0 0 -146.09961624042626 -336.53744029888549 0 -336.53744029888549 265.17319165298159 0 0 0 0 320.39696946980621 63.846185388438244 0 63.846185388438244 -505.23281888959264 0 0 0 0 138.06701398255973 -114.72565792730165 0 -114.72565792730165 -107.86125762985171 0 0 0 0 -5.7920688728690877 -2.3721153046604186 0 -2.3721153046604186 1.2541849870379886 0 0 0 0 -58.640147102614719 219.324220416206 0 219.324220416206 -290.37399038340936 0 0 0 0 -82.930933279254532 70.635207984033514 0 70.635207984033514 -87.030131054852063 0 0 0 0 92.216753484201945 -49.803182201882919 0 -49.803182201882919 -117.28022837835306 0 0 0 0 -18.500370754075448 -39.194269688042823 0 -39.194269688042823 93.773180909533039 0 0 0 0 35.808332149579655 -56.257680276432438 0 -56.257680276432438 -343.59686477914033 0 0 0 0 7.1219324577832595 -93.57518558652373 0 -93.57518558652373 -14.538563443497424 0 0 0 0 58.245979765058465 -30.622452836759933 0 -30.622452836759933 9.6550847174536951 0 0 0 0 106.90034303946959 -16.213617548894945 0 -16.213617548894945 96.738209689467112 0 0 0 0 -36.50599326977499 82.073231155658505 0 82.073231155658505 265.74139871823445 0 0 0 0 -1.43025664436027 -61.376320442983342 0 -61.376320442983342 -24.884002612572658 0 0 0 0 -7.307863999851179 -78.019127872607896 0 -78.019127872607896 -2.5685181371445651 0 0 0 0 9.7054120645552757 -90.027881654094017 0 -90.027881654094017 5.1390567376492982 0 0 0 0 6.6199301380984252 -67.273369322356302 0 -67.273369322356302 20.237567840042175 0 0 0 0 2.9769218137880671 -86.736141586912709 0 -86.736141586912709 -7.6710085422273551 0 0 0 0 -40.348323070498736 -79.848254452241235 0 -79.848254452241235 4.4924711287058017 0 0 0 0 -1.8627949756046291 -127.74453303154041 0 -127.74453303154041 -90.289558117946399 0 0 0 0 -19.919220662362932 -54.641064347211795 0 -54.641064347211795 35.108984277711897 0 0 0 0 -13.753670539073937 11.614749471348659 0 11.614749471348659 51.679829501576933 0 0 0 0 -28.392976959192765 -13.597151590943213 0 -13.597151590943213 90.519238072134613 0 0 0 0 -113.60034028741575 -106.42427754369601 0 -106.42427754369601 37.600384950847001 0 0 0 0 5.9126913444124511 -70.903794816220397 0 -70.903794816220397 -56.438664337365481 0 0 0 0 23.644237039001382 135.58323795041542 0 135.58323795041542 164.06393392651808 0 0 0 0 -174.41109036149828 -26.655697222724939 0 -26.655697222724939 262.34453706022396 0 0 0 0 -80.195204695979555 -80.712019949390196 0 -80.712019949390196 26.84461330893464 0 0 0 0 -97.452435522902306 -126.13121899274756 0 -126.13121899274756 -104.85392440649412 0 0 0 0 -159.93606023206667 -118.89828817158923 0 -118.89828817158923 40.080048347361299 0 0 0 0 186.79569849444852 154.35276149493538 0 154.35276149493538 -79.587348740579728 0 0 0 0 86.888982394944563 -50.551418862004006 0 -50.551418862004006 24.261880510570514 0 0 0 0 -112.58111524926062 -202.43062352609559 0 -202.43062352609559 -57.918307599734362 0 0 0 0 82.587844604131533 -5.8129514027219784 0 -5.8129514027219784 -110.33177248741549 0 0 0 0 -26.053875388388406 44.848025291381532 0 44.848025291381532 -37.249453230385143 0 0 0 0 -126.11753270211921 7.3771421972073767 0 7.3771421972073767 -44.176828141615715 0 0 0 0 26.997737123601837 37.370557501320093 0 37.370557501320093 -83.384189053762384 0 0 0 0 12.882414859752316 -0.8533749292464563 0 -0.8533749292464563 -184.34524917591625 0 0 0 0 113.86532490267651 -73.159110635309375 0 -73.159110635309375 40.637623648522094 0 0 0 0 646.72158903491072 -596.7197283118112 0 -596.7197283118112 -471.54820004734938 0 0 0 0 -600.35742210183889 -577.31301653982791 0 -577.31301653982791 -148.31454365271748 0 0 0 0 -221.09638325522428 -181.1577114024069 0 -181.1577114024069 -240.88500654550899 0 0 0 0 900.92574648615664 -329.86849621077158 0 -329.86849621077158 -255.43785347242738 0 0 0 0 859.29352055778509 120.91155372432695 0 120.91155372432695 115.72965047697289 0 0 0 0 915.04302555180948 -272.13733122410304 0 -272.13733122410304 -919.6313511177359 0 0 0 0 -32.451902523243916 8.2361425527783467 0 8.2361425527783467 -196.92057736272625 0 0 0 0 -1.3643037281333079 1.7922092725301546 0 1.7922092725301546 2.9454156204833453 0 0 0 0 412.88948815636104 -20.809933873166301 0 -20.809933873166301 -17.542620540277539 0 0 0 0 1.3122485081013195 4.7117311736682481 0 4.7117311736682481 -1.2722416841701456 0 0 0 0 1323.8272111381739 134.34972204037422 0 134.34972204037422 -123.59897781641507 0 0 0 0 664.12750953053182 -90.511772473702877 0 -90.511772473702877 -59.501153649438493 0 0 0 0 -19.878763662734855 78.747232766397246 0 78.747232766397246 -107.94164559459023 0 0 0 0 69.248267376013246 8.4933726897776296 0 8.4933726897776296 -104.15726632735846 0 0 0 0 12.563207654127503 5.3207218049802485 0 5.3207218049802485 -0.12458386634086926 0 0 0 0 14.477425624388161 38.82721346900712 0 38.82721346900712 -61.635363142039296 0 0 0 0 22.696492541662337 9.8347296473540666 0 9.8347296473540666 -7.1816200275051187 0 0 0 0 144.72566342547589 -145.66525710172564 0 -145.66525710172564 -35.355325117061739 0 0 0 0 96.247969434745755 -102.62662208633816 0 -102.62662208633816 9.1497490474586129 0 0 0 0 62.776693264228925 -56.428170571993462 0 -56.428170571993462 -54.58695057133491 0 0 0 0 1.5474684913949091 -7.8117626538738278 0 -7.8117626538738278 -8.5484305978282844 0 0 0 0 39.578200967412045 3.6252282710933121 0 3.6252282710933121 -6.3982876378529996 0 0 0 0 95.306738800076801 -35.811220550647477 0 -35.811220550647477 -70.491497676044219 0 0 0 0 27.086743952232609 6.3552064404757402 0 6.3552064404757402 -12.008682293256243 0 0 0 0 30.068742076520905 -5.4442801993066983 0 -5.4442801993066983 -7.2188769329569737 0 0 0 0 17.117945696878451 11.522048266574529 0 11.522048266574529 -14.927446344083734 0 0 0 0 29.454216669980269 2.2273046150242521 0 2.2273046150242521 -35.095481062431418 0 0 0 0 144.47676395606868 -190.92545129787004 0 -190.92545129787004 292.80759789368494 0 0 0 0 5.1974780652924863 -4.3917579435638174 0 -4.3917579435638174 -0.36416313709749915 0 0 0 0 147.9865064898022 -186.2209498702955 0 -186.2209498702955 219.3464470817371 0 0 0 0 173.03382259800128 -220.30739287901906 0 -220.30739287901906 208.41173166527051 0 0 0 0 163.56625592537603 -235.24545285280328 0 -235.24545285280328 234.39702375832985 0 0 0 0 74.163000678439857 -46.842976026078759 0 -46.842976026078759 -25.992606226230691 0 0 0 0 -8.1423984241882863 8.1212482548730804 0 8.1212482548730804 50.983344375674278 0 0 0 0 227.05387139204635 -205.76103946965307 0 -205.76103946965307 60.506654886034084 0 0 0 0 85.231490478581691 -101.38603876118759 0 -101.38603876118759 37.513798095999107 0 0 0 0 -0.16369788592686518 -0.40571210816640502 0 -0.40571210816640502 -0.87457612535208895 0 0 0 0 226.51385173407073 -227.73700756380646 0 -227.73700756380646 163.11108275306469 0 0 0 0 167.56897406962526 -227.37492258993598 0 -227.37492258993598 218.69668663491393 0 0 0 0 176.6155767074597 -249.31958437136018 0 -249.31958437136018 184.76253933645148 0 0 0 0 153.34448306687409 -236.78316886363973 0 -236.78316886363973 176.03957949536743 0 0 0 0 170.43052502710634 -234.42852570010018 0 -234.42852570010018 173.64724165097596 0 0 0 0 186.01375206223747 -265.36188134836539 0 -265.36188134836539 134.10947751394906 0 0 0 0 133.5041729732111 -278.14763937023758 0 -278.14763937023758 212.47931529501329 0 0 0 0 102.86935578532575 -215.00353756025743 0 -215.00353756025743 166.64486548974492 0 0 0 0 111.32053736227681 -191.1589350287768 0 -191.1589350287768 193.50309685057073 0 0 0 0 -1.9961576385394437 -138.85120353132584 0 -138.85120353132584 174.2653162448587 0 0 0 0 57.647561616526218 -233.68766648191945 0 -233.68766648191945 285.37496263589037 0 0 0 0 75.595211239495256 -271.85335746022747 0 -271.85335746022747 214.43160581247048 0 0 0 0 115.9501571002329 -361.74860041199554 0 -361.74860041199554 214.33172116190144 0 0 0 0 253.51529646725976 -442.54499024753386 0 -442.54499024753386 258.23228234618318 0 0 0 0 316.51038315923688 -291.9100211095099 0 -291.9100211095099 53.186302316862566 0 0 0 0 244.91069174392032 -372.94801315112159 0 -372.94801315112159 179.80677417570223 0 0 0 0 175.1469797092941 -297.34807704951345 0 -297.34807704951345 154.29920189948461 0 0 0 0 57.609963541896207 4.1931004869933197 0 4.1931004869933197 -8.6606664864310066 0 0 0 0 11.854605420905045 -6.7762242610010013 0 -6.7762242610010013 -0.45990270342564799 0 0 0 0 248.69422113575274 44.067039737854429 0 44.067039737854429 -121.02936775374292 0 0 0 0 -18.155191243451554 310.42721275697113 0 310.42721275697113 -735.84881478465923 0 0 0 0 176.99342890287153 -11.830725387868824 0 -11.830725387868824 -59.457371815493389 0 0 0 0 189.52588902149 -87.11754539013873 0 -87.11754539013873 23.924979410155856 0 0 0 0 195.79759007948269 -81.000411163694253 0 -81.000411163694253 -44.406652228798521 0 0 0 0 69.228111618846015 -85.827838335842898 0 -85.827838335842898 117.28039446706862 0 0 0 0 87.039152153360192 -14.255802541060802 0 -14.255802541060802 38.110272316080227 0 0 0 0 90.184076078192447 -121.68573659022604 0 -121.68573659022604 150.13246182177261 0 0 0 0 94.348926094135095 -114.86737125633454 0 -114.86737125633454 141.95769138829564 0 0 0 0 142.02293491010823 -184.53895272278203 0 -184.53895272278203 128.60211599148533 0 0 0 0 89.79686668710201 -136.97923547963455 0 -136.97923547963455 123.26256029413071 0 0 0 0 132.76361554508912 -166.657500337491 0 -166.657500337491 142.9495199577068 0 0 0 0 137.44888472594903 -135.76338188960472 0 -135.76338188960472 106.73139235133385 0 0 0 0 139.52762941107903 -119.22238685796333 0 -119.22238685796333 76.677914131107173 0 0 0 0 215.6712356797434 -195.09370111930184 0 -195.09370111930184 141.66472346416958 0 0 0 0 191.70012468579807 -155.53980742864587 0 -155.53980742864587 86.547511287378711 0 0 0 0 180.3314651302353 -223.18138000760428 0 -223.18138000760428 162.61257639145788 0 0 0 0 224.46804699407221 -280.67978029771848 0 -280.67978029771848 233.68733955378048 0 0 0 0 175.57064493994312 -216.52273430969413 0 -216.52273430969413 169.85799912755829 0 0 0 0 285.81572233371116 -214.35555185821977 0 -214.35555185821977 126.19485962815816 0 0 0 0 292.57140844185778 -180.69022251070965 0 -180.69022251070965 99.632582769704641 0 0 0 0 229.09368418810072 -111.15135872185203 0 -111.15135872185203 36.369093202889417 0 0 0 0 168.46045478346059 -90.978734138980144 0 -90.978734138980144 54.432264676894192 0 0 0 0 228.16795193446524 -72.75800364161023 0 -72.75800364161023 25.138890343330786 0 0 0 0 240.91505602551842 -51.049702503112712 0 -51.049702503112712 60.707731627462636 0 0 0 0 420.4989837627254 -57.425687989697622 0 -57.425687989697622 125.2736583112237 0 0 0 0 259.31502807613288 -104.45886278751732 0 -104.45886278751732 118.53879935646 0 0 0 0 379.23806175408254 -258.90527633421357 0 -258.90527633421357 194.49257844353451 0 0 0 0 258.70327580206504 -169.96770262076097 0 -169.96770262076097 133.96935317831048 0 0 0 0 618.83777077235573 -253.39775262186959 0 -253.39775262186959 169.25553183136026 0 0 0 0 471.20998488075202 -54.755587163698465 0 -54.755587163698465 269.73900778140523 0 0 0 0 364.77609670075617 -119.66969272084134 0 -119.66969272084134 230.29046975952588 0 0 0 0 172.0992233946854 -214.68158799955472 0 -214.68158799955472 297.91302813214088 0 0 0 0 166.25083100055781 -220.15246966456834 0 -220.15246966456834 302.76756350543383 0 0 0 0 6.7519195039805524 -6.2528211929449746 0 -6.2528211929449746 -7.5773821780256299 0 0 0 0 23.43327357162957 3.3979961357495889 0 3.3979961357495889 -1.7061093450973219 0 0 0 0 199.04433929168408 -383.44980622250233 0 -383.44980622250233 686.54857883206751 0 0 0 0 152.25323597150418 -213.93373577311377 0 -213.93373577311377 333.7253955070446 0 0 0 0 -72.449489199625532 -70.957505423209113 0 -70.957505423209113 -34.918567345959673 0 0 0 0 -78.059622304805544 41.485569167296717 0 41.485569167296717 153.42074319718267 0 0 0 0 460.1911334972101 242.47470541604707 0 242.47470541604707 -7.6819651641053497 0 0 0 0 8.0086697603705943 1.6554660728926107 0 1.6554660728926107 0.9505097380635803 0 0 0 0 492.89624086590629 -646.53308905964332 0 -646.53308905964332 845.87121603384912 0 0 0 0 1328.4028734274325 -349.69586163325766 0 -349.69586163325766 347.28235540556761 0 0 0 0 1095.1388338593351 301.16944482612962 0 301.16944482612962 -101.80643515797601 0 0 0 0 240.34781427450798 -209.01617259037812 0 -209.01617259037812 246.15953169919885 0 0 0 0 310.47233444425001 -495.11840391258329 0 -495.11840391258329 1216.1978312412793 0 0 0 0 -269.10672216636158 -371.35373026451316 0 -371.35373026451316 553.29803480802912 0 0 0 0 -31.10047022964136 -81.16646581043824 0 -81.16646581043824 -32.606642977333649 0 0 0 0 -52.01739003588591 -19.062996290919727 0 -19.062996290919727 354.32782175500961 0 0 0 0 430.011732105595 369.42028027929609 0 369.42028027929609 641.94874470064269 0 0 0 0 333.86442699454346 84.786365182292684 0 84.786365182292684 331.85097314806535 0 0 0 0 -42.815941561755608 127.63081134616004 0 127.63081134616004 -235.67099120123612 0 0 0 0 -34.771325603960577 -437.33094872493803 0 -437.33094872493803 -372.21334321383802 0 0 0 0 -503.75512535722009 148.35841345380732 0 148.35841345380732 204.60814790399763 0 0 0 0 2.9489985835753032 -212.37688274046377 0 -212.37688274046377 349.22740439081463 0 0 0 0 -251.40531092011156 -91.218393015983196 0 -91.218393015983196 373.52939496570616 0 0 0 0 -232.398140672924 133.63245278345897 0 133.63245278345897 184.55935566866538 0 0 0 0 -64.721440419347346 42.316468572997564 0 42.316468572997564 260.17896749498323 0 0 0 0 -117.16507255975012 -32.924360086574779 0 -32.924360086574779 184.63087555403035 0 0 0 0 -74.637949513708008 -128.80287555139876 0 -128.80287555139876 271.16477268049948 0 0 0 0 80.394643803640065 -81.9140253712294 0 -81.9140253712294 65.562767551235083 0 0 0 0 419.25924950732951 45.016383239424613 0 45.016383239424613 149.49342672699822 0 0 0 0 -37.706260586484859 24.493794882580005 0 24.493794882580005 242.55159759944218 0 0 0 0 92.556508347784984 191.15275717210716 0 191.15275717210716 282.08258152984581 0 0 0 0 99.846215995792591 29.957555362729181 0 29.957555362729181 135.75401512438566 0 0 0 0 292.51991790178545 1.3705972912144944 0 1.3705972912144944 75.234627181200267 0 0 0 0 105.87849728716537 43.462343706230968 0 43.462343706230968 162.20595538152475 0 0 0 0 88.616535303131968 -17.753586071154132 0 -17.753586071154132 83.331108350577779 0 0 0 0 46.795846608831198 -35.559369809411692 0 -35.559369809411692 22.646890248426644 0 0 0 0 55.772024733661965 -27.107634372851408 0 -27.107634372851408 -32.728277992818676 0 0 0 0 110.13160880516989 41.831943564574772 0 41.831943564574772 23.853687494554833 0 0 0 0 17.134543711370497 9.6099584661951667 0 9.6099584661951667 130.74838778158301 0 0 0 0 -102.92675293813227 -28.425502817965025 0 -28.425502817965025 37.979927480926563 0 0 0 0 20.886047430685721 6.7865880824747364 0 6.7865880824747364 60.647121648587927 0 0 0 0 5.881560650250151 -7.2344243586033983 0 -7.2344243586033983 3.5268688427871249 0 0 0 0 19.396906285642217 73.746010337150778 0 73.746010337150778 -66.750025482782803 0 0 0 0 -9.0307568766656914 -35.411234161924767 0 -35.411234161924767 183.32351337767273 0 0 0 0 71.283385107963113 -67.46079032545822 0 -67.46079032545822 71.316592776055586 0 0 0 0 98.721334071320598 -36.473691529108692 0 -36.473691529108692 -38.62343235293838 0 0 0 0 -2.4262894997050353 12.158661771889001 0 12.158661771889001 17.027630158843749 0 0 0 0 50.653621253147605 3.9468183577940374 0 3.9468183577940374 -15.82411281677278 0 0 0 0 -28.385765870116302 -5.3282165978707781 0 -5.3282165978707781 59.985676672926161 0 0 0 0 -57.994663170451531 304.14685205424666 0 304.14685205424666 -653.86470789591476 0 0 0 0 -90.104523071255244 304.10063100245407 0 304.10063100245407 -651.9912355772758 0 0 0 0 -36.272910198079444 337.85893834274384 0 337.85893834274384 -707.14782077358359 0 0 0 0 -23.265872800096986 284.53815726896573 0 284.53815726896573 -841.79624985892315 0 0 0 0 -32.213505172832811 202.95575060165447 0 202.95575060165447 -659.18232976350464 0 0 0 0 64.36567407593779 -7.3905022290066711 0 -7.3905022290066711 -7.4424874903714366 0 0 0 0 66.40844236608973 85.500796947682375 0 85.500796947682375 -101.56964757936953 0 0 0 0 -114.99646146218583 272.14729662597665 0 272.14729662597665 -537.85156145478868 0 0 0 0 678.45511497859843 -640.5006495019943 0 -640.5006495019943 264.18510273646098 0 0 0 0 -507.15438601956157 853.1388090261139 0 853.1388090261139 -1100.4865381566378 0 0 0 0 1354.9269700928635 -1006.7792377414771 0 -1006.7792377414771 -433.15004336860329 0 0 0 0 6.031351627436834 1.8517753860760351 0 1.8517753860760351 -9.2657114140222845 0 0 0 0 -399.58437951174346 273.13508648217339 0 273.13508648217339 -39.704212335353986 0 0 0 0 -591.53086055974563 650.52562467195457 0 650.52562467195457 -670.59109212857584 0 0 0 0 -194.93353677603591 463.51808418905966 0 463.51808418905966 -1106.7658429186922 0 0 0 0 -236.63120523323596 457.58196438712912 0 457.58196438712912 -1069.9999501243192 0 0 0 0 166.04365757042979 4.6676969563704915 0 4.6676969563704915 -41.996752595719045 0 0 0 0 102.49210695589136 25.596733807487453 0 25.596733807487453 -25.016014335288673 0 0 0 0 51.60320780284367 -14.44160224685394 0 -14.44160224685394 -8.0846767960739747 0 0 0 0 -153.05436108558206 506.58713996401821 0 506.58713996401821 -1072.9057886616574 0 0 0 0 78.242756832492887 12.716365099229733 0 12.716365099229733 1.2213694790398222 0 0 0 0 52.708786274729391 -31.084569499705481 0 -31.084569499705481 -8.5758709388155694 0 0 0 0 139.08539567243133 -24.781746776548971 0 -24.781746776548971 -8.5984574782046366 0 0 0 0 60.893335256411774 14.092306515653718 0 14.092306515653718 4.1032698015314963 0 0 0 0 1379.6844471534646 -567.82776834677259 0 -567.82776834677259 -995.59807278590597 0 0 0 0 -277.9464946375665 441.37760316055756 0 441.37760316055756 -1071.6371766738566 0 0 0 0 414.81443096602743 361.64177235749594 0 361.64177235749594 -2360.4107120345943 0 0 0 0 62.696203442261158 -108.31239136467484 0 -108.31239136467484 29.893283488912708 0 0 0 0 -62.014836503603874 -55.421550681006011 0 -55.421550681006011 -183.76751833747858 0 0 0 0 1.4660550210610381 -131.90259593471137 0 -131.90259593471137 -91.639654956964023 0 0 0 0 112.28774578165162 -50.809573384846651 0 -50.809573384846651 11.377966309031121 0 0 0 0 431.78868200140641 58.928866232020482 0 58.928866232020482 -76.304672320500686 0 0 0 0 449.96162871340857 361.06474217976665 0 361.06474217976665 -214.92821167955935 0 0 0 0 137.04804913330008 348.33894509410311 0 348.33894509410311 -155.16477441709321 0 0 0 0 4.0313021682561043 -1.9983492167962318 0 -1.9983492167962318 -0.049681060742329919 0 0 0 0 121.89042230491032 -6.1974199156429677 0 -6.1974199156429677 -15.331455865051339 0 0 0 0 56.52126595313166 -468.10172415313446 0 -468.10172415313446 91.848136261076434 0 0 0 0 170.30178341732972 -52.772808030823398 0 -52.772808030823398 25.875579607037935 0 0 0 0 186.87574097338074 -190.55309041856617 0 -190.55309041856617 168.13160690244058 0 0 0 0 610.92140057788492 -768.6902472171605 0 -768.6902472171605 -1348.7776565746462 0 0 0 0 120.84536862449215 -71.807470961719616 0 -71.807470961719616 33.730907032595937 0 0 0 0 872.49964324961002 20.568639788916698 0 20.568639788916698 -260.15072460222655 0 0 0 0 1019.2781993126191 318.69883733183997 0 318.69883733183997 -1518.08351444459 0 0 0 0 -43.980748262063571 -260.34176366631254 0 -260.34176366631254 -356.30937865763917 0 0 0 0 442.91847702991436 219.58792485345839 0 219.58792485345839 -309.05552000651733 0 0 0 0 701.48009892844857 474.58856916934201 0 474.58856916934201 -433.8109660641494 0 0 0 0 607.22618919408524 626.54823298858309 0 626.54823298858309 5.1403264761211176 0 0 0 0 1216.4565107786475 235.75931179754843 0 235.75931179754843 -970.12067882531846 0 0 0 0 692.07288946655899 641.47335400961128 0 641.47335400961128 71.476740732712642 0 0 0 0 166.83924983061115 287.53078708419889 0 287.53078708419889 838.76155696350543 0 0 0 0 627.07364773212703 831.2764954502386 0 831.2764954502386 443.2931940786475 0 0 0 0 898.01458480350993 1664.03389352255 0 1664.03389352255 2542.136540872747 0 0 0 0 773.60886944592221 529.66067820765102 0 529.66067820765102 148.34845311092431 0 0 0 0 1352.9475678668896 1252.8332828071252 0 1252.8332828071252 664.2723331775851 0 0 0 0 221.14131304694456 592.08736508509901 0 592.08736508509901 1859.3764203769424 0 0 0 0 1552.139123678855 -474.69863456496387 0 -474.69863456496387 106.76183712584498 0 0 0 0 639.72087787146302 -486.15437934038346 0 -486.15437934038346 267.89370108494768 0 0 0 0 -881.08379504246113 122.57438615756837 0 122.57438615756837 -194.11740369565086 0 0 0 0 24.187267946398478 1.9532424374990711 0 1.9532424374990711 0.32513077218651532 0 0 0 0 7.9675826831543333 -5.4587186224027135 0 -5.4587186224027135 2.9496109417973404 0 0 0 0 3196.0345490158943 -622.76728665007977 0 -622.76728665007977 -78.350334021524759 0 0 0 0 570.91076366110065 -442.25502970252637 0 -442.25502970252637 149.47460447825597 0 0 0 0 1706.4140090808505 -171.27573119392036 0 -171.27573119392036 -68.196973921707468 0 0 0 0 1676.1040657758931 507.88307908250135 0 507.88307908250135 335.58220558744506 0 0 0 0 2244.5354829320058 107.87696826869433 0 107.87696826869433 69.571858243711176 0 0 0 0 2040.5468413435228 346.90987081103958 0 346.90987081103958 13.439708932892245 0 0 0 0 2314.408214978328 672.74872276424139 0 672.74872276424139 222.7827277968172 0 0 0 0 740.36068551988137 -753.76327476761981 0 -753.76327476761981 2494.5148966941888 0 0 0 0 1349.7369285286986 1198.5889133427336 0 1198.5889133427336 1538.7620229723871 0 0 0 0 530.81685280675447 -113.90596693755288 0 -113.90596693755288 596.77551124584352 0 0 0 0 3726.1389714546167 -662.80223690032471 0 -662.80223690032471 588.31355786804124 0 0 0 0 2961.7586636342166 1816.2837326097433 0 1816.2837326097433 974.67098277167679 0 0 0 0 2375.0500054281219 542.45952472126191 0 542.45952472126191 -443.84907091806599 0 0 0 0 1121.1483473688568 765.58368952328965 0 765.58368952328965 719.17850242837358 0 0 0 0 -531.29755835595643 -1950.0857636474184 0 -1950.0857636474184 -444.64943379287797 0 0 0 0 -1332.6131564088464 -525.8797643537855 0 -525.8797643537855 266.87788100647595 0 0 0 0 128.71479979514129 -84.29694825820232 0 -84.29694825820232 46.256182619666866 0 0 0 0 1267.6608773330954 -906.07783863746408 0 -906.07783863746408 233.70637009601342 0 0 0 0 68.986019577718253 -1117.4528896693146 0 -1117.4528896693146 -926.37454518829327 0 0 0 0 476.26436895733787 -13.033959061096539 0 -13.033959061096539 631.41874486058987 0 0 0 0 -433.33587962883757 -977.99768075907014 0 -977.99768075907014 985.27205530340143 0 0 0 0 -418.91149474670965 -854.71607365737782 0 -854.71607365737782 -96.178388604753309 0 0 0 0 -694.15115096387308 -220.86095585127123 0 -220.86095585127123 386.76307602601173 0 0 0 0 536.95259914363123 232.04394462759251 0 232.04394462759251 -826.47893487015517 0 0 0 0 -227.32191530495766 -73.915955420254249 0 -73.915955420254249 181.15369388124964 0 0 0 0 -796.08490854581487 66.713341326920954 0 66.713341326920954 257.50928010332063 0 0 0 0 -150.94092833394097 -9.8774290283672599 0 -9.8774290283672599 -645.36157975371771 0 0 0 0 -236.9026038097436 -410.35166498851868 0 -410.35166498851868 730.06127864867813 0 0 0 0 267.90674834267702 557.20168171912155 0 557.20168171912155 459.2352380368925 0 0 0 0 454.03565366738621 304.26538240678838 0 304.26538240678838 690.47486763921916 0 0 0 0 676.52598737272274 470.0183023465861 0 470.0183023465861 128.57367418501963 0 0 0 0 365.91869324054096 134.72291562068722 0 134.72291562068722 82.002105168601702 0 0 0 0 1201.4850220544686 557.58821229484784 0 557.58821229484784 141.75608749286221 0 0 0 0 -187.84829881876794 -162.69175073925999 0 -162.69175073925999 99.06220358939936 0 0 0 0 -48.922653378300311 283.21935414238033 0 283.21935414238033 305.14094106218749 0 0 0 0 333.28874972447738 156.43877584336769 0 156.43877584336769 83.89161484912438 0 0 0 0 712.24131195271002 -23.997040929546529 0 -23.997040929546529 -167.40626427448842 0 0 0 0 1047.400892603182 29.74263793233149 0 29.74263793233149 -160.93077561725386 0 0 0 0 691.27157643697501 -197.33735423939243 0 -197.33735423939243 -164.40995471112001 0 0 0 0 769.72057068730282 -148.18287449037689 0 -148.18287449037689 -161.11847769182532 0 0 0 0 818.06388455507113 -188.2384627155152 0 -188.2384627155152 -133.79243244750796 0 0 0 0 1159.7082026612479 -142.9367067700332 0 -142.9367067700332 -127.79027139379468 0 0 0 0 656.66798626093805 -365.0092868614247 0 -365.0092868614247 9.406193299098959 0 0 0 0 1241.1952933175999 -403.25363983414718 0 -403.25363983414718 -1.1819644802362745 0 0 0 0 1239.7000015016652 -107.11788920710428 0 -107.11788920710428 -23.74156509443128 0 0 0 0 1271.2335980200369 -187.31625902720953 0 -187.31625902720953 -122.82850528743984 0 0 0 0 1252.0150339222528 237.8454635298549 0 237.8454635298549 -11.500005685118595 0 0 0 0 1281.8796505805658 171.49395346435085 0 171.49395346435085 53.586314582651539 0 0 0 0 903.773698457926 43.843040803432814 0 43.843040803432814 -106.52391077884022 0 0 0 0 -3.9831391342086135 33.911782806089832 0 33.911782806089832 -3.7214449382738621 0 0 0 0 173.23910996868653 -89.370682567114272 0 -89.370682567114272 46.360196828845801 0 0 0 0 85.028775533937733 -254.61137996200887 0 -254.61137996200887 164.13102589511618 0 0 0 0 586.0206408783215 -267.18752950573662 0 -267.18752950573662 -7.0060625527639786 0 0 0 0 381.27379767810635 -151.79089721826494 0 -151.79089721826494 -57.135221531611023 0 0 0 0 243.70434124322855 -83.006242414342523 0 -83.006242414342523 -55.522770065417717 0 0 0 0 500.89536927946756 -279.94428390051416 0 -279.94428390051416 -1.5987410183961401 0 0 0 0 195.37992381348522 -108.99080745397487 0 -108.99080745397487 -16.860947243987539 0 0 0 0 194.030832398028 24.800834308963317 0 24.800834308963317 -92.709926746633471 0 0 0 0 -1.3332245602104174 2.133498517206732 0 2.133498517206732 -38.358258280298472 0 0 0 0 2.3731284988534753 -39.735755548397719 0 -39.735755548397719 11.125931776197831 0 0 0 0 155.83425185718079 57.844050167927662 0 57.844050167927662 -43.591007363036283 0 0 0 0 86.850412502586551 43.348108076097333 0 43.348108076097333 -32.237651118075405 0 0 0 0 -9.0937298832922124 4.6082617728745703 0 4.6082617728745703 -50.616426976102957 0 0 0 0 9.90374786254913 3.1775273817843015 0 3.1775273817843015 -63.462575226721469 0 0 0 0 92.553200833677693 42.606133949891159 0 42.606133949891159 -37.93926430128181 0 0 0 0 112.5012280243609 61.268623552069926 0 61.268623552069926 -20.187631229993372 0 0 0 0 71.128852599693346 44.893728351798018 0 44.893728351798018 5.8542604479387137 0 0 0 0 82.697419515565343 22.410718293143589 0 22.410718293143589 -72.208499693558906 0 0 0 0 41.140176796528976 -7.1332925907888693 0 -7.1332925907888693 -44.428667940925834 0 0 0 0 130.54616016297277 -19.107494848466587 0 -19.107494848466587 -16.615945906105754 0 0 0 0 86.067886942721088 -1.4847404580043531 0 -1.4847404580043531 -92.600303307858212 0 0 0 0 73.573496372308 -188.6282660730626 0 -188.6282660730626 -33.910514799677912 0 0 0 0 163.43484802310559 43.905592355887165 0 43.905592355887165 -190.33567557474362 0 0 0 0 32.967794643890215 -6.2649407588838653 0 -6.2649407588838653 -18.83222476443936 0 0 0 0 98.33477022605075 -53.044202417130691 0 -53.044202417130691 -174.58709489299963 0 0 0 0 138.33970056934294 -32.443618871410564 0 -32.443618871410564 -161.20933078540475 0 0 0 0 108.34511327041753 4.231074755826036 0 4.231074755826036 -74.818335560707965 0 0 0 0 105.71377016321313 -6.4145741657048845 0 -6.4145741657048845 -20.730523873324344 0 0 0 0 24.814789807431765 -3.7428772996357935 0 -3.7428772996357935 -13.830008157629475 0 0 0 0 235.60855212458182 29.089353781095269 0 29.089353781095269 -84.487746263148438 0 0 0 0 -312.36763383902144 69.800008620648441 0 69.800008620648441 -122.6367298307141 0 0 0 0 94.406886466405012 94.525068191748687 0 94.525068191748687 125.66472314369821 0 0 0 0 47.517182967327244 116.54995427690483 0 116.54995427690483 -275.58619420436298 0 0 0 0 19.87567047837365 64.468007939916788 0 64.468007939916788 -220.98097977247926 0 0 0 0 -52.376434970174159 18.07000700928802 0 18.07000700928802 87.364631666132482 0 0 0 0 590.5520386320577 -366.13490577267157 0 -366.13490577267157 154.8708725352335 0 0 0 0 -162.88452995583793 205.93924333043105 0 205.93924333043105 -96.486908494505769 0 0 0 0 -165.68441214074846 -208.37364432574759 0 -208.37364432574759 290.69905446899702 0 0 0 0 238.70543660093608 295.53334790068402 0 295.53334790068402 345.57898146277148 0 0 0 0 67.669882390466825 -1.1956638488939362 0 -1.1956638488939362 0.27879721873251384 0 0 0 0 959.81912921281764 -230.76395762449101 0 -230.76395762449101 -307.45074274518629 0 0 0 0 186.30565694438519 283.01888269340998 0 283.01888269340998 343.99258908203774 0 0 0 0 234.57678958551332 269.48514387754403 0 269.48514387754403 314.09588740933759 0 0 0 0 287.70296316022723 295.9225343492617 0 295.9225343492617 322.75515079179604 0 0 0 0 428.10536655740361 531.68097782277255 0 531.68097782277255 137.46284069142712 0 0 0 0 440.28123602861115 497.05118018753228 0 497.05118018753228 178.80648235027184 0 0 0 0 395.26234953993662 381.17128544225852 0 381.17128544225852 36.089467648074788 0 0 0 0 581.80878173970996 407.24402087228282 0 407.24402087228282 -39.167074480093106 0 0 0 0 577.85386370188644 452.80163181770149 0 452.80163181770149 -216.13157365971892 0 0 0 0 418.97512041142363 248.54159791148868 0 248.54159791148868 6.6844142445097532 0 0 0 0 400.03908978432537 228.94894671989459 0 228.94894671989459 -13.084574576185332 0 0 0 0 619.26376832692495 228.61825936060723 0 228.61825936060723 -64.472675724934106 0 0 0 0 497.52824636501896 194.00829306620017 0 194.00829306620017 -14.324606332087569 0 0 0 0 575.68418592429225 282.90352217196414 0 282.90352217196414 -201.9678972021461 0 0 0 0 506.29427045331977 419.76015304691782 0 419.76015304691782 -148.54153552754724 0 0 0 0 618.48569658283236 384.81586468375667 0 384.81586468375667 -67.401140238718654 0 0 0 0 556.3004836603468 293.86685665966206 0 293.86685665966206 131.0274041936882 0 0 0 0 490.23376078983529 397.15025834763617 0 397.15025834763617 373.67669625908172 0 0 0 0 -7.724448534538169 -66.761372255450169 0 -66.761372255450169 -69.88678829260698 0 0 0 0 53.882812365116024 -47.350453442427309 0 -47.350453442427309 19.134566488737384 0 0 0 0 19.632252832932863 -37.656411172069056 0 -37.656411172069056 -879.65727485263051 0 0 0 0 70.875472034898976 -36.319452421410915 0 -36.319452421410915 10.441647004158659 0 0 0 0 979.02984153165016 -208.42961540199576 0 -208.42961540199576 -951.71095996415534 0 0 0 0 598.85239975819422 318.43701305888447 0 318.43701305888447 133.70874498375446 0 0 0 0 570.15769225738131 380.30690399007227 0 380.30690399007227 523.30611991119463 0 0 0 0 821.62084992495329 854.27246147186395 0 854.27246147186395 707.54102669304984 0 0 0 0 950.1391965787011 386.58961627009762 0 386.58961627009762 -42.317656767969908 0 0 0 0 741.0116896807408 637.22762171248985 0 637.22762171248985 687.72601902601855 0 0 0 0 71.423587650373094 -38.723608764067137 0 -38.723608764067137 21.106847431429966 0 0 0 0 30.711295603323755 -19.923207200921574 0 -19.923207200921574 10.038487298678795 0 0 0 0 -189.74841723019199 -1006.497334670079 0 -1006.497334670079 -953.73625747644837 0 0 0 0 927.25738021265579 832.02351491236777 0 832.02351491236777 712.0637886750194 0 0 0 0 -295.53223519697713 33.137564506403578 0 33.137564506403578 166.22081965717371 0 0 0 0 1253.5267608796994 581.65441096080042 0 581.65441096080042 687.47272866805361 0 0 0 0 39.90443017497455 -283.06785900510658 0 -283.06785900510658 -1027.9576578823412 0 0 0 0 379.568001213971 -503.39171938562504 0 -503.39171938562504 -676.54264606565084 0 0 0 0 427.13982553679671 -249.33344030367334 0 -249.33344030367334 -343.49452287234533 0 0 0 0 53.916445979062701 -78.533518017135066 0 -78.533518017135066 -627.97397850562265 0 0 0 0 623.1589194823755 -745.01802440449501 0 -745.01802440449501 -356.46892049098096 0 0 0 0 -444.63208968157778 -610.27781815941489 0 -610.27781815941489 -279.93380864334904 0 0 0 0 815.83993436873425 -142.44686922032224 0 -142.44686922032224 75.345919499957631 0 0 0 0 1414.1356232674452 322.58182495141568 0 322.58182495141568 367.80249543904984 0 0 0 0 -73.453034577545623 1532.6090652627599 0 1532.6090652627599 563.50306597095005 0 0 0 0 1896.7868414477871 1457.1411936705858 0 1457.1411936705858 460.02354106140479 0 0 0 0 467.73780353879283 -191.29496156977507 0 -191.29496156977507 -138.26097092673581 0 0 0 0 -417.5324534407082 1893.2777888216078 0 1893.2777888216078 1296.0271419975261 0 0 0 0 -0.22994575322657551 0.78523738257927533 0 0.78523738257927533 -7.6275126260189214 0 0 0 0 1074.5926675913329 703.18825824857061 0 703.18825824857061 987.75395504573135 0 0 0 0 -1788.8576435797909 450.56284064439672 0 450.56284064439672 767.01507047080213 0 0 0 0 977.7142485322247 337.37058211279066 0 337.37058211279066 2294.8136801864744 0 0 0 0 1348.0469972245637 522.43679702516954 0 522.43679702516954 -101.14167074627267 0 0 0 0 698.5841001164174 -44.996326441054748 0 -44.996326441054748 -217.5659625471485 0 0 0 0 156.00596300042162 -5.5951051474091855 0 -5.5951051474091855 -393.78029065318287 0 0 0 0 510.8971710859405 509.77218860662242 0 509.77218860662242 -58.843619888269814 0 0 0 0 292.38438857273422 108.89127958340146 0 108.89127958340146 -170.49255665847022 0 0 0 0 -2.5247891922421606 4.6916368282213616 0 4.6916368282213616 -31.877363302401395 0 0 0 0 -190.90425820617929 396.90508581807808 0 396.90508581807808 -160.23669151133345 0 0 0 0 265.43037624916747 6.2236258196317067 0 6.2236258196317067 9.8676142861177141 0 0 0 0 544.97782792691294 141.86502241557491 0 141.86502241557491 -77.066223348059793 0 0 0 0 31.74470864286754 4.6839874086457369 0 4.6839874086457369 -65.969255931613702 0 0 0 0 151.4299024158272 44.763437742837596 0 44.763437742837596 8.4553231149811836 0 0 0 0 148.29641843984299 49.00670584549222 0 49.00670584549222 -177.87867006385022 0 0 0 0 364.86155076138618 29.290082706240696 0 29.290082706240696 -114.86306796713507 0 0 0 0 206.774361116406 89.143912932198873 0 89.143912932198873 -159.27355574986177 0 0 0 0 155.78348522737542 53.28542899612421 0 53.28542899612421 -180.29035044789725 0 0 0 0 124.71361371810872 -62.745220062527778 0 -62.745220062527778 -265.00902620373745 0 0 0 0 184.7838812120026 52.51956654817559 0 52.51956654817559 -188.25676939015466 0 0 0 0 242.78851690529973 -101.02610112604862 0 -101.02610112604862 -343.7001102598806 0 0 0 0 161.49305882601675 -71.007229139413994 0 -71.007229139413994 -281.16912330900823 0 0 0 0 294.1030019611826 -142.44474191549739 0 -142.44474191549739 -246.13695727777531 0 0 0 0 363.51394466273359 18.534520282276844 0 18.534520282276844 -244.6637452918992 0 0 0 0 150.0862743704721 -18.825737480966268 0 -18.825737480966268 0.30132577618386869 0 0 0 0 94.84341999528624 -143.48173376989371 0 -143.48173376989371 -125.64985188719493 0 0 0 0 117.16450634010562 -144.18621410132027 0 -144.18621410132027 -166.00453917159803 0 0 0 0 -647.26175623075278 -87.451085229360842 0 -87.451085229360842 131.47596153444465 0 0 0 0 64.153975003636788 -311.61505962925457 0 -311.61505962925457 91.890553665062725 0 0 0 0 225.77604968301057 -220.03651678533515 0 -220.03651678533515 -181.97606306501473 0 0 0 0 862.4781037732655 -293.90704503625534 0 -293.90704503625534 -263.58185632530763 0 0 0 0 217.62169580738964 -190.44355923526496 0 -190.44355923526496 -275.95839119544962 0 0 0 0 504.09472940801243 209.42233991631531 0 209.42233991631531 -278.46058787280481 0 0 0 0 999.60603772257082 -175.82928745499771 0 -175.82928745499771 -135.53273079304518 0 0 0 0 1014.3826534117588 -39.857692574405064 0 -39.857692574405064 134.33965385196598 0 0 0 0 -104.8109071379331 -633.96041213030071 0 -633.96041213030071 373.87276379824107 0 0 0 0 1336.8955108055679 -1330.1644960177566 0 -1330.1644960177566 652.53031088923183 0 0 0 0 2421.3577354477811 -1202.4206905927226 0 -1202.4206905927226 514.77904051383393 0 0 0 0 2269.924372467578 -1495.1683904540596 0 -1495.1683904540596 686.23872555606602 0 0 0 0 1681.978208469799 -804.80769483970073 0 -804.80769483970073 826.04843528351421 0 0 0 0 1920.7293805902555 -847.04472256487816 0 -847.04472256487816 547.849760661049 0 0 0 0 3409.792564063755 -1300.5050294223774 0 -1300.5050294223774 752.05063526694198 0 0 0 0 2392.0111571041489 -1176.1389080642109 0 -1176.1389080642109 819.73555053610357 0 0 0 0 2962.7509770329543 -1942.018310888325 0 -1942.018310888325 1095.2044882869905 0 0 0 0 4873.5835669624739 -2017.64545313239 0 -2017.64545313239 742.37735735698425 0 0 0 0 -0.12520830259273608 -5.4429575771397669 0 -5.4429575771397669 4.7108826319286026 0 0 0 0 3500.2095076533651 -1441.4457463200995 0 -1441.4457463200995 958.08274433803365 0 0 0 0 3926.0633106779824 -1376.5042672145782 0 -1376.5042672145782 724.50447958759946 0 0 0 0 3933.1201077878104 -1383.2690512925651 0 -1383.2690512925651 372.65405534418437 0 0 0 0 -81.8598827593039 -153.72442422596396 0 -153.72442422596396 -54.135516942960749 0 0 0 0 21.812265239618085 -13.95856978449646 0 -13.95856978449646 9.9094106662186725 0 0 0 0 2746.9938849556193 -1135.8917027126695 0 -1135.8917027126695 800.25930435595535 0 0 0 0 3996.7087818729215 -2333.0409475140132 0 -2333.0409475140132 958.68818953203754 0 0 0 0 11.020031574171547 9.2014940791147897 0 9.2014940791147897 4.5290481825010955 0 0 0 0 4261.8684361668584 -974.81952475546643 0 -974.81952475546643 438.11215229734097 0 0 0 0 3500.52967313314 -835.39977525037614 0 -835.39977525037614 1237.3889369407832 0 0 0 0 4089.1709403805944 -1232.4943991418861 0 -1232.4943991418861 354.25961750649174 0 0 0 0 3500.1648788039502 -563.98750086730865 0 -563.98750086730865 111.81757668473352 0 0 0 0 3508.7239724096962 -631.33119317932847 0 -631.33119317932847 -190.09973128210322 0 0 0 0 165.94353315336775 -129.19873096244544 0 -129.19873096244544 -43.895461413399516 0 0 0 0 2606.7369364068654 37.477264711432433 0 37.477264711432433 456.09226783592555 0 0 0 0 36.221791246892479 41.902231749641764 0 41.902231749641764 3.7312108337617333 0 0 0 0 -202.12712725805159 101.9228110159018 0 101.9228110159018 424.98224084393087 0 0 0 0 4574.2387674735437 702.89727472047878 0 702.89727472047878 -438.87472645890034 0 0 0 0 975.82446483775129 301.68296086592875 0 301.68296086592875 -861.19104359378309 0 0 0 0 214.38450485709473 -17.274473723235587 0 -17.274473723235587 -432.17859793902142 0 0 0 0 245.23247296417685 242.57583446521892 0 242.57583446521892 175.50933638767279 0 0 0 0 -256.3547490955425 -548.98460586538965 0 -548.98460586538965 480.82342631111987 0 0 0 0 10.654117582112349 -2.3669730024451892 0 -2.3669730024451892 2.3813779531778199 0 0 0 0 142.25988871877519 -24.415932117139665 0 -24.415932117139665 4.4326922147879015 0 0 0 0 33.053615686730609 66.800976464241131 0 66.800976464241131 37.560522857125989 0 0 0 0 126.5599488943335 143.24629897845136 0 143.24629897845136 42.74550884735833 0 0 0 0 455.11611377874215 -155.07054339877504 0 -155.07054339877504 -64.410127329163515 0 0 0 0 536.5593513201311 127.33489471384127 0 127.33489471384127 -67.166075917934222 0 0 0 0 269.51830710624381 42.730832886266228 0 42.730832886266228 -92.284924043930459 0 0 0 0 242.46901418832567 56.952648274884723 0 56.952648274884723 -83.922270454524096 0 0 0 0 251.55292678039768 117.48042278936151 0 117.48042278936151 -53.973870329072497 0 0 0 0 150.91577396177308 72.719594911136141 0 72.719594911136141 -72.816778414282908 0 0 0 0 179.83274617123243 84.322790112353857 0 84.322790112353857 -106.74204069463826 0 0 0 0 169.2916231919753 11.7987657423364 0 11.7987657423364 -143.7760390671549 0 0 0 0 164.27121746309422 76.029720765754234 0 76.029720765754234 -152.37153194074779 0 0 0 0 190.06771257805667 29.032517689078759 0 29.032517689078759 -94.608805026648852 0 0 0 0 125.51925962670794 19.594212551619592 0 19.594212551619592 7.8083156877733018 0 0 0 0 133.74541668790334 34.232447107655389 0 34.232447107655389 -60.023734777703908 0 0 0 0 172.30823631975181 33.048782843613552 0 33.048782843613552 -75.1888777688348 0 0 0 0 3500.0173768680042 -617.10740521660512 0 -617.10740521660512 108.2345431032324 0 0 0 0 3482.9263359136294 -623.47428055638238 0 -623.47428055638238 120.54328044204132 0 0 0 0 15.179152232406958 30.061930517008783 0 30.061930517008783 3.2926599665238574 0 0 0 0 3412.7157787218275 -521.51967930086414 0 -521.51967930086414 23.769736736452089 0 0 0 0 16.393191698594652 39.391124733010216 0 39.391124733010216 4.3713570129862438 0 0 0 0 59.281388616607728 -37.16590257257468 0 -37.16590257257468 3.699841408012162 0 0 0 0 178.84814392779299 40.914595761985765 0 40.914595761985765 -40.116698456144405 0 0 0 0 130.89454683794247 -12.142828284360803 0 -12.142828284360803 -35.329750276400546 0 0 0 0 153.17081418073212 -72.112953432995596 0 -72.112953432995596 36.353031588103477 0 0 0 0 0.98092305792269574 -0.77820234472416772 0 -0.77820234472416772 2.7347623322341441 0 0 0 0 1.9296648748240841 -2.8361307272039085 0 -2.8361307272039085 11.520715544460472 0 0 0 0 169.14234027860221 -44.619900677058467 0 -44.619900677058467 15.965455123043284 0 0 0 0 104.23714206109798 157.5378748266362 0 157.5378748266362 -10.061196990766348 0 0 0 0 0.21150708703076004 0.23933088908638567 0 0.23933088908638567 1.2626151363861933 0 0 0 0 271.91058164352944 -46.908958169161224 0 -46.908958169161224 39.410921495365528 0 0 0 0 462.61008190337816 -173.22667519259392 0 -173.22667519259392 6.7082426925335312 0 0 0 0 132.11161080341662 -34.81381575554542 0 -34.81381575554542 -107.93850774192651 0 0 0 0 158.88921608425517 98.184435958576614 0 98.184435958576614 82.853075347239155 0 0 0 0 143.87332913856517 36.080920908013695 0 36.080920908013695 3.2502286742696924 0 0 0 0 148.67039376045886 19.835534777972498 0 19.835534777972498 46.515223114746732 0 0 0 0 89.453787736400955 -44.182357418997185 0 -44.182357418997185 34.843071668351058 0 0 0 0 147.55541484899823 -45.060939531467739 0 -45.060939531467739 34.553512895271524 0 0 0 0 176.75628938521959 -64.88981176516404 0 -64.88981176516404 32.144582586440265 0 0 0 0 221.75440919914035 20.695969326038266 0 20.695969326038266 -28.05913826095184 0 0 0 0 176.4423980058391 38.879031049676655 0 38.879031049676655 -3.0981177227286025 0 0 0 0 338.25231075403008 27.314950858798966 0 27.314950858798966 -20.614041403046031 0 0 0 0 227.8241263622931 -56.703012673505782 0 -56.703012673505782 106.57252515651089 0 0 0 0 244.76236438240994 -72.089980296933845 0 -72.089980296933845 30.832521594046284 0 0 0 0 1.5167723713394885 3.958080773053311 0 3.958080773053311 2.9459128197450326 0 0 0 0 88.195705502883357 -2.4461507893811358 0 -2.4461507893811358 -31.681944220146761 0 0 0 0 117.42610824816438 -34.560042708979381 0 -34.560042708979381 -55.699716102188177 0 0 0 0 420.27700858249227 -80.07990125343531 0 -80.07990125343531 59.220633379774881 0 0 0 0 393.52225531570002 63.691529574049696 0 63.691529574049696 -16.428555768876322 0 0 0 0 10.059319281335775 -81.302647988705758 0 -81.302647988705758 74.718314919271506 0 0 0 0 6.308380467195871 -8.7783935744916377 0 -8.7783935744916377 12.177478849769741 0 0 0 0 199.36848763089256 -67.125270365719416 0 -67.125270365719416 7.7758624888092527 0 0 0 0 -8.4547489878295892 -37.53771650336364 0 -37.53771650336364 -29.726835820521956 0 0 0 0 1.864285454693686 -2.402263435173893 0 -2.402263435173893 2.2608169506184739 0 0 0 0 162.40447404524093 24.649722716887027 0 24.649722716887027 -11.34353311749237 0 0 0 0 82.137930062948726 64.386852338147946 0 64.386852338147946 66.995442634218762 0 0 0 0 131.02882416427747 -58.249163403880175 0 -58.249163403880175 -5.839845931623131 0 0 0 0 79.222308916883776 -18.226166166778967 0 -18.226166166778967 -9.3196272896777259 0 0 0 0 -0.43233163521378515 0.82072284876708679 0 0.82072284876708679 0.92050705503578456 0 0 0 0 91.118107122696529 49.91978466816829 0 49.91978466816829 11.5855125206499 0 0 0 0 -10.820509214318008 -26.720721929961201 0 -26.720721929961201 19.16666820066979 0 0 0 0 7.4232387526708408 -3.3720455376596306 0 -3.3720455376596306 0.61729873861986562 0 0 0 0 4.9344215547489085 -4.3252921848325663 0 -4.3252921848325663 2.7335477653683871 0 0 0 0 8.8811317567506194 -18.031504719010627 0 -18.031504719010627 40.652059495077992 0 0 0 0 5.685099109973117 0.25013301765408613 0 0.25013301765408613 -1.1041438398626262 0 0 0 0 10.612391945827113 -7.3600887184025705 0 -7.3600887184025705 0.9487862953421925 0 0 0 0 -3.1657348531371099 -8.2531370045358017 0 -8.2531370045358017 71.746002709975983 0 0 0 0 24.764137587349978 -9.2016516392545782 0 -9.2016516392545782 39.267582984530236 0 0 0 0 64.393811757399817 -55.968036269558979 0 -55.968036269558979 61.398490657607454 0 0 0 0 -22.66165921081847 -131.38805221915345 0 -131.38805221915345 -254.93833580315152 0 0 0 0 13.564563667848233 -0.30505790997837146 0 -0.30505790997837146 -1.8105316734546735 0 0 0 0 5.3557660887299221 -0.10295010676229488 0 -0.10295010676229488 -0.023278617627686238 0 0 0 0 289.92056825086911 240.22318748870566 0 240.22318748870566 -312.02208392247076 0 0 0 0 201.85725273771823 -261.72618719187585 0 -261.72618719187585 290.75433348442766 0 0 0 0 117.59104722744814 -106.61369333288758 0 -106.61369333288758 60.842862167678959 0 0 0 0 76.931402208891086 -83.031247979281034 0 -83.031247979281034 50.556423982607157 0 0 0 0 106.10074635331694 -64.101323494409371 0 -64.101323494409371 32.386642378381111 0 0 0 0 118.96761330760637 -63.05059837414592 0 -63.05059837414592 15.789641670577566 0 0 0 0 95.102009189817181 -60.030361292041562 0 -60.030361292041562 27.808188980983687 0 0 0 0 84.944891061610633 -58.990478920050862 0 -58.990478920050862 31.504332629803685 0 0 0 0 79.49600883857056 287.14153608273045 0 287.14153608273045 127.23562355311992 0 0 0 0 -101.32262832796914 -31.360010590968841 0 -31.360010590968841 27.371603278821112 0 0 0 0 549.10197277390944 -47.11474644254281 0 -47.11474644254281 -52.039305503631113 0 0 0 0 107.77245175049757 -53.543402300726484 0 -53.543402300726484 2.939850113264356 0 0 0 0 61.651998963126971 110.5853112454688 0 110.5853112454688 26.711846528660818 0 0 0 0 201.29201713568318 -304.76096208658601 0 -304.76096208658601 39.176800618853349 0 0 0 0 0.56233186908070865 1.0871570397110428 0 1.0871570397110428 0.41278612879111165 0 0 0 0 -405.76673576791973 14.680281004243625 0 14.680281004243625 -230.4979052433373 0 0 0 0 51.761625670488783 17.639165498995052 0 17.639165498995052 -9.1146508559904582 0 0 0 0 144.89872300091702 -6.1130719777452214 0 -6.1130719777452214 -38.511028539449512 0 0 0 0 -204.98747153677454 108.66398386595574 0 108.66398386595574 -21.902486294299479 0 0 0 0 76.926028822569691 23.496838024674162 0 23.496838024674162 -135.44222569675367 0 0 0 0 23.939406180864587 10.206922077978531 0 10.206922077978531 3.327869188658207 0 0 0 0 487.28812451500528 192.57582416161858 0 192.57582416161858 -262.5068520227378 0 0 0 0 206.91276991599443 -53.579292922841205 0 -53.579292922841205 127.52499319906656 0 0 0 0 126.17173645302063 177.91730563551801 0 177.91730563551801 -11.917675063450588 0 0 0 0 132.01607253531802 -113.4779453596359 0 -113.4779453596359 57.819474890599849 0 0 0 0 165.77777903698552 -80.707374919880976 0 -80.707374919880976 29.318530792400452 0 0 0 0 171.31660175393063 -108.86039422340826 0 -108.86039422340826 41.464342896629205 0 0 0 0 147.82498733264219 -120.72903011380004 0 -120.72903011380004 51.527759531117681 0 0 0 0 80.888537576982344 -38.688334845502823 0 -38.688334845502823 46.819733692535863 0 0 0 0 146.01099767709093 -98.971277398353095 0 -98.971277398353095 41.243154616956872 0 0 0 0 219.87762627207485 -159.86472579878978 0 -159.86472579878978 64.944347573740743 0 0 0 0 135.24829845496424 -111.24196816431913 0 -111.24196816431913 58.523410807405753 0 0 0 0 270.65976803301419 -223.96662308067334 0 -223.96662308067334 133.89746643088461 0 0 0 0 62.531935822426021 -135.12736359958922 0 -135.12736359958922 133.19987128084745 0 0 0 0 61.25427568303121 -37.501483434888542 0 -37.501483434888542 12.290210653192844 0 0 0 0 225.14073714824917 -16.364710134110965 0 -16.364710134110965 97.001499226520195 0 0 0 0 54.691247672743373 50.448859176109636 0 50.448859176109636 -121.13287759717969 0 0 0 0 13.172209639558105 40.965528778653606 0 40.965528778653606 -50.123718717091833 0 0 0 0 51.85151231423788 8.3805582101613254 0 8.3805582101613254 -81.231965845752711 0 0 0 0 53.147912211675276 16.489052351273934 0 16.489052351273934 -8.3441828029632745 0 0 0 0 -149.25042704971565 -60.353203103290298 0 -60.353203103290298 141.75715878286698 0 0 0 0 55.399945120248958 -0.61298181637539528 0 -0.61298181637539528 -31.019267927420515 0 0 0 0 30.296932585432678 24.478837688467376 0 24.478837688467376 17.359908346452443 0 0 0 0 33.928373350849142 -70.189160131762719 0 -70.189160131762719 141.38069991532169 0 0 0 0 -13.35801709282714 125.89964668932225 0 125.89964668932225 -83.055493154253782 0 0 0 0 -7.8915793322112933 4.3713305063164434 0 4.3713305063164434 6.3785850544352876 0 0 0 0 65.013517341682956 1.5009779946690758 0 1.5009779946690758 -18.720558811625786 0 0 0 0 34.636284516682622 71.464369334474441 0 71.464369334474441 -34.455344391078143 0 0 0 0 49.30476971867644 18.090088628854097 0 18.090088628854097 -9.4026146881405062 0 0 0 0 56.34685114272402 12.641837319372865 0 12.641837319372865 14.000459684868156 0 0 0 0 45.82185303401593 96.975781873088636 0 96.975781873088636 23.390239159070916 0 0 0 0 100.15811723091247 81.163471037638374 0 81.163471037638374 -51.926100277836667 0 0 0 0 -156.66626941063441 382.58847726953036 0 382.58847726953036 96.810192298349648 0 0 0 0 296.51238779680716 -128.70081831988045 0 -128.70081831988045 -255.37344495820435 0 0 0 0 90.658930728572443 2.2382517380394056 0 2.2382517380394056 -16.810613927614536 0 0 0 0 -10.248984881865908 -109.89755587890704 0 -109.89755587890704 180.83215276277861 0 0 0 0 34.50786934003132 16.907416212192977 0 16.907416212192977 7.277343059664644 0 0 0 0 44.58269205493707 447.59286167517894 0 447.59286167517894 -326.70405695008958 0 0 0 0 -75.191033222674378 -23.402903157067612 0 -23.402903157067612 -126.92506349432733 0 0 0 0 -8.757745262759272 95.467730134768317 0 95.467730134768317 8.8750079656256275 0 0 0 0 -42.11721774693433 -127.13484339133447 0 -127.13484339133447 423.18285674438584 0 0 0 0 0.85847960719306116 0.65968802460450604 0 0.65968802460450604 1.3150273010393576 0 0 0 0 392.61046237593655 -58.749249472945849 0 -58.749249472945849 87.144013366683794 0 0 0 0 189.56069992512494 -144.5655196512198 0 -144.5655196512198 108.16247604488717 0 0 0 0 88.530292297802589 -34.394113400082006 0 -34.394113400082006 58.567926494837593 0 0 0 0 0.8891525149329027 2.8843437663010469 0 2.8843437663010469 3.5752907044987055 0 0 0 0 -5.940205843802687 -53.480675302016607 0 -53.480675302016607 105.70254035106245 0 0 0 0 122.60484754053687 -80.954350808110121 0 -80.954350808110121 55.988795218674568 0 0 0 0 218.78846343010446 -35.86343509586186 0 -35.86343509586186 -16.969475626232452 0 0 0 0 382.60000166657846 -136.53611577103857 0 -136.53611577103857 2.0965695178492751 0 0 0 0 85.126923170719238 43.300346113832347 0 43.300346113832347 -16.86758924914102 0 0 0 0 48.61216335863719 28.20219085080771 0 28.20219085080771 -27.512084884708202 0 0 0 0 41.35163671835835 43.787019652578465 0 43.787019652578465 -13.298318245619157 0 0 0 0 -18.159821618566639 41.078190285364144 0 41.078190285364144 12.340463218908553 0 0 0 0 11.97411692484954 -1.6516849939194316 0 -1.6516849939194316 6.3023438005711299 0 0 0 0 34.575386940014141 5.4432942447947426 0 5.4432942447947426 36.079955084958783 0 0 0 0 41.445631301277899 0.80670688317059103 0 0.80670688317059103 35.286479288604824 0 0 0 0 123.64018671213125 -16.267341614429824 0 -16.267341614429824 20.720492657019349 0 0 0 0 36.363980382037425 29.234232198512643 0 29.234232198512643 -2.6887575809050759 0 0 0 0 44.032690692279175 -9.9124651466945579 0 -9.9124651466945579 36.34236087311001 0 0 0 0 13.542870373058008 7.3326212339513361 0 7.3326212339513361 -4.6710679462912665 0 0 0 0 151.34466003370471 -2.5041148198943119 0 -2.5041148198943119 1.7525814693417487 0 0 0 0 160.12000446824823 14.949882528646413 0 14.949882528646413 -8.4255085786880954 0 0 0 0 270.61855802872742 146.62388693648245 0 146.62388693648245 -147.77060771967808 0 0 0 0 180.09381185023085 -12.428022977241199 0 -12.428022977241199 -25.309285238662596 0 0 0 0 98.735161690747191 -46.194429833256436 0 -46.194429833256436 20.669082069030992 0 0 0 0 43.375417613903892 2.3164798613471831 0 2.3164798613471831 -19.328168409876156 0 0 0 0 89.502500636859253 -59.829543324739049 0 -59.829543324739049 29.782296890082232 0 0 0 0 40.488086724170898 -178.68379928532499 0 -178.68379928532499 224.95370176324923 0 0 0 0 178.05732751928008 14.493409420495027 0 14.493409420495027 -8.5419812947820901 0 0 0 0 246.13876536086173 339.78014865254727 0 339.78014865254727 -48.468769073765543 0 0 0 0 66.654487710689864 57.217169146028937 0 57.217169146028937 -15.420549076425232 0 0 0 0 30.882428000929941 2.1042181533944913 0 2.1042181533944913 -0.14358323440404064 0 0 0 0 130.95717316038377 39.477267241493664 0 39.477267241493664 -22.399392601318574 0 0 0 0 -74.12068541127519 43.936259809599505 0 43.936259809599505 -113.17779504921009 0 0 0 0 238.21395670395577 -154.50622799883058 0 -154.50622799883058 144.99855044466676 0 0 0 0 -14.947685310433684 18.734740654907544 0 18.734740654907544 0.70938855714504356 0 0 0 0 132.00136331625561 32.32094128712825 0 32.32094128712825 -29.16395080695613 0 0 0 0 11.361889204040072 -0.040451388344628469 0 -0.040451388344628469 2.8436063005609942 0 0 0 0 53.932041237509033 15.196492755994218 0 15.196492755994218 1.7068072206561666 0 0 0 0 6.9038381147329346 36.146535582434808 0 36.146535582434808 -46.001504725873019 0 0 0 0 21.697877841841546 21.299903263668966 0 21.299903263668966 -8.4689637976662198 0 0 0 0 652.35446463958579 -103.35446823919938 0 -103.35446823919938 -3.6848544990971277 0 0 0 0 20.374670788802561 25.955728285743319 0 25.955728285743319 -0.76945913692504142 0 0 0 0 -30.478505755221704 66.911886808178451 0 66.911886808178451 175.43958061539661 0 0 0 0 530.77240685694414 -7.0996336548905674 0 -7.0996336548905674 -11.729025919404194 0 0 0 0 345.46511831673342 -7.9956750200508395 0 -7.9956750200508395 75.294678394601306 0 0 0 0 61.632518440162201 24.387990418343012 0 24.387990418343012 -10.118968746991627 0 0 0 0 -46.435616764225415 19.623960394665346 0 19.623960394665346 105.80058630013082 0 0 0 0 -11.767842167352768 4.165597089437675 0 4.165597089437675 6.7326902336026588 0 0 0 0 409.99601896054355 -100.43083889640178 0 -100.43083889640178 -53.059270013620335 0 0 0 0 431.07477858553466 -150.84750589849682 0 -150.84750589849682 18.44384320869267 0 0 0 0 458.56860430099914 -110.0706749996807 0 -110.0706749996807 -39.577615969642466 0 0 0 0 342.46644595096677 -104.4112155129485 0 -104.4112155129485 97.322136601055718 0 0 0 0 362.59664436122694 -56.320744105723861 0 -56.320744105723861 16.368873013399934 0 0 0 0 523.93271204546181 -174.61475808839168 0 -174.61475808839168 85.951554785859116 0 0 0 0 314.07147658475878 -110.31722365203495 0 -110.31722365203495 124.64929490955046 0 0 0 0 481.67601361543893 -263.55890343501255 0 -263.55890343501255 236.37321370263908 0 0 0 0 295.67179613483449 -43.565253981823275 0 -43.565253981823275 58.769238767029492 0 0 0 0 85.503292987734312 -4.7372569466688219 0 -4.7372569466688219 211.61999609826898 0 0 0 0 146.17916031558752 -2.7864485466309645 0 -2.7864485466309645 328.36209511167363 0 0 0 0 -1.2098044008698707 -296.72212676587679 0 -296.72212676587679 117.77631808030492 0 0 0 0 -113.02846977782065 -217.87753932916621 0 -217.87753932916621 425.8909529601915 0 0 0 0 149.34178722545403 2.8497342086429853 0 2.8497342086429853 -21.798132337828065 0 0 0 0 98.839668887059815 -19.713198017193008 0 -19.713198017193008 35.325127354984829 0 0 0 0 -9.5511005951630068 -86.673517270530283 0 -86.673517270530283 117.34688804165694 0 0 0 0 72.7629038222086 -63.470586446873355 0 -63.470586446873355 31.390962005013023 0 0 0 0 157.19528925484883 70.92975781781206 0 70.92975781781206 -45.213142292513112 0 0 0 0 91.460574094091498 -89.027251722833626 0 -89.027251722833626 -5.8031920507492032 0 0 0 0 89.089847117978934 -66.482916420880883 0 -66.482916420880883 -10.458017837088846 0 0 0 0 203.2654872558378 -161.9490285229067 0 -161.9490285229067 -111.83628193732544 0 0 0 0 44.751073742101653 -108.45062283271227 0 -108.45062283271227 65.408147811433082 0 0 0 0 128.97540787328762 20.857797405904421 0 20.857797405904421 -20.355262358073105 0 0 0 0 -164.60122443121872 -50.691903533844197 0 -50.691903533844197 58.679920068956562 0 0 0 0 44.409776993503471 6.0867457455509477 0 6.0867457455509477 6.684342249841464 0 0 0 0 55.37611605766142 -549.89762399777374 0 -549.89762399777374 142.88742625231762 0 0 0 0 625.07446138787418 -217.4355803028011 0 -217.4355803028011 -110.69436546368343 0 0 0 0 516.3656092803767 77.746436606696534 0 77.746436606696534 -149.66136841761545 0 0 0 0 277.01905750046353 5.0133320971954163 0 5.0133320971954163 -94.676781493718408 0 0 0 0 213.38328216482478 10.711124079381989 0 10.711124079381989 -87.126913087630783 0 0 0 0 75.905946162274631 37.258536493827705 0 37.258536493827705 -38.389663504174678 0 0 0 0 63.066101902568334 9.1501365130116028 0 9.1501365130116028 -54.657295891218382 0 0 0 0 240.4964459433686 131.63940190267022 0 131.63940190267022 -71.88859954603538 0 0 0 0 177.50232160964151 101.56757437654232 0 101.56757437654232 -53.932386203403439 0 0 0 0 -10.958792044879374 43.316017815433952 0 43.316017815433952 -36.01012583578995 0 0 0 0 5.6904740656718786 -30.243182878832158 0 -30.243182878832158 -100.18176988286723 0 0 0 0 41.184186447819229 -43.970703602115464 0 -43.970703602115464 -196.28486784567684 0 0 0 0 -40.415790869923512 -64.053235504953363 0 -64.053235504953363 -94.554157472844963 0 0 0 0 43.272004195358022 22.434663630214345 0 22.434663630214345 -61.304582507193118 0 0 0 0 25.883549925685656 2.6117136613192997 0 2.6117136613192997 -140.4520685885891 0 0 0 0 27.13559045067268 4.4514355708888615 0 4.4514355708888615 -140.00696362394956 0 0 0 0 -11.802662568245978 37.272671684066154 0 37.272671684066154 -124.3648620889071 0 0 0 0 -6.6033523503492688 14.329610402754042 0 14.329610402754042 -23.473773216232075 0 0 0 0 24.094468405790394 20.530572216879591 0 20.530572216879591 -71.607626698742024 0 0 0 0 44.990593882223038 -9.1026423068069562 0 -9.1026423068069562 -29.70150875942636 0 0 0 0 14.755514130196389 13.5800707306189 0 13.5800707306189 -0.47863683329342166 0 0 0 0 70.589365510903008 -26.86503318832365 0 -26.86503318832365 1.320768047542515 0 0 0 0 91.637622462345462 -38.934533075531363 0 -38.934533075531363 5.7036956173469662 0 0 0 0 162.59852356390547 -145.57965818181583 0 -145.57965818181583 69.196246300311032 0 0 0 0 13.938897587140673 9.2318982571741799 0 9.2318982571741799 -22.935983378569745 0 0 0 0 5.3598482073318152 2.7821453084291328 0 2.7821453084291328 0.83937686067092443 0 0 0 0 113.31649628130981 -96.256092335331232 0 -96.256092335331232 98.635106387871929 0 0 0 0 17.294890913701465 3.3588593656136077 0 3.3588593656136077 -1.3134892145432602 0 0 0 0 19.257648650604096 -14.637041251882692 0 -14.637041251882692 -35.996211450677038 0 0 0 0 56.551591784602351 -146.97813121969193 0 -146.97813121969193 69.17954098216731 0 0 0 0 100.10253771790303 -220.36972548051563 0 -220.36972548051563 386.82899509107665 0 0 0 0 5.8212555693847818 1.1727477830426096 0 1.1727477830426096 0.51669859248517014 0 0 0 0 7.1452498711246832 4.6990409214113065 0 4.6990409214113065 2.6151098665825003 0 0 0 0 266.51674619246478 138.09885042868518 0 138.09885042868518 96.997031005823374 0 0 0 0 -12.444963851492503 -148.23834065359824 0 -148.23834065359824 360.90201073034405 0 0 0 0 1319.8621339271558 65.194464160551433 0 65.194464160551433 -138.07572465055273 0 0 0 0 101.29832748133776 -28.586271313348334 0 -28.586271313348334 12.236056168474533 0 0 0 0 150.57905110385764 -55.086616009246427 0 -55.086616009246427 9.2690753395199863 0 0 0 0 172.48390868744536 -119.83797319182122 0 -119.83797319182122 109.48762509597509 0 0 0 0 98.162617638443407 -37.250798052886694 0 -37.250798052886694 18.014305396718555 0 0 0 0 204.97179486545792 -57.915735435512033 0 -57.915735435512033 -12.640819754622498 0 0 0 0 235.46533409634503 -54.497513420999894 0 -54.497513420999894 -31.028096796639147 0 0 0 0 190.61179152345721 4.6718042048287316 0 4.6718042048287316 -35.414543038648162 0 0 0 0 171.6883963180444 -41.217211406579736 0 -41.217211406579736 -31.265277945081579 0 0 0 0 186.6225623487735 -32.193088508543042 0 -32.193088508543042 -58.263947737432318 0 0 0 0 172.69007366148799 -16.24102176206361 0 -16.24102176206361 -59.75566083137528 0 0 0 0 171.84632536573554 4.8031193903234453 0 4.8031193903234453 -49.962170859835169 0 0 0 0 122.18538934624303 -17.461921024542789 0 -17.461921024542789 -20.446078356624639 0 0 0 0 88.185164118483954 -1.5865777724220607 0 -1.5865777724220607 -25.170390675179078 0 0 0 0 48.936703045757895 -48.67590753991135 0 -48.67590753991135 25.702835419537223 0 0 0 0 65.011557714547962 -9.0741182158335505 0 -9.0741182158335505 15.654444150552536 0 0 0 0 103.85934717514283 -36.682497730865407 0 -36.682497730865407 -16.553314772112572 0 0 0 0 63.223145252712129 -47.640709227711341 0 -47.640709227711341 -7.1692820470824188 0 0 0 0 38.730341349950322 -11.945306267540218 0 -11.945306267540218 -0.87338912048835482 0 0 0 0 45.47578368003451 -29.720600963600191 0 -29.720600963600191 1.3567593620082334 0 0 0 0 32.632513956323237 -23.996431870408742 0 -23.996431870408742 -6.9721093075768295 0 0 0 0 43.117108607992122 -16.863847625339076 0 -16.863847625339076 -31.241520181543109 0 0 0 0 38.040382635877904 -17.655953151268932 0 -17.655953151268932 0.29881188598665176 0 0 0 0 48.301167166635423 -42.689242513810314 0 -42.689242513810314 -22.591725899754238 0 0 0 0 35.200426139410411 -34.735460038669771 0 -34.735460038669771 9.2093271562189329 0 0 0 0 34.809444566824823 -29.080037603072014 0 -29.080037603072014 -12.462450069488114 0 0 0 0 -1.0883132446483472 -3.4854085569676236 0 -3.4854085569676236 -12.940454385147831 0 0 0 0 34.598235850044148 -26.897370914425665 0 -26.897370914425665 -5.0930033501317666 0 0 0 0 110.33204466066672 -35.928830587419725 0 -35.928830587419725 53.109335280664709 0 0 0 0 162.16688848100603 -102.8849238533694 0 -102.8849238533694 5.3389580493349058 0 0 0 0 35.453553320683568 -27.10880410476193 0 -27.10880410476193 -6.7132516701858549 0 0 0 0 10.426121640524379 -7.8338613862886053 0 -7.8338613862886053 -2.7354351540911033 0 0 0 0 141.99923594997017 63.850517644368665 0 63.850517644368665 -199.30554919033602 0 0 0 0 31.343237617192244 -19.451064440949153 0 -19.451064440949153 -8.2593407624553947 0 0 0 0 5.728727002177159 -12.111485059498637 0 -12.111485059498637 -21.914690254935291 0 0 0 0 52.515267536258762 -33.384625702194171 0 -33.384625702194171 -62.275873827078613 0 0 0 0 -30.832986972105573 -24.691594467984032 0 -24.691594467984032 -2.8267796318825162 0 0 0 0 67.630246744483884 -65.25225261941705 0 -65.25225261941705 -7.1935507494854392 0 0 0 0 146.13719462081644 5.6133651408163132 0 5.6133651408163132 -82.372410404183029 0 0 0 0 451.95898997808399 -99.383669357503095 0 -99.383669357503095 -259.17618313950152 0 0 0 0 123.77561371984848 -73.076661818586217 0 -73.076661818586217 -87.474140930493604 0 0 0 0 146.22995636748237 -188.03461339983369 0 -188.03461339983369 157.66373475413275 0 0 0 0 97.159261228003743 -121.70237219417868 0 -121.70237219417868 127.88225393724133 0 0 0 0 261.11549706643564 -251.67297618955672 0 -251.67297618955672 105.04508827860263 0 0 0 0 2.0524201966778648 0.70802079275572538 0 0.70802079275572538 -0.1014522039169421 0 0 0 0 -23.829389659018489 9.34636760788635 0 9.34636760788635 -178.42668977891299 0 0 0 0 337.41945913426389 -144.21641296530925 0 -144.21641296530925 -24.499594102577248 0 0 0 0 271.1990073235138 -29.445002837419452 0 -29.445002837419452 -72.572886751539045 0 0 0 0 72.495646418869001 -56.12381069068033 0 -56.12381069068033 64.148527876090156 0 0 0 0 7.627044491346922 -0.83619984725566709 0 -0.83619984725566709 -3.1088527827515477 0 0 0 0 165.11744357030904 -57.1177710780551 0 -57.1177710780551 43.114114379704915 0 0 0 0 29.091909470538269 -7.1560423931831849 0 -7.1560423931831849 -6.2975922863926224 0 0 0 0 37.957041209825547 5.198110255829306 0 5.198110255829306 -19.754833015918848 0 0 0 0 27.408057246635508 -3.3312941802741989 0 -3.3312941802741989 -12.140892152315246 0 0 0 0 32.957964216921027 -13.994037394911174 0 -13.994037394911174 0.44988241559258313 0 0 0 0 40.205968859779261 -9.67414618438597 0 -9.67414618438597 -6.8063003008877523 0 0 0 0 37.75030456847162 -9.8526439317529366 0 -9.8526439317529366 -13.979729158847476 0 0 0 0 33.65897239387013 -6.5341081825729024 0 -6.5341081825729024 -5.539465776615577 0 0 0 0 32.031013630626148 -10.36447102713862 0 -10.36447102713862 -22.515432347210663 0 0 0 0 35.88208955682785 -19.915022492894423 0 -19.915022492894423 -1.0485222326751682 0 0 0 0 31.782794936505525 -10.953723711539169 0 -10.953723711539169 -6.8650779880117625 0 0 0 0 37.519072229339145 -19.052490013042188 0 -19.052490013042188 -21.159124213721952 0 0 0 0 47.123682701851067 -28.228408742936153 0 -28.228408742936153 -12.429320376989381 0 0 0 0 48.263969622500554 -24.196461094604729 0 -24.196461094604729 -50.533349796409311 0 0 0 0 40.805013196491927 -8.4874436583313582 0 -8.4874436583313582 -18.277369302079023 0 0 0 0 40.113875482107687 3.061977051120266 0 3.061977051120266 -39.245593810715945 0 0 0 0 40.777994079071505 -8.4529608801331051 0 -8.4529608801331051 -16.665793260034661 0 0 0 0 28.065508469604538 -6.9635950150859571 0 -6.9635950150859571 -16.439613603466569 0 0 0 0 68.261805195264969 -29.665342955394408 0 -29.665342955394408 -17.321631165447414 0 0 0 0 44.106326952467498 -21.436177393916296 0 -21.436177393916296 43.824817522165176 0 0 0 0 28.761195663381912 -11.122325852239349 0 -11.122325852239349 -3.6557836806368504 0 0 0 0 25.734951274804189 -14.127530344219849 0 -14.127530344219849 -11.323128713434926 0 0 0 0 36.060962569690659 -24.795948968065698 0 -24.795948968065698 -0.60287427587383036 0 0 0 0 17.780695178327733 -19.506623403871345 0 -19.506623403871345 -4.5754906203801511 0 0 0 0 24.530673421103238 -30.980556200942313 0 -30.980556200942313 0.8850305705744077 0 0 0 0 24.650283897505481 -25.295152735961519 0 -25.295152735961519 4.3905314344889703 0 0 0 0 27.245445640815888 -16.032965377613436 0 -16.032965377613436 -10.003694596416608 0 0 0 0 27.898130074250986 0.65638485561960636 0 0.65638485561960636 -9.4039336635274964 0 0 0 0 17.993441023144115 -21.018187594553225 0 -21.018187594553225 16.443790136355823 0 0 0 0 31.196936307118449 -26.656666689982558 0 -26.656666689982558 0.54642275433070608 0 0 0 0 20.489386054168939 -15.719928689520387 0 -15.719928689520387 -9.1372059517058908 0 0 0 0 60.118479566648602 -42.746412474680255 0 -42.746412474680255 43.415682174552785 0 0 0 0 24.32681368129488 -15.001105705709961 0 -15.001105705709961 -9.8746226386042508 0 0 0 0 33.620344970768357 -22.462686059841111 0 -22.462686059841111 -10.453018577691369 0 0 0 0 39.316130688181147 -54.121253576526215 0 -54.121253576526215 56.281482748017879 0 0 0 0 12.988539410685291 -21.205918743065268 0 -21.205918743065268 0.30772729121080999 0 0 0 0 22.367205744438252 -18.818070125874783 0 -18.818070125874783 2.2458877798344474 0 0 0 0 99.552568212187907 -50.176971427224998 0 -50.176971427224998 -51.813793846198678 0 0 0 0 0.99446742379366881 -10.359829420535661 0 -10.359829420535661 -9.5473920134053003 0 0 0 0 81.518369927114691 -28.682975658593932 0 -28.682975658593932 15.830571518358738 0 0 0 0 79.62372880775365 -35.639904948797266 0 -35.639904948797266 33.078129636940503 0 0 0 0 9.2274053377499037 -3.2222464726178259 0 -3.2222464726178259 0.90504036387569897 0 0 0 0 1.8828854821433367 -4.9368035243179662 0 -4.9368035243179662 0.50814468511129363 0 0 0 0 24.318987908319286 -11.05519092906934 0 -11.05519092906934 -9.3444836700336964 0 0 0 0 23.863736435430837 -12.268151979430058 0 -12.268151979430058 -6.9270694748138339 0 0 0 0 20.376858138002866 -9.8711640255351458 0 -9.8711640255351458 0.17117717122880016 0 0 0 0 25.416644682760307 -13.883358375360785 0 -13.883358375360785 -8.5138091985545543 0 0 0 0 23.696404951391742 -21.177373275854279 0 -21.177373275854279 -11.945888215037712 0 0 0 0 12.470767693528137 -8.4183315075305103 0 -8.4183315075305103 -4.0658111529936463 0 0 0 0 14.603983664930638 -15.389451995109539 0 -15.389451995109539 -8.078593840814392 0 0 0 0 18.29060010250744 -12.482311624311311 0 -12.482311624311311 -2.1950381174579761 0 0 0 0 7.3492124726857391 -14.444804798813209 0 -14.444804798813209 2.7487991950175292 0 0 0 0 40.075970603706082 -18.665556583990565 0 -18.665556583990565 -2.3150232350808437 0 0 0 0 73.534386494151477 -45.566851604124622 0 -45.566851604124622 -7.8864702498030965 0 0 0 0 36.371597347764691 -19.777048319047935 0 -19.777048319047935 0.72862102308135945 0 0 0 0 18.264875967522798 -14.57623772392374 0 -14.57623772392374 -1.2387469047334876 0 0 0 0 8.834462554557895 -5.4529618161219098 0 -5.4529618161219098 -5.3500249183117461 0 0 0 0 17.419532409830936 -8.5862797630161367 0 -8.5862797630161367 -0.14537948131692247 0 0 0 0 18.240568085648192 -11.723206540702904 0 -11.723206540702904 -1.0460884338992855 0 0 0 0 3.1188669054866196 -4.1906933612229658 0 -4.1906933612229658 -0.031898720133771263 0 0 0 0 -11.212490014314426 2.3538234063307755 0 2.3538234063307755 19.675661612659496 0 0 0 0 175.85747243878859 -24.738747726927159 0 -24.738747726927159 6.3871812205652532 0 0 0 0 -0.35725943275943806 0.39775039450198868 0 0.39775039450198868 0.91007427672833607 0 0 0 0 0.40082017220666977 -0.43335319354713064 0 -0.43335319354713064 0.84519886176385306 0 0 0 0 5.5497732151297896 -10.476186886017786 0 -10.476186886017786 -7.6421790618028353 0 0 0 0 72.333665438246499 -40.282497102795787 0 -40.282497102795787 -17.39047004085819 0 0 0 0 44.935305596600301 26.048846564969153 0 26.048846564969153 29.330455227805942 0 0 0 0 -150.04913142276337 -70.26949879807853 0 -70.26949879807853 162.44609576808853 0 0 0 0 2.5267152876673347 -3.3408302740083062 0 -3.3408302740083062 0.47448327342510765 0 0 0 0 216.93135781395904 18.417272632630556 0 18.417272632630556 -25.747967391538623 0 0 0 0 86.77829238092113 -152.55467826159156 0 -152.55467826159156 -26.321355511182446 0 0 0 0 32.148135435436409 -3.3487638998396605 0 -3.3487638998396605 -13.508841328692291 0 0 0 0 402.433037627565 162.31695467716509 0 162.31695467716509 -89.679447730442917 0 0 0 0 63.274196487604968 -80.338100497405776 0 -80.338100497405776 30.589078048928513 0 0 0 0 275.7500120664813 -17.766498391120422 0 -17.766498391120422 -69.309062363401608 0 0 0 0 179.72102309839011 -18.682938895348343 0 -18.682938895348343 -60.34887683861416 0 0 0 0 85.52963738013068 -66.02140238085849 0 -66.02140238085849 -3.5372878125908755 0 0 0 0 154.53520384778415 -69.779251960952649 0 -69.779251960952649 -4.2163255404320807 0 0 0 0 96.134417948979944 -49.514344968710247 0 -49.514344968710247 22.150869685182442 0 0 0 0 13.571143574871067 2.6846126311043133 0 2.6846126311043133 0.43493894515566467 0 0 0 0 31.396303971722546 21.608452127947203 0 21.608452127947203 13.434263295003348 0 0 0 0 18.659556390191256 11.549584794268867 0 11.549584794268867 7.5072367282164123 0 0 0 0 65.233537098219131 22.901655198480512 0 22.901655198480512 10.260816346055435 0 0 0 0 7.7475774236633974 3.768879725946527 0 3.768879725946527 1.7454336850276597 0 0 0 0 -5.9197931138969579 36.423475783330332 0 36.423475783330332 27.093103131703174 0 0 0 0 31.350757079302639 -18.300920435811349 0 -18.300920435811349 7.9765850604571824 0 0 0 0 165.55556884540181 -9.5496554335277324 0 -9.5496554335277324 -6.832364209842126 0 0 0 0 14.838105380922002 4.4722247680961118 0 4.4722247680961118 1.1794227465179574 0 0 0 0 9.0398110951396049 -5.0928211401640162 0 -5.0928211401640162 -1.0872291896633781 0 0 0 0 15.67312878396433 3.3805123100401033 0 3.3805123100401033 -0.58771367571716837 0 0 0 0 7.9131548443529027 -2.9868885973501165 0 -2.9868885973501165 -3.3253322456130263 0 0 0 0 8.8749484372324972 -0.30805111929642237 0 -0.30805111929642237 0.019683427712948287 0 0 0 0 11.140124859163734 -2.0152648982179926 0 -2.0152648982179926 -8.6353935868392 0 0 0 0 24.683146429886982 -1.6526408884326278 0 -1.6526408884326278 -6.1255098925829863 0 0 0 0 21.2597451777029 4.6492222118877731 0 4.6492222118877731 -3.4080483216361976 0 0 0 0 15.95091819373944 2.6431073714393278 0 2.6431073714393278 -7.7997012823889236 0 0 0 0 16.983386112554413 1.4899994161475103 0 1.4899994161475103 -2.6203822023160868 0 0 0 0 17.407208776221871 1.62902133943017 0 1.62902133943017 -2.9412494099682576 0 0 0 0 22.690672938463649 -2.6896773120861326 0 -2.6896773120861326 -5.264561942919272 0 0 0 0 45.622818227380776 4.4875167331474586 0 4.4875167331474586 -18.448331472749487 0 0 0 0 21.246277878205547 9.1218997844375735 0 9.1218997844375735 31.714893727534218 0 0 0 0 10.05106942894135 6.3704679247531963 0 6.3704679247531963 1.9722300860481665 0 0 0 0 5.3353126479862674 2.5958982086519118 0 2.5958982086519118 -0.84244207389275516 0 0 0 0 29.925301368865895 -8.5663835802141364 0 -8.5663835802141364 -9.0527151676242283 0 0 0 0 42.1761306774888 -16.828570960264187 0 -16.828570960264187 1.4481893607918437 0 0 0 0 26.974070497620346 -9.1804888507996409 0 -9.1804888507996409 -0.39657526277152755 0 0 0 0 22.304099663705529 -9.192764157005513 0 -9.192764157005513 -15.832815399908668 0 0 0 0 16.554628898819352 -10.153034669959467 0 -10.153034669959467 -3.1725180377250037 0 0 0 0 25.00870392900697 -12.024105691166824 0 -12.024105691166824 -10.069925597432302 0 0 0 0 19.630237126528812 -6.3089610103709486 0 -6.3089610103709486 -0.71461468900821057 0 0 0 0 328.32066941007088 -451.19328460880206 0 -451.19328460880206 157.76610541953596 0 0 0 0 36.531041379519593 85.123430219013244 0 85.123430219013244 59.545428147648636 0 0 0 0 3.8767383860312492 3.2415443283173655 0 3.2415443283173655 2.493667919000389 0 0 0 0 101.91603050017875 118.44136420034192 0 118.44136420034192 24.619389252373367 0 0 0 0 335.79942812378067 -502.87751744132675 0 -502.87751744132675 179.69116842861376 0 0 0 0 76.138730831790795 -57.19106596760497 0 -57.19106596760497 10.719822568112221 0 0 0 0 30.957040967060173 -5.1855385209547293 0 -5.1855385209547293 7.5075455435312541 0 0 0 0 748.09294681992469 254.77348671416803 0 254.77348671416803 -248.84128293117465 0 0 0 0 76.233562667445881 -59.771595373590209 0 -59.771595373590209 27.867691892285229 0 0 0 0 96.056303222925635 -174.70577033614973 0 -174.70577033614973 584.81338260817574 0 0 0 0 2.7406019395351606 2.720124819674 0 2.720124819674 2.6449750700773933 0 0 0 0 -91.933317534101661 244.99409382263184 0 244.99409382263184 -89.752046323770628 0 0 0 0 298.50132930335531 -57.833684950101997 0 -57.833684950101997 -29.637450075589754 0 0 0 0 255.07564543317858 -186.78017290297794 0 -186.78017290297794 85.79632715610569 0 0 0 0 -655.74907540639106 645.67795437249515 0 645.67795437249515 796.40816098460346 0 0 0 0 37.008447573431305 -13.316072468164471 0 -13.316072468164471 1.2472874969214587 0 0 0 0 -137.09065199209726 189.19532734479435 0 189.19532734479435 -322.90467555052601 0 0 0 0 297.74229904381463 -146.58582287592975 0 -146.58582287592975 45.551565311820013 0 0 0 0 -428.73893967198092 145.04072109730441 0 145.04072109730441 -58.419373662192811 0 0 0 0 101.29687161826769 -246.74687485584309 0 -246.74687485584309 145.06761039314006 0 0 0 0 443.05783591995714 -141.07859897764683 0 -141.07859897764683 -59.714892105577746 0 0 0 0 -1.7463785730215022 -858.91625943200779 0 -858.91625943200779 179.93908550271772 0 0 0 0 712.90541591558576 -170.44216900618267 0 -170.44216900618267 -86.031445943430299 0 0 0 0 175.8734013327703 100.68813426082852 0 100.68813426082852 15.618609518634912 0 0 0 0 84.840091086184657 58.616268575263121 0 58.616268575263121 1.3413607300935837 0 0 0 0 447.89763694829526 70.079504285258736 0 70.079504285258736 -9.1993340006301878 0 0 0 0 11.372195357345163 10.254158600432469 0 10.254158600432469 -0.63765802850020492 0 0 0 0 322.5181694775456 -135.10949916198661 0 -135.10949916198661 -62.818333415775669 0 0 0 0 83.929838809788635 59.953655030272785 0 59.953655030272785 38.289542988401081 0 0 0 0 -48.871439179227309 -3.3942467041715645 0 -3.3942467041715645 34.386828244067146 0 0 0 0 19.066717707945557 -3.7109908636636479 0 -3.7109908636636479 -7.0893215986878957 0 0 0 0 82.579474985698198 -35.358911830961006 0 -35.358911830961006 -61.259430492338197 0 0 0 0 16.585651156339217 5.0994738082257216 0 5.0994738082257216 -16.558327813807534 0 0 0 0 -122.4347943092281 9.3153879315918857 0 9.3153879315918857 11.222970490700391 0 0 0 0 32.258786255693849 3.8357565045353113 0 3.8357565045353113 -43.376919657451708 0 0 0 0 -4.2705535081367998 31.817710522134348 0 31.817710522134348 -1.764746059450772 0 0 0 0 35.10024274533221 13.773580475964284 0 13.773580475964284 1.3131790486888093 0 0 0 0 123.91459139803555 16.24736941847209 0 16.24736941847209 -1.8851218086691688 0 0 0 0 -61.840716168391566 193.00717846961504 0 193.00717846961504 -103.98277861222959 0 0 0 0 75.356853981841937 -42.396417983553079 0 -42.396417983553079 53.660560936557886 0 0 0 0 49.048040347533515 -96.754249171638548 0 -96.754249171638548 -2.277308235014516 0 0 0 0 121.59730217202014 -297.06709110606016 0 -297.06709110606016 294.42586400012215 0 0 0 0 4.2967913793529764 0.92838118500210953 0 0.92838118500210953 0.62628004893620215 0 0 0 0 321.53166442154998 -371.3491096166872 0 -371.3491096166872 501.32943216286731 0 0 0 0 545.66371461715289 -79.034669388407565 0 -79.034669388407565 -419.85058801981359 0 0 0 0 126.36152101140033 -61.567732019671894 0 -61.567732019671894 5.733573061857129 0 0 0 0 124.58309700281097 -57.161061625273305 0 -57.161061625273305 -2.1790368879374 0 0 0 0 106.7208852381591 -51.400406133630895 0 -51.400406133630895 6.0516079259995053 0 0 0 0 116.75122814924498 65.567091273841129 0 65.567091273841129 -85.631466430741057 0 0 0 0 76.605987605205144 -46.208734349312913 0 -46.208734349312913 -0.91606556174737719 0 0 0 0 112.46395794419823 -35.678846835395461 0 -35.678846835395461 2.5022964213076193 0 0 0 0 128.19366560155504 -21.977088371687842 0 -21.977088371687842 13.779009950712862 0 0 0 0 130.39103911686652 -46.367391895285891 0 -46.367391895285891 16.767163160971904 0 0 0 0 96.066147129287856 -25.875698847511558 0 -25.875698847511558 5.4441446795549382 0 0 0 0 123.10856780493486 -32.274567157685851 0 -32.274567157685851 -30.23722033255217 0 0 0 0 121.8794725699554 -37.807917362245007 0 -37.807917362245007 -5.8713697690636764 0 0 0 0 136.24690114018813 -60.615859486386398 0 -60.615859486386398 -5.5078974956923048 0 0 0 0 132.24395416324114 -51.743710780508081 0 -51.743710780508081 -21.415162668060475 0 0 0 0 115.00793362922195 -41.225866794969079 0 -41.225866794969079 -15.717198436905164 0 0 0 0 135.25311920810589 -43.338039903313984 0 -43.338039903313984 -30.497206065163482 0 0 0 0 151.4765758463418 -71.465897825230059 0 -71.465897825230059 -11.822007300121186 0 0 0 0 132.15033300612413 -60.794580983141714 0 -60.794580983141714 -1.1582913590809767 0 0 0 0 129.24530880541897 -83.274956226853192 0 -83.274956226853192 44.896989033364662 0 0 0 0 125.42988243481523 -68.128205165917279 0 -68.128205165917279 34.750486937047754 0 0 0 0 136.39790595477098 -72.615305203793469 0 -72.615305203793469 4.6826891615928616 0 0 0 0 133.77580825589393 -72.189562481378744 0 -72.189562481378744 23.669728696060702 0 0 0 0 139.49877802342235 -76.255677475037373 0 -76.255677475037373 22.782252358570076 0 0 0 0 314.96359606167243 129.32600300750983 0 129.32600300750983 48.162685934556066 0 0 0 0 107.35118742468603 -81.588292176005439 0 -81.588292176005439 90.442540667516369 0 0 0 0 -0.12943809561771147 3.0165076962403745 0 3.0165076962403745 3.1759517733278777 0 0 0 0 114.51297965946787 47.297983969215863 0 47.297983969215863 307.82125419724434 0 0 0 0 166.02117670314146 -109.14244871522033 0 -109.14244871522033 57.790112955059158 0 0 0 0 111.38687123258933 -63.647146298307234 0 -63.647146298307234 63.247530960587937 0 0 0 0 298.53515210263868 242.8271595475635 0 242.8271595475635 96.083388127299258 0 0 0 0 -82.491564679177827 -280.26083619709243 0 -280.26083619709243 -91.028414719655075 0 0 0 0 1.6811364882864552 -1.0386066169975745 0 -1.0386066169975745 0.34559638607081666 0 0 0 0 73.65790454535454 -306.76871681588455 0 -306.76871681588455 -122.52780711519154 0 0 0 0 18.762823378055586 -2.4755426976562944 0 -2.4755426976562944 0.12823157357730608 0 0 0 0 85.084055726287261 -86.936103003589551 0 -86.936103003589551 -137.14737876210529 0 0 0 0 126.95836579285969 -62.239923282396376 0 -62.239923282396376 4.0915590279291791 0 0 0 0 126.76827203121866 -62.914407354901869 0 -62.914407354901869 12.748369827417264 0 0 0 0 134.11531467858913 -65.361121401798528 0 -65.361121401798528 -2.1348910810520465 0 0 0 0 101.00270510621704 -28.482880287782109 0 -28.482880287782109 -51.154742691262072 0 0 0 0 43.232619740599979 -25.046352292529143 0 -25.046352292529143 2.1921174623490103 0 0 0 0 69.803335504267125 36.030263009490227 0 36.030263009490227 84.155510937487634 0 0 0 0 45.33634694277572 52.183623525808343 0 52.183623525808343 -68.09543790216776 0 0 0 0 -115.50784597733627 80.669644648179656 0 80.669644648179656 193.47903432149178 0 0 0 0 66.792994948869136 -41.286275606020467 0 -41.286275606020467 -303.95012547296028 0 0 0 0 64.044821513228669 -13.564816039644029 0 -13.564816039644029 -63.083838152859016 0 0 0 0 34.754716121708057 -23.495073275901778 0 -23.495073275901778 -3.7170329489799698 0 0 0 0 -133.32910305613768 -205.72621615506887 0 -205.72621615506887 -23.132466461535614 0 0 0 0 -102.50777731212474 -75.236656089532062 0 -75.236656089532062 -13.221690152094197 0 0 0 0 43.104461674192862 -123.20273337639264 0 -123.20273337639264 -46.798897039250733 0 0 0 0 249.52927139866915 3.5942572834351267 0 3.5942572834351267 -293.26678371782509 0 0 0 0 -89.671723302668397 -234.36089984906448 0 -234.36089984906448 -68.752019318739258 0 0 0 0 5.6784200265218558 -2.8622662078497019 0 -2.8622662078497019 -0.66667238216641778 0 0 0 0 1.3994692958018362 -0.7982929909575347 0 -0.7982929909575347 -1.079429989567771 0 0 0 0 -235.62922093839006 -292.67119731619368 0 -292.67119731619368 40.670637634611921 0 0 0 0 212.0716216152482 223.98763877110758 0 223.98763877110758 -7.7141363792925404 0 0 0 0 259.85710192943588 -35.537049514373393 0 -35.537049514373393 -258.22812812329357 0 0 0 0 -218.16872630478974 -21.875592732211771 0 -21.875592732211771 251.53058408316156 0 0 0 0 109.86992721030765 316.49650722561091 0 316.49650722561091 128.64455556462599 0 0 0 0 112.51294357580991 61.173034994011687 0 61.173034994011687 -48.744719539527523 0 0 0 0 252.9287179815592 71.544684792701673 0 71.544684792701673 -33.753213373480321 0 0 0 0 138.42510806117389 43.626323631825471 0 43.626323631825471 -37.365423505641957 0 0 0 0 -729.58165114409348 201.42589440847951 0 201.42589440847951 260.915194925592 0 0 0 0 116.28701733225171 98.606427846059887 0 98.606427846059887 -77.172420485389921 0 0 0 0 169.3174189926649 79.109806036522968 0 79.109806036522968 -83.864741520528696 0 0 0 0 56.986041373158514 -8.1486700201494386 0 -8.1486700201494386 -42.408431415552656 0 0 0 0 -60.570998991224769 48.65514190574504 0 48.65514190574504 22.243542720673759 0 0 0 0 54.134617718484549 59.703311284575975 0 59.703311284575975 -1.2165235965730972 0 0 0 0 95.314747652560982 -91.988327581652584 0 -91.988327581652584 -97.535843761327669 0 0 0 0 203.88560481027889 53.385460989355579 0 53.385460989355579 -39.893481508895889 0 0 0 0 176.46837035353383 55.38535725777956 0 55.38535725777956 179.95382138874811 0 0 0 0 149.05276728421995 -89.460697003342375 0 -89.460697003342375 -17.335103243221965 0 0 0 0 49.505312612526723 -9.5590266145574105 0 -9.5590266145574105 -53.926191351199634 0 0 0 0 88.784948474976773 22.585426463516797 0 22.585426463516797 69.636819347914752 0 0 0 0 10.872379610315539 -4.5014267680064393 0 -4.5014267680064393 2.5550574726887696 0 0 0 0 87.620541821215738 -18.757085073178132 0 -18.757085073178132 0.88729620943200871 0 0 0 0 104.91311833781381 -107.35011796924167 0 -107.35011796924167 133.97584664100577 0 0 0 0 42.177447539191917 -18.409685537066707 0 -18.409685537066707 -6.982844842375016 0 0 0 0 39.655269130279066 -7.6028754690848928 0 -7.6028754690848928 107.05121145131488 0 0 0 0 63.359035923968804 -43.66437663674003 0 -43.66437663674003 -9.3114472417983052 0 0 0 0 63.62506675328865 -8.7061577634199239 0 -8.7061577634199239 -22.256130371962172 0 0 0 0 -0.71706798947705419 0.61788915402336819 0 0.61788915402336819 -4.7386921403470019 0 0 0 0 37.825767770156745 -25.296955962227457 0 -25.296955962227457 21.627929276231498 0 0 0 0 41.616426470688339 17.042130985510084 0 17.042130985510084 -8.7898189180368718 0 0 0 0 52.256142713598024 29.906529043243609 0 29.906529043243609 1.6042275106406123 0 0 0 0 54.915816674198396 -10.463179383666102 0 -10.463179383666102 -0.9916039438730877 0 0 0 0 77.843723149248945 -2.5168495603797965 0 -2.5168495603797965 0.21592300705805201 0 0 0 0 -99.089038219908161 -8.2245450604411872 0 -8.2245450604411872 -119.34199177560276 0 0 0 0 35.646711464377489 -19.544821116264863 0 -19.544821116264863 -9.0416150444196113 0 0 0 0 2.4981156400800231 -2.430066867884431 0 -2.430066867884431 -0.18653345930130527 0 0 0 0 183.54114124953503 141.80418800618986 0 141.80418800618986 -55.642152731432361 0 0 0 0 -122.51369245062233 -140.49920389840918 0 -140.49920389840918 -117.26128232372866 0 0 0 0 -137.29079578183519 -188.61292301096364 0 -188.61292301096364 34.744831691157742 0 0 0 0 -59.978982068307232 -168.40094600627071 0 -168.40094600627071 -233.51048540382317 0 0 0 0 13.530373937173863 -73.34627074709897 0 -73.34627074709897 -287.46350069519031 0 0 0 0 0.83210777497010469 -9.8795896020734268 0 -9.8795896020734268 -4.8222074037599407 0 0 0 0 49.133700454811333 45.828517835694583 0 45.828517835694583 -46.580658252558464 0 0 0 0 62.773167607408141 -18.104253758691812 0 -18.104253758691812 -43.01261102452446 0 0 0 0 42.92890361788676 9.2031225823056033 0 9.2031225823056033 -5.5275888404888285 0 0 0 0 9.0422499306373965 3.877817736739761 0 3.877817736739761 -2.9826668441765989 0 0 0 0 -44.462850075375172 -158.19321538845998 0 -158.19321538845998 -196.50133211537832 0 0 0 0 10.975417125545665 4.9887578172115141 0 4.9887578172115141 0.23463134162103927 0 0 0 0 -60.537364238716691 -88.901641319509508 0 -88.901641319509508 -178.40284906959278 0 0 0 0 14.275855521592993 0.62706053384320004 0 0.62706053384320004 -11.606696410428633 0 0 0 0 75.374586207054563 -20.19239827043657 0 -20.19239827043657 -50.8998143015815 0 0 0 0 66.700424216507827 -2.6398972166659576 0 -2.6398972166659576 -45.271029317246757 0 0 0 0 32.098497170310111 -4.7067175025879351 0 -4.7067175025879351 -40.479657237448635 0 0 0 0 33.620192215342996 13.261075339493324 0 13.261075339493324 -6.7548337483837759 0 0 0 0 80.305249218059544 -24.229135677522208 0 -24.229135677522208 -71.546796221184792 0 0 0 0 53.508339773658918 10.860271968844501 0 10.860271968844501 -69.745469845998628 0 0 0 0 16.147335450510582 46.642663034507848 0 46.642663034507848 -93.333251867263698 0 0 0 0 74.572554809914891 -14.663457765200178 0 -14.663457765200178 -92.507614444906153 0 0 0 0 29.059375277107634 -6.0673829435457236 0 -6.0673829435457236 -4.5249032702158942 0 0 0 0 78.094939131384308 17.628495418710827 0 17.628495418710827 -81.185084111317337 0 0 0 0 39.880734630314691 9.4719176876882329 0 9.4719176876882329 -49.241069617099697 0 0 0 0 6.9385256654422847 -31.640497766342833 0 -31.640497766342833 -20.833707962231983 0 0 0 0 47.518563992629424 -9.2628072178555385 0 -9.2628072178555385 -33.999130410934868 0 0 0 0 42.961052852504963 -25.206043384885504 0 -25.206043384885504 -12.920422336270803 0 0 0 0 19.575879986440448 -4.7072699922467081 0 -4.7072699922467081 -26.876767636309381 0 0 0 0 19.003947880319174 0.54372308958613758 0 0.54372308958613758 -14.777052196603002 0 0 0 0 61.12280148298214 19.111034247408156 0 19.111034247408156 -98.945192334813328 0 0 0 0 33.971892356807075 39.026429164568526 0 39.026429164568526 -37.508349291797003 0 0 0 0 33.734413145743019 -11.354392152231853 0 -11.354392152231853 -28.010737946898985 0 0 0 0 38.46205297819688 8.5480848064144084 0 8.5480848064144084 -67.317569414022728 0 0 0 0 25.403397562218416 -2.9380536382224491 0 -2.9380536382224491 -10.183154373828675 0 0 0 0 19.455581600952208 -4.2613336500569936 0 -4.2613336500569936 -17.125672382287885 0 0 0 0 67.779472401060048 -93.094218001227091 0 -93.094218001227091 1.5605605931668833 0 0 0 0 14.537248566557011 -7.5721843604933561 0 -7.5721843604933561 -0.84511221825941618 0 0 0 0 52.649474595360516 16.926943437390037 0 16.926943437390037 -12.907215443898167 0 0 0 0 133.78580197154224 14.715115063051599 0 14.715115063051599 -76.278011601818434 0 0 0 0 16.738690769005856 -5.7985462416882001 0 -5.7985462416882001 -13.517855052318414 0 0 0 0 25.011669695305415 -3.2583289926926788 0 -3.2583289926926788 -10.99800088103715 0 0 0 0 52.171966749883723 -39.845809330446173 0 -39.845809330446173 17.124209133526165 0 0 0 0 50.182559937045298 -30.771483707922936 0 -30.771483707922936 3.8523097815553089 0 0 0 0 45.315634049316536 5.2175983257355227 0 5.2175983257355227 -43.540228578201685 0 0 0 0 29.952800781698897 -9.1255758177994721 0 -9.1255758177994721 -19.300555381488266 0 0 0 0 -44.158279552488239 34.351353410737374 0 34.351353410737374 66.213332434415406 0 0 0 0 -0.40330084538555866 1.0861735605459497 0 1.0861735605459497 -1.4784198588040036 0 0 0 0 77.459713848569663 -20.442164805984248 0 -20.442164805984248 -11.163707086107024 0 0 0 0 -41.133172658328476 26.716156503408456 0 26.716156503408456 -72.99727765082207 0 0 0 0 -11.567028559635219 -64.046949217390647 0 -64.046949217390647 11.522624298271921 0 0 0 0 -42.239928232525926 -48.72134758789889 0 -48.72134758789889 0.34610016228180029 0 0 0 0 -0.040832465230778325 -41.034200704491013 0 -41.034200704491013 -254.19781536304345 0 0 0 0 12.176551543823734 -35.172042335904735 0 -35.172042335904735 -3.6696168170619785 0 0 0 0 -12.852344577360782 58.822983148605203 0 58.822983148605203 -28.333544623377747 0 0 0 0 186.21977504460847 -51.984916575288707 0 -51.984916575288707 -150.75861357155736 0 0 0 0 -41.70011111655549 -123.81436097501137 0 -123.81436097501137 -133.86014975915168 0 0 0 0 -199.98206454197498 56.660405277733844 0 56.660405277733844 241.74709035103933 0 0 0 0 203.88226564280922 55.773847710703649 0 55.773847710703649 -245.10652083648984 0 0 0 0 91.072064969510393 -62.140800495506028 0 -62.140800495506028 -86.983933885914666 0 0 0 0 21.982588625935477 -65.166910752409422 0 -65.166910752409422 -24.837331067354171 0 0 0 0 15.242088903360255 -6.9533058059380899 0 -6.9533058059380899 -2.2107983336803034 0 0 0 0 8.6954876759494688 7.0115437464394148 0 7.0115437464394148 -20.703178364274741 0 0 0 0 153.39744911163143 81.246992922017853 0 81.246992922017853 -67.134718648807393 0 0 0 0 48.051249845098937 -24.29929130404571 0 -24.29929130404571 102.45568246705034 0 0 0 0 111.19515701113414 -47.036309794885028 0 -47.036309794885028 -138.10130679183203 0 0 0 0 -27.25591508980142 -23.51768840104387 0 -23.51768840104387 -22.235363937134935 0 0 0 0 -20.800221713165229 117.64360415675765 0 117.64360415675765 -95.719484771055932 0 0 0 0 76.319964748995062 44.554061610803103 0 44.554061610803103 -5.3631592271576665 0 0 0 0 59.482075952493837 15.208277803753909 0 15.208277803753909 -48.670061342055206 0 0 0 0 301.86247177099722 83.768394029135379 0 83.768394029135379 -103.57128389039144 0 0 0 0 52.310941256765545 -140.29800390752507 0 -140.29800390752507 85.63782558265666 0 0 0 0 13.911967789945194 -1.4258576117520789 0 -1.4258576117520789 -5.8081987588087216 0 0 0 0 88.780280697412309 -194.04065376000926 0 -194.04065376000926 -132.40200604224265 0 0 0 0 31.910634715914057 24.481466106536118 0 24.481466106536118 7.1939563385828933 0 0 0 0 -21.910363009643333 16.215567355304302 0 16.215567355304302 20.36830005729098 0 0 0 0 7.6318509019911289 16.807493281157804 0 16.807493281157804 -43.086931985676529 0 0 0 0 4.3564731287260656 17.040606000899231 0 17.040606000899231 -43.0907483975584 0 0 0 0 41.025952770547406 4.4857485314386309 0 4.4857485314386309 -40.179162612773688 0 0 0 0 20.886258524292998 -19.230022783451112 0 -19.230022783451112 15.952305712475482 0 0 0 0 60.635796321432281 13.460781938398213 0 13.460781938398213 -25.505773793515573 0 0 0 0 -162.83857024555709 -1.0600315686727981 0 -1.0600315686727981 376.40211296030611 0 0 0 0 349.21963927884644 -112.22571963889095 0 -112.22571963889095 -223.11605498641711 0 0 0 0 1.9937922192115138 -5.9993674191914295 0 -5.9993674191914295 12.367770352368492 0 0 0 0 381.00049470308295 112.43474769759951 0 112.43474769759951 42.893789509639646 0 0 0 0 756.67213630342303 45.574708080491746 0 45.574708080491746 37.794795691304444 0 0 0 0 584.03084084387228 -293.43055183997785 0 -293.43055183997785 95.523867203041391 0 0 0 0 277.52302180074912 -291.86929790574868 0 -291.86929790574868 104.85362820217711 0 0 0 0 48.234670052881484 -13.572212541824683 0 -13.572212541824683 -0.36236029826068261 0 0 0 0 103.38890581148007 -7.7236206137999943 0 -7.7236206137999943 -21.461617063964695 0 0 0 0 0.90016323906786511 1.1756882248237659 0 1.1756882248237659 -1.5526556120523836 0 0 0 0 -485.72269165361467 247.0770387629791 0 247.0770387629791 67.781522624864465 0 0 0 0 -182.52912761215157 -57.645532831571472 0 -57.645532831571472 97.026639910217 0 0 0 0 452.39505862786973 -11.492544011071004 0 -11.492544011071004 -122.56272774051831 0 0 0 0 344.18529094855876 142.40755873827857 0 142.40755873827857 -46.486837626034685 0 0 0 0 52.119986323643388 6.8257565955846076 0 6.8257565955846076 -81.042697116271938 0 0 0 0 151.04534252471421 5.9259537794814605 0 5.9259537794814605 -121.0662802962006 0 0 0 0 -27.529148809055187 164.09809798450829 0 164.09809798450829 -179.42486979518526 0 0 0 0 97.233671086323739 93.601649528948201 0 93.601649528948201 -46.507691160857576 0 0 0 0 261.10024806289948 99.199581062793186 0 99.199581062793186 -38.481696147773732 0 0 0 0 126.61788393078677 82.08662600191019 0 82.08662600191019 -54.009191417477268 0 0 0 0 106.61744896142773 84.12142188996404 0 84.12142188996404 -36.939506392935073 0 0 0 0 117.83989293891682 2.1860018937294399 0 2.1860018937294399 -31.394897185698937 0 0 0 0 -2.9803474856133931 2.1412187632352548 0 2.1412187632352548 -3.0441483474752182 0 0 0 0 8.8651032100911777 -4.852745308616992 0 -4.852745308616992 -0.83265219198809959 0 0 0 0 245.75834296473658 -293.16770328262714 0 -293.16770328262714 -158.20211529992298 0 0 0 0 -91.057793168936769 63.148955221259712 0 63.148955221259712 153.75120054855415 0 0 0 0 -19.804991574470478 -145.27712806609543 0 -145.27712806609543 -73.110182215459645 0 0 0 0 -32.604341448706236 20.600579249600571 0 20.600579249600571 55.358135189700988 0 0 0 0 47.505592437599262 65.223831582973617 0 65.223831582973617 -13.338490692482083 0 0 0 0 165.05501400591311 8.9943250279729909 0 8.9943250279729909 -53.660875157953342 0 0 0 0 210.5734840361838 -45.606272398435522 0 -45.606272398435522 -31.585266899715862 0 0 0 0 104.08679563687292 -20.175390801481626 0 -20.175390801481626 58.560521583518494 0 0 0 0 616.80699769341118 -118.22792925583803 0 -118.22792925583803 -61.5688377822039 0 0 0 0 228.01765101267938 25.110324255833063 0 25.110324255833063 56.900490637577605 0 0 0 0 217.0179168317045 -58.566846654653318 0 -58.566846654653318 90.611482199508828 0 0 0 0 232.34235648027243 37.888325631533007 0 37.888325631533007 -32.445507368294784 0 0 0 0 231.27161418786636 -59.631149268310992 0 -59.631149268310992 3.2874177117737418 0 0 0 0 83.117824616663711 -23.213113351258926 0 -23.213113351258926 -38.690303058687277 0 0 0 0 123.51441961597811 56.680891030778184 0 56.680891030778184 24.507485735004593 0 0 0 0 72.040353870280342 -34.559412967947083 0 -34.559412967947083 -9.4511731839675122 0 0 0 0 -29.517898474676258 76.57959911595708 0 76.57959911595708 24.184536860222806 0 0 0 0 447.31620029384067 -111.61725751031418 0 -111.61725751031418 -37.882720851796876 0 0 0 0 2.5811779100731371 3.2208190337146121 0 3.2208190337146121 -5.5055455027672089 0 0 0 0 218.94857493229574 179.66686088838605 0 179.66686088838605 -104.64930149446354 0 0 0 0 102.22695542403198 28.5040948205924 0 28.5040948205924 -73.622373717085793 0 0 0 0 -178.84387383171543 148.7435173580476 0 148.7435173580476 -52.432049294936405 0 0 0 0 64.080723135966764 3.9645673328341218 0 3.9645673328341218 -59.712475110954983 0 0 0 0 71.423047546599264 -5.7769412301340708 0 -5.7769412301340708 -44.17072185959114 0 0 0 0 66.011654223695587 -3.9509766699879947 0 -3.9509766699879947 -37.546842477668179 0 0 0 0 49.174911841886569 -23.587628603272449 0 -23.587628603272449 3.0539169696976387 0 0 0 0 64.219041453758109 -31.147717268049746 0 -31.147717268049746 -19.095187136725144 0 0 0 0 165.9513622830782 -121.61410249857391 0 -121.61410249857391 -6.2224045908151311 0 0 0 0 63.689673091703298 -36.442791981813116 0 -36.442791981813116 -70.428627376437589 0 0 0 0 112.39157926579992 -13.498459042975469 0 -13.498459042975469 -23.493265664972569 0 0 0 0 139.75138763712312 -6.7254686546120865 0 -6.7254686546120865 -30.419872440071231 0 0 0 0 135.20441468984427 -16.909848679536481 0 -16.909848679536481 -26.492397807832276 0 0 0 0 87.663600349784247 -9.1959188984201319 0 -9.1959188984201319 -18.845330018826644 0 0 0 0 110.92547774887043 -2.3973026223760598 0 -2.3973026223760598 -27.988243752484777 0 0 0 0 71.663937857745623 -3.0659953824570039 0 -3.0659953824570039 -18.142734999371896 0 0 0 0 87.634983062141686 -6.5836689189425428 0 -6.5836689189425428 -28.391405962956924 0 0 0 0 83.876106433475798 -6.9288064397724156 0 -6.9288064397724156 -24.35821348652189 0 0 0 0 47.977368083233159 -3.4424177941646121 0 -3.4424177941646121 -15.707800895010223 0 0 0 0 81.414260853198357 -0.02528591941245395 0 -0.02528591941245395 -22.084734278087808 0 0 0 0 89.629816511653189 7.3400826057275026 0 7.3400826057275026 -23.07164216934143 0 0 0 0 115.31172253561454 -7.8828389341770162 0 -7.8828389341770162 -26.9664525376038 0 0 0 0 155.32216100126971 3.1959243917826825 0 3.1959243917826825 -38.956100402775519 0 0 0 0 116.48178621804891 -4.5910204105623507 0 -4.5910204105623507 -29.826743351111872 0 0 0 0 121.4673073223239 16.776592646497761 0 16.776592646497761 -29.958066679571857 0 0 0 0 122.49245549638817 2.7902531173074863 0 2.7902531173074863 -34.377072056153338 0 0 0 0 74.483455245062942 17.238919317351247 0 17.238919317351247 -21.773505781043696 0 0 0 0 79.710496093021447 9.057118033359302 0 9.057118033359302 -16.550875815764812 0 0 0 0 73.92944517456408 21.96828493446111 0 21.96828493446111 -18.373131956815996 0 0 0 0 34.3076377073412 9.3711805530251695 0 9.3711805530251695 -9.9980675414476536 0 0 0 0 55.333291992110389 39.525358441434719 0 39.525358441434719 10.695183182661367 0 0 0 0 -12.16540331586657 -5.5779158986765651 0 -5.5779158986765651 -2.5415985880729295 0 0 0 0 132.42245562246899 30.970005546474113 0 30.970005546474113 -31.308226608833138 0 0 0 0 134.55336114752026 19.278188863576986 0 19.278188863576986 -35.003462159758783 0 0 0 0 2.1408453081582266 -1.8089033849855607 0 -1.8089033849855607 1.6406732152657888 0 0 0 0 442.11217332562046 178.62085944717924 0 178.62085944717924 -138.8455377714763 0 0 0 0 -20.672611062618671 -72.535860416174273 0 -72.535860416174273 4.6943510166472606 0 0 0 0 11.129895462083368 1.146516640671507 0 1.146516640671507 -37.744928023075772 0 0 0 0 -2.4419534213957377 -14.319436139519894 0 -14.319436139519894 1.746535418811618 0 0 0 0 -18.664842992431659 -0.5150303018476734 0 -0.5150303018476734 -8.8738996053216397 0 0 0 0 32.067188523415098 -15.652458952868074 0 -15.652458952868074 -24.803013175191154 0 0 0 0 -7.580068623086845 -46.215987578519616 0 -46.215987578519616 -42.745614077341315 0 0 0 0 125.19465164014309 -379.81757705706605 0 -379.81757705706605 -256.401073618601 0 0 0 0 4.2024400818295291 -4.5404548091127914 0 -4.5404548091127914 4.0419953709657506 0 0 0 0 -48.958701406576438 -81.720770794040618 0 -81.720770794040618 72.349685562105151 0 0 0 0 336.85911761695934 182.79552192525944 0 182.79552192525944 -139.00631890226668 0 0 0 0 467.07860660975712 161.10933331026172 0 161.10933331026172 -98.064814523424502 0 0 0 0 1.872278872985973 1.4593280604085024 0 1.4593280604085024 1.3647508604665113 0 0 0 0 430.60726233800528 54.369716201106826 0 54.369716201106826 337.49725544988542 0 0 0 0 245.84714176679699 -219.27407046765074 0 -219.27407046765074 109.43068022405623 0 0 0 0 432.79508109477865 11.634286770663266 0 11.634286770663266 31.498730790693116 0 0 0 0 821.09198220814142 75.905240230765003 0 75.905240230765003 -65.185624223914601 0 0 0 0 -201.06144736997885 -13.903554261554746 0 -13.903554261554746 163.29660420419168 0 0 0 0 1.4807828407085353 -1.9512585104047986 0 -1.9512585104047986 3.6005160747087075 0 0 0 0 -260.0822879005209 -172.49060748881311 0 -172.49060748881311 281.86940525272894 0 0 0 0 460.95857712663803 -122.78304300577915 0 -122.78304300577915 -297.76914900324118 0 0 0 0 2.6199860945217708 -4.1908549110673725 0 -4.1908549110673725 5.0336921773341672 0 0 0 0 4.6564464750263141 -17.47326927801987 0 -17.47326927801987 -0.50303211823683114 0 0 0 0 -256.01394542587877 -188.57913042606742 0 -188.57913042606742 50.361389978981606 0 0 0 0 116.17436596913922 125.80945271886151 0 125.80945271886151 68.335486859994035 0 0 0 0 0.34212762760429882 -1.5153126681831282 0 -1.5153126681831282 2.7648854605433257 0 0 0 0 137.14778317860328 -85.62276108932565 0 -85.62276108932565 59.651439320733061 0 0 0 0 -120.84035011913193 94.59669202951261 0 94.59669202951261 435.83742590300017 0 0 0 0 -169.94019201354604 -80.251039428982494 0 -80.251039428982494 82.873652387888342 0 0 0 0 -195.63523248141428 -30.311285867976721 0 -30.311285867976721 -4.5123507084554149 0 0 0 0 -117.66324350490322 -226.21179950811245 0 -226.21179950811245 26.203192614935688 0 0 0 0 3.8867036094072311 -6.145780697521058 0 -6.145780697521058 9.0633818323182744 0 0 0 0 -221.52651080535543 -395.71167035756594 0 -395.71167035756594 282.39156177980885 0 0 0 0 38.96123256511919 4.9972236243419559 0 4.9972236243419559 -91.163639948585114 0 0 0 0 -260.20153413525759 -207.05168477924462 0 -207.05168477924462 -144.86392647352659 0 0 0 0 42.592752393291448 -5.3078542254161221 0 -5.3078542254161221 -135.60405715634261 0 0 0 0 -83.121180924195869 -223.08530681216985 0 -223.08530681216985 -239.90806569421238 0 0 0 0 3.4783328838975773 -1.1123303215964029 0 -1.1123303215964029 -4.7285218499034993 0 0 0 0 26.662816072928308 -7.7613153431975093 0 -7.7613153431975093 -128.30179561677051 0 0 0 0 97.040134165235941 76.075303527821234 0 76.075303527821234 41.817894694360803 0 0 0 0 -21.093844659433671 134.36516514891309 0 134.36516514891309 6.1409078356828104 0 0 0 0 581.6997237624455 156.24255939165505 0 156.24255939165505 -98.522786209514379 0 0 0 0 2.1822877792362263 1.4354534390189464 0 1.4354534390189464 0.54212574309957162 0 0 0 0 681.91020879768985 -182.34152861130133 0 -182.34152861130133 -65.693240612261434 0 0 0 0 145.35802794957272 143.7042871628455 0 143.7042871628455 -20.62093995205305 0 0 0 0 26.998881032057852 -33.742095707162434 0 -33.742095707162434 -19.084501335339155 0 0 0 0 159.98819993798679 -15.085581182175702 0 -15.085581182175702 -29.231620940620815 0 0 0 0 136.85799470029815 -59.65604854268804 0 -59.65604854268804 2.9421501556334988 0 0 0 0 156.0303898284692 -33.500857447003909 0 -33.500857447003909 -0.64056715257538599 0 0 0 0 216.7691697290029 -11.04239175122666 0 -11.04239175122666 -3.368534724764686 0 0 0 0 212.86398685275344 -14.032026054611379 0 -14.032026054611379 5.9379634834767785 0 0 0 0 224.45064759180241 -76.727708104778685 0 -76.727708104778685 4.3543805895832293 0 0 0 0 456.02231805794872 9.2509343324891233 0 9.2509343324891233 -4.1284207511398563 0 0 0 0 363.9431035789512 103.21836868061746 0 103.21836868061746 13.423655418850103 0 0 0 0 329.16891967756965 -87.328663922287433 0 -87.328663922287433 88.267183562902574 0 0 0 0 345.64973034425202 131.20691846796581 0 131.20691846796581 -24.231982186202004 0 0 0 0 418.25740131435123 82.068328195915001 0 82.068328195915001 -7.0007410087046082 0 0 0 0 25.703056038590148 49.491193041875704 0 49.491193041875704 72.014747624849861 0 0 0 0 29.919666489458905 -71.462056097678897 0 -71.462056097678897 252.66311114850168 0 0 0 0 12.68471019284334 16.965672904327903 0 16.965672904327903 78.539929525099524 0 0 0 0 48.913728788156732 29.001722901313315 0 29.001722901313315 0.97051894637775149 0 0 0 0 21.932325458492414 13.123133459114342 0 13.123133459114342 31.897265694167345 0 0 0 0 10.790075218429898 -9.9748878780843668 0 -9.9748878780843668 8.2719963725524419 0 0 0 0 18.197392228683839 -2.6255256989653191 0 -2.6255256989653191 -1.3301636351516208 0 0 0 0 516.77230789590976 -252.36062474553273 0 -252.36062474553273 -17.85422054456177 0 0 0 0 351.57669475759485 143.60958626448075 0 143.60958626448075 -222.69700801555973 0 0 0 0 195.9458492880367 137.54587715146931 0 137.54587715146931 -30.996851053298542 0 0 0 0 132.03066634674178 236.27854646805145 0 236.27854646805145 -128.49899338833029 0 0 0 0 259.34520294480899 -193.46426849936142 0 -193.46426849936142 -312.01639609097492 0 0 0 0 -20.012288370155147 -302.32746920124691 0 -302.32746920124691 -214.36402996789556 0 0 0 0 286.5589107463893 102.48371380647859 0 102.48371380647859 -231.03863533699641 0 0 0 0 399.08193151457635 -219.17189665174124 0 -219.17189665174124 419.55957889963474 0 0 0 0 4.6769290734820572 -3.0481127069947007 0 -3.0481127069947007 2.8110750075788786 0 0 0 0 697.97808076501678 425.46220027909908 0 425.46220027909908 35.795462812965695 0 0 0 0 714.33434743908219 47.899755671184266 0 47.899755671184266 33.10038334386536 0 0 0 0 312.56761992605971 -268.65124220837151 0 -268.65124220837151 208.11695544679196 0 0 0 0 206.45416363083859 96.325893197032201 0 96.325893197032201 536.47938276948685 0 0 0 0 345.19957722467007 35.57962249223101 0 35.57962249223101 -40.40922521417906 0 0 0 0 285.10943970942026 -17.73642180361594 0 -17.73642180361594 -25.891675746824149 0 0 0 0 294.04439095661837 -49.208426341276322 0 -49.208426341276322 10.801913199557021 0 0 0 0 113.72289280584664 -111.3549555392467 0 -111.3549555392467 86.021780228938496 0 0 0 0 295.64250766311307 -131.94218478934818 0 -131.94218478934818 -12.689291344424419 0 0 0 0 35.668300258614181 -53.692955828964841 0 -53.692955828964841 191.33923857147875 0 0 0 0 145.52596387481208 -81.713941221527421 0 -81.713941221527421 68.35402064313439 0 0 0 0 -6.8746416511894495 -10.407057770868732 0 -10.407057770868732 68.239265869025985 0 0 0 0 37.265692102249886 -11.677599151909817 0 -11.677599151909817 39.411040779204086 0 0 0 0 99.417708645753009 -67.64195287763232 0 -67.64195287763232 -0.61218791253941163 0 0 0 0 46.313970716328186 -87.732588646363183 0 -87.732588646363183 23.831172434619475 0 0 0 0 82.607325507611677 -82.672400183796981 0 -82.672400183796981 -21.82986595035436 0 0 0 0 166.94192313124222 -97.078255870021621 0 -97.078255870021621 -23.892373434009642 0 0 0 0 159.76689488593092 -79.764673154225761 0 -79.764673154225761 -28.344609310552187 0 0 0 0 180.28531349203604 -95.465669631799187 0 -95.465669631799187 -37.674555615053578 0 0 0 0 164.75137013128369 -69.164458505367179 0 -69.164458505367179 -41.893796727134031 0 0 0 0 139.0579947596998 -81.290265737277878 0 -81.290265737277878 -36.851311091611478 0 0 0 0 96.777937679869865 -63.443282218942159 0 -63.443282218942159 -14.778047292817064 0 0 0 0 225.53354243485956 55.833755374899283 0 55.833755374899283 -43.417579742483895 0 0 0 0 272.75680219154219 -42.67475518854792 0 -42.67475518854792 -53.219875424756538 0 0 0 0 235.85545797811028 -55.619117307759097 0 -55.619117307759097 -54.485710665950137 0 0 0 0 209.75330913925791 -21.901521997184318 0 -21.901521997184318 -59.890372184951502 0 0 0 0 201.12696600532217 -22.326409175891968 0 -22.326409175891968 -51.0175366319163 0 0 0 0 180.81900152208982 24.03542257992649 0 24.03542257992649 -42.188864200345961 0 0 0 0 179.77578743121921 -16.544133114180113 0 -16.544133114180113 -52.559493620240119 0 0 0 0 160.50956409593209 -20.051250456077355 0 -20.051250456077355 -38.820098832238727 0 0 0 0 178.12742689872539 -51.469454050174136 0 -51.469454050174136 -54.701158214383724 0 0 0 0 191.71141852865912 -37.589728945921934 0 -37.589728945921934 -43.224120071294237 0 0 0 0 172.13383852641346 -31.825381057788036 0 -31.825381057788036 -43.766086793427576 0 0 0 0 163.22339142749843 -23.263663586363691 0 -23.263663586363691 -32.072310946448738 0 0 0 0 167.74638053225135 -30.893487485181595 0 -30.893487485181595 -31.775063135532037 0 0 0 0 159.7003537618948 -17.276388753451101 0 -17.276388753451101 -39.779690723772546 0 0 0 0 150.46416903091449 -28.721998394282309 0 -28.721998394282309 -21.63864529950115 0 0 0 0 136.35864532147389 -15.207912335482433 0 -15.207912335482433 -27.26268133064309 0 0 0 0 145.1190808423562 -21.943185214467121 0 -21.943185214467121 -28.463178081921797 0 0 0 0 136.53859045549325 -56.718178989008265 0 -56.718178989008265 -5.9614732111183457 0 0 0 0 118.93191068639862 -48.198159669394954 0 -48.198159669394954 -7.2315027141107748 0 0 0 0 156.71167983624036 -51.138512850675397 0 -51.138512850675397 -7.1072633716806877 0 0 0 0 143.12731372064081 -59.037119628370419 0 -59.037119628370419 -14.837117956440125 0 0 0 0 135.27374504247928 -63.904163813960622 0 -63.904163813960622 -6.6727555377474346 0 0 0 0 162.74210942802893 -70.507617684871548 0 -70.507617684871548 -32.407980426298309 0 0 0 0 172.89546538573632 -53.998340470881885 0 -53.998340470881885 -28.089887120757339 0 0 0 0 154.11086655405234 -42.384974807261642 0 -42.384974807261642 -28.587472914941657 0 0 0 0 146.6378609890271 -42.893042685722776 0 -42.893042685722776 12.810983082581515 0 0 0 0 168.09451307151539 -31.316672955184004 0 -31.316672955184004 -25.637731575759972 0 0 0 0 184.63824210980965 -22.663380048243198 0 -22.663380048243198 -28.271177073032504 0 0 0 0 156.4958277117621 4.1606136841642183 0 4.1606136841642183 -7.5430056072200387 0 0 0 0 105.51653409330902 -18.351351696761412 0 -18.351351696761412 6.0493924016391247 0 0 0 0 115.51575062608754 -45.012612844955584 0 -45.012612844955584 62.788199866872674 0 0 0 0 137.20186171917885 -61.94144530831727 0 -61.94144530831727 17.716363684490034 0 0 0 0 136.10545396628731 -58.109729863090251 0 -58.109729863090251 20.679147563774677 0 0 0 0 135.41372111112651 -62.803143804932915 0 -62.803143804932915 22.164898799946968 0 0 0 0 83.43314285354154 -82.263831549275892 0 -82.263831549275892 167.76627444736005 0 0 0 0 62.135653535219717 6.7629972956965503 0 6.7629972956965503 29.855954715127154 0 0 0 0 3.5538582917797612 -29.900438418434533 0 -29.900438418434533 -56.644775163113081 0 0 0 0 81.586948955047774 -15.91761577026432 0 -15.91761577026432 -94.717793632415123 0 0 0 0 63.49718921083786 48.401312683009564 0 48.401312683009564 -27.987648184636782 0 0 0 0 106.46368410084688 -0.59442801266322931 0 -0.59442801266322931 16.537282436066562 0 0 0 0 96.341554685946903 38.91663962628445 0 38.91663962628445 -22.552770648638216 0 0 0 0 247.07312307834945 31.887347711802249 0 31.887347711802249 -66.613833777563741 0 0 0 0 239.14307080607978 -147.56424498878914 0 -147.56424498878914 64.3690801026587 0 0 0 0 1.7678702759561986 -0.31437329631145872 0 -0.31437329631145872 -0.78709938455417827 0 0 0 0 57.574071671559068 99.156591362965628 0 99.156591362965628 -86.796525851395927 0 0 0 0 264.96841983489139 -13.341900194388472 0 -13.341900194388472 -22.433554144701702 0 0 0 0 -25.753422181398491 -13.231272497697319 0 -13.231272497697319 -69.23341702968537 0 0 0 0 3.7489593983735006 -0.38621470980940842 0 -0.38621470980940842 -1.1356046068577115 0 0 0 0 38.20015256843908 -11.284093623127774 0 -11.284093623127774 -86.835766681811947 0 0 0 0 17.169103637701483 -9.4305207384031746 0 -9.4305207384031746 -48.407374884388901 0 0 0 0 122.16828549810634 -12.598670167624732 0 -12.598670167624732 -17.558144001646724 0 0 0 0 162.44437389123414 -26.745816011884926 0 -26.745816011884926 -22.412528605219904 0 0 0 0 130.98835651916397 -31.705514574398194 0 -31.705514574398194 1.6992247329471866 0 0 0 0 210.99582219252579 -67.885525054964319 0 -67.885525054964319 21.473352552064171 0 0 0 0 161.62061602338144 -23.015194794485069 0 -23.015194794485069 -17.076058551167534 0 0 0 0 170.2395567173844 -32.084732804255964 0 -32.084732804255964 -21.207552461890373 0 0 0 0 176.0549599356782 9.2322363944194876 0 9.2322363944194876 35.699164426170682 0 0 0 0 149.89399677464462 -25.33855578058683 0 -25.33855578058683 1.7432500060276652 0 0 0 0 115.46352899236808 -10.56783025716868 0 -10.56783025716868 5.8205595555484706 0 0 0 0 141.05844392212202 -8.9220901247626898 0 -8.9220901247626898 -8.0569443632302864 0 0 0 0 110.20850970275205 -13.580930700411045 0 -13.580930700411045 -6.0223622745634202 0 0 0 0 124.55709009658358 5.4932546373222522 0 5.4932546373222522 -35.206031991587224 0 0 0 0 96.805131911180069 -3.5251378963475872 0 -3.5251378963475872 -14.20096912723875 0 0 0 0 127.67640615309938 1.5581272470462864 0 1.5581272470462864 -16.719719107801211 0 0 0 0 170.09350020671263 -0.90288087308090326 0 -0.90288087308090326 -25.086692914215746 0 0 0 0 166.815965107887 -30.802473221362732 0 -30.802473221362732 -17.138976993486722 0 0 0 0 127.07287551332411 -13.183384309350004 0 -13.183384309350004 -24.219781305477227 0 0 0 0 129.57896391173563 -6.4143767297773593 0 -6.4143767297773593 5.2609959628146044 0 0 0 0 154.72135008228361 -20.445453272265695 0 -20.445453272265695 -38.711648466734914 0 0 0 0 136.24669673170501 1.2820186198487136 0 1.2820186198487136 -38.51433336206901 0 0 0 0 111.02274107111589 -9.6859717628985891 0 -9.6859717628985891 -36.427606307397582 0 0 0 0 107.52049278625782 9.2252997093619342 0 9.2252997093619342 -44.927300075601124 0 0 0 0 90.747889149286493 -2.119834602715855 0 -2.119834602715855 -32.040923650141849 0 0 0 0 123.01787553177564 -14.150703248418722 0 -14.150703248418722 -14.289945574706508 0 0 0 0 68.279417301659123 -24.954565601749891 0 -24.954565601749891 12.216448354138265 0 0 0 0 0.1036069492962497 0.48163547163390774 0 0.48163547163390774 1.1969019522766047 0 0 0 0 87.583193010484138 -22.731282541994858 0 -22.731282541994858 7.1602342076294008 0 0 0 0 191.67475257080514 -36.098828958199192 0 -36.098828958199192 -28.79382039574557 0 0 0 0 89.995815280228499 -49.427095928123151 0 -49.427095928123151 5.3008425970438111 0 0 0 0 168.37577584549581 -61.821588605907891 0 -61.821588605907891 -6.4122455264814562 0 0 0 0 145.80789666923374 -27.074858834957922 0 -27.074858834957922 -22.14129385916749 0 0 0 0 158.74891449628194 -47.281386563482556 0 -47.281386563482556 -20.059708657685405 0 0 0 0 150.56119429655882 -16.278845743921011 0 -16.278845743921011 -36.144218891699893 0 0 0 0 228.45487203382072 -8.7664303074334384 0 -8.7664303074334384 -22.802182525201715 0 0 0 0 -0.52416594908084591 0.65551554383178257 0 0.65551554383178257 0.85748511893405066 0 0 0 0 15.303426059610501 -33.270057706534317 0 -33.270057706534317 -76.750417474260757 0 0 0 0 -4.1974777138784702 -59.850058554765383 0 -59.850058554765383 -38.128124989169009 0 0 0 0 133.02762676032262 -57.729599442557515 0 -57.729599442557515 -31.587014016989997 0 0 0 0 24.506401983802789 -81.41213713439538 0 -81.41213713439538 -28.896723559556449 0 0 0 0 127.08087017692742 -23.362159377164744 0 -23.362159377164744 -37.997685030575667 0 0 0 0 122.52485989817797 -30.921282414808957 0 -30.921282414808957 -30.163859928106831 0 0 0 0 80.605631167480169 -53.118268098521185 0 -53.118268098521185 -30.481418213326833 0 0 0 0 76.896395871392997 -28.450925188818019 0 -28.450925188818019 -3.0036336177072371 0 0 0 0 76.064332266112615 -22.002437325854771 0 -22.002437325854771 -31.475353912068385 0 0 0 0 77.807892982018529 0.61694087697833311 0 0.61694087697833311 -30.286507859298581 0 0 0 0 114.17580949649897 -9.3230196647923052 0 -9.3230196647923052 -35.224941879627295 0 0 0 0 47.599020307548926 -10.513850661698598 0 -10.513850661698598 -13.428397333036628 0 0 0 0 79.060164033538058 -16.358102995943341 0 -16.358102995943341 -32.71549907798908 0 0 0 0 148.97265139419324 -15.317847128499125 0 -15.317847128499125 -52.339660102376911 0 0 0 0 138.77667815925815 0.15981305097739096 0 0.15981305097739096 -48.271871054279472 0 0 0 0 114.17610090350605 -9.5641833341043281 0 -9.5641833341043281 -46.211481070673472 0 0 0 0 137.87561996106342 -10.649520388591782 0 -10.649520388591782 -49.432166583079379 0 0 0 0 119.55663535882377 -24.87795522732813 0 -24.87795522732813 -38.267301580443018 0 0 0 0 139.26889706974907 -14.75987790842737 0 -14.75987790842737 -45.364505352976266 0 0 0 0 144.66034223796669 -23.446607530988331 0 -23.446607530988331 -44.84780455370128 0 0 0 0 100.79361149821852 -2.606313839676659 0 -2.606313839676659 -44.172528882620099 0 0 0 0 132.76219116961147 -5.8353153971092979 0 -5.8353153971092979 -44.354027504654368 0 0 0 0 131.93222900955152 -8.2605101609833582 0 -8.2605101609833582 -50.848897468964424 0 0 0 0 100.94089145212274 -2.771433805876768 0 -2.771433805876768 -47.970358935279364 0 0 0 0 88.548905111612839 -3.2602260669864336 0 -3.2602260669864336 -47.348086148827861 0 0 0 0 71.392214537598193 14.94042571377031 0 14.94042571377031 -44.614356285317626 0 0 0 0 58.603534687099454 8.1541231413666537 0 8.1541231413666537 -33.10504449452128 0 0 0 0 69.148673417425016 6.5948140718046488 0 6.5948140718046488 -35.98019608352115 0 0 0 0 80.683907044749503 -25.767707369540403 0 -25.767707369540403 -12.399149452969141 0 0 0 0 128.79066894378047 -16.22757016180185 0 -16.22757016180185 -51.979904991338117 0 0 0 0 128.81150300466106 -15.934282979360432 0 -15.934282979360432 -48.419148844193842 0 0 0 0 116.94383161605947 -11.869974437136989 0 -11.869974437136989 -48.253322584723207 0 0 0 0 125.62797930819579 -25.826201584357932 0 -25.826201584357932 -47.39052408274074 0 0 0 0 73.881231299095816 -50.294469911636952 0 -50.294469911636952 -0.56275980432110373 0 0 0 0 38.205692490653746 -1.1653245621400856 0 -1.1653245621400856 -21.256072150563341 0 0 0 0 169.31664300541888 -26.083551155506939 0 -26.083551155506939 -49.14398645644178 0 0 0 0 42.017164671997307 10.659584610542879 0 10.659584610542879 -21.183426528050404 0 0 0 0 45.754967499564373 13.429850578902006 0 13.429850578902006 -28.970107498822472 0 0 0 0 67.719679581496166 6.0889137581561954 0 6.0889137581561954 -7.8651747805379273 0 0 0 0 39.907119539465583 -3.878331478860499 0 -3.878331478860499 1.397400937593412 0 0 0 0 38.267577639624506 11.907495829802428 0 11.907495829802428 -27.104826778297138 0 0 0 0 48.253545334926457 33.075281365137926 0 33.075281365137926 -39.245354488644807 0 0 0 0 101.86965818137105 14.824901567877532 0 14.824901567877532 -50.945033936367508 0 0 0 0 62.916172593613737 7.6016299151451676 0 7.6016299151451676 -31.111317783020695 0 0 0 0 67.925100303764339 -22.231300805269711 0 -22.231300805269711 -23.352064701790368 0 0 0 0 141.72295560670318 -70.639704413670188 0 -70.639704413670188 -7.5131586420720851 0 0 0 0 11.96237909768206 43.465836172499621 0 43.465836172499621 98.384697027542643 0 0 0 0 23.00394796542956 -1.0047545955788451 0 -1.0047545955788451 0.044741542449330041 0 0 0 0 -61.962180694339622 151.76522247858884 0 151.76522247858884 -22.900031565592599 0 0 0 0 7.2163729160809282 0.19240156546261034 0 0.19240156546261034 0.30716989803245554 0 0 0 0 -1289.512636407715 -112.34537363815616 0 -112.34537363815616 261.62943829562937 0 0 0 0 111.86499688485492 223.76210339138015 0 223.76210339138015 491.94910102008726 0 0 0 0 58.34658873578519 -42.29271674267693 0 -42.29271674267693 131.72684896048668 0 0 0 0 170.19167358701088 114.25798891406703 0 114.25798891406703 140.37870264068579 0 0 0 0 207.94222576854372 136.53537005595535 0 136.53537005595535 -111.37042097367885 0 0 0 0 413.19344002848811 -31.32448359744194 0 -31.32448359744194 -205.46786297482686 0 0 0 0 459.02387985088535 -470.66258504136931 0 -470.66258504136931 9.9883160756617144 0 0 0 0 450.46701823743206 353.43152557099711 0 353.43152557099711 175.60844094279355 0 0 0 0 698.92333169789345 226.81443011081865 0 226.81443011081865 -79.260365446136348 0 0 0 0 1167.4080539589777 82.231192548859326 0 82.231192548859326 129.1730123519219 0 0 0 0 48.61436733233495 -32.928712134604211 0 -32.928712134604211 -23.691244870591618 0 0 0 0 66.762842580305005 -42.504717860082565 0 -42.504717860082565 -62.679668918557581 0 0 0 0 66.926360411234782 -8.2283664975584543 0 -8.2283664975584543 -55.190848236481543 0 0 0 0 78.725439336383715 -14.655893227934939 0 -14.655893227934939 -51.694024188942421 0 0 0 0 58.060578929376788 -10.633608519910922 0 -10.633608519910922 -34.215389683140529 0 0 0 0 73.538794934924226 -13.342305914600729 0 -13.342305914600729 -31.866117006355125 0 0 0 0 94.644127136943325 1.0000374034481183 0 1.0000374034481183 -30.863564418927126 0 0 0 0 170.07907352592883 2.1129310765682021 0 2.1129310765682021 -48.482632618526168 0 0 0 0 93.590208514693586 27.143996486599804 0 27.143996486599804 -6.3503619918483309 0 0 0 0 149.86151724483716 -7.6255085748707643 0 -7.6255085748707643 -41.645132195761107 0 0 0 0 258.7739019481487 0.99259272304152546 0 0.99259272304152546 -46.883758012147155 0 0 0 0 152.42861800954415 67.74795843229731 0 67.74795843229731 56.863393118555905 0 0 0 0 62.345103432780888 -3.076740475972656 0 -3.076740475972656 3.0532228608863079 0 0 0 0 68.062854884610715 -15.437493010867911 0 -15.437493010867911 -12.846012497822471 0 0 0 0 117.77266778279954 9.1512571223197483 0 9.1512571223197483 -41.723902098278586 0 0 0 0 53.888782528483716 47.726219804059383 0 47.726219804059383 12.744938158495188 0 0 0 0 104.05442139985098 78.205172627112802 0 78.205172627112802 31.192975858452428 0 0 0 0 0.94932633763926333 3.8329700120492607 0 3.8329700120492607 -1.3616756304576698 0 0 0 0 59.085781808094907 8.7972866131774481 0 8.7972866131774481 -25.867747194002732 0 0 0 0 52.710897548905677 -3.7335376327366578 0 -3.7335376327366578 -11.240495395420016 0 0 0 0 49.301932315953309 10.323524933453882 0 10.323524933453882 -89.769789147289771 0 0 0 0 20.165198751834481 19.730923229272094 0 19.730923229272094 -19.930916473557861 0 0 0 0 6.1005891840944102 -0.26387345778988447 0 -0.26387345778988447 -0.86501460626806193 0 0 0 0 103.40313199475349 -34.254425111080309 0 -34.254425111080309 16.269567829484913 0 0 0 0 36.678907219000394 14.663498030735354 0 14.663498030735354 -33.528426708542611 0 0 0 0 58.668873183298274 -0.60703118323544913 0 -0.60703118323544913 -38.406783004500539 0 0 0 0 44.336021816739219 2.5473564011705143 0 2.5473564011705143 -9.9109236742314817 0 0 0 0 14.139413675306287 -4.2848393374431311 0 -4.2848393374431311 -2.3143344473608565 0 0 0 0 26.452064099121344 18.261321465914079 0 18.261321465914079 -23.67171337650143 0 0 0 0 14.642227712110589 5.6944025429263903 0 5.6944025429263903 5.1285546794952239 0 0 0 0 27.276299972364995 22.153304858155479 0 22.153304858155479 -26.549395923855627 0 0 0 0 25.543163296119019 17.448085149189865 0 17.448085149189865 -29.477653440223548 0 0 0 0 44.248671647894298 18.383148820806127 0 18.383148820806127 -29.186609009415406 0 0 0 0 104.53582123017623 -26.277659667333864 0 -26.277659667333864 15.524771535889158 0 0 0 0 50.508781302746016 6.6932782411466647 0 6.6932782411466647 -26.428937827663201 0 0 0 0 -17.349582934028149 30.092438834360109 0 30.092438834360109 -28.833345997807555 0 0 0 0 -23.564150824036687 66.567536391268391 0 66.567536391268391 -62.830649720419387 0 0 0 0 60.297948058610018 18.501345147655343 0 18.501345147655343 -45.052394673133676 0 0 0 0 29.240175218656077 24.876507481612862 0 24.876507481612862 -29.685389126778318 0 0 0 0 36.703705833582717 35.443908304060415 0 35.443908304060415 -57.618373902612802 0 0 0 0 33.377089769943268 26.050359297762043 0 26.050359297762043 -42.288371086111511 0 0 0 0 69.671228514082031 11.164870846532722 0 11.164870846532722 -50.811278506475901 0 0 0 0 39.599311950383708 29.160022975048378 0 29.160022975048378 -50.704178941850842 0 0 0 0 -3.706002381955841 27.786687122060357 0 27.786687122060357 -83.4173173518775 0 0 0 0 30.603573875137954 17.212529756146978 0 17.212529756146978 -54.230815973665131 0 0 0 0 8.2517762017450877 44.836642695519913 0 44.836642695519913 -61.867976068409916 0 0 0 0 -40.305353304538585 15.070624871983455 0 15.070624871983455 -59.607288450592023 0 0 0 0 -100.32919421487537 68.389870558548836 0 68.389870558548836 -52.717013083853089 0 0 0 0 145.30536396373464 -106.98640769932445 0 -106.98640769932445 50.995181918331582 0 0 0 0 6.8142245787532048 5.3236099756175577 0 5.3236099756175577 1.2160089333445754 0 0 0 0 161.10137455208428 -17.849439938799378 0 -17.849439938799378 -6.5216967934429704 0 0 0 0 123.78147411877944 16.802881934261507 0 16.802881934261507 -29.527224225703776 0 0 0 0 39.984056070682072 20.47389327863754 0 20.47389327863754 -25.426309653608932 0 0 0 0 94.332802255306888 -0.86922511440434391 0 -0.86922511440434391 -16.617135990745851 0 0 0 0 36.399960129460396 15.375452437267001 0 15.375452437267001 -19.257732829707148 0 0 0 0 22.193515081610371 0.012334204355752831 0 0.012334204355752831 -9.859697834976842 0 0 0 0 290.85541250676397 -200.80626323627985 0 -200.80626323627985 107.85350195966248 0 0 0 0 -49.553694308211561 166.43332597852168 0 166.43332597852168 -100.5017733597997 0 0 0 0 354.16116208510448 107.44513685457014 0 107.44513685457014 -78.535897061112337 0 0 0 0 3.7316028966489654 1.8230419828233835 0 1.8230419828233835 -0.59784768068077199 0 0 0 0 301.07023390409995 -293.02106821032385 0 -293.02106821032385 123.76909195802727 0 0 0 0 10.315512016422872 103.24673190203066 0 103.24673190203066 -80.649868593092833 0 0 0 0 91.330041488457937 137.95503556074254 0 137.95503556074254 -136.5200977369368 0 0 0 0 -100.39188245796322 105.35518769779446 0 105.35518769779446 -54.448657487177115 0 0 0 0 -42.062174746388337 106.86713091221282 0 106.86713091221282 -78.119756132058683 0 0 0 0 -30.882156615574786 42.315823958033434 0 42.315823958033434 -45.184406085845694 0 0 0 0 5.4195846666120566 50.991032096801298 0 50.991032096801298 -54.575431129502249 0 0 0 0 16.065071207631263 69.84215273933296 0 69.84215273933296 -56.431135550950785 0 0 0 0 6.7123433487504371 68.530447579164502 0 68.530447579164502 -50.68832996762103 0 0 0 0 19.52670814679368 34.237558243226886 0 34.237558243226886 -43.749738527524642 0 0 0 0 14.151297501550289 33.456671530215317 0 33.456671530215317 -28.663141665398143 0 0 0 0 42.851151331524306 29.163217940283175 0 29.163217940283175 -32.598091611781911 0 0 0 0 47.98838730130592 44.079848012083858 0 44.079848012083858 -36.977687732984123 0 0 0 0 42.89201799773582 42.787820585940608 0 42.787820585940608 -36.721362259171656 0 0 0 0 86.28516117084655 33.466702459729277 0 33.466702459729277 -46.344030974716588 0 0 0 0 80.902835130635594 8.66803223942145 0 8.66803223942145 -34.349867931503468 0 0 0 0 176.66803320636973 108.15408536475843 0 108.15408536475843 -127.18093801176292 0 0 0 0 104.32255028092186 67.355315749089641 0 67.355315749089641 -68.200871336570344 0 0 0 0 50.933514877544894 59.445051765349604 0 59.445051765349604 -64.782464788349898 0 0 0 0 92.479525748058222 8.828435569173962 0 8.828435569173962 -47.425030075525683 0 0 0 0 68.656402504953803 17.103205627392981 0 17.103205627392981 -38.419013270355208 0 0 0 0 62.046520157127816 6.3261116894627776 0 6.3261116894627776 -54.767731640192324 0 0 0 0 47.294238357098948 4.8473383869259123 0 4.8473383869259123 -45.110484118275849 0 0 0 0 36.810637538048468 29.685675147855363 0 29.685675147855363 -46.921302349230245 0 0 0 0 23.162550719749561 14.031428825377589 0 14.031428825377589 -60.472019445485842 0 0 0 0 -0.92623278352039051 49.02641242907157 0 49.02641242907157 -65.581426447206468 0 0 0 0 33.136311598325847 27.704970209824751 0 27.704970209824751 -47.744973837201542 0 0 0 0 5.4307134715766185 22.316792776731344 0 22.316792776731344 -44.376478187907196 0 0 0 0 38.775314795562736 17.859163997384712 0 17.859163997384712 -19.896906774518357 0 0 0 0 27.519308723580252 21.387104197373446 0 21.387104197373446 -29.444075842740858 0 0 0 0 52.706297545115376 17.025732514124684 0 17.025732514124684 -36.97348539414088 0 0 0 0 48.234946481972656 6.4263452030309054 0 6.4263452030309054 -24.592572196004767 0 0 0 0 66.731540091623174 17.819603741689207 0 17.819603741689207 -38.336888164914853 0 0 0 0 73.996033308976621 11.383005172618141 0 11.383005172618141 -28.527797594528238 0 0 0 0 70.400405601125385 4.2011341017205268 0 4.2011341017205268 -13.338461072456994 0 0 0 0 66.478054582173797 3.5571562672277253 0 3.5571562672277253 -26.810621227563388 0 0 0 0 96.610172689430328 6.5892977125276957 0 6.5892977125276957 -31.868249734146957 0 0 0 0 116.3739139494237 -9.4400900481750796 0 -9.4400900481750796 -15.892316054600087 0 0 0 0 92.255165627702809 -5.618228769460984 0 -5.618228769460984 -19.337371517736756 0 0 0 0 94.836052541630124 0.70312158501610611 0 0.70312158501610611 -5.4480439236540406 0 0 0 0 74.892339395868476 9.992375733823792 0 9.992375733823792 -17.276315993971366 0 0 0 0 77.657437525216665 -4.4907225907090833 0 -4.4907225907090833 -12.672606887555958 0 0 0 0 57.739113913501569 18.407189933184327 0 18.407189933184327 -27.034399166070216 0 0 0 0 61.665355788398301 2.8173200283818005 0 2.8173200283818005 -17.455109447249924 0 0 0 0 57.005904084646318 10.253264320269409 0 10.253264320269409 -16.453314022799532 0 0 0 0 67.656421920401499 2.2767328424235984 0 2.2767328424235984 -17.699973748865887 0 0 0 0 86.203107610934239 2.5667686450869951 0 2.5667686450869951 -29.544685434972052 0 0 0 0 72.426152340551198 11.850788785489385 0 11.850788785489385 -25.88389215283496 0 0 0 0 93.619282403378747 0.99837804448998213 0 0.99837804448998213 -20.504135612194659 0 0 0 0 85.519770712016907 0.63373393764049979 0 0.63373393764049979 -19.909621532235519 0 0 0 0 105.74276238745733 -12.564494138419832 0 -12.564494138419832 -18.463746629489833 0 0 0 0 105.53849504260143 -12.96846754696162 0 -12.96846754696162 -14.780236865086408 0 0 0 0 97.091831226578506 -13.414784217754459 0 -13.414784217754459 -5.5909745673106954 0 0 0 0 50.706050363714894 39.150119632738097 0 39.150119632738097 -38.822090401630703 0 0 0 0 60.356292105139801 17.934956243894703 0 17.934956243894703 -28.309517997573494 0 0 0 0 52.753534215353284 41.256394698681106 0 41.256394698681106 -37.607069309971848 0 0 0 0 56.484062137405999 27.889632470989454 0 27.889632470989454 -47.301238664416815 0 0 0 0 37.912143438250496 28.365923156413373 0 28.365923156413373 -23.738617231383614 0 0 0 0 55.217820774774736 21.410595733772425 0 21.410595733772425 -27.239692392735378 0 0 0 0 56.287407400496249 23.534062321983242 0 23.534062321983242 -31.752439559728373 0 0 0 0 60.855021473547822 16.439466691651432 0 16.439466691651432 -39.883874970615466 0 0 0 0 69.038643932880859 8.6503042574211122 0 8.6503042574211122 -32.915868797239455 0 0 0 0 61.048338960983529 17.128597611952728 0 17.128597611952728 -38.676940535597168 0 0 0 0 3.8210246201812375 3.9488940826448413 0 3.9488940826448413 -8.9769035956269079 0 0 0 0 -24.396388107074017 45.609505651488689 0 45.609505651488689 -34.437836787722517 0 0 0 0 48.372034128067753 51.044521696549964 0 51.044521696549964 -73.164331941222429 0 0 0 0 112.69662876352595 -48.047923147388701 0 -48.047923147388701 67.088932429995111 0 0 0 0 386.96452539682286 -91.915119870347553 0 -91.915119870347553 -80.085814814010519 0 0 0 0 193.99671816517002 13.42641519271092 0 13.42641519271092 58.88695823381363 0 0 0 0 444.70508913160302 -252.70943769418625 0 -252.70943769418625 120.57668475350545 0 0 0 0 142.85612418917481 -60.958967314242045 0 -60.958967314242045 -32.044108007033174 0 0 0 0 91.394370052308659 -45.862073673201849 0 -45.862073673201849 185.11102096936247 0 0 0 0 47.653048921534719 141.97296047660802 0 141.97296047660802 -96.227623895720626 0 0 0 0 69.73856269394436 25.659960869465642 0 25.659960869465642 -36.20572796319351 0 0 0 0 109.55003004653372 135.17185946631116 0 135.17185946631116 -114.58103226557205 0 0 0 0 75.459797812524613 32.990001514372842 0 32.990001514372842 -27.728627810643957 0 0 0 0 555.94497029497143 328.08109240582911 0 328.08109240582911 -172.07884585173585 0 0 0 0 -163.04406164834654 -235.47989833846418 0 -235.47989833846418 622.00541214813279 0 0 0 0 11.966315894790171 -0.97930288327080461 0 -0.97930288327080461 -1.9886141590222044 0 0 0 0 373.7698773906809 -795.0612849560855 0 -795.0612849560855 1022.8011915283746 0 0 0 0 399.65170639401185 352.01495392608706 0 352.01495392608706 -965.77127426627385 0 0 0 0 577.96481135793147 -1.860218301871555 0 -1.860218301871555 -373.12413961613157 0 0 0 0 605.05480194978736 -492.08130076097859 0 -492.08130076097859 83.425627703210239 0 0 0 0 876.43454162898706 -222.19337483497691 0 -222.19337483497691 -302.91505255823517 0 0 0 0 275.63711948084529 -252.42582357403239 0 -252.42582357403239 -14.975827204044833 0 0 0 0 -136.81313926999428 127.21175360793713 0 127.21175360793713 91.989603706719265 0 0 0 0 116.37341223377462 93.952496439455899 0 93.952496439455899 -37.579824969545371 0 0 0 0 126.74050348692981 -87.893581607471106 0 -87.893581607471106 -10.60968891089766 0 0 0 0 77.019609453494908 34.072419890185429 0 34.072419890185429 -24.783542386007625 0 0 0 0 56.56327665599747 -52.290848494859347 0 -52.290848494859347 101.09604581632902 0 0 0 0 22.263631517209433 -12.745844428874989 0 -12.745844428874989 -17.031678329765782 0 0 0 0 309.10416032899957 -84.314927571897442 0 -84.314927571897442 -58.07423635750456 0 0 0 0 2.0022904901114487 5.5855463282079185 0 5.5855463282079185 -10.641201826268798 0 0 0 0 264.73378599036641 23.816429890242262 0 23.816429890242262 -113.04437955774301 0 0 0 0 2.3128127058625978 117.91737640312476 0 117.91737640312476 -475.93520468780207 0 0 0 0 -26.284973002657352 161.94211341890195 0 161.94211341890195 -536.17998665018786 0 0 0 0 923.69131380627368 838.88147921269911 0 838.88147921269911 1406.8918998269537 0 0 0 0 -160.8700771474978 -38.954472160619844 0 -38.954472160619844 902.98176022445477 0 0 0 0 -533.32073757455873 -717.51018890881937 0 -717.51018890881937 1166.5054184109913 0 0 0 0 919.80774829291477 -398.58262261400682 0 -398.58262261400682 48.98596527992413 0 0 0 0 -124.59366170914291 -520.53918085719965 0 -520.53918085719965 390.77207759255589 0 0 0 0 165.79537583436468 -287.69285018576556 0 -287.69285018576556 572.55591267207819 0 0 0 0 53.316161904771434 2.931652475330651 0 2.931652475330651 -5.1876276650984492 0 0 0 0 178.9242959089097 -429.39352159881361 0 -429.39352159881361 337.07213951276128 0 0 0 0 45.254048533948662 188.00432056701288 0 188.00432056701288 -595.86620267423041 0 0 0 0 281.69749744774163 -218.41175323955713 0 -218.41175323955713 363.95153308653653 0 0 0 0 271.02578220418218 -259.95866394930272 0 -259.95866394930272 114.8428416571378 0 0 0 0 120.21136165320422 -181.76170882441102 0 -181.76170882441102 366.7538133255357 0 0 0 0 292.75995258762123 -55.044587650183075 0 -55.044587650183075 -15.539687891994788 0 0 0 0 174.79371917203389 -475.41001408865651 0 -475.41001408865651 842.2591380748795 0 0 0 0 37.449835432453256 -0.96503788561091142 0 -0.96503788561091142 -556.15826353827629 0 0 0 0 -124.61683726780393 171.24411388463744 0 171.24411388463744 -347.71010202078065 0 0 0 0 -82.465572939581762 101.98456298422012 0 101.98456298422012 -271.66147343599454 0 0 0 0 33.113124830521315 -0.015018775355656544 0 -0.015018775355656544 -4.2523022197169862 0 0 0 0 14.420751643876429 240.24195474728685 0 240.24195474728685 -756.24109388116278 0 0 0 0 -34.007977542914887 100.85095701278561 0 100.85095701278561 -457.07609810927124 0 0 0 0 64.067783843453071 95.077740029588597 0 95.077740029588597 -468.6225394972297 0 0 0 0 -21.233608673406707 77.943783023435344 0 77.943783023435344 -205.91840096497333 0 0 0 0 -53.642587766706129 117.45048217437454 0 117.45048217437454 -436.18136424209479 0 0 0 0 66.10225929104854 77.4754868046208 0 77.4754868046208 -429.22635082979764 0 0 0 0 15.57090127394622 -60.252119547764295 0 -60.252119547764295 42.301329271786017 0 0 0 0 48.798213175261481 -9.3792694284975369 0 -9.3792694284975369 -44.255864501204087 0 0 0 0 11.152319593980792 71.432566944593077 0 71.432566944593077 -212.57214605444057 0 0 0 0 -10.327260087404284 -48.845084820650982 0 -48.845084820650982 -63.949992116018279 0 0 0 0 -34.565994494989354 51.509559020373494 0 51.509559020373494 -50.77707479659432 0 0 0 0 -6.7185288626205875 -48.3396989937321 0 -48.3396989937321 114.64348636319278 0 0 0 0 54.46038821546972 -31.480510822134079 0 -31.480510822134079 -46.383159932808653 0 0 0 0 25.17177079607427 -1.8763139629443231 0 -1.8763139629443231 54.660981973083608 0 0 0 0 79.607745038461871 -2.3868862692378343 0 -2.3868862692378343 -258.00321438591328 0 0 0 0 217.82393876350397 161.45281214149537 0 161.45281214149537 -349.32391514776094 0 0 0 0 -32.383378590348002 81.915298045909452 0 81.915298045909452 -127.9629426286167 0 0 0 0 231.93122805032908 37.822977422555255 0 37.822977422555255 -123.66235445315181 0 0 0 0 152.76315676619197 73.672028314447175 0 73.672028314447175 -41.542452181343833 0 0 0 0 343.41922117652211 73.45281936530958 0 73.45281936530958 -42.927099099275893 0 0 0 0 233.18672827509545 -143.03121353679006 0 -143.03121353679006 142.29469615460903 0 0 0 0 278.46295245748479 49.267509279608305 0 49.267509279608305 -12.90697301372893 0 0 0 0 24.754183169847238 102.5227093054059 0 102.5227093054059 60.761246171447738 0 0 0 0 3.056918991782652 0.14542363785577805 0 0.14542363785577805 -0.15745754244501686 0 0 0 0 55.647233075425902 36.643824171626875 0 36.643824171626875 -76.034560229694989 0 0 0 0 7.8087801945224555 1.362218566694068 0 1.362218566694068 0.055443724926468541 0 0 0 0 6.9757502749343985 7.0803041881642912 0 7.0803041881642912 -1.6938195479322076 0 0 0 0 47.555431551443689 61.251055409867945 0 61.251055409867945 60.856193033676391 0 0 0 0 94.695074029506941 -17.997609194762163 0 -17.997609194762163 -22.029298269468711 0 0 0 0 28.028606605752429 -22.210620617597783 0 -22.210620617597783 -29.975000690326397 0 0 0 0 9.8965886618061631 -3.3772543696431967 0 -3.3772543696431967 -23.491188655280439 0 0 0 0 155.11945077699056 7.7656128799108046 0 7.7656128799108046 -49.67612208838591 0 0 0 0 256.5754892565019 -13.914159371523397 0 -13.914159371523397 -66.249902202873045 0 0 0 0 138.33659826484654 6.9733731137594077 0 6.9733731137594077 -24.321082867724726 0 0 0 0 152.6318189158701 3.956637074322316 0 3.956637074322316 -35.700626732166711 0 0 0 0 88.410453801843687 5.1235141551367178 0 5.1235141551367178 -20.311735053747725 0 0 0 0 68.857066987146482 36.363497811951881 0 36.363497811951881 -29.480235699452805 0 0 0 0 225.03647980156893 -14.007018986963885 0 -14.007018986963885 -39.462935960424147 0 0 0 0 115.20645921483811 7.2718148399922029 0 7.2718148399922029 -24.104037904102825 0 0 0 0 160.6751442471359 -33.309142241666564 0 -33.309142241666564 -37.856408775106729 0 0 0 0 80.563550293540175 -52.282841343183691 0 -52.282841343183691 -37.924223879458168 0 0 0 0 151.19371616576973 -53.250904017763389 0 -53.250904017763389 -74.353241316630147 0 0 0 0 156.67730702937843 -79.633954196197863 0 -79.633954196197863 -59.166768061726088 0 0 0 0 269.05701706436957 89.411103220638978 0 89.411103220638978 -210.64889240245725 0 0 0 0 259.67306644313066 75.482789674215496 0 75.482789674215496 -190.44016406136825 0 0 0 0 232.57606433910405 117.42916557072158 0 117.42916557072158 -178.84384189309429 0 0 0 0 225.28563542020856 88.819780149845315 0 88.819780149845315 -49.403705946341006 0 0 0 0 257.09767947287764 47.645432761249367 0 47.645432761249367 -158.3106611911569 0 0 0 0 180.27938425694083 30.498458953025647 0 30.498458953025647 22.122905695332747 0 0 0 0 187.24046370608266 54.145697025068785 0 54.145697025068785 -48.414574866535887 0 0 0 0 198.67960592306918 103.19220496496314 0 103.19220496496314 103.39532946102327 0 0 0 0 192.66729234865124 -21.590435663515507 0 -21.590435663515507 -19.895239790919732 0 0 0 0 198.26565886852768 -59.161028683871791 0 -59.161028683871791 98.576861200993093 0 0 0 0 188.27716018624051 -33.978117711843652 0 -33.978117711843652 -37.917397289486644 0 0 0 0 174.54121105258491 9.3172513824352166 0 9.3172513824352166 -51.58404366497507 0 0 0 0 143.7636893219169 14.766197504849515 0 14.766197504849515 -42.360388323013467 0 0 0 0 184.13695890266536 -17.068395480656363 0 -17.068395480656363 -43.876975038675482 0 0 0 0 186.23059899960936 0.57031671262006967 0 0.57031671262006967 -122.02455445713258 0 0 0 0 157.52291253774456 24.906474688190428 0 24.906474688190428 -40.718297447591794 0 0 0 0 157.30545347528823 18.532248909734562 0 18.532248909734562 -51.303712682576133 0 0 0 0 153.41213964517374 41.303513698269398 0 41.303513698269398 -49.657379157519244 0 0 0 0 205.6356215615906 -42.980931992095464 0 -42.980931992095464 -108.92610795216615 0 0 0 0 221.18459744869506 -93.077684539924064 0 -93.077684539924064 -59.707893054982833 0 0 0 0 165.41764357411012 -95.663880346623273 0 -95.663880346623273 -34.176515045468932 0 0 0 0 189.42675819398573 -42.358567934624489 0 -42.358567934624489 -95.533178207941546 0 0 0 0 187.96393368765348 -43.119682736030313 0 -43.119682736030313 -25.487593106354325 0 0 0 0 158.01913885120302 -37.659279483812497 0 -37.659279483812497 -5.1636398481614378 0 0 0 0 195.52515657988261 -16.305634829147948 0 -16.305634829147948 -23.657522542177048 0 0 0 0 173.85821729884628 -57.125906075809553 0 -57.125906075809553 -38.68262493210068 0 0 0 0 151.68119629212742 -69.522114611137795 0 -69.522114611137795 -24.471222783432722 0 0 0 0 87.098516408339492 -80.875951333698595 0 -80.875951333698595 9.2673587800213681 0 0 0 0 65.077049966581399 33.705101356887383 0 33.705101356887383 -39.978070671123078 0 0 0 0 1.096075638509717 0.19939607335722087 0 0.19939607335722087 -0.45692344092566906 0 0 0 0 10.221537150908262 51.170781566885353 0 51.170781566885353 -10.716262872081643 0 0 0 0 178.0095888030628 -61.139254469969728 0 -61.139254469969728 -25.329047791270341 0 0 0 0 116.44756616948143 -91.848967872283765 0 -91.848967872283765 6.6411924007984453 0 0 0 0 0.76099618167063454 -15.898072260969002 0 -15.898072260969002 13.62778629796108 0 0 0 0 0.765032880225192 0.53429078189302004 0 0.53429078189302004 -0.33282882782416756 0 0 0 0 71.883546027813281 -156.61593596463217 0 -156.61593596463217 129.00299196942615 0 0 0 0 245.72141515628755 -157.17656142576607 0 -157.17656142576607 18.511066460139773 0 0 0 0 259.41571192167066 -99.237921752685793 0 -99.237921752685793 7.8583624648390469 0 0 0 0 664.80062691729836 -329.46432519000723 0 -329.46432519000723 84.794754529652209 0 0 0 0 350.59919532053027 -117.14196276451344 0 -117.14196276451344 -79.19122368665353 0 0 0 0 222.39770492547905 -130.60004288671553 0 -130.60004288671553 8.479362613356443 0 0 0 0 219.40226846048608 -120.8330556202377 0 -120.8330556202377 -23.355773965961589 0 0 0 0 101.87863113553612 -113.5098026498041 0 -113.5098026498041 10.431718195375652 0 0 0 0 68.674825172194687 -0.13956400532242696 0 -0.13956400532242696 31.251151663477458 0 0 0 0 241.34633274485168 -19.438482533241768 0 -19.438482533241768 -22.55588634792457 0 0 0 0 31.707097564968763 10.323811748291618 0 10.323811748291618 103.80077681676084 0 0 0 0 -32.818460257067272 65.028521296224369 0 65.028521296224369 60.731682895518134 0 0 0 0 0.87758753780776289 1.0170138044526595 0 1.0170138044526595 0.37974186956745548 0 0 0 0 66.025634252044256 -13.748259150775993 0 -13.748259150775993 -5.019315245549592 0 0 0 0 85.098296628581011 23.743314810113475 0 23.743314810113475 -10.118005231242478 0 0 0 0 176.24619395146146 15.336418246190306 0 15.336418246190306 -32.98810353534941 0 0 0 0 178.68402693513781 -55.082538144613864 0 -55.082538144613864 -28.441118543452831 0 0 0 0 35.966959769684763 19.782606270587166 0 19.782606270587166 2.4066966581053748 0 0 0 0 137.01450038879739 5.4800648345328682 0 5.4800648345328682 -24.543384028835135 0 0 0 0 27.139709262439283 41.216438858841684 0 41.216438858841684 -19.842515647835 0 0 0 0 59.940539846131287 -4.5202542705198994 0 -4.5202542705198994 11.328020969535146 0 0 0 0 165.65596557153913 -16.119673439009489 0 -16.119673439009489 -23.014932347595277 0 0 0 0 0.31866692651958317 2.0175198710241204 0 2.0175198710241204 1.9583006418745796 0 0 0 0 83.939021546946606 13.108440755423544 0 13.108440755423544 -4.5162784442172779 0 0 0 0 73.742434591680649 -9.5225574649525697 0 -9.5225574649525697 12.857093735435456 0 0 0 0 82.521420602606668 -1.7312112347722177 0 -1.7312112347722177 -27.440738650311914 0 0 0 0 52.445382307982072 27.834616884219031 0 27.834616884219031 -12.298511024998561 0 0 0 0 30.356482173851518 12.130367474610424 0 12.130367474610424 -2.500112553094727 0 0 0 0 15.596792325333809 46.206362344962372 0 46.206362344962372 -5.8710208917623277 0 0 0 0 181.33786190800311 123.4394854404195 0 123.4394854404195 -152.46222515330328 0 0 0 0 131.84898098123085 257.26558613905763 0 257.26558613905763 -57.761459053700491 0 0 0 0 19.776953258708147 171.22314137318375 0 171.22314137318375 -73.85257668817394 0 0 0 0 18.148858897809987 -10.047655671410212 0 -10.047655671410212 -249.42483399750017 0 0 0 0 200.86725788850163 145.62453552119769 0 145.62453552119769 -509.7349436381237 0 0 0 0 46.607549990119878 4.0198902874490159 0 4.0198902874490159 -4.3874613227671944 0 0 0 0 45.481560271675733 10.523552048386108 0 10.523552048386108 2.2129242642991587 0 0 0 0 82.651123485593416 4.0421008928028641 0 4.0421008928028641 -6.7175313922243731 0 0 0 0 68.061633837932021 10.379494816364733 0 10.379494816364733 -0.96814299040404794 0 0 0 0 76.857731379808683 158.66918964456363 0 158.66918964456363 -172.8006697818646 0 0 0 0 93.803120869477425 5.9885572238481473 0 5.9885572238481473 -10.890633553693988 0 0 0 0 63.260063321620692 6.2932124074125113 0 6.2932124074125113 -2.9352491796798859 0 0 0 0 -30.345969901667559 77.626977549187586 0 77.626977549187586 -48.276487925867968 0 0 0 0 -26.128936929046176 139.94837507525347 0 139.94837507525347 218.61662165858434 0 0 0 0 -38.198909089845984 77.419120990649049 0 77.419120990649049 8.8776759177517306 0 0 0 0 23.518318657814611 24.757307498148492 0 24.757307498148492 1.9702961148769447 0 0 0 0 0.62444994527322706 37.410299710247727 0 37.410299710247727 26.346076407319288 0 0 0 0 4.3520004763128952 7.0353755483399496 0 7.0353755483399496 3.3524567828665726 0 0 0 0 9.8716350553561512 2.4608999759823291 0 2.4608999759823291 2.6738002087449182 0 0 0 0 76.165666482236702 -12.684305002025667 0 -12.684305002025667 6.3957079595356845 0 0 0 0 57.784860525785916 -50.537021159721348 0 -50.537021159721348 11.553223877696837 0 0 0 0 7.612779234390473 26.417940216365196 0 26.417940216365196 40.195621373608446 0 0 0 0 2.6965875387766403 -0.79633111126092615 0 -0.79633111126092615 -0.1755646412812979 0 0 0 0 61.233349504858779 117.10115563132899 0 117.10115563132899 180.46853321422896 0 0 0 0 48.993228373845341 20.99348835463843 0 20.99348835463843 -49.361253108652818 0 0 0 0 15.946017178931797 22.785479259678482 0 22.785479259678482 -4.2006029286902855 0 0 0 0 91.263323287637832 71.805102324237964 0 71.805102324237964 -5.1708799872430973 0 0 0 0 116.75576519700917 11.443290876465653 0 11.443290876465653 -81.728791973053376 0 0 0 0 71.588679743617831 -3.1082373250396813 0 -3.1082373250396813 -89.818495774759867 0 0 0 0 9.9682703716098331 -6.1578849580580481 0 -6.1578849580580481 1.787338954621589 0 0 0 0 38.402990568171276 -14.159105250761975 0 -14.159105250761975 2.6878582368678554 0 0 0 0 -48.57590692503436 28.56916653388862 0 28.56916653388862 17.077344173831989 0 0 0 0 0.30938126589171588 6.0688971320012115 0 6.0688971320012115 0.21430730755105287 0 0 0 0 -26.8013227890915 24.94374825642808 0 24.94374825642808 -9.224270146102981 0 0 0 0 -23.539965829360881 9.7363644593610843 0 9.7363644593610843 13.714831774977029 0 0 0 0 -24.407776177382402 1.9372418052574432 0 1.9372418052574432 20.140929004309783 0 0 0 0 -10.304216694334173 -10.039540896971175 0 -10.039540896971175 3.9104131874159975 0 0 0 0 -9.3072943438892253 -7.8926269058102889 0 -7.8926269058102889 6.7884024278865809 0 0 0 0 -46.299033595652872 6.6927680740403019 0 6.6927680740403019 24.706567456725679 0 0 0 0 -16.949729318526806 -37.307726017180585 0 -37.307726017180585 143.45133960843941 0 0 0 0 -11.10942978543747 -4.6292104520015869 0 -4.6292104520015869 0.95006419874704484 0 0 0 0 9.6088070058394806 5.9395382421540432 0 5.9395382421540432 -1.4822501648172022 0 0 0 0 -3.7189344833313953 -19.971423778443494 0 -19.971423778443494 18.841032122732827 0 0 0 0 -26.685554492130905 4.9830741804549916 0 4.9830741804549916 42.620676695907605 0 0 0 0 31.284188882622402 -39.606542485259524 0 -39.606542485259524 36.819269101027203 0 0 0 0 0.03066879240794762 -1.5469035776266367 0 -1.5469035776266367 1.9662633355311385 0 0 0 0 44.581855364341209 121.10229735055486 0 121.10229735055486 332.71638775059182 0 0 0 0 -73.130019168340368 5.7108991444310959 0 5.7108991444310959 -8.6461363799826358 0 0 0 0 -73.956769583106507 -73.86470527168467 0 -73.86470527168467 -11.814802649372638 0 0 0 0 42.727701909956522 -34.34691118827368 0 -34.34691118827368 149.70778356790197 0 0 0 0 25.921259242952914 -7.3405658918120977 0 -7.3405658918120977 0.2380265036982312 0 0 0 0 900.7777471208974 342.47810465745488 0 342.47810465745488 177.27998184942243 0 0 0 0 21.86522148484346 141.40870391831717 0 141.40870391831717 608.48207135383745 0 0 0 0 5.0087840088137625 -0.17210719290527265 0 -0.17210719290527265 3.1271090517721056 0 0 0 0 862.03447553997103 419.61600066826622 0 419.61600066826622 186.78448172010394 0 0 0 0 56.440115482963847 -126.30297746607715 0 -126.30297746607715 264.54287335477966 0 0 0 0 6.9693237534297907 -2.8053959913753772 0 -2.8053959913753772 1.6978335658885406 0 0 0 0 13.683272567383938 46.196405593927182 0 46.196405593927182 61.414126136977757 0 0 0 0 3.051470449138094 -2.5317508788014322 0 -2.5317508788014322 -0.73150217412638874 0 0 0 0 120.69037125075556 -131.37487446895238 0 -131.37487446895238 115.28564095989805 0 0 0 0 262.4224906189047 44.373412416329757 0 44.373412416329757 -15.445130545783741 0 0 0 0 147.58863973655389 -180.27922330954198 0 -180.27922330954198 67.88950762886725 0 0 0 0 333.85711765513406 43.994985090754199 0 43.994985090754199 -39.397580523504075 0 0 0 0 -61.086168339053984 -26.036541043712532 0 -26.036541043712532 183.18376131562309 0 0 0 0 -72.325887903170951 13.683127214439651 0 13.683127214439651 53.979655865059613 0 0 0 0 6.2088438871942344 -34.12414116334503 0 -34.12414116334503 -83.031359083865027 0 0 0 0 -75.661380514837219 -86.829722363359906 0 -86.829722363359906 71.539162812927998 0 0 0 0 32.378887332696621 -12.992601033126874 0 -12.992601033126874 2.8146162988701118 0 0 0 0 186.2240716210581 -243.76400187453271 0 -243.76400187453271 53.048063753741644 0 0 0 0 89.928269601194188 -165.09083839524828 0 -165.09083839524828 -123.47639136780924 0 0 0 0 126.90806820658327 165.28631357096583 0 165.28631357096583 458.69887346827454 0 0 0 0 -110.09084378878833 384.40476500065506 0 384.40476500065506 373.65205508182316 0 0 0 0 52.83975461369846 -22.036780671160159 0 -22.036780671160159 -52.980442226261403 0 0 0 0 -5.8199358655838296 -11.902229876176534 0 -11.902229876176534 -42.634970803820579 0 0 0 0 48.52850680371921 25.897026448812085 0 25.897026448812085 -73.368435904316357 0 0 0 0 2.5611191520729335 61.617778859215832 0 61.617778859215832 -46.651105578685303 0 0 0 0 -16.368972847660189 -59.221351403868539 0 -59.221351403868539 12.059902359327225 0 0 0 0 107.74120505395695 314.43981552536729 0 314.43981552536729 77.032062797771687 0 0 0 0 9.1454754240796206 -4.2413121198697894 0 -4.2413121198697894 1.6308463789686751 0 0 0 0 433.21852517522348 127.51598278095369 0 127.51598278095369 167.2409208425679 0 0 0 0 4.8798028503265982 -1.1518730878770072 0 -1.1518730878770072 -1.0211734715513394 0 0 0 0 342.65556945589196 369.30679650083221 0 369.30679650083221 124.16697750300216 0 0 0 0 135.94671323805233 354.8000707052334 0 354.8000707052334 125.02606983352939 0 0 0 0 308.11624901968753 311.97407158273711 0 311.97407158273711 46.161259308110402 0 0 0 0 166.7924033231684 229.4846607456991 0 229.4846607456991 128.3779956621791 0 0 0 0 239.31310731059057 155.04831164020874 0 155.04831164020874 10.45284859127878 0 0 0 0 194.71370254239446 208.67390773178005 0 208.67390773178005 193.71177813028385 0 0 0 0 203.35020934819477 245.69778630458086 0 245.69778630458086 193.8872896548219 0 0 0 0 150.47945939570491 378.53715955118287 0 378.53715955118287 175.47660928214646 0 0 0 0 118.45816382608427 269.99551278237828 0 269.99551278237828 231.26609540022946 0 0 0 0 215.80237872645375 304.58358752764298 0 304.58358752764298 243.48446048082633 0 0 0 0 244.86886358889024 255.05115511689178 0 255.05115511689178 194.60148998793511 0 0 0 0 466.80088790749141 -44.502071519913898 0 -44.502071519913898 458.34720445109679 0 0 0 0 623.95256215002155 583.86884556726 0 583.86884556726 452.13939761416947 0 0 0 0 201.36116509745625 242.89281154560945 0 242.89281154560945 191.28598780942912 0 0 0 0 590.26025476587529 91.579381167509382 0 91.579381167509382 39.762125603201184 0 0 0 0 748.83924977992683 -16.472854431777705 0 -16.472854431777705 112.9621160510269 0 0 0 0 348.78430998087606 2.9194583356270734 0 2.9194583356270734 -109.02129906801576 0 0 0 0 285.64599993197771 34.771000150098189 0 34.771000150098189 30.781957516857346 0 0 0 0 369.28240677993745 281.29519485343769 0 281.29519485343769 93.610949864975552 0 0 0 0 278.39097432814742 166.67371684565575 0 166.67371684565575 -43.945761605849725 0 0 0 0 304.63162799039856 48.682509325855051 0 48.682509325855051 -143.44439166287691 0 0 0 0 91.453536090673879 -82.39336528791199 0 -82.39336528791199 -75.617836828263364 0 0 0 0 202.03153341622237 -165.04270099492317 0 -165.04270099492317 -221.61332508892878 0 0 0 0 384.13074007167597 -112.3071985645804 0 -112.3071985645804 -95.500337781189273 0 0 0 0 -67.248896756907925 -262.43685708917428 0 -262.43685708917428 -254.3299642748546 0 0 0 0 41.360278920081328 -191.99190804392686 0 -191.99190804392686 -231.74176703545098 0 0 0 0 2.7359308153972961 -270.5778130199954 0 -270.5778130199954 -216.16245317654182 0 0 0 0 142.17749626375735 -117.41550793059059 0 -117.41550793059059 -71.724407807099453 0 0 0 0 16.928686049381213 -227.00779767194274 0 -227.00779767194274 -47.553313616666628 0 0 0 0 -80.013695170440769 -284.13009602796751 0 -284.13009602796751 -101.47823377403211 0 0 0 0 -11.211624502000632 -193.39972999969484 0 -193.39972999969484 -90.658340269564633 0 0 0 0 25.183887905644951 -258.92764900172483 0 -258.92764900172483 13.84444868321043 0 0 0 0 119.62421372530662 -190.81073865398787 0 -190.81073865398787 137.25250165008219 0 0 0 0 235.83441678780946 -32.631655536205585 0 -32.631655536205585 91.319361802205549 0 0 0 0 56.375660544188577 -115.94363845294265 0 -115.94363845294265 49.653008362320747 0 0 0 0 315.61185006038431 -104.4950591775189 0 -104.4950591775189 170.50371474662461 0 0 0 0 271.37184669043927 -14.511529163837849 0 -14.511529163837849 32.549789066732046 0 0 0 0 193.33153862239851 -207.3784524958055 0 -207.3784524958055 72.905231855401325 0 0 0 0 319.68207109555078 -144.42186029471077 0 -144.42186029471077 237.83084447960391 0 0 0 0 470.48945347892004 71.986261374218884 0 71.986261374218884 185.84399683401483 0 0 0 0 1016.1435252402298 36.502066937945983 0 36.502066937945983 220.13678768248383 0 0 0 0 838.77154888947553 340.09359868728598 0 340.09359868728598 409.00990995518828 0 0 0 0 431.24240585004009 -8.5367451145059476 0 -8.5367451145059476 234.18941302000349 0 0 0 0 272.41227168534533 46.591399641511543 0 46.591399641511543 259.30222555942981 0 0 0 0 30.924404098106606 -186.21176167252042 0 -186.21176167252042 251.64714898325656 0 0 0 0 -29.130798911450256 38.09736289118382 0 38.09736289118382 270.89573890050451 0 0 0 0 299.52811361737258 -61.325804686255651 0 -61.325804686255651 141.22943375677369 0 0 0 0 194.2920633857284 118.42621577988075 0 118.42621577988075 521.82517285873359 0 0 0 0 230.09538393501498 -67.962226027830866 0 -67.962226027830866 257.47537502991418 0 0 0 0 170.63974340172717 203.63967942263525 0 203.63967942263525 219.11034587476632 0 0 0 0 242.52218718861695 -133.22998532804462 0 -133.22998532804462 539.4911574858379 0 0 0 0 -139.24971787516552 90.793406224945784 0 90.793406224945784 -43.612261310715894 0 0 0 0 -186.64572266483447 -30.677605450680403 0 -30.677605450680403 104.172055900239 0 0 0 0 -253.75935831772222 86.233448353936183 0 86.233448353936183 127.77197692826326 0 0 0 0 -39.086383503454272 120.53577516796031 0 120.53577516796031 176.72538651316563 0 0 0 0 -76.494156561500859 -105.38590604521232 0 -105.38590604521232 121.52639190382445 0 0 0 0 -179.91532182012452 -19.880473539789591 0 -19.880473539789591 114.09254983361097 0 0 0 0 -123.3833869255177 -70.330727115126592 0 -70.330727115126592 167.75029645319 0 0 0 0 -200.09935096091067 -121.59413018315877 0 -121.59413018315877 154.75255436808754 0 0 0 0 -125.83610345869965 -153.50293352313224 0 -153.50293352313224 41.133081675427547 0 0 0 0 -125.01993744928041 -46.329915701980099 0 -46.329915701980099 39.453562390211118 0 0 0 0 -182.38161981661688 -173.84170811494891 0 -173.84170811494891 -91.275591950046874 0 0 0 0 25.255902108707232 29.107526808520561 0 29.107526808520561 -0.75387519011019322 0 0 0 0 -276.83806940700651 -252.34311471209296 0 -252.34311471209296 3.0870349336355503 0 0 0 0 48.307980531620728 -33.333883300359759 0 -33.333883300359759 -2.1069323768298016 0 0 0 0 -300.03535780265156 -138.33690314249822 0 -138.33690314249822 -8.8955785385205672 0 0 0 0 -22.97972324354123 -239.39163504024759 0 -239.39163504024759 64.655617230167081 0 0 0 0 -275.26356519994442 -185.03460570238758 0 -185.03460570238758 67.978385306544396 0 0 0 0 -122.88819244217302 -216.88457215812809 0 -216.88457215812809 -69.975951278688626 0 0 0 0 -194.37196057949041 -121.44349524590484 0 -121.44349524590484 -187.44786762507601 0 0 0 0 -115.9953243938071 -157.46399358376561 0 -157.46399358376561 -7.3559381434556599 0 0 0 0 -77.568955530121457 -292.443193926699 0 -292.443193926699 -73.123448651083436 0 0 0 0 -201.13225710621919 -332.06734836149883 0 -332.06734836149883 -173.31675841145659 0 0 0 0 112.39643230942602 -297.08412153857284 0 -297.08412153857284 -94.171186519165531 0 0 0 0 57.701984454418536 -36.144812315556024 0 -36.144812315556024 1.9602293538926046 0 0 0 0 -169.98553701551282 -327.15027797516927 0 -327.15027797516927 -114.92781051587173 0 0 0 0 -108.40330946052563 -245.16988524459521 0 -245.16988524459521 -138.45885001856732 0 0 0 0 -110.31368087109877 -282.33341385035146 0 -282.33341385035146 -254.26334580173261 0 0 0 0 -146.04075884580379 -344.41749247070163 0 -344.41749247070163 -200.67870652148179 0 0 0 0 173.83410145810922 -315.1588140104318 0 -315.1588140104318 -325.8121810902303 0 0 0 0 -264.44446501659695 -205.95092662406228 0 -205.95092662406228 -213.87221744882891 0 0 0 0 -214.15588735317579 -251.00202328781731 0 -251.00202328781731 -173.62349340096614 0 0 0 0 -93.656821726821363 -249.93208508851404 0 -249.93208508851404 -174.10912516419125 0 0 0 0 357.76504341342661 11.693509378428416 0 11.693509378428416 -186.32009636021576 0 0 0 0 -38.960401917458512 34.398614521477271 0 34.398614521477271 -5.2966572726418235 0 0 0 0 0.46816831900354572 -1.7838999034631229 0 -1.7838999034631229 -0.64535450689367435 0 0 0 0 176.11104856726888 -393.06626412416557 0 -393.06626412416557 -38.68410771165054 0 0 0 0 172.16126498251106 -305.32484823325217 0 -305.32484823325217 142.25751609404506 0 0 0 0 24.478582107398324 6.1190666531551301 0 6.1190666531551301 -4.4570475990963132 0 0 0 0 101.3682896533137 -1.6850300724305498 0 -1.6850300724305498 -41.389440321659094 0 0 0 0 29.432111048081424 32.334306927463558 0 32.334306927463558 -2.9034314565042223 0 0 0 0 111.45056336062407 12.398382605013353 0 12.398382605013353 -55.505873435962258 0 0 0 0 98.727928623855405 24.261339280778316 0 24.261339280778316 -63.21592888262569 0 0 0 0 69.87371951006935 25.879410472816062 0 25.879410472816062 -41.927690586296194 0 0 0 0 96.069522458527445 7.4499622372945673 0 7.4499622372945673 -56.906237141282418 0 0 0 0 96.3478192070761 0.74959217898717867 0 0.74959217898717867 -22.358610757027236 0 0 0 0 79.42837326292647 -2.4197312326132305 0 -2.4197312326132305 -17.764528697843616 0 0 0 0 112.77552916163404 -24.70596852089011 0 -24.70596852089011 -93.633710120251749 0 0 0 0 46.046168041029887 60.235914983823591 0 60.235914983823591 -94.861306163354357 0 0 0 0 99.317495685609174 -23.020139488241057 0 -23.020139488241057 -34.585422341381673 0 0 0 0 89.999053317995276 -16.917146791947744 0 -16.917146791947744 4.7307966975649833 0 0 0 0 13.240724117403417 1.3181356688922818 0 1.3181356688922818 -26.134383304605951 0 0 0 0 86.893987231560459 -16.923704207709761 0 -16.923704207709761 40.344784878941255 0 0 0 0 91.545636606943845 -43.783348137914601 0 -43.783348137914601 -92.575449651815688 0 0 0 0 89.905154988024151 -3.110108583236979 0 -3.110108583236979 25.66607480613493 0 0 0 0 124.07853952251753 4.2458230947700031 0 4.2458230947700031 -34.578118047269527 0 0 0 0 -1.3911198427475924 -2.3416404877120129 0 -2.3416404877120129 0.27165136907707554 0 0 0 0 47.00691404085228 27.028073913230514 0 27.028073913230514 -45.775279117485979 0 0 0 0 120.69380416282365 -37.737576795388577 0 -37.737576795388577 -13.725011153146625 0 0 0 0 5.8305512935948229 7.7439935169862082 0 7.7439935169862082 -14.726576112837279 0 0 0 0 63.974441792855941 1.9655161946833744 0 1.9655161946833744 -9.0207067282472053 0 0 0 0 84.42672666515864 -17.67969990087434 0 -17.67969990087434 -3.1635978127746966 0 0 0 0 54.952280017285375 -10.477823487020942 0 -10.477823487020942 -33.278347067271056 0 0 0 0 48.247630189638585 -2.8025128874705842 0 -2.8025128874705842 -5.1040272316968185 0 0 0 0 39.21626202641346 17.361212555690145 0 17.361212555690145 -24.668137162703715 0 0 0 0 49.628644949330919 -13.375532140738869 0 -13.375532140738869 -17.125715622139069 0 0 0 0 28.720887887380457 10.202178015378209 0 10.202178015378209 -15.512323627156356 0 0 0 0 93.09834408169263 -17.118707145748431 0 -17.118707145748431 -7.3907506975865545 0 0 0 0 3.9577064754739624 -4.8176587983857928 0 -4.8176587983857928 -0.34395119348690351 0 0 0 0 87.627466717283824 -12.607240443371211 0 -12.607240443371211 2.0494275497530907 0 0 0 0 58.099420285259839 -12.298542798062954 0 -12.298542798062954 0.031058864135957265 0 0 0 0 73.917818876769161 -19.577280840185267 0 -19.577280840185267 3.8282627076259814 0 0 0 0 15.937152499100819 8.0231256946764802 0 8.0231256946764802 -4.777139451093344 0 0 0 0 108.47819680279645 -12.343310331116299 0 -12.343310331116299 -0.65913055044438806 0 0 0 0 16.899496661603912 -5.2998690120714969 0 -5.2998690120714969 0.31017017069383712 0 0 0 0 26.264889109771659 12.512486863156511 0 12.512486863156511 -16.309171330702121 0 0 0 0 21.867135628889628 24.838257156114423 0 24.838257156114423 -18.980361795329372 0 0 0 0 24.545235930106173 10.249615839579519 0 10.249615839579519 -7.2512528734368971 0 0 0 0 106.66813865496079 5.9201418491475124 0 5.9201418491475124 15.141306386467477 0 0 0 0 42.2876448589208 -27.857063761463053 0 -27.857063761463053 -8.4257611844681506 0 0 0 0 100.84617739261012 8.9275490630770946 0 8.9275490630770946 14.055659046710389 0 0 0 0 86.309817393659614 -6.7483638607986904 0 -6.7483638607986904 -2.5007976486849657 0 0 0 0 90.656313036612119 -15.160046645151851 0 -15.160046645151851 -9.5570931266274783 0 0 0 0 91.831912098874454 -13.539356700694952 0 -13.539356700694952 2.1094843213654713 0 0 0 0 92.253714719146956 -5.7333163443900048 0 -5.7333163443900048 9.219132996897315 0 0 0 0 98.442999452807271 -13.42581853335372 0 -13.42581853335372 1.127428527102893 0 0 0 0 104.32276597320015 -2.8815944395100814 0 -2.8815944395100814 -0.63491158759461541 0 0 0 0 83.625609663024079 0.9488430498067828 0 0.9488430498067828 4.7667659453154556 0 0 0 0 -113.32648736532246 -18.63491119561769 0 -18.63491119561769 18.06405033631836 0 0 0 0 -16.084848339552991 -17.171758051127654 0 -17.171758051127654 15.279816614642414 0 0 0 0 18.058192841295295 2.3842784098215333 0 2.3842784098215333 0.20605976659297198 0 0 0 0 53.794209785803105 -26.683660127820076 0 -26.683660127820076 -44.769121193708088 0 0 0 0 -9.0111620642419439 -1.3709852340909947 0 -1.3709852340909947 -0.68694586970013916 0 0 0 0 67.447957907024829 10.224633155358788 0 10.224633155358788 -8.1963932815815497 0 0 0 0 40.721140277588248 -17.085025829770046 0 -17.085025829770046 -12.088278363128012 0 0 0 0 64.247682590277691 2.0681631231620941 0 2.0681631231620941 -28.781032427792525 0 0 0 0 105.58260715799406 -7.0735698352873442 0 -7.0735698352873442 6.5548046610128949 0 0 0 0 22.745292828730655 -6.1765632294297887 0 -6.1765632294297887 -9.7615702849133683 0 0 0 0 44.945652943853929 9.4938895405311996 0 9.4938895405311996 -14.975051293818979 0 0 0 0 32.803749372661997 2.7036254441485283 0 2.7036254441485283 -10.208062137113377 0 0 0 0 57.888615147178143 23.466867047747826 0 23.466867047747826 -11.142227654039338 0 0 0 0 51.91546028716823 -10.279306541826315 0 -10.279306541826315 -15.822321810697446 0 0 0 0 42.668599169395748 -4.7673797162415212 0 -4.7673797162415212 4.7341818523800612 0 0 0 0 91.35133513710025 -2.7523758134411764 0 -2.7523758134411764 -7.6371745923315757 0 0 0 0 34.909883842995406 -8.2557219724784829 0 -8.2557219724784829 -6.5178483849177375 0 0 0 0 76.962704917619703 -21.907513543008463 0 -21.907513543008463 -3.2331819408500451 0 0 0 0 33.380760186046217 0.19792906513900732 0 0.19792906513900732 -9.8229248461307002 0 0 0 0 33.643779981690756 5.1917015493317962 0 5.1917015493317962 -9.6030071101999894 0 0 0 0 121.26835339915851 4.2274931316314905 0 4.2274931316314905 -23.305425080730402 0 0 0 0 17.245599999791011 -8.5803650254529202 0 -8.5803650254529202 -13.588659528508288 0 0 0 0 53.111768213464529 3.4576737393199437 0 3.4576737393199437 -19.067718743288424 0 0 0 0 57.024425738890997 -7.6729241986219741 0 -7.6729241986219741 -15.061055969841256 0 0 0 0 47.631602376815863 -2.2755757702616393 0 -2.2755757702616393 -11.872420573192358 0 0 0 0 80.603826872718003 0.53128206405027356 0 0.53128206405027356 -21.246849052997149 0 0 0 0 -22.511565471766517 44.486708095076665 0 44.486708095076665 -21.257341767138314 0 0 0 0 7.723432613787395 9.0364389626774084 0 9.0364389626774084 -4.7912132842446304 0 0 0 0 35.065249634644715 7.7230227819213724 0 7.7230227819213724 0.34154646704882907 0 0 0 0 42.928951150919602 0.57870503811818708 0 0.57870503811818708 -14.605203746046755 0 0 0 0 21.432044586677307 5.0268363793149149 0 5.0268363793149149 -13.287962956584963 0 0 0 0 24.455145909545536 10.681623319356731 0 10.681623319356731 -10.625121985269288 0 0 0 0 37.355561816648333 13.417272912963654 0 13.417272912963654 -21.357130753527599 0 0 0 0 49.321461081271991 0.99711691824631998 0 0.99711691824631998 -7.428678236054111 0 0 0 0 6.864654288831133 13.997319797974498 0 13.997319797974498 -8.9690898992846861 0 0 0 0 38.65707983316679 3.1573163359016689 0 3.1573163359016689 -13.551830042040365 0 0 0 0 15.919016312574442 -3.9923473433838126 0 -3.9923473433838126 -12.901931279078056 0 0 0 0 46.670818607828551 14.714660715813807 0 14.714660715813807 -7.48778106942882 0 0 0 0 9.5404360296512714 1.6278360081273036 0 1.6278360081273036 -0.95491417804660017 0 0 0 0 39.494872890982151 6.6099082003261174 0 6.6099082003261174 0.29631527574383654 0 0 0 0 57.619544830573432 3.1005699540592104 0 3.1005699540592104 -4.2472067683029309 0 0 0 0 33.796394421209698 6.4030823400344161 0 6.4030823400344161 14.765888742209427 0 0 0 0 77.004434025984665 -1.5177656368832686 0 -1.5177656368832686 -13.463982923491528 0 0 0 0 51.490241675419384 9.4654473048904038 0 9.4654473048904038 -3.5033701116699376 0 0 0 0 43.549697413014982 -9.2429637464167271 0 -9.2429637464167271 -12.883728565672421 0 0 0 0 60.957452378264861 84.303490107017751 0 84.303490107017751 -79.279506410133763 0 0 0 0 14.268652677797945 65.286291639354204 0 65.286291639354204 -12.968208988117112 0 0 0 0 36.721283087295888 115.5189075639064 0 115.5189075639064 -113.92252078374077 0 0 0 0 188.14366947000235 29.720166611414243 0 29.720166611414243 -204.27504611675431 0 0 0 0 24.664702160338763 -7.3003953850074694 0 -7.3003953850074694 -3.389941677468066 0 0 0 0 143.88848596757452 -115.3627947312616 0 -115.3627947312616 -267.72836410857053 0 0 0 0 34.385806031211274 -10.250852201381692 0 -10.250852201381692 -11.862336919061264 0 0 0 0 110.37787454700128 17.212384565687586 0 17.212384565687586 3.0973881045138114 0 0 0 0 -17.886481211411592 62.121543079399544 0 62.121543079399544 -12.165733271315503 0 0 0 0 47.7447303862469 19.474256015684027 0 19.474256015684027 -15.635360161002769 0 0 0 0 11.646082752503489 -2.4123281466958488 0 -2.4123281466958488 0.21435968898950364 0 0 0 0 110.20535229878078 -38.918657746728968 0 -38.918657746728968 -6.0846205528150676 0 0 0 0 14.737847155479336 0.22923810925500021 0 0.22923810925500021 -4.3132526915082465 0 0 0 0 76.807955335600127 -4.8096582200532794 0 -4.8096582200532794 -40.559951839717542 0 0 0 0 66.179972304851617 17.872212627780755 0 17.872212627780755 8.0488221872401482 0 0 0 0 125.30300117213119 12.168087013006698 0 12.168087013006698 -39.488070478495501 0 0 0 0 99.149403009083471 27.822228904364238 0 27.822228904364238 4.7002337346111744 0 0 0 0 -10.811270927806618 96.758652286377583 0 96.758652286377583 -46.144465953391773 0 0 0 0 0.88808161065944802 -1.4796345413327501 0 -1.4796345413327501 -2.0550779808118946 0 0 0 0 81.706895916286157 2.6031114559400521 0 2.6031114559400521 -31.035665900250024 0 0 0 0 106.80532189123915 10.146628434860759 0 10.146628434860759 -62.745402868003112 0 0 0 0 105.74945916060642 7.6850347115687327 0 7.6850347115687327 -40.48527002454648 0 0 0 0 65.108756472400273 -16.248172025927488 0 -16.248172025927488 -3.4156817168804992 0 0 0 0 112.0343610857235 -13.379890468716894 0 -13.379890468716894 -27.047372936656757 0 0 0 0 74.835530034401017 -3.6710055341809493 0 -3.6710055341809493 -28.554127548068209 0 0 0 0 46.545994677619262 8.2363146439513031 0 8.2363146439513031 -24.395009631429044 0 0 0 0 47.826568755968765 8.6117923546062229 0 8.6117923546062229 -24.770423497935553 0 0 0 0 -15.549592587474763 68.932008042299117 0 68.932008042299117 -0.75514284610108007 0 0 0 0 -6.1573231492802734 67.608152668226467 0 67.608152668226467 -41.237878826462747 0 0 0 0 51.280599008168792 85.555548956212988 0 85.555548956212988 -73.504872848548985 0 0 0 0 29.247964938680525 107.96871142435589 0 107.96871142435589 4.2512632947327802 0 0 0 0 78.737848344768281 126.32431043497718 0 126.32431043497718 -52.894518065068496 0 0 0 0 56.153587073218659 94.185809215659901 0 94.185809215659901 -75.197091937900495 0 0 0 0 77.583596699812915 99.951403991944062 0 99.951403991944062 -123.25158552078028 0 0 0 0 73.47497935112915 69.732431274880582 0 69.732431274880582 -122.24307127626162 0 0 0 0 71.112990303387051 46.344601305420213 0 46.344601305420213 -161.90128789586925 0 0 0 0 69.684915119672951 50.410571777919813 0 50.410571777919813 -89.205295372672026 0 0 0 0 60.788033018397982 108.38393612098116 0 108.38393612098116 -239.24561388778483 0 0 0 0 92.110740714910207 -106.39457059300639 0 -106.39457059300639 -258.66325972640698 0 0 0 0 -1.3579764806090679 95.808324348948304 0 95.808324348948304 -322.18051208149427 0 0 0 0 1.0935514129905641 -19.552656753128758 0 -19.552656753128758 -161.134291966192 0 0 0 0 98.4405160414899 90.774329566113465 0 90.774329566113465 -136.27164739628006 0 0 0 0 83.629083475330845 0.93211832035831321 0 0.93211832035831321 -157.00117354326255 0 0 0 0 -26.888342104321055 69.346498064429625 0 69.346498064429625 -138.56040394610682 0 0 0 0 212.46253882679594 -63.659197373367988 0 -63.659197373367988 -166.51172686846266 0 0 0 0 126.07177553739166 -18.839728607708821 0 -18.839728607708821 -276.39166988568718 0 0 0 0 144.98725676010508 42.07512628510699 0 42.07512628510699 -161.63329658757993 0 0 0 0 137.85674345311782 50.923226755703467 0 50.923226755703467 -112.3443310829407 0 0 0 0 157.35821806301828 21.259389161744366 0 21.259389161744366 -94.053071741660915 0 0 0 0 57.192417186219245 99.919227503194634 0 99.919227503194634 -76.324060870744688 0 0 0 0 113.24072075556978 125.16549847104466 0 125.16549847104466 -44.319742563935506 0 0 0 0 78.248116321352427 92.145797029984806 0 92.145797029984806 -75.471791173972861 0 0 0 0 155.14000887381553 89.111673156595771 0 89.111673156595771 -40.888064995511741 0 0 0 0 188.52593666464963 117.99232145619135 0 117.99232145619135 -17.359465109356734 0 0 0 0 335.36813062563306 75.597852664954416 0 75.597852664954416 -88.49117426753628 0 0 0 0 613.45690270003297 275.04229402239855 0 275.04229402239855 97.818873945011546 0 0 0 0 281.09761780961708 84.355430196550515 0 84.355430196550515 -11.378534892936273 0 0 0 0 130.2048752700357 253.41359753128381 0 253.41359753128381 100.39741493447946 0 0 0 0 -13.556191211886471 47.71703578149345 0 47.71703578149345 93.758784816691332 0 0 0 0 18.066781002671632 142.42567814664653 0 142.42567814664653 20.115837892021773 0 0 0 0 -29.963494764000643 214.04031221925743 0 214.04031221925743 25.2220675614426 0 0 0 0 -188.13394420885015 -66.932998158157261 0 -66.932998158157261 -57.122825307718813 0 0 0 0 3.9887594491137861 15.985713215756846 0 15.985713215756846 -61.878570682594727 0 0 0 0 -242.46394343153224 42.707277194650487 0 42.707277194650487 53.582937204320388 0 0 0 0 -2.5774772353573496 0.39345945643507463 0 0.39345945643507463 0.61065720308526927 0 0 0 0 -25.318683766461618 73.173009163588858 0 73.173009163588858 57.855579877955279 0 0 0 0 -22.131949974597774 50.892819845068274 0 50.892819845068274 -2.2027245122853856 0 0 0 0 -38.408469502610387 104.26218387432709 0 104.26218387432709 4.0579887393330978 0 0 0 0 78.417128954133659 200.73273213052244 0 200.73273213052244 30.428794164349711 0 0 0 0 2912.1877373605512 -520.99474943957352 0 -520.99474943957352 -316.87343155002247 0 0 0 0 3193.3189188105098 -301.91177438007941 0 -301.91177438007941 -468.32307600518686 0 0 0 0 3199.0323252434391 -135.72878123420605 0 -135.72878123420605 -447.2267247861642 0 0 0 0 2095.5438843575321 -68.262434026310871 0 -68.262434026310871 -16.242650776950427 0 0 0 0 2310.1354998763618 -652.17002312548152 0 -652.17002312548152 716.11528979690092 0 0 0 0 4403.7239430492536 -196.20168534866912 0 -196.20168534866912 -247.26237349440552 0 0 0 0 2964.4993866884288 -706.60929733082457 0 -706.60929733082457 265.9848504787941 0 0 0 0 3122.0183826158082 -736.45723171830139 0 -736.45723171830139 -376.31618083760975 0 0 0 0 2531.3596416773444 29.52677765365047 0 29.52677765365047 -133.4210516662431 0 0 0 0 2333.5273423197514 -945.47961336628305 0 -945.47961336628305 -651.51096889307723 0 0 0 0 3068.9632056094615 -706.14287493604229 0 -706.14287493604229 -405.64888611505495 0 0 0 0 2834.2497671549863 -397.88380013906794 0 -397.88380013906794 -542.73317782763434 0 0 0 0 3229.894832630006 -565.61513385182116 0 -565.61513385182116 -318.71061322541232 0 0 0 0 3213.8350559150431 -518.16848133076394 0 -518.16848133076394 -408.7728704062061 0 0 0 0 3499.6226481784324 -437.96427090977403 0 -437.96427090977403 -485.90344915993001 0 0 0 0 3500.0255500260901 -629.41454941196832 0 -629.41454941196832 -367.39129888869172 0 0 0 0 3176.3475666872528 -554.35593246109295 0 -554.35593246109295 40.455294535196977 0 0 0 0 2765.8297988879044 -595.12797869327528 0 -595.12797869327528 1005.8750952983319 0 0 0 0 3147.3938842631978 -540.28964481600792 0 -540.28964481600792 38.443744173309412 0 0 0 0 3499.4827874454959 -969.10606350819126 0 -969.10606350819126 555.45468677989845 0 0 0 0 2840.1534931185934 -1074.3908869581185 0 -1074.3908869581185 595.34219534103113 0 0 0 0 2839.3773770490552 -1123.3976118822097 0 -1123.3976118822097 1216.5308141092503 0 0 0 0 3499.6022795194449 -1365.5911865449802 0 -1365.5911865449802 661.57583038961229 0 0 0 0 2329.0108546230913 -961.23175456876891 0 -961.23175456876891 1521.3142651100466 0 0 0 0 2698.1691706256265 -1328.400725790571 0 -1328.400725790571 1060.0129246829233 0 0 0 0 2248.9397825849774 -1358.4747793324498 0 -1358.4747793324498 1088.1415260051294 0 0 0 0 2481.3353850404364 -1387.4316116666303 0 -1387.4316116666303 1080.2096912807635 0 0 0 0 3810.0085908897945 -1910.1086652209656 0 -1910.1086652209656 2118.1473583743755 0 0 0 0 2257.2586086417687 183.53476036043315 0 183.53476036043315 2316.4242518222372 0 0 0 0 2679.1947827283857 -318.66384237459204 0 -318.66384237459204 276.24390720057522 0 0 0 0 3126.9095947151218 -383.76633167427593 0 -383.76633167427593 -512.49775046664479 0 0 0 0 2618.7745225153458 -369.90833090242052 0 -369.90833090242052 287.07478032946472 0 0 0 0 2544.0503353679542 95.208904782906473 0 95.208904782906473 -980.54414470999347 0 0 0 0 1141.9448095420139 -1385.2691994285053 0 -1385.2691994285053 94.837990251827677 0 0 0 0 633.28848382793149 -58.51706847075593 0 -58.51706847075593 -1401.8315794614759 0 0 0 0 -525.65319706915034 -419.63659990318502 0 -419.63659990318502 786.11912771493166 0 0 0 0 269.84778532135294 -1464.8996818650708 0 -1464.8996818650708 1267.2565748178056 0 0 0 0 3036.3261299891724 -1775.9339334237161 0 -1775.9339334237161 1086.4947882356887 0 0 0 0 204.78440638083703 -668.17769405300487 0 -668.17769405300487 653.16836120625851 0 0 0 0 -803.79611865024708 -169.14588798227123 0 -169.14588798227123 1634.829000573146 0 0 0 0 17.346673680574483 -13.362651305335682 0 -13.362651305335682 12.738683686270786 0 0 0 0 15.2672678944582 -1558.7771682439479 0 -1558.7771682439479 2070.1789357393436 0 0 0 0 -642.40168496826482 -485.64307404616193 0 -485.64307404616193 818.20359661833027 0 0 0 0 42.317689055479015 -35.369041780777764 0 -35.369041780777764 26.79941271859672 0 0 0 0 -695.53445431753062 227.13294441905555 0 227.13294441905555 394.82906503207505 0 0 0 0 -369.36150855146116 -1195.4366228041854 0 -1195.4366228041854 -683.63139152970325 0 0 0 0 15.658847700538209 -0.49170321431931718 0 -0.49170321431931718 -1.9088055071222065 0 0 0 0 40.212497842501762 -443.39188273630407 0 -443.39188273630407 -619.03744784836999 0 0 0 0 2553.3014303129312 974.38983275776172 0 974.38983275776172 469.87139313326543 0 0 0 0 3615.373313061149 340.91114150319078 0 340.91114150319078 653.71368634479177 0 0 0 0 1845.1764764701293 -216.45670506051238 0 -216.45670506051238 711.93537473024298 0 0 0 0 2899.4260925988519 378.89948629156231 0 378.89948629156231 1031.7443166743915 0 0 0 0 453.82725023411058 -108.29297228031373 0 -108.29297228031373 120.50789743821406 0 0 0 0 504.84914150345139 -202.67946928236324 0 -202.67946928236324 -336.90896215610928 0 0 0 0 -38.920256614350365 -416.20792924289162 0 -416.20792924289162 -226.92138498568966 0 0 0 0 215.89977571995405 -516.61701239886952 0 -516.61701239886952 -250.5148277915132 0 0 0 0 -40.03022896058792 -209.34110217771286 0 -209.34110217771286 268.52790803610515 0 0 0 0 -748.22294324917311 -342.77600122493368 0 -342.77600122493368 -199.78859872092471 0 0 0 0 -262.86321601260715 -700.03716029768839 0 -700.03716029768839 745.80692587152771 0 0 0 0 503.18919646572613 -86.219437300333652 0 -86.219437300333652 458.30980014681154 0 0 0 0 600.61279454153555 -454.31954484167227 0 -454.31954484167227 358.58759702646375 0 0 0 0 716.59612705803738 -560.09212546614117 0 -560.09212546614117 641.69689313689105 0 0 0 0 487.43125064608466 -660.31740752149472 0 -660.31740752149472 1579.043978028524 0 0 0 0 249.69597758724194 -1267.1170114201827 0 -1267.1170114201827 1458.8459483485251 0 0 0 0 608.29591557764434 -270.47510908265622 0 -270.47510908265622 638.84174569403535 0 0 0 0 1189.7557765682322 -510.42616610001812 0 -510.42616610001812 208.68558131067334 0 0 0 0 3.4106669250945529 -6.6079996173873496 0 -6.6079996173873496 8.0456115888739763 0 0 0 0 498.08407139185147 -1101.4536897611767 0 -1101.4536897611767 1177.6238643376892 0 0 0 0 372.83559069244438 232.58297696117444 0 232.58297696117444 -792.80540661408895 0 0 0 0 401.50747966557537 -706.79204752605972 0 -706.79204752605972 -1024.0992693171097 0 0 0 0 152.94875433812558 -335.4456243640102 0 -335.4456243640102 -1496.5196482767769 0 0 0 0 33.212997430594868 -16.724651497379337 0 -16.724651497379337 -3.8731726854294077 0 0 0 0 1028.2567861186417 -392.26847705500955 0 -392.26847705500955 143.42910499588837 0 0 0 0 -6.5134443361269234 -14.553210923896486 0 -14.553210923896486 3.2292338192522738 0 0 0 0 1176.3915087663836 -173.2847748777528 0 -173.2847748777528 -12.618483391659424 0 0 0 0 31.749064892927223 -36.082301032109676 0 -36.082301032109676 24.394179023001907 0 0 0 0 -298.48645206960646 -993.88969737176467 0 -993.88969737176467 -1005.9728444968277 0 0 0 0 -348.13924445295561 -1700.1704118789794 0 -1700.1704118789794 623.95986124252647 0 0 0 0 -1371.813285290722 -1843.6189178347429 0 -1843.6189178347429 610.0479085008335 0 0 0 0 573.14092320409327 -684.00951558346037 0 -684.00951558346037 -1034.516103441551 0 0 0 0 12.610394563506176 -13.368327600917738 0 -13.368327600917738 12.72976237609495 0 0 0 0 981.58499660466623 -990.40734659812142 0 -990.40734659812142 428.40408579622243 0 0 0 0 720.23926357604614 -124.88854267968645 0 -124.88854267968645 118.61201753606593 0 0 0 0 265.09599960157539 -190.90517504097636 0 -190.90517504097636 -267.57832459285737 0 0 0 0 1669.9289556195436 -417.82609660655191 0 -417.82609660655191 -685.62182290385863 0 0 0 0 1277.7790907609451 -188.52453747582626 0 -188.52453747582626 -714.36995100356239 0 0 0 0 1230.3296853526117 64.95561412612048 0 64.95561412612048 -457.0249872060229 0 0 0 0 1170.6059755935894 -31.946390333063263 0 -31.946390333063263 -201.36089218413301 0 0 0 0 1111.2966326188471 -114.73512033020701 0 -114.73512033020701 -221.02701585209175 0 0 0 0 963.34736936437912 31.624610120999943 0 31.624610120999943 -57.369688977383525 0 0 0 0 0.022958727502582654 -0.14430133931233513 0 -0.14430133931233513 -0.26032654743050654 0 0 0 0 789.39015647132328 -101.52467033956719 0 -101.52467033956719 -120.94931963378679 0 0 0 0 913.75428230305624 -173.96182050475477 0 -173.96182050475477 -80.223665144048596 0 0 0 0 895.08425830371561 -230.90407206238865 0 -230.90407206238865 -236.69419728193367 0 0 0 0 348.62050514797011 -218.90395103652349 0 -218.90395103652349 126.1640721455019 0 0 0 0 5.343962157654409 -2.219479072433117 0 -2.219479072433117 -1.5969240754956884 0 0 0 0 653.19934786729573 -141.85153809614917 0 -141.85153809614917 -65.126639599364125 0 0 0 0 6.8091417424523337 -0.012577815132075898 0 -0.012577815132075898 2.8181871663143667 0 0 0 0 1114.0600248396004 -254.1417335875351 0 -254.1417335875351 67.755896057359223 0 0 0 0 698.9957210548464 -303.78756651608307 0 -303.78756651608307 247.16834339003594 0 0 0 0 1637.9186059263384 -703.22535570299772 0 -703.22535570299772 38.192420959511765 0 0 0 0 1213.4025308919554 -654.16092973002446 0 -654.16092973002446 120.67434585264868 0 0 0 0 1462.5825690813435 247.25377147311929 0 247.25377147311929 -2588.2868041823049 0 0 0 0 14.830348992542184 -4.9312051342910852 0 -4.9312051342910852 -4.1604482275006349 0 0 0 0 716.71432205032579 -1562.7530545835853 0 -1562.7530545835853 2008.0718146613601 0 0 0 0 1613.9565827979422 -1424.1092896458251 0 -1424.1092896458251 768.82464199688911 0 0 0 0 597.7972331460478 -355.38717769192135 0 -355.38717769192135 471.68571102591659 0 0 0 0 451.08089735226531 -352.44796122432126 0 -352.44796122432126 213.36097240916752 0 0 0 0 992.43742685179313 -349.49723051215642 0 -349.49723051215642 103.77064647266252 0 0 0 0 687.56284165765828 -508.60696576435748 0 -508.60696576435748 594.71374276906079 0 0 0 0 754.67761461094051 -129.10065492217836 0 -129.10065492217836 119.04858064197288 0 0 0 0 749.3577520434219 -105.52546966969356 0 -105.52546966969356 45.817633706924425 0 0 0 0 845.60911873684381 -103.88865942725602 0 -103.88865942725602 32.680359923785545 0 0 0 0 -2.3829291116271634 22.275783668319491 0 22.275783668319491 -282.45726929673719 0 0 0 0 11.709331013115403 4.5039977205506148 0 4.5039977205506148 -15.068863840120287 0 0 0 0 721.42826080552186 -2.4419093367341702 0 -2.4419093367341702 81.695868135709816 0 0 0 0 -35.507871906091168 222.65122242749021 0 222.65122242749021 -379.79772790352672 0 0 0 0 -11.300697121092526 154.77125614385386 0 154.77125614385386 -513.99777678989085 0 0 0 0 -115.48087518406101 306.8193066833328 0 306.8193066833328 -383.20266247742074 0 0 0 0 -28.714096407165925 101.06844779127823 0 101.06844779127823 -365.75255087474767 0 0 0 0 28.018930420581455 -61.813571354068358 0 -61.813571354068358 -48.771673793806258 0 0 0 0 -76.857815771874812 212.39981110889477 0 212.39981110889477 -84.309512766776606 0 0 0 0 -74.358832787213032 127.8530327220742 0 127.8530327220742 -175.10345274590782 0 0 0 0 93.54089696862502 49.40921565040162 0 49.40921565040162 -207.52577199390271 0 0 0 0 7.7102359670971055 -1.8092132342596869 0 -1.8092132342596869 31.847107722531973 0 0 0 0 -10.585125798550507 48.485715759895015 0 48.485715759895015 -24.039178311058095 0 0 0 0 13.322161606449214 7.3658810274678643 0 7.3658810274678643 -11.735342857644603 0 0 0 0 313.78598395940571 118.05987301337825 0 118.05987301337825 139.53647713961345 0 0 0 0 649.51189389022238 -172.57650545656367 0 -172.57650545656367 -132.75930535870521 0 0 0 0 191.15877206168807 -375.62094321090035 0 -375.62094321090035 299.86151331048814 0 0 0 0 13.586033809290313 7.0362063959686694 0 7.0362063959686694 -10.359504560491676 0 0 0 0 46.187147359472874 -23.589784119935871 0 -23.589784119935871 3.2270017366531647 0 0 0 0 73.769563554822525 75.081429352698706 0 75.081429352698706 174.27532864039517 0 0 0 0 191.0193553054778 36.083364474001883 0 36.083364474001883 -73.222222279016478 0 0 0 0 72.35182132825139 -4.6232399893026468 0 -4.6232399893026468 25.817101611323665 0 0 0 0 6.16427013638895 4.2470193689703137 0 4.2470193689703137 -40.671611462464398 0 0 0 0 2.7650278095788963 -15.271338556896218 0 -15.271338556896218 -6.8280081616533153 0 0 0 0 72.108889864714001 -16.104597364879282 0 -16.104597364879282 -92.80373704853784 0 0 0 0 33.636429957123255 43.316867165609665 0 43.316867165609665 -184.49430423822105 0 0 0 0 15.219245873486216 85.858218506588116 0 85.858218506588116 -205.54509851366856 0 0 0 0 19.747969936186564 76.492184740189714 0 76.492184740189714 -55.358914573513061 0 0 0 0 -0.031403431481627386 1.9647998036548699 0 1.9647998036548699 0.99887806698917991 0 0 0 0 79.303274846355635 -14.78644111032213 0 -14.78644111032213 -55.126252358072634 0 0 0 0 1.7778913964721141 172.96625644610049 0 172.96625644610049 -85.54695510489762 0 0 0 0 13.9526470478595 159.73347695646771 0 159.73347695646771 -408.31722517901107 0 0 0 0 -70.199744730969542 238.20218313604437 0 238.20218313604437 -292.50336492551401 0 0 0 0 41.023912254844618 127.00515111629647 0 127.00515111629647 -255.81163975748132 0 0 0 0 3.4129259359760908 199.50199509017784 0 199.50199509017784 -224.17258840407624 0 0 0 0 61.683669696443758 178.40159839702949 0 178.40159839702949 -370.73762006760535 0 0 0 0 -7.6632311474677408 278.91251001213368 0 278.91251001213368 -386.63186938964782 0 0 0 0 -6.1314398865724797 414.14131146347563 0 414.14131146347563 -597.7753596861221 0 0 0 0 2.7415161235155665 0.097714746717777246 0 0.097714746717777246 -1.8852155923349674 0 0 0 0 -473.17249736003578 46.609698324875353 0 46.609698324875353 -101.21924614207774 0 0 0 0 22.700334158595069 245.66045746075338 0 245.66045746075338 -442.51331103013035 0 0 0 0 207.17417649956042 309.78389118655014 0 309.78389118655014 -554.26716997113454 0 0 0 0 -200.62623092575086 269.98806174205083 0 269.98806174205083 -443.30779565838748 0 0 0 0 -72.415611502307002 148.31796042021506 0 148.31796042021506 -626.81886324977359 0 0 0 0 -79.694333471987193 240.77182884456897 0 240.77182884456897 -423.25011286178415 0 0 0 0 65.293840928657133 6.0740498205141513 0 6.0740498205141513 -4.9051427093952453 0 0 0 0 604.21856172644766 14.647753944043416 0 14.647753944043416 197.61596160656927 0 0 0 0 668.23011834469435 -605.86942104194782 0 -605.86942104194782 242.0255292641059 0 0 0 0 256.48913234886277 -469.66324423597962 0 -469.66324423597962 267.42372253668964 0 0 0 0 -137.15422444511205 -392.99970516178223 0 -392.99970516178223 548.6023744515237 0 0 0 0 632.94310551526723 76.080102657551834 0 76.080102657551834 -371.52924052149137 0 0 0 0 66.099739590831092 3.8050796271681318 0 3.8050796271681318 -5.9518674171708952 0 0 0 0 -162.19499822388752 -120.25123929369829 0 -120.25123929369829 269.10419821650845 0 0 0 0 15.86896441099816 -76.765160559301421 0 -76.765160559301421 144.69406541881682 0 0 0 0 30.900135168267298 -122.83961145281683 0 -122.83961145281683 -420.21450044888957 0 0 0 0 -243.126844966504 145.2128538782913 0 145.2128538782913 -356.17836691494176 0 0 0 0 310.01719538125326 121.09672622353446 0 121.09672622353446 -501.68094271118025 0 0 0 0 62.882333702364122 177.06087251618999 0 177.06087251618999 -379.75236446160125 0 0 0 0 8.5201468713494251 102.68854527268877 0 102.68854527268877 -474.73597725730497 0 0 0 0 3.4930075222027881 153.31130160189059 0 153.31130160189059 -427.31645567251871 0 0 0 0 -130.08937175575556 242.42529316050013 0 242.42529316050013 -506.25989220083466 0 0 0 0 -61.873717305817991 240.64208192539536 0 240.64208192539536 -565.91966623953385 0 0 0 0 -86.652879830144229 161.41177096422871 0 161.41177096422871 -404.70426176750971 0 0 0 0 -74.213744279339153 127.3791900641163 0 127.3791900641163 -434.20251197758421 0 0 0 0 -77.343219779766514 101.3244302713465 0 101.3244302713465 -370.08067160634369 0 0 0 0 6.8250268906558631 126.36689584185751 0 126.36689584185751 -391.25684185224782 0 0 0 0 20.754402965918416 50.365389355622028 0 50.365389355622028 -292.33113587615685 0 0 0 0 -43.585159201331408 -6.7959028178963194 0 -6.7959028178963194 -14.634513763176983 0 0 0 0 -16.978245402373432 -56.476990533864978 0 -56.476990533864978 -131.28807980672968 0 0 0 0 -0.42711977199362039 1.4378628054443965 0 1.4378628054443965 -0.98458210003789937 0 0 0 0 -22.251791123606381 -91.815593180574297 0 -91.815593180574297 -247.57627198060356 0 0 0 0 12.495534747569764 176.87270405004898 0 176.87270405004898 -187.96173799282411 0 0 0 0 0.32098406271052227 -20.479650359391051 0 -20.479650359391051 0.018360816990195872 0 0 0 0 97.517087158863433 -16.062027096804854 0 -16.062027096804854 -29.906866873587887 0 0 0 0 -0.58923106122529134 3.3343497850058927 0 3.3343497850058927 -5.5241371650224949 0 0 0 0 2.5715283451401518 1.7140315521056522 0 1.7140315521056522 -2.1882040438668096 0 0 0 0 12.834765767280089 2.0870721273638964 0 2.0870721273638964 -0.88207024862030581 0 0 0 0 2.6322379515621606 -6.5230221556991239 0 -6.5230221556991239 -2.6919398239893759 0 0 0 0 24.732184903070447 -5.4964631958102927 0 -5.4964631958102927 -42.98959646436856 0 0 0 0 1.8269779071763423 -2.0832436912698107 0 -2.0832436912698107 -1.6862609826969115 0 0 0 0 -29.375187428551726 -3.9705053357629367 0 -3.9705053357629367 14.425281415649806 0 0 0 0 15.081822844833368 -7.5619508592992588 0 -7.5619508592992588 5.4454781572153479 0 0 0 0 -7.052576759524527 -10.744536125533386 0 -10.744536125533386 14.583246429517885 0 0 0 0 -6.7350198003405239 -14.095606579870719 0 -14.095606579870719 -0.051743152108883805 0 0 0 0 -28.278487454983406 7.8442881083224165 0 7.8442881083224165 -15.200137927188734 0 0 0 0 -2.6045925140788313 -6.6284014540243561 0 -6.6284014540243561 -7.7369191573695844 0 0 0 0 -9.5772245249245316 7.4704307755285839 0 7.4704307755285839 -5.3126774662328451 0 0 0 0 -26.19296285189921 -8.7696462095129419 0 -8.7696462095129419 11.732021919332595 0 0 0 0 7.5398779368551914 -4.7628976000654575 0 -4.7628976000654575 1.1200991989378508 0 0 0 0 -5.9873353136645164 -0.20131427956246739 0 -0.20131427956246739 5.7276581237023265 0 0 0 0 -2.4851023104620253 -5.286850708153608 0 -5.286850708153608 7.2985758219906529 0 0 0 0 7.1236001420156754 -13.153899651096712 0 -13.153899651096712 10.372237290601333 0 0 0 0 3.5012209568812978 0.38277495574504883 0 0.38277495574504883 0.049251011604724226 0 0 0 0 -12.974051472352585 14.047864901847845 0 14.047864901847845 -12.382132296764581 0 0 0 0 -6.7853601504175458 -3.3409454408868555 0 -3.3409454408868555 1.2904098925200742 0 0 0 0 -4.931891290434578 1.7066620340148049 0 1.7066620340148049 1.8018505997388559 0 0 0 0 -13.770330833998742 6.9282335636570451 0 6.9282335636570451 1.5117767468830863 0 0 0 0 -5.9359913431180757 9.1264807000385986 0 9.1264807000385986 -8.959631350194968 0 0 0 0 -32.081864587926248 1.3003143386960119 0 1.3003143386960119 0.47091060848856614 0 0 0 0 20.923402292391984 -6.4518648759530919 0 -6.4518648759530919 -6.9560049656829008 0 0 0 0 -10.41198135839295 -29.033444761760109 0 -29.033444761760109 -22.73344681367621 0 0 0 0 32.20457993173477 -41.134826399572205 0 -41.134826399572205 -11.327180199546774 0 0 0 0 67.549581299310375 -22.396389861544861 0 -22.396389861544861 -11.530982589414236 0 0 0 0 -0.84059435977542307 -18.554274604138403 0 -18.554274604138403 5.2764566202540877 0 0 0 0 150.60747860339916 -21.972384978199756 0 -21.972384978199756 -23.036953998343506 0 0 0 0 66.831596882628219 -28.555671114091638 0 -28.555671114091638 23.020640075071128 0 0 0 0 93.547303239756729 -50.165265664911885 0 -50.165265664911885 1.4435678882213097 0 0 0 0 42.825940795770748 -5.8061255891204873 0 -5.8061255891204873 -6.1050530054241108 0 0 0 0 13.375312191062449 8.2822955556604683 0 8.2822955556604683 -7.2411809665470717 0 0 0 0 92.12278954818612 -22.483077336212887 0 -22.483077336212887 -6.7830274714156076 0 0 0 0 37.982841982775426 -7.3729539357737508 0 -7.3729539357737508 6.3012123369151141 0 0 0 0 30.508247692632722 -16.347121164593318 0 -16.347121164593318 0.77934847381811778 0 0 0 0 53.42885999615828 -39.280230708287831 0 -39.280230708287831 6.9101520496566309 0 0 0 0 49.880558552744333 -28.802526900517023 0 -28.802526900517023 2.5750743247367609 0 0 0 0 24.410101549961837 -18.348970031354384 0 -18.348970031354384 17.027528705769782 0 0 0 0 25.685212432275875 -19.108604538154395 0 -19.108604538154395 5.5732156138997198 0 0 0 0 10.438639734902381 6.0292418456987207 0 6.0292418456987207 -10.702055646055424 0 0 0 0 29.162694911261497 -19.746162850787869 0 -19.746162850787869 27.671056425688676 0 0 0 0 70.580315964267356 -54.997646188818862 0 -54.997646188818862 16.346257289390337 0 0 0 0 75.448685632252818 -35.72729161876066 0 -35.72729161876066 -11.559980924613228 0 0 0 0 56.092691695997928 -13.122336994821239 0 -13.122336994821239 41.813568223690709 0 0 0 0 33.732345044241811 -9.9690267590161739 0 -9.9690267590161739 -5.3748948601837334 0 0 0 0 56.988514278236835 -52.781367352220258 0 -52.781367352220258 25.774549344437318 0 0 0 0 13.540186490410179 -19.092676952904743 0 -19.092676952904743 0.73946129947643158 0 0 0 0 87.240489547562902 4.1600106675830091 0 4.1600106675830091 -45.181596218582008 0 0 0 0 28.496041201571643 18.730447415024294 0 18.730447415024294 -23.081613630915996 0 0 0 0 2.0641185550412047 -30.193742281946129 0 -30.193742281946129 10.35566350216277 0 0 0 0 34.904167712578783 1.578375663264751 0 1.578375663264751 19.172722923942274 0 0 0 0 1.138932646373874 -6.8686406185827877 0 -6.8686406185827877 1.3260129371362215 0 0 0 0 -18.942789093169267 -22.680143419087472 0 -22.680143419087472 19.309446637599194 0 0 0 0 11.826044064859161 -10.161046800477266 0 -10.161046800477266 -21.566406424954948 0 0 0 0 19.744210040498729 -30.049762163454716 0 -30.049762163454716 -3.5926727346723055 0 0 0 0 10.124345800286392 6.8051986985509529 0 6.8051986985509529 -6.784556267485641 0 0 0 0 32.132422028771543 -17.01380877237375 0 -17.01380877237375 -1.9185796524245688 0 0 0 0 67.548527161270613 -62.11449802236433 0 -62.11449802236433 -8.3654016834960601 0 0 0 0 10.433434971411771 -41.658271157806155 0 -41.658271157806155 -14.756702662331605 0 0 0 0 6.9664812844242938 -15.216567072615192 0 -15.216567072615192 -4.1655590185812859 0 0 0 0 70.562869885889086 -9.3379410995426042 0 -9.3379410995426042 -25.146641830385306 0 0 0 0 22.057408742013578 9.2289448876195621 0 9.2289448876195621 -9.6822700421638555 0 0 0 0 -4.2619047729094746 57.606321468759234 0 57.606321468759234 10.897195623434413 0 0 0 0 -33.224095803576347 -24.686979521871308 0 -24.686979521871308 32.110807634992852 0 0 0 0 32.755361499689798 -12.486255307788213 0 -12.486255307788213 -9.789562768020005 0 0 0 0 7.2167633849802932 -9.6001863176101239 0 -9.6001863176101239 4.1075363455565554 0 0 0 0 57.446207816014066 -38.722227400503925 0 -38.722227400503925 2.6797004269992613 0 0 0 0 -7.3516167686029803 25.928314226678978 0 25.928314226678978 42.930808987595924 0 0 0 0 13.463740798321027 1.8075380241155727 0 1.8075380241155727 -13.913318631906028 0 0 0 0 12.25072356806777 -29.909915177060267 0 -29.909915177060267 12.675677012268707 0 0 0 0 124.48709447233705 42.934785085639618 0 42.934785085639618 46.376321406724628 0 0 0 0 157.66188160575985 -83.139627306734269 0 -83.139627306734269 4.7043402954422788 0 0 0 0 456.65563991481758 123.5816338908046 0 123.5816338908046 69.870841306211673 0 0 0 0 89.848716383183273 -26.88284626667491 0 -26.88284626667491 113.85072780282019 0 0 0 0 100.20625174447014 -37.521352703551678 0 -37.521352703551678 39.890190800928337 0 0 0 0 13.691142931536888 -19.055865725482448 0 -19.055865725482448 113.66263027527023 0 0 0 0 33.759756620420376 -112.29939656902428 0 -112.29939656902428 -79.317858773776095 0 0 0 0 -82.616347174829571 -47.998417323735907 0 -47.998417323735907 54.29895267675559 0 0 0 0 111.22860317601589 28.770760816933262 0 28.770760816933262 -69.938813500000094 0 0 0 0 75.653235510824743 -48.678125277231374 0 -48.678125277231374 95.340974135221131 0 0 0 0 98.523892717632407 -22.115352438329154 0 -22.115352438329154 -157.33407023413156 0 0 0 0 107.92611839638266 -159.6524204052003 0 -159.6524204052003 -166.89925856440567 0 0 0 0 139.74512225110811 -95.842425412132968 0 -95.842425412132968 -169.61365035800014 0 0 0 0 5.9868578637037047 -7.2287263606160757 0 -7.2287263606160757 -0.78243758247693596 0 0 0 0 47.567427905424182 5.0351137003417534 0 5.0351137003417534 -3.2924674738828079 0 0 0 0 -50.86166441078467 52.836909719913422 0 52.836909719913422 -137.40443129911387 0 0 0 0 541.50234678515699 33.455248466484363 0 33.455248466484363 -281.51228617391007 0 0 0 0 -119.80168521517771 -119.74789611077111 0 -119.74789611077111 -60.025881594869901 0 0 0 0 83.480907221528469 -25.500566400616485 0 -25.500566400616485 -126.90899826616318 0 0 0 0 91.885468741951627 -1.2435629493725173 0 -1.2435629493725173 0.16274136052913946 0 0 0 0 14.664373463481651 0.0078720475140414692 0 0.0078720475140414692 -2.0171661653266773 0 0 0 0 67.344185289730376 23.643131671443484 0 23.643131671443484 -23.96902248407207 0 0 0 0 130.69323820905993 7.5659746985797938 0 7.5659746985797938 -47.646809967326135 0 0 0 0 67.949628981376009 1.5629034550313463 0 1.5629034550313463 -6.0942937993722808 0 0 0 0 60.490520075945824 8.2950442978697083 0 8.2950442978697083 -12.154920829733783 0 0 0 0 18.627024641756627 -9.5134451749890161 0 -9.5134451749890161 -11.048651880083174 0 0 0 0 61.340795756681473 -2.6990629000351873 0 -2.6990629000351873 -4.098165612581397 0 0 0 0 79.110328850008955 -16.030394603931967 0 -16.030394603931967 4.0536810726548538 0 0 0 0 17.002109679884398 13.304465772606719 0 13.304465772606719 -5.5589043357722225 0 0 0 0 62.905807105584245 -6.5616980349709593 0 -6.5616980349709593 2.1118324328454037 0 0 0 0 48.411100945813814 0.78272970711213929 0 0.78272970711213929 1.42061896019095 0 0 0 0 -139.02036887966096 39.097276790962496 0 39.097276790962496 -256.18339524373641 0 0 0 0 60.460302472834513 1.4021808966359828 0 1.4021808966359828 -1.9876695546591456 0 0 0 0 257.81722573304432 113.45297268029299 0 113.45297268029299 -551.24602381857812 0 0 0 0 221.15473637255491 -80.339519024487345 0 -80.339519024487345 -220.91601618085224 0 0 0 0 438.15354178311293 -415.3025631898895 0 -415.3025631898895 -330.49142327074878 0 0 0 0 438.55164291433175 -329.85644181851967 0 -329.85644181851967 -450.98367148051784 0 0 0 0 9.8861884755230349 0.42503651173370827 0 0.42503651173370827 -0.55205408480370721 0 0 0 0 -244.56113130180165 573.41126126153904 0 573.41126126153904 -1077.9432817802081 0 0 0 0 8.1364108277921332 -47.045457371174052 0 -47.045457371174052 -575.66552632634011 0 0 0 0 249.9325380733062 -215.75780751125512 0 -215.75780751125512 -70.989239281294772 0 0 0 0 -107.16854877347942 201.15306437279833 0 201.15306437279833 -32.786264542837671 0 0 0 0 319.35240660095587 -175.80087456955107 0 -175.80087456955107 -114.98994003034022 0 0 0 0 94.061763593752403 -131.7210471747253 0 -131.7210471747253 -39.939889396409853 0 0 0 0 257.40209139014041 -94.889750733235246 0 -94.889750733235246 -41.203349300366426 0 0 0 0 293.24496449579601 -167.29388932168422 0 -167.29388932168422 -115.06342033013061 0 0 0 0 299.50702958548209 97.113483121217087 0 97.113483121217087 -248.64882691458251 0 0 0 0 26.476248413899157 14.671968966523082 0 14.671968966523082 77.889369737958987 0 0 0 0 328.06929697423766 247.82211014361792 0 247.82211014361792 202.9119998692463 0 0 0 0 133.7510796342176 -173.09755201430289 0 -173.09755201430289 412.48570332507506 0 0 0 0 522.30328860464215 -177.69104431855203 0 -177.69104431855203 -17.376700313560832 0 0 0 0 173.79108117068063 20.738652251874271 0 20.738652251874271 24.55301167534617 0 0 0 0 480.45972364774934 221.41338687170719 0 221.41338687170719 147.81675459201915 0 0 0 0 436.04442361900146 -130.79728219626986 0 -130.79728219626986 56.476475938187832 0 0 0 0 2.5897159003928039 3.5941740596018406 0 3.5941740596018406 4.2886234530272596 0 0 0 0 1088.3793867718341 281.03803872135495 0 281.03803872135495 -113.70975222816105 0 0 0 0 173.53433848785062 25.868764619282956 0 25.868764619282956 -69.645129396081302 0 0 0 0 69.866057737293886 -19.95250926380595 0 -19.95250926380595 -70.798555916903751 0 0 0 0 -158.70048566385231 -4.2331925786454576 0 -4.2331925786454576 208.64731952528837 0 0 0 0 65.044378458449501 -24.255367188024138 0 -24.255367188024138 94.953808343470882 0 0 0 0 1509.4274051595967 397.44438287946218 0 397.44438287946218 -416.70832887654888 0 0 0 0 2.0256539564711815 -18.267347883254999 0 -18.267347883254999 8.7446598864340608 0 0 0 0 611.26694699509608 148.56089023784705 0 148.56089023784705 349.07451105864129 0 0 0 0 1.5307012589905042 -0.87852107853740335 0 -0.87852107853740335 -2.7835990621848588 0 0 0 0 524.73468822041468 -368.28586130722493 0 -368.28586130722493 157.07064745220305 0 0 0 0 12.15313194199431 -18.095527206026048 0 -18.095527206026048 -4.4319551192890732 0 0 0 0 -61.054538144286198 -99.943756410935293 0 -99.943756410935293 -12.769467616946713 0 0 0 0 159.93932961270912 -217.20109979747485 0 -217.20109979747485 57.346901212495368 0 0 0 0 19.904390500945738 -170.04941380480795 0 -170.04941380480795 4.7319284331128983 0 0 0 0 75.787854636051634 -99.478311741429934 0 -99.478311741429934 -39.995263087590502 0 0 0 0 84.954423150193179 -124.36614396952245 0 -124.36614396952245 -41.122824816911532 0 0 0 0 279.752502939431 -88.397311449174595 0 -88.397311449174595 -220.59353771307724 0 0 0 0 13.701930925823575 -10.770323542006565 0 -10.770323542006565 -5.8686945792339618 0 0 0 0 92.187599753041525 10.98586688708124 0 10.98586688708124 -5.7123498882429828 0 0 0 0 219.90079403558047 -339.47522488238246 0 -339.47522488238246 67.324936979195627 0 0 0 0 101.56045584056119 -21.19187088052513 0 -21.19187088052513 -187.04114900718605 0 0 0 0 232.55300230983994 -69.369368977621434 0 -69.369368977621434 -170.08914506972724 0 0 0 0 2.8444006324425573 -34.097645971147813 0 -34.097645971147813 -109.69917053444806 0 0 0 0 -34.415162034674722 75.545827967327455 0 75.545827967327455 75.336706713938838 0 0 0 0 53.758480090449112 -28.197024786027143 0 -28.197024786027143 -16.704720754184933 0 0 0 0 202.256565800315 -31.788048012039326 0 -31.788048012039326 38.597524911778009 0 0 0 0 163.10237704304745 -90.38973579853382 0 -90.38973579853382 61.310958245013353 0 0 0 0 205.83419476469862 -139.72977535730797 0 -139.72977535730797 -170.2621794969109 0 0 0 0 168.41577422864793 21.139161214890464 0 21.139161214890464 266.07952419379728 0 0 0 0 267.13439484467381 -332.07685674077766 0 -332.07685674077766 378.68269430949294 0 0 0 0 2027.9857677607943 -724.61983803080557 0 -724.61983803080557 35.885400000605387 0 0 0 0 369.75233691962785 -638.92995005570538 0 -638.92995005570538 673.25349685896106 0 0 0 0 654.4370838961986 -316.76122074672412 0 -316.76122074672412 138.25243138202313 0 0 0 0 1481.6192713705968 -692.62567387323816 0 -692.62567387323816 -146.69756298945322 0 0 0 0 -460.30836780736718 -815.22585294926375 0 -815.22585294926375 68.941291331450657 0 0 0 0 497.09179805552412 -470.17811259940208 0 -470.17811259940208 -387.33613136525037 0 0 0 0 528.83878242969513 -593.14282570947626 0 -593.14282570947626 -36.495882913893183 0 0 0 0 167.34071271785069 -91.984602568470109 0 -91.984602568470109 -115.0839490513772 0 0 0 0 1462.9641311079904 -141.82280518249809 0 -141.82280518249809 -374.96793037401085 0 0 0 0 904.83764904503187 -189.20909710561546 0 -189.20909710561546 -231.88079678558552 0 0 0 0 4.9320436095688507 -3.3808983805942603 0 -3.3808983805942603 -9.8727018436640819 0 0 0 0 2144.5334854951179 294.31762400769605 0 294.31762400769605 -1014.7290944427973 0 0 0 0 2328.8413009901487 -175.71209458377666 0 -175.71209458377666 -661.83899713333267 0 0 0 0 1841.5492690776009 79.001712867185233 0 79.001712867185233 -727.55469314546679 0 0 0 0 1628.70560657038 -370.3434921074321 0 -370.3434921074321 -279.92382925091079 0 0 0 0 15.671486865542278 5.5595431359903671 0 5.5595431359903671 -2.424169316771156 0 0 0 0 3743.2473383855977 -1615.3782972067224 0 -1615.3782972067224 365.83911943134081 0 0 0 0 3451.1263331543087 -395.36711603488857 0 -395.36711603488857 -343.62448556695426 0 0 0 0 1994.1808029131098 -21.485260932110805 0 -21.485260932110805 -231.98147013696325 0 0 0 0 2869.5379905268346 -420.62040919515425 0 -420.62040919515425 100.71159002477793 0 0 0 0 2188.3143023717357 -149.50639312677541 0 -149.50639312677541 51.713716266551273 0 0 0 0 2195.3911855083934 -1018.2968857878211 0 -1018.2968857878211 312.74478046227387 0 0 0 0 1838.7232878417344 -567.41211876842863 0 -567.41211876842863 1001.9567402033151 0 0 0 0 2202.7459448215668 -794.5866244664885 0 -794.5866244664885 359.56082759996713 0 0 0 0 2444.8744366128376 553.38752102426656 0 553.38752102426656 -298.76903133525002 0 0 0 0 3197.274944216726 -149.56394148072138 0 -149.56394148072138 226.96120189230624 0 0 0 0 2183.6418219842599 -1175.0714910554568 0 -1175.0714910554568 829.44722617498564 0 0 0 0 18.868489085550863 4.1955145795744002 0 4.1955145795744002 1.5210501883941154 0 0 0 0 -336.99221044036312 -142.79442394906087 0 -142.79442394906087 145.45093261564318 0 0 0 0 366.08547939383425 -668.49273146708515 0 -668.49273146708515 -549.96552796852632 0 0 0 0 455.49134472428705 -83.393092841971182 0 -83.393092841971182 -190.49240634488572 0 0 0 0 98.228663981128193 114.89301801450557 0 114.89301801450557 297.59523875427288 0 0 0 0 167.81655497640895 -169.10576108097416 0 -169.10576108097416 -96.520165140507856 0 0 0 0 591.74417531140352 655.60050632150467 0 655.60050632150467 65.155928240729281 0 0 0 0 1052.6711661461541 50.350572957684513 0 50.350572957684513 68.408650489057777 0 0 0 0 1060.1966378883681 87.295016007480456 0 87.295016007480456 -61.397820595120379 0 0 0 0 363.77725328276574 5.698291032555062 0 5.698291032555062 30.99407674477402 0 0 0 0 492.85766826567851 367.26648581321274 0 367.26648581321274 193.74899105821214 0 0 0 0 522.76700970388902 -47.804112859468304 0 -47.804112859468304 -11.445811581272139 0 0 0 0 1014.4046870503803 166.49251192441096 0 166.49251192441096 40.978580187123043 0 0 0 0 1018.7525471594417 202.66504458309998 0 202.66504458309998 -39.816442000371993 0 0 0 0 1635.4389912471961 -95.152588034514451 0 -95.152588034514451 -202.88480734576859 0 0 0 0 1652.7977824599002 -745.52918819514321 0 -745.52918819514321 176.28374833242646 0 0 0 0 1477.7985166218841 -180.55008809575372 0 -180.55008809575372 -105.8404508675801 0 0 0 0 1664.7363460501001 -1007.1722648703345 0 -1007.1722648703345 289.59457395404843 0 0 0 0 1779.3244278784123 -452.42447324311166 0 -452.42447324311166 -26.684498222495449 0 0 0 0 674.50529642830952 -292.92303776863673 0 -292.92303776863673 184.33211905231622 0 0 0 0 1648.8680213651387 -594.0594705725432 0 -594.0594705725432 437.84708870613179 0 0 0 0 1753.9861247660519 -866.93477207573778 0 -866.93477207573778 95.288468799899647 0 0 0 0 1415.2372921354181 -550.7667390156322 0 -550.7667390156322 17.587511831997574 0 0 0 0 1271.8431134159582 -986.75242553169551 0 -986.75242553169551 407.77168660126773 0 0 0 0 2004.8084746224558 -1247.2924112015128 0 -1247.2924112015128 302.14669050377523 0 0 0 0 0.6341418135837209 -3.1211611839339071 0 -3.1211611839339071 10.765276942583984 0 0 0 0 2858.1182680011152 -838.46865050459019 0 -838.46865050459019 -95.479210720818855 0 0 0 0 -1549.2390022054642 -771.25138182644878 0 -771.25138182644878 9.6045911908013295 0 0 0 0 1212.7717572307374 -1499.9096245212984 0 -1499.9096245212984 -827.56351773481128 0 0 0 0 277.01084267677152 -536.10011882872755 0 -536.10011882872755 -1674.3359671538146 0 0 0 0 -148.96216320802887 319.20304678354182 0 319.20304678354182 -628.14034088118751 0 0 0 0 8.0660171205915248 -3.0125719606570911 0 -3.0125719606570911 -4.417140669980423 0 0 0 0 7.2177916119944996 -9.0314118040151925 0 -9.0314118040151925 -8.3390857655410535 0 0 0 0 -211.44883585199568 -18.597238896974886 0 -18.597238896974886 -24.031381827145424 0 0 0 0 -138.72409157269794 -259.09688954704779 0 -259.09688954704779 -197.27956026062475 0 0 0 0 294.51143064362805 -378.38739170190797 0 -378.38739170190797 -257.46097143220686 0 0 0 0 75.888667912877281 -20.57057354187782 0 -20.57057354187782 -10.026046423823573 0 0 0 0 418.14439795312774 -429.64358963030458 0 -429.64358963030458 442.3454158538002 0 0 0 0 6.2929858665798797 -11.765883218687847 0 -11.765883218687847 27.929104699460254 0 0 0 0 33.788527096898264 0.22366153979474035 0 0.22366153979474035 -11.637017879019602 0 0 0 0 61.247935522362241 -13.762138230647452 0 -13.762138230647452 2.2761218695759453 0 0 0 0 28.713404113611915 -28.03361077581868 0 -28.03361077581868 3.5498170384531491 0 0 0 0 -41.817387196861091 -24.873951218352886 0 -24.873951218352886 -24.649135383367138 0 0 0 0 61.253080048284545 -10.57679641755638 0 -10.57679641755638 10.576148328240379 0 0 0 0 -83.524813969990646 -70.20864232315671 0 -70.20864232315671 36.555477481719208 0 0 0 0 55.528156636712083 -14.871150514763713 0 -14.871150514763713 20.466596511373609 0 0 0 0 47.603467989600176 -23.154748396762329 0 -23.154748396762329 22.630779414951576 0 0 0 0 49.285267679275421 -12.34026335700014 0 -12.34026335700014 -0.5781773931769294 0 0 0 0 54.891345125710359 -23.156107622715808 0 -23.156107622715808 11.703829848904661 0 0 0 0 21.590108932464435 -16.19274589037289 0 -16.19274589037289 1.8788656982558294 0 0 0 0 29.047455921553123 -3.8335959361364118 0 -3.8335959361364118 5.4494865713137557 0 0 0 0 54.185587249419768 -20.339045805994374 0 -20.339045805994374 6.4265891894228844 0 0 0 0 38.1291024667633 -15.668415720440862 0 -15.668415720440862 -4.020676514893581 0 0 0 0 1732.754921117521 -523.40232787126183 0 -523.40232787126183 1.6364082911154583 0 0 0 0 11.019993929196602 0.32904436550629867 0 0.32904436550629867 3.4651926839922371 0 0 0 0 -20.193466160475509 412.8789496702334 0 412.8789496702334 -98.892456910452893 0 0 0 0 1487.7847671353484 -1047.7292744343922 0 -1047.7292744343922 419.38065433719134 0 0 0 0 579.18769446243823 -274.33152975570215 0 -274.33152975570215 -21.639441066777835 0 0 0 0 431.57041311018202 -885.57179808571641 0 -885.57179808571641 858.36637886989183 0 0 0 0 65.246418676243593 -258.01083009301658 0 -258.01083009301658 652.44597742254064 0 0 0 0 1831.234853395199 -807.04065768339626 0 -807.04065768339626 625.61373009544081 0 0 0 0 1564.6246869078168 -876.11144588094203 0 -876.11144588094203 660.57681394679821 0 0 0 0 1199.7401420950264 -385.29135841788252 0 -385.29135841788252 587.1037456009858 0 0 0 0 1339.5976400475774 -44.78211070973498 0 -44.78211070973498 105.50345761750151 0 0 0 0 20.882812110823579 -294.0648297490286 0 -294.0648297490286 -597.97937377767073 0 0 0 0 36.186680578277446 -4.2031631391364499 0 -4.2031631391364499 -432.18608410744491 0 0 0 0 36.93253406750263 13.024516528270723 0 13.024516528270723 -1.3870268970134436 0 0 0 0 78.238580422012092 170.8863455127059 0 170.8863455127059 -25.951482075690819 0 0 0 0 -13.116944366747703 -181.73976712932819 0 -181.73976712932819 -160.29084757418514 0 0 0 0 414.35961985761242 124.29376752317603 0 124.29376752317603 -954.23562964414737 0 0 0 0 488.97691734721593 -10.594829153730643 0 -10.594829153730643 -1210.7801020399138 0 0 0 0 -143.45866020725953 931.78859106271227 0 931.78859106271227 -1164.3118788569993 0 0 0 0 938.15441425416793 826.39557627073862 0 826.39557627073862 -1192.9398606649677 0 0 0 0 991.78863375639048 -81.362302224918267 0 -81.362302224918267 -1255.8791921130598 0 0 0 0 494.86250526684307 20.701602831172863 0 20.701602831172863 -653.91944170504485 0 0 0 0 966.36914036708913 22.755274308490584 0 22.755274308490584 -434.64425695138652 0 0 0 0 981.58965179034567 114.1176897123114 0 114.1176897123114 -673.24437137600512 0 0 0 0 1310.9035397437983 600.36774286702348 0 600.36774286702348 -740.64774665834352 0 0 0 0 -37.035544393918826 -741.01709469443256 0 -741.01709469443256 -413.0883369949488 0 0 0 0 267.17759854596807 -823.71321853819268 0 -823.71321853819268 -813.58027536157329 0 0 0 0 688.42792479379568 -873.44895988200369 0 -873.44895988200369 -428.25218268430081 0 0 0 0 47.281983197841328 -349.25637320724354 0 -349.25637320724354 -592.57817206238667 0 0 0 0 806.45227324137522 -390.56326137712244 0 -390.56326137712244 -590.38093208395344 0 0 0 0 530.43914544301515 -84.88997962423025 0 -84.88997962423025 -390.34336056213215 0 0 0 0 683.40052154863952 -217.57639181666525 0 -217.57639181666525 -1056.1991626940439 0 0 0 0 -256.58198145062488 14.448743752377339 0 14.448743752377339 -1098.1852008648307 0 0 0 0 -190.55572707974352 -773.17941102063912 0 -773.17941102063912 -1145.2398146705152 0 0 0 0 199.04400467361847 -676.58236360468652 0 -676.58236360468652 -1721.664203397765 0 0 0 0 407.80041133714258 -380.87536467111727 0 -380.87536467111727 -1023.1381266427122 0 0 0 0 229.38420638289244 -642.17156358891214 0 -642.17156358891214 -1243.5928739914525 0 0 0 0 47.418088567610539 -747.00502991958126 0 -747.00502991958126 -1223.3526417323619 0 0 0 0 138.42947115291099 -681.25275615855946 0 -681.25275615855946 -1703.3439564966552 0 0 0 0 121.87863672976891 -636.50157359864693 0 -636.50157359864693 -1734.079256895368 0 0 0 0 -272.14905823779554 -644.20907555117492 0 -644.20907555117492 -888.21642462348314 0 0 0 0 532.27220561304784 -196.59020748854346 0 -196.59020748854346 -1716.1707456456825 0 0 0 0 12.999671484699761 0.095218851426793094 0 0.095218851426793094 -11.936642025816418 0 0 0 0 -40.944687999566668 194.10271342829969 0 194.10271342829969 -382.5699625296852 0 0 0 0 47.825271272938608 -16.604804277789405 0 -16.604804277789405 -0.35287919272406043 0 0 0 0 41.457017100711624 -29.589125396129205 0 -29.589125396129205 9.1997014656849245 0 0 0 0 50.901705538723036 -33.995317370171733 0 -33.995317370171733 7.4649049121735516 0 0 0 0 53.00901387972408 -26.307585501829408 0 -26.307585501829408 6.7155663167991406 0 0 0 0 59.808028394494613 -24.562164959851543 0 -24.562164959851543 4.9307156891404702 0 0 0 0 35.109723527744293 -36.295414017520457 0 -36.295414017520457 15.826625602817055 0 0 0 0 135.59874100649449 -119.90230015989187 0 -119.90230015989187 3.3964753190475676 0 0 0 0 2890.0174455554188 126.57394054203755 0 126.57394054203755 161.49973382201537 0 0 0 0 3569.9909423906938 -320.38159854806537 0 -320.38159854806537 -68.369300621627531 0 0 0 0 17.864564640790746 15.675057668348323 0 15.675057668348323 -27.626294099575375 0 0 0 0 17.317842748724658 -5.6971739121277096 0 -5.6971739121277096 -2.806585124858147 0 0 0 0 5675.0318501988731 258.98771829642067 0 258.98771829642067 -149.95264160330299 0 0 0 0 -194.42505033907946 -278.6592804210735 0 -278.6592804210735 -252.71315658933349 0 0 0 0 4680.8542361683503 -489.96353179286791 0 -489.96353179286791 24.325563727404983 0 0 0 0 3800.2133515640935 -409.77514749370755 0 -409.77514749370755 18.336456131705916 0 0 0 0 4283.4505011575184 448.6355689997178 0 448.6355689997178 -21.650892847720684 0 0 0 0 3952.4062387641015 477.48097641308834 0 477.48097641308834 -7.93081767217177 0 0 0 0 52.193035687276279 -42.455229024310825 0 -42.455229024310825 1.6907535289679601 0 0 0 0 -170.20360224167234 251.68524226630848 0 251.68524226630848 -223.17242936517687 0 0 0 0 15.827055321680884 -5.4414770459766117 0 -5.4414770459766117 -0.68828407329707197 0 0 0 0 32.940067506324866 -18.545790433089032 0 -18.545790433089032 3.3672837243996132 0 0 0 0 -166.96919275125401 -404.62105507438287 0 -404.62105507438287 -1768.5957491151096 0 0 0 0 -1315.8936920629058 -821.73058526375871 0 -821.73058526375871 -765.07122864582959 0 0 0 0 -648.37894226622302 -2642.5082879964589 0 -2642.5082879964589 -808.29700580859662 0 0 0 0 -256.45109353098087 753.90017372620503 0 753.90017372620503 972.00546657897007 0 0 0 0 1916.7755645260477 -1332.1912630572317 0 -1332.1912630572317 -178.99224624378439 0 0 0 0 5066.796028055307 -1035.0251094111286 0 -1035.0251094111286 415.84653555020645 0 0 0 0 4157.5830345737559 -772.57781671486009 0 -772.57781671486009 694.74309402991207 0 0 0 0 5810.205038814629 -1127.2267394393743 0 -1127.2267394393743 349.39105887917981 0 0 0 0 11.856458800134504 -7.6993863595699352 0 -7.6993863595699352 2.3670739311788012 0 0 0 0 3452.9963705616392 574.64293236071308 0 574.64293236071308 494.68607739294646 0 0 0 0 5792.5139172594354 -1250.4442796448375 0 -1250.4442796448375 -488.11129463083194 0 0 0 0 1617.6891137036 -2752.1868981081902 0 -2752.1868981081902 -820.72797713719842 0 0 0 0 4023.6312452679704 -1285.8374784064931 0 -1285.8374784064931 538.06803572486683 0 0 0 0 3605.6867897073134 -701.36930583250194 0 -701.36930583250194 82.26635512819405 0 0 0 0 1880.5295808334777 -1845.1995195243096 0 -1845.1995195243096 -542.9817469558966 0 0 0 0 4135.1825691065897 -1748.4574587683267 0 -1748.4574587683267 -951.47686735362208 0 0 0 0 1098.629819409136 -1781.5043679126065 0 -1781.5043679126065 -195.54023186835684 0 0 0 0 1875.6316044779232 -1610.2902255719537 0 -1610.2902255719537 -439.74947908287095 0 0 0 0 473.10890191575163 -1430.5719572699738 0 -1430.5719572699738 -1.0683707573812171 0 0 0 0 -55.192091249424266 -554.27522992602235 0 -554.27522992602235 -704.39389286581581 0 0 0 0 177.34463910486375 -1431.9418789205072 0 -1431.9418789205072 -544.86720033719052 0 0 0 0 69.220474520152493 -1368.4992027934688 0 -1368.4992027934688 -304.67766250631576 0 0 0 0 3569.3602645823239 -190.40816936974011 0 -190.40816936974011 -885.83005950324025 0 0 0 0 3495.0882285865409 -614.7299984412881 0 -614.7299984412881 12.09191995493522 0 0 0 0 3931.146714889881 -940.45648443430787 0 -940.45648443430787 -801.31427413567724 0 0 0 0 3330.9061666569687 -762.62575481709473 0 -762.62575481709473 31.871458117513669 0 0 0 0 3906.3175916329928 -417.50739926583674 0 -417.50739926583674 227.59681530939034 0 0 0 0 4017.2168956249807 -944.83968166633292 0 -944.83968166633292 550.56253292994325 0 0 0 0 3515.1812293186467 -310.9997107418605 0 -310.9997107418605 310.815015844073 0 0 0 0 3501.3857670242651 -482.83553661071255 0 -482.83553661071255 276.8706943407326 0 0 0 0 3946.419738756369 -448.50506602498712 0 -448.50506602498712 320.43281487444693 0 0 0 0 3862.6196565399296 -704.24364413104433 0 -704.24364413104433 395.95885492453345 0 0 0 0 3895.3502366800735 -577.17295326712394 0 -577.17295326712394 109.11057260626619 0 0 0 0 3854.7088761527339 -328.04197742917563 0 -328.04197742917563 -132.7999885577693 0 0 0 0 3698.8452707395991 -388.22207122389858 0 -388.22207122389858 47.224013416790278 0 0 0 0 3499.8637543913028 -274.69829240913629 0 -274.69829240913629 20.033727015624279 0 0 0 0 3621.1402407065798 -365.45520165166482 0 -365.45520165166482 -65.479844185778276 0 0 0 0 3640.0165057087252 -207.13958637535248 0 -207.13958637535248 44.599503613113853 0 0 0 0 3740.4981293173851 -280.66924513907958 0 -280.66924513907958 -128.63660063194234 0 0 0 0 456.9385766785872 -112.92384382909609 0 -112.92384382909609 -139.46167040653017 0 0 0 0 3946.199998373515 -221.04829747774804 0 -221.04829747774804 -112.7756428727717 0 0 0 0 -81.291780281026149 -62.46108613796423 0 -62.46108613796423 47.077939438560861 0 0 0 0 209.33311626430805 44.699137511337995 0 44.699137511337995 -19.475582197781478 0 0 0 0 273.72381186160055 -192.73162011324393 0 -192.73162011324393 -37.129047224763781 0 0 0 0 -27.802926405256471 -234.6847207789815 0 -234.6847207789815 -27.917497124484726 0 0 0 0 7.4289642217761838 11.907605542387039 0 11.907605542387039 -23.492002957641208 0 0 0 0 4495.7778025426078 -625.75394693586998 0 -625.75394693586998 -451.35643788584855 0 0 0 0 5.2664035673117908 4.2228015074999661 0 4.2228015074999661 -10.6128783947229 0 0 0 0 366.32528505177834 446.78904804374974 0 446.78904804374974 -1322.1904016906765 0 0 0 0 -133.8340157690327 -216.51934569340074 0 -216.51934569340074 -31.011806274243327 0 0 0 0 1687.3737674859317 757.64391367928306 0 757.64391367928306 -1273.9649604125063 0 0 0 0 2827.355849006788 492.74229300409741 0 492.74229300409741 -861.27293170348753 0 0 0 0 3727.329477240015 122.32585148798208 0 122.32585148798208 -1165.2719598278991 0 0 0 0 3662.3417153992195 -411.85509765677739 0 -411.85509765677739 -602.45489702215002 0 0 0 0 3500.0296808581897 -115.36082364704056 0 -115.36082364704056 -816.12012823324415 0 0 0 0 3500.1041135326032 -203.08829931741295 0 -203.08829931741295 -249.54892091848333 0 0 0 0 3493.3311361199667 -1580.3125237085471 0 -1580.3125237085471 440.04315687067628 0 0 0 0 2606.9769407055428 -537.55774968797846 0 -537.55774968797846 -172.17861821794938 0 0 0 0 1.7430403737062647 -40.672783231809944 0 -40.672783231809944 -49.842170274530091 0 0 0 0 1788.4088285281032 -510.07398345924605 0 -510.07398345924605 -118.45680814760746 0 0 0 0 204.90434914160869 -365.22396435662495 0 -365.22396435662495 -6.2964713888304686 0 0 0 0 222.01316303668864 -52.34075116943086 0 -52.34075116943086 -370.75450727270436 0 0 0 0 3493.9190875308705 -2439.0686962193367 0 -2439.0686962193367 2096.4863070717383 0 0 0 0 34.799823734965116 9.0714007471465834 0 9.0714007471465834 5.887323165208052 0 0 0 0 355.05122547052451 842.45365813115586 0 842.45365813115586 337.89455685056919 0 0 0 0 2655.6045822221786 -1581.6288532530584 0 -1581.6288532530584 719.10139006381814 0 0 0 0 550.90825923842931 -1290.1798671444444 0 -1290.1798671444444 1682.5911042894495 0 0 0 0 837.36299596443132 -300.32103595744957 0 -300.32103595744957 366.14970469668697 0 0 0 0 92.311399023803006 26.66397729655489 0 26.66397729655489 -3.9339736675437535 0 0 0 0 1149.510270524559 -843.70208888142224 0 -843.70208888142224 535.96370692692653 0 0 0 0 1089.1610185320096 -919.4097669310911 0 -919.4097669310911 457.9318717715023 0 0 0 0 1859.0672669838386 -1202.2625093984614 0 -1202.2625093984614 280.17063600352071 0 0 0 0 2287.845069115996 -792.07845517150326 0 -792.07845517150326 76.527021354932003 0 0 0 0 1363.4121073830902 -820.82840814369774 0 -820.82840814369774 147.52107087926015 0 0 0 0 1455.2244462839626 -726.07933971611465 0 -726.07933971611465 148.11443484891606 0 0 0 0 1263.6309477788382 -648.21027280849989 0 -648.21027280849989 152.03583053655393 0 0 0 0 22.775397595656905 3.0839912004912975 0 3.0839912004912975 -34.5572337568885 0 0 0 0 509.38931643246906 -393.82930609595928 0 -393.82930609595928 336.52502446661856 0 0 0 0 18.095297144094474 1.7358607302884366 0 1.7358607302884366 -7.0685508361675264 0 0 0 0 643.16986300270946 646.4212679282316 0 646.4212679282316 648.38685366538721 0 0 0 0 6.0979156204160105 5.9861839886301311 0 5.9861839886301311 -22.146057533873854 0 0 0 0 3493.607198335827 240.84345927157904 0 240.84345927157904 -675.47620284706898 0 0 0 0 2486.3556616757633 -23.006994724194477 0 -23.006994724194477 -324.70207081426639 0 0 0 0 3500.9751666701268 -639.6222469008718 0 -639.6222469008718 -3.9904260084203163 0 0 0 0 1514.8022906315164 -650.86370415258716 0 -650.86370415258716 54.659992579975551 0 0 0 0 1910.2333951094915 -599.71162030198775 0 -599.71162030198775 9.3133927157969083 0 0 0 0 8.5165960368335831 4.607312930726593 0 4.607312930726593 -15.889593541228852 0 0 0 0 3380.6300448817492 -713.10095641236478 0 -713.10095641236478 115.9086167767862 0 0 0 0 1763.7221302705439 -445.2831222714392 0 -445.2831222714392 -121.35787179658837 0 0 0 0 3499.585413747609 -797.61760510358749 0 -797.61760510358749 174.00820256668933 0 0 0 0 1375.630174334794 190.9299282143877 0 190.9299282143877 -430.10939559169725 0 0 0 0 6.5514805561979941 2.2753148355806871 0 2.2753148355806871 -6.3595668913667023 0 0 0 0 2169.4139838333795 -331.15957526347825 0 -331.15957526347825 -92.912019346390252 0 0 0 0 2163.2781935733365 -633.73069968600748 0 -633.73069968600748 -528.64820413132384 0 0 0 0 2911.335412671614 -847.35228383478227 0 -847.35228383478227 -763.55558200277574 0 0 0 0 2901.0306513131072 -854.78273339616499 0 -854.78273339616499 -768.91209820085726 0 0 0 0 2748.6323837592463 195.73598962046916 0 195.73598962046916 -996.37296950324219 0 0 0 0 1946.5767601055195 -1195.2701004611172 0 -1195.2701004611172 -324.25740726972072 0 0 0 0 1357.8817649261 -1403.2203250757602 0 -1403.2203250757602 -217.05902931425089 0 0 0 0 1228.3077577479708 -1341.3288220492709 0 -1341.3288220492709 -232.63129909706731 0 0 0 0 3185.2480805234081 -1431.0939011171122 0 -1431.0939011171122 -651.73795700975984 0 0 0 0 2142.0975082212099 -1358.5043439349856 0 -1358.5043439349856 -614.32062631344388 0 0 0 0 2641.3842396528125 -826.08569508371056 0 -826.08569508371056 -619.32284038335001 0 0 0 0 1749.1524114033746 -1153.3382672244138 0 -1153.3382672244138 -326.40876595381656 0 0 0 0 1547.9516590315543 -918.50496386377245 0 -918.50496386377245 -87.440952170835772 0 0 0 0 1709.1908578780567 -980.01816259132943 0 -980.01816259132943 -64.004709530830951 0 0 0 0 1953.4673548441715 -945.47546704548768 0 -945.47546704548768 -146.1043568718228 0 0 0 0 1869.8779885958502 -760.12806411294696 0 -760.12806411294696 -243.54991138608239 0 0 0 0 1803.6606820365778 -982.28115823965027 0 -982.28115823965027 -64.443973771003584 0 0 0 0 1666.8739369195828 -929.93695017682126 0 -929.93695017682126 162.65173226101797 0 0 0 0 1804.7778452598773 -891.72623483068753 0 -891.72623483068753 6.4561436292979124 0 0 0 0 1995.5093937867059 -953.18380940350426 0 -953.18380940350426 12.186230615830027 0 0 0 0 1960.8269010932272 -559.54768159053128 0 -559.54768159053128 74.291633234352958 0 0 0 0 2122.6003980917885 -551.5254635046042 0 -551.5254635046042 -28.513711692350171 0 0 0 0 1860.3765856296523 -333.5364997981851 0 -333.5364997981851 104.34599371184413 0 0 0 0 1600.769046212532 -516.43886948225281 0 -516.43886948225281 -61.842429672231901 0 0 0 0 1591.7097718919831 -481.1232982961119 0 -481.1232982961119 -22.238584739010776 0 0 0 0 1860.8405028137349 -724.08388734477023 0 -724.08388734477023 -78.121592407864227 0 0 0 0 1579.67663911626 -897.4070506594943 0 -897.4070506594943 -147.33145310518694 0 0 0 0 1343.5914078038622 -804.79046134174723 0 -804.79046134174723 -84.554265782796165 0 0 0 0 1421.5183297353533 -399.10192412809459 0 -399.10192412809459 -129.14888641660718 0 0 0 0 1258.7497059882589 -203.16833098459529 0 -203.16833098459529 -371.1396238294675 0 0 0 0 1204.8429301063516 -553.15552680702672 0 -553.15552680702672 -271.16885796900351 0 0 0 0 938.3199194612389 -380.8035704049405 0 -380.8035704049405 -128.6316257103249 0 0 0 0 948.18421458920056 -907.93460020840803 0 -907.93460020840803 -122.14141020695729 0 0 0 0 517.80731854929763 -381.51102282663578 0 -381.51102282663578 -304.67287442409543 0 0 0 0 540.50961607220233 -940.82291472462202 0 -940.82291472462202 -160.51251597496139 0 0 0 0 1123.3225414619665 -910.595613939131 0 -910.595613939131 -186.05580696936204 0 0 0 0 1050.6427052650106 179.57627506977292 0 179.57627506977292 -343.95381755563881 0 0 0 0 1535.1961398695639 -41.371337243922881 0 -41.371337243922881 -251.10714108654201 0 0 0 0 1488.2020599080997 52.302820223690048 0 52.302820223690048 -151.41403770320994 0 0 0 0 1404.3615436116452 378.87105879376713 0 378.87105879376713 -314.77730357786368 0 0 0 0 1749.7977967863146 301.1032317907181 0 301.1032317907181 -108.68324739740456 0 0 0 0 1952.1778553395416 179.18162055316316 0 179.18162055316316 -36.325750542572223 0 0 0 0 1742.0604122943114 -111.14150267226069 0 -111.14150267226069 -47.966096145236861 0 0 0 0 2082.9964575371705 -15.728095252573894 0 -15.728095252573894 -22.823147794719034 0 0 0 0 2197.3849763387298 264.93834621916608 0 264.93834621916608 -8.0741735045958194 0 0 0 0 1989.7245429419054 -36.536164580347986 0 -36.536164580347986 136.51905396247184 0 0 0 0 2539.7185549361166 167.15219826201064 0 167.15219826201064 602.6835349110811 0 0 0 0 2255.988434065679 2.2967097563513335 0 2.2967097563513335 517.98122531483477 0 0 0 0 2271.0599389318413 -257.77877299790237 0 -257.77877299790237 260.30688293639651 0 0 0 0 2437.6771879688749 106.20938006102779 0 106.20938006102779 181.99786256648713 0 0 0 0 2418.9300537883896 -690.56995933363169 0 -690.56995933363169 100.4447449429299 0 0 0 0 2405.4434748484928 -242.61032711943335 0 -242.61032711943335 116.57799200463796 0 0 0 0 2144.7976503579266 -682.11869840500913 0 -682.11869840500913 263.71838210218039 0 0 0 0 2848.3884121951487 -792.07416014300316 0 -792.07416014300316 246.91211734442049 0 0 0 0 2933.9488338244191 54.432198768387025 0 54.432198768387025 387.40153011715347 0 0 0 0 5133.4400393070464 -1031.5502998561306 0 -1031.5502998561306 567.25049949460163 0 0 0 0 3116.5380631558219 -540.67986791023031 0 -540.67986791023031 454.21262635100356 0 0 0 0 3497.3052403096663 541.99254607276089 0 541.99254607276089 1429.9582806410071 0 0 0 0 2451.3136387435225 111.35033705944761 0 111.35033705944761 1132.7881191701508 0 0 0 0 2634.0917631034827 -556.47567529647495 0 -556.47567529647495 995.56818464896742 0 0 0 0 2419.9714053417556 -8.0237150325488074 0 -8.0237150325488074 778.73161941506442 0 0 0 0 2264.2515287923961 136.3270845706752 0 136.3270845706752 874.95867605470085 0 0 0 0 3033.0046520633332 -68.986425527897836 0 -68.986425527897836 803.69637219660126 0 0 0 0 2441.3636557239661 -4.8392495012722065 0 -4.8392495012722065 843.46348446198226 0 0 0 0 15.612405371487256 -1.6065927007739411 0 -1.6065927007739411 0.55353018236786067 0 0 0 0 2199.4172349448672 -651.80778787003885 0 -651.80778787003885 -193.86056968209959 0 0 0 0 2551.6999660666843 331.10578453558537 0 331.10578453558537 610.9836981636131 0 0 0 0 2253.066091616638 120.67018016384691 0 120.67018016384691 985.35079231962345 0 0 0 0 2425.9206039537094 46.434905802301728 0 46.434905802301728 621.9457638664735 0 0 0 0 2317.7786806016811 -224.67252556725907 0 -224.67252556725907 92.188874060571379 0 0 0 0 1027.8438586514676 -132.71789916530679 0 -132.71789916530679 210.11593246345774 0 0 0 0 1157.9175968555355 -479.24744543154566 0 -479.24744543154566 341.18335306148242 0 0 0 0 1063.9097556740162 -205.46606003911802 0 -205.46606003911802 259.31433440524256 0 0 0 0 248.32583764356968 -53.064737387198875 0 -53.064737387198875 350.69941274898338 0 0 0 0 900.49994205479743 -398.50392487756085 0 -398.50392487756085 251.02232765777626 0 0 0 0 -0.4846572686728905 62.873671806227776 0 62.873671806227776 298.10087285855207 0 0 0 0 323.98830625179471 -16.849668420649209 0 -16.849668420649209 5.8982660665615185 0 0 0 0 92.597675580285795 361.89214074542519 0 361.89214074542519 -99.742368249117135 0 0 0 0 -124.70615447754972 -125.75334348510705 0 -125.75334348510705 275.34534060167533 0 0 0 0 801.52814789264812 -830.88540162003028 0 -830.88540162003028 -12.851275173575232 0 0 0 0 4.4286893368262099 253.015032947706 0 253.015032947706 314.72956052960217 0 0 0 0 34.357015143766205 -7.8247076898579024 0 -7.8247076898579024 -1.6242124461383813 0 0 0 0 -52.809077869489556 156.6118060097906 0 156.6118060097906 -292.12673210206344 0 0 0 0 304.66788514203654 -61.952803571278764 0 -61.952803571278764 -78.345439947129307 0 0 0 0 2.9483101907073035 0.12873871111986546 0 0.12873871111986546 -4.3802592137902501 0 0 0 0 921.49350484120077 373.00875857681194 0 373.00875857681194 17.775691752149669 0 0 0 0 1819.4092624835321 592.14970025155731 0 592.14970025155731 166.18968631923372 0 0 0 0 2163.8516156032638 754.15065530505262 0 754.15065530505262 22.21907048655612 0 0 0 0 2990.6869001600353 379.38984161332382 0 379.38984161332382 -52.021121587497873 0 0 0 0 1487.024213703422 1132.2318582008611 0 1132.2318582008611 830.97948621725573 0 0 0 0 2576.4654727514571 -138.06257557501067 0 -138.06257557501067 709.8314972131011 0 0 0 0 2359.4532913855528 271.14537101942176 0 271.14537101942176 248.88500211187693 0 0 0 0 2372.503881360346 215.53728540014117 0 215.53728540014117 167.46919425873034 0 0 0 0 2040.5173602008144 369.31445945136147 0 369.31445945136147 48.050153372321802 0 0 0 0 2004.1975078961696 392.09125189118549 0 392.09125189118549 110.75393603455655 0 0 0 0 1884.034001986638 593.84303163552738 0 593.84303163552738 158.22927006477585 0 0 0 0 1781.7781508042826 529.26984558563959 0 529.26984558563959 55.145769169017058 0 0 0 0 1815.0444161057603 320.0205631671447 0 320.0205631671447 -102.38419943248346 0 0 0 0 1858.2885638516454 447.78321729104709 0 447.78321729104709 14.45870333868379 0 0 0 0 1771.6891154258265 190.6835473768258 0 190.6835473768258 -218.88777209369596 0 0 0 0 1770.8653027897558 407.41782731470323 0 407.41782731470323 -191.78888388517862 0 0 0 0 1792.6237730347866 326.55522821043422 0 326.55522821043422 -230.83256982271087 0 0 0 0 1774.177482391271 207.1045947374414 0 207.1045947374414 -396.79659904495657 0 0 0 0 1647.2485459091768 89.874523363547951 0 89.874523363547951 -381.76594103080151 0 0 0 0 1881.7903437203231 240.40575495534097 0 240.40575495534097 -468.59000883690351 0 0 0 0 1869.6679247709762 313.46183564124135 0 313.46183564124135 -602.76803026552989 0 0 0 0 1661.9150240235831 159.96284103510197 0 159.96284103510197 -116.06617960128278 0 0 0 0 1602.9302428965384 230.92118398043522 0 230.92118398043522 -171.62309813254251 0 0 0 0 1635.4863315681505 295.85482094121812 0 295.85482094121812 -42.116501283729121 0 0 0 0 828.53190991245538 239.65625842383406 0 239.65625842383406 -13.996328669387367 0 0 0 0 5.2689404597860943 -2.2902189516349551 0 -2.2902189516349551 -13.290348043830878 0 0 0 0 327.21341848540396 -28.499553315018829 0 -28.499553315018829 40.973817075478109 0 0 0 0 686.13934028457879 221.7867601333312 0 221.7867601333312 0.47405349033124367 0 0 0 0 1846.7038021128683 511.10620038606294 0 511.10620038606294 54.744644740753301 0 0 0 0 4.3528492941913584 -0.43248232847152224 0 -0.43248232847152224 -11.007935311132698 0 0 0 0 394.36507107687066 -18.025020592324836 0 -18.025020592324836 -54.302592846672042 0 0 0 0 119.59182528948895 -14.389158468674225 0 -14.389158468674225 -16.29683265101221 0 0 0 0 2.1071486139555091 -16.627535116426358 0 -16.627535116426358 8.9510988496428823 0 0 0 0 216.94806094040541 47.034873765536304 0 47.034873765536304 84.744073771098556 0 0 0 0 127.83024045741331 6.1993787520948445 0 6.1993787520948445 -7.5407170028784094 0 0 0 0 242.89041171284043 22.736180614170735 0 22.736180614170735 -23.145036743115725 0 0 0 0 15.787618863709213 63.309812966861756 0 63.309812966861756 15.83579624433969 0 0 0 0 359.05556929378508 67.020576246338806 0 67.020576246338806 151.15375860360473 0 0 0 0 3.2246605318033588 -17.183713512059839 0 -17.183713512059839 12.067282535292939 0 0 0 0 183.84065401925909 -38.473028815954422 0 -38.473028815954422 22.684802064749874 0 0 0 0 247.17231416310824 103.33887688949699 0 103.33887688949699 -14.917290977795119 0 0 0 0 243.90379877846135 65.121285142268789 0 65.121285142268789 -22.143770882216359 0 0 0 0 322.328461578727 62.506877715525434 0 62.506877715525434 -44.730512771505346 0 0 0 0 310.87176010174608 0.70296228827734808 0 0.70296228827734808 -5.411555195717483 0 0 0 0 236.85208729965234 34.477284461413547 0 34.477284461413547 -19.535198753993427 0 0 0 0 262.55204571857757 50.823489216358666 0 50.823489216358666 -12.253039241349597 0 0 0 0 351.16965538547083 167.82854713120605 0 167.82854713120605 31.733441202930408 0 0 0 0 136.78973933376983 106.87484637878924 0 106.87484637878924 70.630765101331235 0 0 0 0 263.96877454041896 88.801478887717394 0 88.801478887717394 -15.273998127097457 0 0 0 0 184.91193238633605 23.600303446390399 0 23.600303446390399 0.78468297371000517 0 0 0 0 7.7352613097827998 28.543876728578198 0 28.543876728578198 148.93896484984225 0 0 0 0 199.9037975192623 -14.469163219016082 0 -14.469163219016082 -66.310262147696449 0 0 0 0 -2.823703550263204 13.141409695888541 0 13.141409695888541 27.623302725661123 0 0 0 0 388.99927031336119 -98.777727423242141 0 -98.777727423242141 83.426510535031412 0 0 0 0 212.09639554790192 25.637653361078264 0 25.637653361078264 28.340043097176931 0 0 0 0 196.57273158536009 95.064559022390256 0 95.064559022390256 270.63287164267422 0 0 0 0 3.2881504871626817 -2.8229996861754536 0 -2.8229996861754536 0.21740014109631289 0 0 0 0 44.620477201795438 -70.179995972827783 0 -70.179995972827783 84.82036284180549 0 0 0 0 7.7601542329013746 -15.776740102562044 0 -15.776740102562044 0.97564292362029192 0 0 0 0 5.0713646820295253 72.139256758052852 0 72.139256758052852 135.37758444117117 0 0 0 0 6.7524862525271416 -0.030754101529197442 0 -0.030754101529197442 -2.8667951397275537 0 0 0 0 523.7506234421744 91.452907656023172 0 91.452907656023172 -30.159530131031715 0 0 0 0 321.81684060866246 239.72799533245143 0 239.72799533245143 181.6347797236067 0 0 0 0 289.91256112625706 103.70377807833438 0 103.70377807833438 -27.706766327421747 0 0 0 0 286.86660335277702 127.39135896263815 0 127.39135896263815 42.866133831656043 0 0 0 0 244.17015872022603 251.2624989293322 0 251.2624989293322 -146.25560095724086 0 0 0 0 178.69070905946865 89.713836557262312 0 89.713836557262312 28.276444237498254 0 0 0 0 28.590343691103044 295.43707995455088 0 295.43707995455088 124.85465738094081 0 0 0 0 101.86059145093623 164.86265083803778 0 164.86265083803778 290.74069697903724 0 0 0 0 160.98299612167466 155.75407794529565 0 155.75407794529565 40.721231392111349 0 0 0 0 101.00812231036252 185.3869035473017 0 185.3869035473017 178.49200695769196 0 0 0 0 201.61248321022867 84.336901603089245 0 84.336901603089245 150.56587858784223 0 0 0 0 184.223126138917 45.429262576454903 0 45.429262576454903 65.089061147737084 0 0 0 0 218.33383783558384 -14.093547927649524 0 -14.093547927649524 162.93352211470665 0 0 0 0 190.66876754714758 7.5210399077404873 0 7.5210399077404873 153.41952918939614 0 0 0 0 0.12785262605444814 1.646732821105843 0 1.646732821105843 3.512174689164639 0 0 0 0 247.97021854965715 -131.43643643382893 0 -131.43643643382893 61.039328878626975 0 0 0 0 169.52767269255128 76.825452819670318 0 76.825452819670318 37.736844755950642 0 0 0 0 3.8959567777092161 0.86091668791755183 0 0.86091668791755183 10.600914828808527 0 0 0 0 8.8450339460207843 5.5557864316360508 0 5.5557864316360508 11.666037594830879 0 0 0 0 -41.543130569403729 -29.463677965550232 0 -29.463677965550232 32.616820942716004 0 0 0 0 -5.8315121690928891 0.23712002823629064 0 0.23712002823629064 8.207554378936603 0 0 0 0 211.2986876302748 17.821409328811569 0 17.821409328811569 27.119348432991501 0 0 0 0 315.7902592922328 -17.3998817718184 0 -17.3998817718184 6.6687242848001915 0 0 0 0 218.03958046389744 33.536363713959872 0 33.536363713959872 34.558195836196489 0 0 0 0 0.96900506495746441 13.642528148302972 0 13.642528148302972 24.192681436978056 0 0 0 0 120.0629633620847 82.83944649262412 0 82.83944649262412 9.88537844401435 0 0 0 0 136.73432485781632 -14.748922212616662 0 -14.748922212616662 27.917772394237545 0 0 0 0 30.716506218721406 -19.054910560063604 0 -19.054910560063604 56.997145983470546 0 0 0 0 335.99889467685716 42.179798451233637 0 42.179798451233637 -6.8588065556341462 0 0 0 0 278.46933546997025 -17.810691933338603 0 -17.810691933338603 -15.630589657831479 0 0 0 0 257.02726171040558 13.362081980755647 0 13.362081980755647 43.169482561612313 0 0 0 0 257.49556984528317 15.13975175836822 0 15.13975175836822 14.426059975155113 0 0 0 0 27.106279519968666 -10.611157935513802 0 -10.611157935513802 155.83858383861934 0 0 0 0 55.430283420464548 50.675528176502439 0 50.675528176502439 138.58739470486034 0 0 0 0 44.593730831518769 -2.691830964382234 0 -2.691830964382234 12.00980441984575 0 0 0 0 -14.383905974245863 -19.116684120396712 0 -19.116684120396712 114.44263624881864 0 0 0 0 12.973965499375481 -67.002853817263713 0 -67.002853817263713 31.176406615419182 0 0 0 0 57.461104844085639 -24.369047024727479 0 -24.369047024727479 -32.18800371312409 0 0 0 0 89.670326668972848 -43.485431530408277 0 -43.485431530408277 3.605260284394717 0 0 0 0 32.865568009146955 -111.47024715799125 0 -111.47024715799125 -35.7371028790335 0 0 0 0 92.556985789531609 8.3416727668500243 0 8.3416727668500243 70.727719853181043 0 0 0 0 62.313372577496921 -80.685828158461391 0 -80.685828158461391 89.481827551243441 0 0 0 0 87.353911198690184 -38.345199404685445 0 -38.345199404685445 277.96053186288918 0 0 0 0 180.05639858718496 -4.9076523627600181 0 -4.9076523627600181 123.18248135242629 0 0 0 0 39.577278371798457 52.529656576454272 0 52.529656576454272 105.39298712180243 0 0 0 0 1.9613214122503173 2.1218576521374644 0 2.1218576521374644 1.4868758523894101 0 0 0 0 213.32400555816275 -160.95665250950162 0 -160.95665250950162 157.98530539301282 0 0 0 0 237.65438364812144 -108.23542190853846 0 -108.23542190853846 158.96609962431467 0 0 0 0 196.53395670495229 -148.08199057352795 0 -148.08199057352795 230.30986667974412 0 0 0 0 86.134365044519654 10.236404771251728 0 10.236404771251728 196.70946011576962 0 0 0 0 115.48267066148765 17.776103921630693 0 17.776103921630693 164.35945993105815 0 0 0 0 25.631040326872608 40.354881377555103 0 40.354881377555103 179.32017870310392 0 0 0 0 103.40920368391016 70.938438069333188 0 70.938438069333188 188.39222097658421 0 0 0 0 73.107745163099025 106.44260964410478 0 106.44260964410478 147.17168101510788 0 0 0 0 79.720251787541201 133.85656719335111 0 133.85656719335111 259.414778648008 0 0 0 0 80.986817777302349 83.927202080127245 0 83.927202080127245 215.25346543059914 0 0 0 0 196.93278912204551 126.9164192395192 0 126.9164192395192 230.09981689334109 0 0 0 0 83.482317439134931 121.76167456222765 0 121.76167456222765 293.50809953982753 0 0 0 0 195.29980069191333 128.74108549166237 0 128.74108549166237 315.57264127019698 0 0 0 0 267.58948101925489 25.067017810431253 0 25.067017810431253 329.94252358930771 0 0 0 0 189.67920923831116 138.40503275270248 0 138.40503275270248 239.31441515944243 0 0 0 0 147.45494009349932 26.023462690686074 0 26.023462690686074 251.62787986093826 0 0 0 0 62.711879666880122 99.081842062313626 0 99.081842062313626 192.53061351286669 0 0 0 0 285.51622223332379 151.81993716924171 0 151.81993716924171 221.54183910668598 0 0 0 0 47.905467777800368 102.43833644218432 0 102.43833644218432 211.09523478755546 0 0 0 0 57.130447780582472 14.66967388626199 0 14.66967388626199 120.46006853929248 0 0 0 0 19.143550731518189 33.874204344121608 0 33.874204344121608 103.60118252405846 0 0 0 0 -6.7775775431073271 28.80928307116028 0 28.80928307116028 208.93127508123322 0 0 0 0 -13.330693640399204 -46.292598684772059 0 -46.292598684772059 38.485457066928575 0 0 0 0 -30.343341634434182 -18.37623344586973 0 -18.37623344586973 10.731547277512618 0 0 0 0 -10.307854833091824 34.780758420145091 0 34.780758420145091 118.36814793896156 0 0 0 0 1.2129596683953423 -61.817825100592017 0 -61.817825100592017 21.215514021391755 0 0 0 0 -83.152398560749134 -134.00278327832075 0 -134.00278327832075 -124.50521570616729 0 0 0 0 -45.271216583641944 -18.014214090107089 0 -18.014214090107089 -16.943750969488065 0 0 0 0 -49.60429157607723 -9.3895832519065152 0 -9.3895832519065152 -94.775746570996489 0 0 0 0 -29.388644714515976 -108.29500577545127 0 -108.29500577545127 -93.879226763236147 0 0 0 0 -25.55513188126497 -59.95597332262696 0 -59.95597332262696 -161.15518999119922 0 0 0 0 171.33202373178938 123.24506375586134 0 123.24506375586134 104.69856333361895 0 0 0 0 266.61050368675205 20.730944786889722 0 20.730944786889722 197.70923897163539 0 0 0 0 18.325658173216652 49.539866200572419 0 49.539866200572419 49.316928501326402 0 0 0 0 99.34040500089759 -28.431295815229532 0 -28.431295815229532 123.45367949022102 0 0 0 0 -11.090845466736937 -77.967039328782448 0 -77.967039328782448 8.9724579526191519 0 0 0 0 85.349377581092995 22.709052704214628 0 22.709052704214628 -72.03929956149841 0 0 0 0 91.121468835423002 -18.651757854438074 0 -18.651757854438074 88.488349570205173 0 0 0 0 265.46526959510811 42.705441718586826 0 42.705441718586826 -64.873821327333644 0 0 0 0 212.13498004869325 -273.96736042008342 0 -273.96736042008342 -597.92762222182409 0 0 0 0 1.6784197761933797 1.5218250122935935 0 1.5218250122935935 -1.6784116268194591 0 0 0 0 -392.91981156764086 177.21902058994965 0 177.21902058994965 -456.70438738201665 0 0 0 0 276.22636647950276 -71.310095659184299 0 -71.310095659184299 -145.56801513807511 0 0 0 0 90.850396871368503 -64.848577619334094 0 -64.848577619334094 -7.7675979850719159 0 0 0 0 98.005567352229264 -126.44830590652055 0 -126.44830590652055 -331.65229487095439 0 0 0 0 -30.640945303777698 -33.103466524915348 0 -33.103466524915348 -64.081572864462032 0 0 0 0 -17.608004578263717 -118.82698145904135 0 -118.82698145904135 -224.29985201938689 0 0 0 0 38.965077968430705 12.931550283210527 0 12.931550283210527 -477.85101979170304 0 0 0 0 -11.48265737076872 -381.15168587666358 0 -381.15168587666358 -106.66196175760524 0 0 0 0 48.799946038248265 -15.349576241029467 0 -15.349576241029467 3.773320745761954 0 0 0 0 172.27956794697093 -209.58730650485813 0 -209.58730650485813 -192.94673919229626 0 0 0 0 -50.703715469746385 -234.99430769055175 0 -234.99430769055175 -338.64668948444012 0 0 0 0 -19.625222286354983 -211.5295480016639 0 -211.5295480016639 -422.43193363541013 0 0 0 0 -2.3449102762093617 -5.6899114650622238 0 -5.6899114650622238 3.4581869000314303 0 0 0 0 11.784563407549285 -168.3222114636751 0 -168.3222114636751 -420.09802987430248 0 0 0 0 -76.84859736704675 -137.22641583812083 0 -137.22641583812083 -241.34070879915271 0 0 0 0 -66.212788974851719 -165.12926419707674 0 -165.12926419707674 -226.12265390748144 0 0 0 0 -16.856568557443097 -111.59052694841284 0 -111.59052694841284 -243.76633334438338 0 0 0 0 -229.33613417297602 -19.074187079550029 0 -19.074187079550029 -263.31521255900316 0 0 0 0 -178.90833017762634 -232.32297400783045 0 -232.32297400783045 -303.65337431572971 0 0 0 0 9.5215441210893914 -155.95010757192995 0 -155.95010757192995 -345.95986828305456 0 0 0 0 -95.611323053250089 -222.04513662942963 0 -222.04513662942963 -268.44316927456919 0 0 0 0 -156.82340187940281 -257.08021636701937 0 -257.08021636701937 -255.29951780287081 0 0 0 0 -141.46404305385659 -230.27918677040392 0 -230.27918677040392 -228.26446872564165 0 0 0 0 -205.97355791449081 -184.48574571005793 0 -184.48574571005793 -235.77851989987522 0 0 0 0 -45.440304241346894 -165.2954286403961 0 -165.2954286403961 -448.0081524128733 0 0 0 0 22.80784427531762 -328.76478594359088 0 -328.76478594359088 -352.47443024625738 0 0 0 0 -152.54872983408859 -215.00400294445652 0 -215.00400294445652 -84.494970480405854 0 0 0 0 -468.36758563586045 -420.3352435080277 0 -420.3352435080277 -557.53032778671161 0 0 0 0 2.9880625094519928 -79.177608623607739 0 -79.177608623607739 -278.99070403443875 0 0 0 0 52.029011908317671 -24.921715995612502 0 -24.921715995612502 8.3286891464964459 0 0 0 0 10.615147651114967 -72.308014922511575 0 -72.308014922511575 -356.81815750404894 0 0 0 0 -16.709298288682476 -143.05986476275575 0 -143.05986476275575 -366.07015958011834 0 0 0 0 -59.733444086275995 -82.099384790958311 0 -82.099384790958311 -266.62953746868152 0 0 0 0 -2.9124755348311737 -74.695686359871615 0 -74.695686359871615 -265.66644432967087 0 0 0 0 -31.350285380956848 -119.13858142038782 0 -119.13858142038782 -179.5814649409258 0 0 0 0 -41.388116267160513 -63.012133522048316 0 -63.012133522048316 -82.375666406920573 0 0 0 0 5.0409363712533377 -96.245296898143351 0 -96.245296898143351 -180.12877263569351 0 0 0 0 -45.271621348147164 -100.77394769070452 0 -100.77394769070452 -179.5462831587356 0 0 0 0 44.563823115400737 -93.982642762707201 0 -93.982642762707201 -218.52871582291846 0 0 0 0 -0.56707012870720064 -114.48935666152835 0 -114.48935666152835 -217.13803312344135 0 0 0 0 -17.059213252272457 -87.453783067491713 0 -87.453783067491713 -104.67162223652849 0 0 0 0 40.792565914060106 -60.009284065092743 0 -60.009284065092743 -104.64340833011556 0 0 0 0 -7.3004149199914536 -79.868555158080198 0 -79.868555158080198 -75.487316116657894 0 0 0 0 -31.920645687700016 -49.817080508692015 0 -49.817080508692015 17.562689848393575 0 0 0 0 17.300543099394417 -39.60461541966788 0 -39.60461541966788 -106.83810823363592 0 0 0 0 10.454626168764662 -91.619731668259192 0 -91.619731668259192 -75.121354024588072 0 0 0 0 45.169665352150332 -46.942711470436734 0 -46.942711470436734 -119.50132148113971 0 0 0 0 65.159119098949304 -62.984326121499407 0 -62.984326121499407 -252.87257950634375 0 0 0 0 58.458606110606581 -18.61515701097947 0 -18.61515701097947 4.4769478265671729 0 0 0 0 445.44144931552 -234.32218166723862 0 -234.32218166723862 -938.59098209213312 0 0 0 0 68.599433708135621 -116.25861766694061 0 -116.25861766694061 -284.28201652061762 0 0 0 0 41.313837066903943 -403.70788515256993 0 -403.70788515256993 -481.17569890178623 0 0 0 0 614.83164476763341 -73.768560999146231 0 -73.768560999146231 -579.08473505426753 0 0 0 0 705.79729941691039 -188.85281071861635 0 -188.85281071861635 -421.05736760843638 0 0 0 0 314.74837684474187 -501.24034311855485 0 -501.24034311855485 -113.46310365663575 0 0 0 0 16.706893625378143 -367.93047892823802 0 -367.93047892823802 -173.08524939962035 0 0 0 0 260.36299438041169 -58.473149121148595 0 -58.473149121148595 -450.80727518109609 0 0 0 0 -79.210865742352325 -227.57539863305536 0 -227.57539863305536 1.181328058805093 0 0 0 0 0.56036740889504699 0.072792506151387215 0 0.072792506151387215 1.4197885469030163 0 0 0 0 150.20013035697048 -121.34245423503179 0 -121.34245423503179 21.721517653014416 0 0 0 0 551.38792655139696 198.49805789185845 0 198.49805789185845 -41.45434932263754 0 0 0 0 374.22923870963859 -152.34292364222327 0 -152.34292364222327 -60.911282678276507 0 0 0 0 316.95135214284528 -215.48494220343741 0 -215.48494220343741 -46.669046389606365 0 0 0 0 496.2755057108443 -150.075037891764 0 -150.075037891764 245.3873244783328 0 0 0 0 229.73839508168749 -193.6980647630181 0 -193.6980647630181 -29.663072659014233 0 0 0 0 292.16220456158044 -86.873966768992943 0 -86.873966768992943 21.759023151823044 0 0 0 0 348.01651736853819 -117.17415328187914 0 -117.17415328187914 -23.991469999819287 0 0 0 0 -159.13071394055441 -148.59028390447111 0 -148.59028390447111 -29.381262531663197 0 0 0 0 1.0097169344352039 -1.4632833889929486 0 -1.4632833889929486 2.9218253851078098 0 0 0 0 -139.5430140098324 -159.75458019448342 0 -159.75458019448342 -143.93811231565849 0 0 0 0 -152.59936679631937 -230.05792289207966 0 -230.05792289207966 -223.06575157394175 0 0 0 0 -159.84874360249523 -186.38139786078926 0 -186.38139786078926 -126.56616312520264 0 0 0 0 -101.1528150466329 -259.33631949989285 0 -259.33631949989285 95.000250431532976 0 0 0 0 -151.35955671448028 -148.99620887560843 0 -148.99620887560843 -30.281453150739026 0 0 0 0 -134.81959962600376 -167.44614180239293 0 -167.44614180239293 -126.4054728979753 0 0 0 0 -163.70867821472348 -113.27624852896565 0 -113.27624852896565 -76.688673586001869 0 0 0 0 -140.67163191044529 -155.20271989976845 0 -155.20271989976845 -116.68859350774392 0 0 0 0 -100.09372983674984 -117.05867549470963 0 -117.05867549470963 -94.723640622363291 0 0 0 0 2.9254707982061348 -4.9998638085723144 0 -4.9998638085723144 8.8588770768910781 0 0 0 0 -31.584854583608831 -78.188929945172532 0 -78.188929945172532 -67.789033024416312 0 0 0 0 -36.417161420802586 -40.298534731228983 0 -40.298534731228983 -50.96773929908079 0 0 0 0 -133.07216473369772 -72.202922660566855 0 -72.202922660566855 -36.742561466349343 0 0 0 0 -103.51280437677633 -117.85843964907713 0 -117.85843964907713 -92.022611648089878 0 0 0 0 252.61124731783639 27.396980534303836 0 27.396980534303836 50.923207774585293 0 0 0 0 358.7546835878893 199.9258964540445 0 199.9258964540445 211.96865110543604 0 0 0 0 0.52854949416817121 0.24675738290696358 0 0.24675738290696358 2.2288712998032461 0 0 0 0 346.07723060584976 -120.25342933084335 0 -120.25342933084335 42.370887909536265 0 0 0 0 200.39492765621981 40.885148631595911 0 40.885148631595911 98.492144965859495 0 0 0 0 377.44089923854335 91.119260373014413 0 91.119260373014413 -8.6164586098153961 0 0 0 0 143.59125930754817 35.222303906245017 0 35.222303906245017 12.452479411399116 0 0 0 0 253.66528170977108 19.252600741059162 0 19.252600741059162 12.718342946603727 0 0 0 0 258.40766103223723 0.29198993233850529 0 0.29198993233850529 -16.644867644032015 0 0 0 0 151.00031054054853 -24.172977497631667 0 -24.172977497631667 0.11051418036312545 0 0 0 0 105.07478153834381 -19.179746563923921 0 -19.179746563923921 31.066805557581887 0 0 0 0 424.80770054057939 79.192337593744583 0 79.192337593744583 -52.446478211132501 0 0 0 0 0.63301595721824278 0.27682574242885494 0 0.27682574242885494 0.816980173814011 0 0 0 0 372.76177859802556 116.29083042026107 0 116.29083042026107 -39.526719426742829 0 0 0 0 17.403485154355053 -3.8751433607267387 0 -3.8751433607267387 -8.2169887328786722 0 0 0 0 9.2098620338656474 -41.666674360678826 0 -41.666674360678826 -1.676559426262429 0 0 0 0 61.002599439234473 -16.732405281487956 0 -16.732405281487956 0.40190011884194338 0 0 0 0 26.852071954548592 -17.3074866158654 0 -17.3074866158654 -9.6925119881834689 0 0 0 0 26.740912336972542 -20.084184105378309 0 -20.084184105378309 16.236560672845332 0 0 0 0 6.4266676072842017 -9.777707740129614 0 -9.777707740129614 13.970120386297687 0 0 0 0 17.498362323749944 -4.7668195526948409 0 -4.7668195526948409 -8.104995593307601 0 0 0 0 53.107743266155012 14.960347332700231 0 14.960347332700231 9.4346269902199502 0 0 0 0 12.92993321956601 -4.0813603903387765 0 -4.0813603903387765 0.22241509496546891 0 0 0 0 6.2151046345543364 -7.9241996544703426 0 -7.9241996544703426 9.5503858238494441 0 0 0 0 -4.4585453209001571 -13.592300076482388 0 -13.592300076482388 -8.2910365012087368 0 0 0 0 -38.834119372666464 -88.636584591419933 0 -88.636584591419933 -69.384664681947243 0 0 0 0 -15.257903325546067 -43.463226821856097 0 -43.463226821856097 -1.2817943380578072 0 0 0 0 56.694339704394224 -1.5563630082465352 0 -1.5563630082465352 -160.20431955139884 0 0 0 0 15.52994109269639 -186.64186414202402 0 -186.64186414202402 -138.35666277811606 0 0 0 0 8.3999958814383717 -143.29705931858291 0 -143.29705931858291 -146.25459549809921 0 0 0 0 18.695167851343285 -159.54490671722874 0 -159.54490671722874 -197.99294218169985 0 0 0 0 -34.681907083437181 -164.42936782864587 0 -164.42936782864587 -115.44359351914773 0 0 0 0 -7.9608265454880893 -164.96225354618218 0 -164.96225354618218 -124.11637224800222 0 0 0 0 -7.9743282250792618 -165.19253244264206 0 -165.19253244264206 -119.35498275373061 0 0 0 0 2.4782651838613674 -96.313824002756974 0 -96.313824002756974 -89.458592051924597 0 0 0 0 -67.858851561119081 -136.30070620258698 0 -136.30070620258698 -110.03843472994913 0 0 0 0 -93.516286319558276 -97.985285652955895 0 -97.985285652955895 -56.403928718674251 0 0 0 0 -59.915136056413758 -119.7202490618223 0 -119.7202490618223 -103.86875711798984 0 0 0 0 -109.60205343573034 -140.80561064161714 0 -140.80561064161714 -108.16310524542496 0 0 0 0 -73.081018412747653 -143.07352664187715 0 -143.07352664187715 -146.10290590872205 0 0 0 0 -31.462431198946433 -140.97570913542359 0 -140.97570913542359 -126.52015001909626 0 0 0 0 -79.847441244615766 -159.35321532742444 0 -159.35321532742444 -133.48563423980659 0 0 0 0 -35.159884114080342 -135.52855913412907 0 -135.52855913412907 -168.05368937059853 0 0 0 0 9.3603349448239896 -109.52544184093347 0 -109.52544184093347 -306.9750583843927 0 0 0 0 -23.819392221455928 -123.36963658348506 0 -123.36963658348506 -222.3134002950747 0 0 0 0 -44.81699134176597 -188.27999253964771 0 -188.27999253964771 -301.6612582036305 0 0 0 0 -64.831077315961011 -164.84828831899253 0 -164.84828831899253 -190.67302070384997 0 0 0 0 -60.163811017599073 -158.34280949150926 0 -158.34280949150926 -220.54562299874561 0 0 0 0 -103.81126177916303 -164.02609935942405 0 -164.02609935942405 -149.01465993991781 0 0 0 0 -78.492238119972171 -192.43729774091804 0 -192.43729774091804 -228.03662322777984 0 0 0 0 -78.104886430082843 -196.15956194568821 0 -196.15956194568821 -252.46817587935317 0 0 0 0 -126.40986822612467 -193.04271071318925 0 -193.04271071318925 -174.37147017989739 0 0 0 0 -97.893763100059005 -163.73356547941751 0 -163.73356547941751 -175.22898086197551 0 0 0 0 247.49059572356055 -573.67383235489433 0 -573.67383235489433 -294.27012729727244 0 0 0 0 34.316867206515042 -12.533179628905771 0 -12.533179628905771 4.0489622852736735 0 0 0 0 -28.298833707056474 -156.67857695525817 0 -156.67857695525817 -40.527114917025415 0 0 0 0 -18.820961777113553 -82.139327480477363 0 -82.139327480477363 -39.637487485593724 0 0 0 0 -10.027680058410624 -137.63701097526646 0 -137.63701097526646 -72.699667725892141 0 0 0 0 -2.8023858795932028 -171.40601436871361 0 -171.40601436871361 -115.53922566921028 0 0 0 0 -9.8917787793034222 -147.20500306176791 0 -147.20500306176791 -137.06854068902038 0 0 0 0 -36.594969501380547 -151.29508685456554 0 -151.29508685456554 -133.14336334243876 0 0 0 0 19.896282205707394 -68.354283131440454 0 -68.354283131440454 -180.28716418648708 0 0 0 0 -144.82856564805843 -499.39564096622962 0 -499.39564096622962 -195.50081182502709 0 0 0 0 267.22290565975709 726.30575156504892 0 726.30575156504892 137.76772412974242 0 0 0 0 75.807440042954113 -71.833227851426273 0 -71.833227851426273 -47.469394245690864 0 0 0 0 -11.58714416375733 -179.33453119593582 0 -179.33453119593582 -63.709656715751407 0 0 0 0 15.171354801805421 -3.0082675959959175 0 -3.0082675959959175 0.81818404554270541 0 0 0 0 -143.50653452166443 59.471413586066376 0 59.471413586066376 228.64009846549868 0 0 0 0 2001.4724484365142 721.95070818355134 0 721.95070818355134 67.118006762782258 0 0 0 0 2047.3284579676401 130.69477126275854 0 130.69477126275854 -126.11237405697739 0 0 0 0 2301.2879603788606 325.98857655053143 0 325.98857655053143 -235.96521878799604 0 0 0 0 1581.4099844216253 888.59133771692541 0 888.59133771692541 66.475906491274259 0 0 0 0 3152.6549091959751 192.91601586926117 0 192.91601586926117 -172.65323663853678 0 0 0 0 -253.77128454056947 -105.84106654739864 0 -105.84106654739864 154.08124278447633 0 0 0 0 3412.2202734142193 -1580.1568653448487 0 -1580.1568653448487 813.25493371362779 0 0 0 0 2816.1708354401053 1371.9818925367326 0 1371.9818925367326 -1442.808207371831 0 0 0 0 12.596937077198163 0.54937882668606619 0 0.54937882668606619 -3.0749998193472563 0 0 0 0 9.5512449672241928 -244.23567361334307 0 -244.23567361334307 -380.19969486071432 0 0 0 0 -195.49197163655481 -292.15515426030947 0 -292.15515426030947 -83.692032514878065 0 0 0 0 21.813354245673395 1.0053249759420879 0 1.0053249759420879 -7.9488252492211382 0 0 0 0 54.485030178746456 -26.196631765289709 0 -26.196631765289709 -427.01749527326001 0 0 0 0 629.93104905411019 -26.180621691582076 0 -26.180621691582076 175.94786907833682 0 0 0 0 678.16334319182215 -872.58411414098066 0 -872.58411414098066 630.26055010938353 0 0 0 0 2681.4736059141724 -731.390080527539 0 -731.390080527539 -75.177348156936318 0 0 0 0 1237.700459852349 -200.88718909922886 0 -200.88718909922886 0.23515131087419983 0 0 0 0 547.27000000182306 -496.88215332702117 0 -496.88215332702117 251.85320794080556 0 0 0 0 2841.4274296032163 -173.17824748028448 0 -173.17824748028448 57.655501819540156 0 0 0 0 2906.8093516162044 -189.18595334912985 0 -189.18595334912985 -0.44825822017198369 0 0 0 0 2644.498855994123 -337.7295526668965 0 -337.7295526668965 89.863970382525508 0 0 0 0 3218.5906762847444 -420.1393310331639 0 -420.1393310331639 66.998561240717322 0 0 0 0 3171.701879026703 34.033852401063484 0 34.033852401063484 182.47483912932495 0 0 0 0 2800.1150565784046 -234.88503922340067 0 -234.88503922340067 547.71509079684756 0 0 0 0 2978.8407226120326 -265.60205338842354 0 -265.60205338842354 308.31920113226897 0 0 0 0 4187.5557515856635 20.579095855641015 0 20.579095855641015 192.96213840235754 0 0 0 0 3228.6336449329319 -552.93784598552224 0 -552.93784598552224 464.54399875635272 0 0 0 0 2959.0716807069402 -92.138060126069718 0 -92.138060126069718 1116.8638844820216 0 0 0 0 3353.83385253913 -28.795077219837907 0 -28.795077219837907 498.45665340822325 0 0 0 0 2887.4251715450373 -311.9881581391287 0 -311.9881581391287 350.05092469674219 0 0 0 0 2863.5331336305971 -355.65911492770624 0 -355.65911492770624 370.3133927144695 0 0 0 0 3156.0333046233573 -375.49048876768757 0 -375.49048876768757 -58.556451078824466 0 0 0 0 2643.5869597831625 -175.73567493819655 0 -175.73567493819655 -96.120586577981157 0 0 0 0 2769.3938208477521 -496.89071340112588 0 -496.89071340112588 142.50006612665538 0 0 0 0 2787.2362008847849 -384.03673720716938 0 -384.03673720716938 469.22965652916059 0 0 0 0 2974.1258880941605 -531.36332668849445 0 -531.36332668849445 79.208425169189013 0 0 0 0 2744.1141497572244 -503.45018058489632 0 -503.45018058489632 77.781298312435354 0 0 0 0 2806.8414748982614 -559.53096895127578 0 -559.53096895127578 -72.374149067285543 0 0 0 0 2712.294560075301 -477.32248249081204 0 -477.32248249081204 -122.90778858036356 0 0 0 0 2768.3345571712489 -425.27756698350061 0 -425.27756698350061 -79.744091846279844 0 0 0 0 2675.7931421294661 -363.25222313669423 0 -363.25222313669423 -231.0204803705401 0 0 0 0 2678.9057601105201 -516.46590023961062 0 -516.46590023961062 -130.13160985709055 0 0 0 0 2498.3798241773329 -401.02557304635047 0 -401.02557304635047 -163.01608382181621 0 0 0 0 2385.4028881030681 -272.92208114222285 0 -272.92208114222285 -205.8881153465336 0 0 0 0 2557.7236510614457 -503.51365833138902 0 -503.51365833138902 -39.919210837675564 0 0 0 0 1922.974030336758 -48.324867271220228 0 -48.324867271220228 -157.66633950708683 0 0 0 0 2163.2688113209588 -359.98971117243627 0 -359.98971117243627 -39.211806984444593 0 0 0 0 2358.779275931709 -140.50876540701711 0 -140.50876540701711 -251.8276232171429 0 0 0 0 2133.1897748294432 -193.09521988429651 0 -193.09521988429651 -113.12252664703828 0 0 0 0 1760.242596540149 49.723134190698602 0 49.723134190698602 -114.56134648002671 0 0 0 0 2348.184025544997 -4.2404578180678527 0 -4.2404578180678527 -251.58383293639054 0 0 0 0 2431.0733895844314 -263.32144021935437 0 -263.32144021935437 -178.63095603468901 0 0 0 0 2618.825627504033 -215.28204801489449 0 -215.28204801489449 -239.54248131050463 0 0 0 0 2903.3897190446296 -373.18872951552976 0 -373.18872951552976 -175.31889272436729 0 0 0 0 2766.4842835402524 -93.542619865968845 0 -93.542619865968845 -281.82479021585277 0 0 0 0 2127.3693463448435 30.735913747999803 0 30.735913747999803 -202.17382749587182 0 0 0 0 2021.545654612506 325.40808747408482 0 325.40808747408482 -237.33056821196942 0 0 0 0 1806.5683730486489 227.24917906356586 0 227.24917906356586 -140.30464493183445 0 0 0 0 1665.1270123539143 602.43857322697829 0 602.43857322697829 -92.072345085640336 0 0 0 0 1281.0876514851989 401.65796161667367 0 401.65796161667367 -53.207113160178778 0 0 0 0 1344.8750114547001 192.26314038883993 0 192.26314038883993 -43.291878922481374 0 0 0 0 -504.66998543848604 38.33753167715895 0 38.33753167715895 309.64315927379903 0 0 0 0 463.92333705176134 440.08394433567446 0 440.08394433567446 50.055996888644586 0 0 0 0 604.17616794398054 161.34007435309832 0 161.34007435309832 83.178872835474976 0 0 0 0 625.16391626975383 153.39824185465204 0 153.39824185465204 19.743018098797165 0 0 0 0 76.843929282738827 42.282401649373242 0 42.282401649373242 126.45257079158273 0 0 0 0 251.65270381347364 37.327672105108377 0 37.327672105108377 145.06781214839248 0 0 0 0 623.55589171448082 143.75630842153578 0 143.75630842153578 114.1067254489426 0 0 0 0 1131.7699365747394 206.73788451622931 0 206.73788451622931 22.590009869623827 0 0 0 0 587.17072193784406 56.49349634469263 0 56.49349634469263 165.06340933310548 0 0 0 0 536.79967543964449 172.22047949936768 0 172.22047949936768 94.118970735394896 0 0 0 0 1775.6751068337326 129.86638258310904 0 129.86638258310904 -144.88263393172747 0 0 0 0 1183.1889682343644 61.314376507622683 0 61.314376507622683 62.157013619731515 0 0 0 0 1265.6114148185588 146.99369080827364 0 146.99369080827364 10.900875950556838 0 0 0 0 1307.4110524659482 -10.334244800857277 0 -10.334244800857277 68.732157184983407 0 0 0 0 1596.9999783715248 -220.76263383336072 0 -220.76263383336072 120.04914401750284 0 0 0 0 564.55537784130138 33.828478571219875 0 33.828478571219875 245.46739420534004 0 0 0 0 1090.4429515143856 -27.200551217065822 0 -27.200551217065822 130.7074482043754 0 0 0 0 568.52738990537182 52.004249917604284 0 52.004249917604284 196.88248257448868 0 0 0 0 507.98220366958412 10.57736609717449 0 10.57736609717449 234.27050328905511 0 0 0 0 495.58747186114306 -22.918026473516477 0 -22.918026473516477 336.66554230292513 0 0 0 0 1178.5688906774303 -168.16221100973962 0 -168.16221100973962 232.34272959589453 0 0 0 0 1851.0454827880021 -180.31081914076822 0 -180.31081914076822 68.048793983531141 0 0 0 0 1745.0447321708489 -403.84572650520204 0 -403.84572650520204 136.03131879140074 0 0 0 0 1866.1653039009434 -257.16455677610918 0 -257.16455677610918 328.9185738115666 0 0 0 0 2287.5134119774102 -277.45188025930474 0 -277.45188025930474 221.18872283353085 0 0 0 0 2271.767526683645 -347.62337140284671 0 -347.62337140284671 91.281010457522825 0 0 0 0 2578.4260610299825 -498.71707038870818 0 -498.71707038870818 52.696516869522384 0 0 0 0 2321.5187550442351 -343.20634877616124 0 -343.20634877616124 -15.866875308085582 0 0 0 0 2328.1589478919013 -331.77871185439733 0 -331.77871185439733 -92.010182236497712 0 0 0 0 1866.6094309141772 -223.0185402439256 0 -223.0185402439256 108.42990982183801 0 0 0 0 2858.3348148438527 -442.38490560621079 0 -442.38490560621079 261.31006560090736 0 0 0 0 2885.0069731299882 -630.39328163026448 0 -630.39328163026448 210.97114519505681 0 0 0 0 2584.8798160943552 -453.14365677811929 0 -453.14365677811929 148.02556383445608 0 0 0 0 2873.1345397203695 -566.6069315370296 0 -566.6069315370296 -73.360293439667203 0 0 0 0 2552.1418839258076 -273.3685265083891 0 -273.3685265083891 445.13920958749077 0 0 0 0 2825.5766681435052 -584.45231241536658 0 -584.45231241536658 217.02921094681278 0 0 0 0 2529.4168680208822 -361.93794673094362 0 -361.93794673094362 192.45146530405145 0 0 0 0 2950.468899970183 -584.38660283238914 0 -584.38660283238914 397.46416278131437 0 0 0 0 2971.1799950585628 -786.22502882965364 0 -786.22502882965364 1858.6317026507218 0 0 0 0 4382.1963467089008 -522.23787063678128 0 -522.23787063678128 -217.24911243343468 0 0 0 0 2530.0500580800872 72.651979454290085 0 72.651979454290085 -240.11572558886746 0 0 0 0 3155.9968047316834 -145.96345628300577 0 -145.96345628300577 -361.51783296468602 0 0 0 0 2392.832791732435 -66.842341569668861 0 -66.842341569668861 -255.85088047121963 0 0 0 0 2364.3849331444871 78.470618210226007 0 78.470618210226007 -336.16704121971634 0 0 0 0 2292.2336783066785 -129.18938969136184 0 -129.18938969136184 -100.68771590811775 0 0 0 0 2780.7848878158547 -148.4547877020002 0 -148.4547877020002 -284.94164168594011 0 0 0 0 2376.0396776662965 -53.639835173680922 0 -53.639835173680922 -203.43600964747941 0 0 0 0 2759.6201067860102 -352.43783715463553 0 -352.43783715463553 -214.57556878287596 0 0 0 0 2593.2567741988751 -296.47580574054791 0 -296.47580574054791 -139.80732454915596 0 0 0 0 2773.5366920627566 -459.14233677042785 0 -459.14233677042785 -194.53217188445251 0 0 0 0 2813.9183953600295 -378.8602020506496 0 -378.8602020506496 -202.7084791591642 0 0 0 0 3250.1021233725878 -614.72118237020834 0 -614.72118237020834 -165.65590790180067 0 0 0 0 2874.0747416564991 -382.97776931980434 0 -382.97776931980434 -285.77851194866616 0 0 0 0 2945.2520580171113 -525.54233545790805 0 -525.54233545790805 -195.12773830947208 0 0 0 0 2758.5792466821877 -561.93781731278932 0 -561.93781731278932 -66.61105567079403 0 0 0 0 2714.0721562263134 -459.99989885957621 0 -459.99989885957621 -184.95381393148682 0 0 0 0 2803.6596985404904 -500.79903667248345 0 -500.79903667248345 -141.21338706791721 0 0 0 0 2771.3649493275152 -494.54603827231472 0 -494.54603827231472 -132.55489125437271 0 0 0 0 2772.9077629978419 -505.77375713288802 0 -505.77375713288802 -55.285644182383294 0 0 0 0 2743.8738406274642 -427.2373682958937 0 -427.2373682958937 59.562763960322286 0 0 0 0 2766.3073450844822 -557.47875840846223 0 -557.47875840846223 -1.9276180949054833 0 0 0 0 2705.1654677806509 -463.21055703823401 0 -463.21055703823401 61.926513379165044 0 0 0 0 2688.547104063553 -380.03425233614064 0 -380.03425233614064 -66.673758278395781 0 0 0 0 2672.9506573423278 -401.89071724866267 0 -401.89071724866267 -47.719111136015954 0 0 0 0 2534.8355013633118 -270.00707388808894 0 -270.00707388808894 -3.6456850354265953 0 0 0 0 2607.5440496675001 -195.70928931018648 0 -195.70928931018648 104.83488839227078 0 0 0 0 2629.6930608947296 -363.60922361903476 0 -363.60922361903476 82.645782376019952 0 0 0 0 2673.1628743018082 -375.89203078162336 0 -375.89203078162336 319.61754673958319 0 0 0 0 2673.489326065057 -336.32893334767346 0 -336.32893334767346 79.237713177006128 0 0 0 0 2804.7475848101749 -192.99715484962439 0 -192.99715484962439 215.29507086949798 0 0 0 0 2817.5590523024293 -64.303761413712465 0 -64.303761413712465 67.241757862367322 0 0 0 0 2661.1454109356564 -280.93393014103987 0 -280.93393014103987 196.57168356662902 0 0 0 0 2526.6573793313291 -278.50089695835032 0 -278.50089695835032 46.981498608909874 0 0 0 0 2429.9361486681883 -101.52745630883021 0 -101.52745630883021 103.42936918323187 0 0 0 0 2645.8739693380994 -232.5521490799016 0 -232.5521490799016 0.090769106521289111 0 0 0 0 1936.9033970489108 37.85392628248362 0 37.85392628248362 -107.06863010294234 0 0 0 0 2121.3256858254317 -244.87545938030178 0 -244.87545938030178 0.006207157300380791 0 0 0 0 2430.2957849584609 -102.60907385133964 0 -102.60907385133964 -56.405653520710985 0 0 0 0 2307.1173864188459 -269.51970564048327 0 -269.51970564048327 2.4921640148877486 0 0 0 0 2135.4224546575788 -111.91125363487805 0 -111.91125363487805 37.387394260266319 0 0 0 0 2121.6108137457413 -132.7278232588763 0 -132.7278232588763 15.164314408698829 0 0 0 0 2522.4059361077379 -282.81181835773714 0 -282.81181835773714 -5.6199781823552257 0 0 0 0 2433.3763801763271 -163.52483957220005 0 -163.52483957220005 15.322371121006199 0 0 0 0 2632.8325624449717 -227.68667147936526 0 -227.68667147936526 -118.12363366034788 0 0 0 0 2355.2363717867047 -136.6452357891468 0 -136.6452357891468 -83.423214872273547 0 0 0 0 2307.8413970970723 -162.49108595419716 0 -162.49108595419716 28.966668924925045 0 0 0 0 2143.2408821631398 -25.650400042118918 0 -25.650400042118918 -65.254865908391366 0 0 0 0 1749.3580131214985 -84.492123318966151 0 -84.492123318966151 -32.385914731147864 0 0 0 0 2108.2689303723455 -56.898394365684453 0 -56.898394365684453 -39.010611401184349 0 0 0 0 2111.4345308187912 -85.210413106329952 0 -85.210413106329952 32.971029634250044 0 0 0 0 1801.4124254408525 -360.70034441013559 0 -360.70034441013559 -95.108012420344949 0 0 0 0 2267.6536164837889 -216.60495127057766 0 -216.60495127057766 -289.98138386360552 0 0 0 0 2182.3263065476785 -208.11059330640455 0 -208.11059330640455 41.509046102963111 0 0 0 0 1912.281485582309 -225.04968933009513 0 -225.04968933009513 48.568863250103277 0 0 0 0 137.63859858961951 -6.2467277008470319 0 -6.2467277008470319 -44.1170828225479 0 0 0 0 16.040788994786752 -7.6340976593088783 0 -7.6340976593088783 -10.373605292146362 0 0 0 0 63.758860914965368 13.406217608223358 0 13.406217608223358 -7.4003448473507794 0 0 0 0 4.578028910288424 -3.7631903540555243 0 -3.7631903540555243 -1.5617691344864877 0 0 0 0 11.183100419476204 0.47699967935795939 0 0.47699967935795939 1.6776290305400012 0 0 0 0 2380.6962347177323 -261.61575833114534 0 -261.61575833114534 31.122245799099005 0 0 0 0 41.218847472729976 36.563687738774604 0 36.563687738774604 50.95230578958774 0 0 0 0 2421.0790767326835 -73.052483252906825 0 -73.052483252906825 -28.1195394314434 0 0 0 0 2159.0285856807895 -33.227391995357038 0 -33.227391995357038 86.502219253225576 0 0 0 0 2186.7375909956245 112.23442927583807 0 112.23442927583807 85.543003554537336 0 0 0 0 2047.4754788230057 -77.090645165186174 0 -77.090645165186174 102.04592075286052 0 0 0 0 1894.1418724699324 -186.62508377037628 0 -186.62508377037628 20.496053774702858 0 0 0 0 1632.1374934166088 136.40806347257796 0 136.40806347257796 84.637032352483175 0 0 0 0 1457.1818242767113 -121.45057109129402 0 -121.45057109129402 -78.820320038768443 0 0 0 0 0.55771661903106207 -5.7790264386747481 0 -5.7790264386747481 -3.0987552598457322 0 0 0 0 355.61307720029436 174.5319019138195 0 174.5319019138195 93.204223366010012 0 0 0 0 914.37523558358953 137.0472968522304 0 137.0472968522304 19.223509405734546 0 0 0 0 2.8589798200177157 -2.0495758266731059 0 -2.0495758266731059 -0.25240216700590512 0 0 0 0 1567.052636055967 -188.30067890334698 0 -188.30067890334698 -0.26291480431749698 0 0 0 0 2723.8564183082926 -123.99612547074612 0 -123.99612547074612 -0.44521724969420701 0 0 0 0 3497.9898245393197 -631.597625720785 0 -631.597625720785 -405.34477011012541 0 0 0 0 2320.4710258882305 -400.47687178640047 0 -400.47687178640047 13.00660923856168 0 0 0 0 1852.81183243957 -346.16310553554951 0 -346.16310553554951 138.0155876414459 0 0 0 0 2433.1928082364029 -960.10091848324168 0 -960.10091848324168 1.712151952449247 0 0 0 0 2267.0631514861161 -322.28859819266643 0 -322.28859819266643 -136.33803292618325 0 0 0 0 1898.1634573999618 -891.65665876166486 0 -891.65665876166486 366.07096587831381 0 0 0 0 1106.4064293030351 -400.68516808402751 0 -400.68516808402751 165.95353532597989 0 0 0 0 1950.5767952167662 -785.15654861307371 0 -785.15654861307371 -47.196612682097793 0 0 0 0 3496.4231594236885 -2283.365394748982 0 -2283.365394748982 949.84172492147957 0 0 0 0 306.31070397053554 899.49694626210749 0 899.49694626210749 1324.3433707458498 0 0 0 0 16.307572732611504 4.3870302048555914 0 4.3870302048555914 4.4579053227203058 0 0 0 0 3494.0287937781613 1155.3974629873262 0 1155.3974629873262 -631.57540806928807 0 0 0 0 2195.7934210465901 1722.0796220510665 0 1722.0796220510665 530.61895116804317 0 0 0 0 1116.0897429229226 516.76371600342225 0 516.76371600342225 -85.321497481466508 0 0 0 0 -229.97771146170271 101.46556631671939 0 101.46556631671939 394.81358471984868 0 0 0 0 -0.19258789941531518 -1.6847080483386776 0 -1.6847080483386776 -4.1667933587690431 0 0 0 0 278.62213532395253 -174.62668571052103 0 -174.62668571052103 -147.03414511492349 0 0 0 0 1028.0769002533489 572.74064158985675 0 572.74064158985675 280.81226620702967 0 0 0 0 122.17312889811001 63.076438750781108 0 63.076438750781108 671.14897369297648 0 0 0 0 186.70673391525634 67.418534300880538 0 67.418534300880538 -98.883167315793571 0 0 0 0 42.668396205606001 13.121546763091679 0 13.121546763091679 0.69510726868336814 0 0 0 0 -20.870900351597811 -148.42567479048802 0 -148.42567479048802 -66.274036466673806 0 0 0 0 196.41573661024449 -62.770601052979828 0 -62.770601052979828 -303.24761732179104 0 0 0 0 216.17257806060661 -194.54330150862529 0 -194.54330150862529 70.306784033744862 0 0 0 0 1204.8346414259213 53.225010787456881 0 53.225010787456881 12.080805644104657 0 0 0 0 203.50637631328573 -31.439118490868623 0 -31.439118490868623 -28.816246070044144 0 0 0 0 125.61266237043674 96.489691732465857 0 96.489691732465857 2.18007630816237 0 0 0 0 18.062550108549928 -2.7569481115981773 0 -2.7569481115981773 -15.530185207825847 0 0 0 0 -3.5618073642332817 -24.726734059325338 0 -24.726734059325338 -3.2557142326794812 0 0 0 0 2122.639733151198 58.423183089402528 0 58.423183089402528 -218.2147237764234 0 0 0 0 1860.5534421866614 -26.163325230107603 0 -26.163325230107603 -155.95551348414756 0 0 0 0 1841.467621195321 97.952862265777469 0 97.952862265777469 -200.40482520725345 0 0 0 0 2267.9323652068124 -184.13320191748971 0 -184.13320191748971 -278.4716721742991 0 0 0 0 419.0108572085519 64.211096051222285 0 64.211096051222285 104.13868750192682 0 0 0 0 288.93869359769451 -212.03539222371529 0 -212.03539222371529 120.02713442080247 0 0 0 0 545.59841098546167 -66.957549645231268 0 -66.957549645231268 -271.286862763312 0 0 0 0 -11.059950129213362 -27.161183044577484 0 -27.161183044577484 -14.1447035510541 0 0 0 0 1658.9524463060734 461.26900048656034 0 461.26900048656034 -27.757240109087888 0 0 0 0 2692.1824508192221 1069.7303470568186 0 1069.7303470568186 -14.664234228963323 0 0 0 0 648.7243022249022 -70.776646135514966 0 -70.776646135514966 13.981308579835684 0 0 0 0 68.166998952758149 58.090575866421545 0 58.090575866421545 322.12383812597545 0 0 0 0 1732.4431021757191 -426.14883420156315 0 -426.14883420156315 -49.021506209738732 0 0 0 0 -13.985476131015048 -33.641137466997094 0 -33.641137466997094 -28.690300033098115 0 0 0 0 1330.0432669111397 55.434268579672761 0 55.434268579672761 67.725437576834224 0 0 0 0 2552.742313242954 431.30901356507786 0 431.30901356507786 -593.36420263986827 0 0 0 0 3501.5760566064273 -155.15385813410262 0 -155.15385813410262 -684.55933774909943 0 0 0 0 2394.4947347366324 476.91450277615337 0 476.91450277615337 -588.91076837205435 0 0 0 0 1707.4421876595297 945.54573859106267 0 945.54573859106267 -71.148057250966019 0 0 0 0 1519.5641217455704 261.62894324081384 0 261.62894324081384 -446.29983175807848 0 0 0 0 386.11727935091039 128.89773901314334 0 128.89773901314334 87.296048526777213 0 0 0 0 57.474927603208926 -75.53586432741281 0 -75.53586432741281 125.63246225948956 0 0 0 0 36.698184426742955 -69.7777879426867 0 -69.7777879426867 78.384211703586971 0 0 0 0 65.621509187461925 4.6481671600008667 0 4.6481671600008667 -245.62427900203511 0 0 0 0 -1.1908735890487492 -4.3135170650452324 0 -4.3135170650452324 -5.0436481718918795 0 0 0 0 39.681519586592913 -88.37365646197793 0 -88.37365646197793 -11.33206165734191 0 0 0 0 594.50690147255955 55.074873482226394 0 55.074873482226394 -59.053870486995265 0 0 0 0 -7.1698659463290824 -136.02387493832731 0 -136.02387493832731 -117.47620791131794 0 0 0 0 77.604994283949054 363.74784185812473 0 363.74784185812473 -154.05680487802078 0 0 0 0 94.904144865518901 -145.58566375196051 0 -145.58566375196051 134.53401262803118 0 0 0 0 231.05766605987446 374.10267471293923 0 374.10267471293923 -239.05591195228089 0 0 0 0 -11.398854033526732 23.536094331539481 0 23.536094331539481 17.187615197753548 0 0 0 0 1.4989269571324257 -2.1527548544048756 0 -2.1527548544048756 -2.7544304598424336 0 0 0 0 -120.87928687837848 125.44649926028876 0 125.44649926028876 96.806254207355039 0 0 0 0 170.56717433567246 -103.71774180353236 0 -103.71774180353236 65.699259884236653 0 0 0 0 82.765645779581973 -56.805831844218083 0 -56.805831844218083 77.659800023881445 0 0 0 0 78.54033377486121 -74.942490563181991 0 -74.942490563181991 82.328027524035861 0 0 0 0 -131.92009599521407 -225.02110506737753 0 -225.02110506737753 -26.920454157494763 0 0 0 0 1.4398398920247644 -0.42974055045397108 0 -0.42974055045397108 -1.2896594304605289 0 0 0 0 145.52672331602662 -62.201154714110885 0 -62.201154714110885 72.451328118736001 0 0 0 0 106.16465618804796 -81.101572090567061 0 -81.101572090567061 76.037966561723806 0 0 0 0 99.353845905956405 -57.060920119020693 0 -57.060920119020693 33.939477474938485 0 0 0 0 88.534466219047317 -63.006667794740224 0 -63.006667794740224 84.775420387167287 0 0 0 0 106.72492089361185 -44.16209561251776 0 -44.16209561251776 0.40141684157060809 0 0 0 0 78.881695846881485 -42.58427601438575 0 -42.58427601438575 39.852852728170546 0 0 0 0 92.981479016212688 -58.578340091784185 0 -58.578340091784185 16.606303340558497 0 0 0 0 131.95900190934481 -99.032048673224949 0 -99.032048673224949 78.441044577340563 0 0 0 0 74.430624210857786 -54.461918297738066 0 -54.461918297738066 63.97813940999049 0 0 0 0 62.076732018846087 -31.652072633845592 0 -31.652072633845592 -21.690346419180514 0 0 0 0 62.574181477724778 -57.662066177614861 0 -57.662066177614861 19.770410511652699 0 0 0 0 82.31431345819874 -31.442691380397036 0 -31.442691380397036 -33.093563058344444 0 0 0 0 59.884086513004149 -26.725285459818224 0 -26.725285459818224 0.057704772788866876 0 0 0 0 80.096983494629967 -23.550688228193394 0 -23.550688228193394 -39.703827594557879 0 0 0 0 33.850365693331696 -15.922672924282779 0 -15.922672924282779 -38.831188166902393 0 0 0 0 56.580416052340297 14.829470109748399 0 14.829470109748399 -104.52152907242407 0 0 0 0 65.376322355150478 -17.504573564368002 0 -17.504573564368002 -95.226816130881616 0 0 0 0 32.756003349262755 -26.776312445539588 0 -26.776312445539588 -74.0144436254227 0 0 0 0 67.494408684302471 -12.02048302635103 0 -12.02048302635103 -68.982163064219094 0 0 0 0 52.858179211325478 -23.872578395113123 0 -23.872578395113123 -29.677004452313668 0 0 0 0 53.996946513419971 -36.985564306486594 0 -36.985564306486594 -25.106437528953393 0 0 0 0 50.59440081359935 -0.73253186307192664 0 -0.73253186307192664 -66.023197808230179 0 0 0 0 17.058725542941829 -1.4813209972517143 0 -1.4813209972517143 -48.588048823697136 0 0 0 0 39.457740693222149 -38.926741316723565 0 -38.926741316723565 -25.830499222194703 0 0 0 0 65.842478705060785 -57.308400152067861 0 -57.308400152067861 -15.374221683413566 0 0 0 0 48.117397999245441 -32.092545006406908 0 -32.092545006406908 -21.045660914364817 0 0 0 0 55.525917185812432 -39.291116695115761 0 -39.291116695115761 -25.368320153131208 0 0 0 0 46.545269822163391 -51.548683141831361 0 -51.548683141831361 31.638681517712939 0 0 0 0 58.047598506342183 -60.288565477936231 0 -60.288565477936231 29.798990912809131 0 0 0 0 25.952235512129846 -36.877473479631135 0 -36.877473479631135 31.810458639561602 0 0 0 0 38.820775406667963 -53.205471253849282 0 -53.205471253849282 17.588205377349368 0 0 0 0 42.471234167016519 -39.718423760734822 0 -39.718423760734822 -10.464468780548486 0 0 0 0 21.128332304535434 -34.913032393841149 0 -34.913032393841149 -0.74104202294893184 0 0 0 0 49.206228940958681 -48.920077690341031 0 -48.920077690341031 -6.0967003224741347 0 0 0 0 44.100733054627199 -42.441679653745268 0 -42.441679653745268 -7.5063738069636656 0 0 0 0 26.00744207093814 -21.0694837331164 0 -21.0694837331164 8.750390208950293 0 0 0 0 27.647801998668001 -60.818262213915887 0 -60.818262213915887 -28.413776588738074 0 0 0 0 6.7101709853304783 -49.487062180649104 0 -49.487062180649104 18.457390569446488 0 0 0 0 53.968297335522948 -46.364744356706524 0 -46.364744356706524 -30.868314109905782 0 0 0 0 53.169109504262451 -49.902647492839378 0 -49.902647492839378 2.9546737961354665 0 0 0 0 101.04935140977614 -46.721530447583746 0 -46.721530447583746 -32.441042294687122 0 0 0 0 100.87303003881243 -11.747274595753424 0 -11.747274595753424 -76.066466160570144 0 0 0 0 86.171414774064033 -3.4907731537381892 0 -3.4907731537381892 -57.141025610107135 0 0 0 0 58.200481677107746 3.4469427799231198 0 3.4469427799231198 -44.97580376769065 0 0 0 0 74.266842530283611 -97.860027562033167 0 -97.860027562033167 -50.849647777264181 0 0 0 0 27.128505313710775 -21.262231484241283 0 -21.262231484241283 -40.246465480545339 0 0 0 0 30.500317889847793 -42.465162036520042 0 -42.465162036520042 21.909200476371552 0 0 0 0 6.8808744889942943 -1.3055750694830408 0 -1.3055750694830408 1.2117621496179991 0 0 0 0 7.5221883220952463 -6.8534593174877614 0 -6.8534593174877614 0.82168279997773563 0 0 0 0 83.129705748578999 32.355449728157282 0 32.355449728157282 -17.71842380384453 0 0 0 0 361.62259080575677 -87.294003701977317 0 -87.294003701977317 97.313912569369677 0 0 0 0 19.796192328431061 -17.614522753909569 0 -17.614522753909569 9.087803503323812 0 0 0 0 12.450229638347452 -17.842866709270183 0 -17.842866709270183 10.892794694012306 0 0 0 0 21.907923789047345 -48.16055654921098 0 -48.16055654921098 17.420034674340059 0 0 0 0 -1.3648372784638809 -12.340230621650022 0 -12.340230621650022 -3.7785049966371727 0 0 0 0 1.0244497544481419 -47.925400549953793 0 -47.925400549953793 -36.880866610363228 0 0 0 0 350.8905891096656 -131.63755571513275 0 -131.63755571513275 41.210165465504247 0 0 0 0 428.38802356833912 -13.5981497972748 0 -13.5981497972748 32.650817537418334 0 0 0 0 284.77701699530007 -54.974802088112483 0 -54.974802088112483 62.316451456415166 0 0 0 0 0.92335911044963837 0.60619325337319196 0 0.60619325337319196 -0.05660857415170284 0 0 0 0 595.32651188902673 -285.73525906790815 0 -285.73525906790815 52.349165345406448 0 0 0 0 -40.994894845687668 74.389890125515251 0 74.389890125515251 -30.100036633563377 0 0 0 0 389.02996053127572 -130.76969698883704 0 -130.76969698883704 56.871924619287711 0 0 0 0 606.35572485956072 -162.35265833585686 0 -162.35265833585686 -10.350726168901247 0 0 0 0 424.53573081595823 -203.65670775225499 0 -203.65670775225499 89.78212808321814 0 0 0 0 411.49340230962844 -188.23702012783906 0 -188.23702012783906 75.785446777352718 0 0 0 0 424.9454863370047 -175.0912848984608 0 -175.0912848984608 45.614164128921402 0 0 0 0 427.50997716156417 -175.92975796790142 0 -175.92975796790142 43.699899253375406 0 0 0 0 460.74553148879909 -45.089147218369966 0 -45.089147218369966 101.96232547024738 0 0 0 0 460.76213760889743 -178.42533914874238 0 -178.42533914874238 40.215652063783637 0 0 0 0 343.90046470722882 -196.28653973996029 0 -196.28653973996029 91.696721959880961 0 0 0 0 420.52724113487056 -170.31516632849025 0 -170.31516632849025 67.286498604809822 0 0 0 0 418.04507610655855 -162.82823364551268 0 -162.82823364551268 47.985086505832101 0 0 0 0 361.19453116250224 -180.84912089784939 0 -180.84912089784939 52.998748394119957 0 0 0 0 424.57262953261124 -152.42783852146732 0 -152.42783852146732 36.131538999763507 0 0 0 0 460.34117073479865 -171.07673548433581 0 -171.07673548433581 34.278034932552146 0 0 0 0 451.40279634977924 -200.40652436134224 0 -200.40652436134224 66.939874298731411 0 0 0 0 381.23764379932254 -146.36135949067932 0 -146.36135949067932 40.624904536917711 0 0 0 0 352.51408027121033 -109.38931933906221 0 -109.38931933906221 45.359510085223519 0 0 0 0 235.32504244125448 -111.03941799144468 0 -111.03941799144468 65.210004419854613 0 0 0 0 258.00561713267234 -145.22491725862346 0 -145.22491725862346 77.159299388711133 0 0 0 0 136.37382060158416 -80.817171825199239 0 -80.817171825199239 78.830094110669052 0 0 0 0 217.52185573872703 -107.37719335236602 0 -107.37719335236602 73.901487270225061 0 0 0 0 199.64171114111377 -49.580953942422184 0 -49.580953942422184 62.537593058987113 0 0 0 0 85.148406843698467 -32.347572410569001 0 -32.347572410569001 32.16974525396472 0 0 0 0 45.875930568603508 35.478438873625009 0 35.478438873625009 9.4039296048531469 0 0 0 0 134.25128718266205 -109.98130476526654 0 -109.98130476526654 106.5284496604063 0 0 0 0 108.26801650151174 -17.077630970669588 0 -17.077630970669588 48.035889744104679 0 0 0 0 215.24621340649901 -134.5890871748893 0 -134.5890871748893 92.893789059669885 0 0 0 0 202.15954123264237 -147.89227221271631 0 -147.89227221271631 96.158898640701409 0 0 0 0 9.59044449168141 -58.105690656524985 0 -58.105690656524985 95.583363703852584 0 0 0 0 2.6606613770443062 -4.802514756081024 0 -4.802514756081024 7.6580563949419389 0 0 0 0 619.97491920764151 307.87755428963811 0 307.87755428963811 -242.70186302057755 0 0 0 0 237.22453599463915 -239.29385092908149 0 -239.29385092908149 90.654917851675236 0 0 0 0 469.85435964704084 -269.41672299686866 0 -269.41672299686866 58.389951840313188 0 0 0 0 654.63131593778962 -149.00571821191056 0 -149.00571821191056 7.0948511100150427 0 0 0 0 609.63430906455142 56.669178247842552 0 56.669178247842552 140.30193674731709 0 0 0 0 970.07196681954156 -593.36713695255753 0 -593.36713695255753 795.09744882689188 0 0 0 0 -1.4320988902964018 0.21461048718113318 0 0.21461048718113318 0.40528746547454642 0 0 0 0 301.0998931194772 -627.67628199330238 0 -627.67628199330238 346.59561774212943 0 0 0 0 1064.8147901311604 -71.122931092233614 0 -71.122931092233614 -478.43949799192171 0 0 0 0 535.33693355736614 526.25614934330906 0 526.25614934330906 -92.895181316895332 0 0 0 0 44.630370424783905 58.064042864444104 0 58.064042864444104 -71.302214703606296 0 0 0 0 -11.700129693665076 -167.63702266076393 0 -167.63702266076393 70.152114268491914 0 0 0 0 -44.999409848154755 251.8769353259982 0 251.8769353259982 -201.745854695285 0 0 0 0 -30.902730898727896 42.206275240434252 0 42.206275240434252 11.811681187139982 0 0 0 0 -22.402045769864344 -84.972914103000221 0 -84.972914103000221 44.029142597401005 0 0 0 0 -3.9271572486995865 13.323529393034221 0 13.323529393034221 322.72190352998587 0 0 0 0 4.950694627249959 -3.5643881036000664 0 -3.5643881036000664 -3.8471576868436159 0 0 0 0 -50.397764695051592 -38.139398562246697 0 -38.139398562246697 3.9941489276100128 0 0 0 0 5.0794043615751434 -39.092644115499297 0 -39.092644115499297 488.588819762208 0 0 0 0 66.582783361875954 -182.84711958374584 0 -182.84711958374584 93.909475872048006 0 0 0 0 71.517987445666222 -266.71486826115483 0 -266.71486826115483 645.46536210711633 0 0 0 0 262.35178854230617 -372.64013163165589 0 -372.64013163165589 -183.40524708344549 0 0 0 0 247.5923752115923 -278.5204070774459 0 -278.5204070774459 128.77311663947637 0 0 0 0 1.6206432650812985 0.98166025679256563 0 0.98166025679256563 -3.4923095762780538 0 0 0 0 300.62598449604411 -306.90807147124531 0 -306.90807147124531 21.446646097199618 0 0 0 0 -322.38451694007381 -27.54987482709771 0 -27.54987482709771 43.33705697326667 0 0 0 0 204.07671551819658 -208.64600554306389 0 -208.64600554306389 132.23426924803744 0 0 0 0 184.07368991637486 -113.0430209801707 0 -113.0430209801707 -98.669643195323147 0 0 0 0 136.1222908603213 -15.806589728969925 0 -15.806589728969925 -21.33023840084752 0 0 0 0 117.8375196855086 -86.633464920537449 0 -86.633464920537449 25.173852602360057 0 0 0 0 -43.366457873242325 -92.566602201360638 0 -92.566602201360638 79.360159664413459 0 0 0 0 1.1184208674125955 5.3646732896009297 0 5.3646732896009297 -3.0161582965924754 0 0 0 0 9.913925643213588 23.04252416302349 0 23.04252416302349 6.4402330835550856 0 0 0 0 -83.274833087130901 90.72116829254216 0 90.72116829254216 -14.686604468653627 0 0 0 0 15.696764989377698 79.384612145896654 0 79.384612145896654 -94.597417152881917 0 0 0 0 335.99198557442287 31.590300576127902 0 31.590300576127902 -12.103035692064168 0 0 0 0 60.757460856912076 -295.40021866267318 0 -295.40021866267318 -466.07068602006109 0 0 0 0 141.97901809110772 121.11269666724343 0 121.11269666724343 -110.65605678182465 0 0 0 0 -4.1049140203487298 2.7094595342894365 0 2.7094595342894365 1.1817751731430164 0 0 0 0 141.4600132318883 12.504377806687216 0 12.504377806687216 -23.511107253857517 0 0 0 0 114.86431097105378 -7.4539342150774246 0 -7.4539342150774246 -18.823938047529282 0 0 0 0 9.9157041581272267 7.7503518650045748 0 7.7503518650045748 -7.6226004277628405 0 0 0 0 26.407054521468069 7.6581348439618182 0 7.6581348439618182 -7.6724433592298746 0 0 0 0 19.145053866449757 10.535636501945106 0 10.535636501945106 -5.9500433552120704 0 0 0 0 56.95465299479838 -12.337515317836818 0 -12.337515317836818 -31.856974109387465 0 0 0 0 49.496768935132422 -6.4144233516819895 0 -6.4144233516819895 46.559158666237636 0 0 0 0 46.103186136257136 24.914748069173129 0 24.914748069173129 -59.959536087250626 0 0 0 0 34.600548658176535 17.364387236455102 0 17.364387236455102 -21.49032270160037 0 0 0 0 55.465558916002919 6.863231436909075 0 6.863231436909075 -23.142009902902259 0 0 0 0 28.798501943871088 18.486977309149324 0 18.486977309149324 -12.923050732754746 0 0 0 0 29.269977446371996 -1.3690857136211889 0 -1.3690857136211889 -16.0908508200772 0 0 0 0 47.188752663437924 8.7034967338705798 0 8.7034967338705798 -18.409801018627597 0 0 0 0 90.256568946628249 16.714487285617906 0 16.714487285617906 -23.485592925814352 0 0 0 0 63.263158449805587 6.9285951733263715 0 6.9285951733263715 -70.367717071007746 0 0 0 0 39.206869256844328 8.2303437057482647 0 8.2303437057482647 -9.0435009267414426 0 0 0 0 47.820914921001531 3.1111101750536818 0 3.1111101750536818 -23.712076804677224 0 0 0 0 3.1074057688747416 -12.330312967187183 0 -12.330312967187183 12.505315339452864 0 0 0 0 75.486560932542488 -49.210599041505475 0 -49.210599041505475 -33.073191639428842 0 0 0 0 32.416659541423058 6.3262536693567881 0 6.3262536693567881 -14.634866228841354 0 0 0 0 28.236506038505468 -45.094690688551054 0 -45.094690688551054 9.7226299237022431 0 0 0 0 11.144687269978022 -25.360556654914035 0 -25.360556654914035 15.17143001778004 0 0 0 0 86.013227241521236 -22.663219184571062 0 -22.663219184571062 -20.292623486677712 0 0 0 0 62.159071235307636 -14.138903164421059 0 -14.138903164421059 -1.5341433766973944 0 0 0 0 103.33522469640593 -24.424313938962314 0 -24.424313938962314 -41.978326567703334 0 0 0 0 108.41530247398623 -58.115429194697299 0 -58.115429194697299 -13.098525956328103 0 0 0 0 62.277828318001411 32.191617417704492 0 32.191617417704492 -64.918337551951936 0 0 0 0 8.5883570503793862 -4.7458953423730321 0 -4.7458953423730321 2.2249598807786208 0 0 0 0 75.751888498059998 27.43805243036212 0 27.43805243036212 -17.1144291552082 0 0 0 0 51.287795323180035 2.3799837344304251 0 2.3799837344304251 -16.966748393826492 0 0 0 0 21.369737744462327 2.5587686024930463 0 2.5587686024930463 -5.3398406350670484 0 0 0 0 3.4895484857944865 -1.4504716301014469 0 -1.4504716301014469 2.6061233126657211 0 0 0 0 32.906654512538807 13.276356945003499 0 13.276356945003499 -1.4377611040254124 0 0 0 0 668.02919378946535 228.97070531633744 0 228.97070531633744 -177.93653090317002 0 0 0 0 285.41574904278968 177.011873478702 0 177.011873478702 124.48064804452824 0 0 0 0 564.65495890704915 346.0616439676005 0 346.0616439676005 -246.35809239509126 0 0 0 0 -388.59218154242262 -92.97842960172602 0 -92.97842960172602 -41.875137951032229 0 0 0 0 -210.80913491085812 -159.79317922346513 0 -159.79317922346513 -324.31808731149823 0 0 0 0 -12.857576992630072 -11.765605179850851 0 -11.765605179850851 8.5786496902079428 0 0 0 0 -417.38786465360317 -455.58426318114107 0 -455.58426318114107 -917.00009675794718 0 0 0 0 -49.518857454502722 -7.0346557785278492 0 -7.0346557785278492 -289.32966086260785 0 0 0 0 -287.79372589773266 127.0130047010316 0 127.0130047010316 -253.28218356645812 0 0 0 0 28.506238208792638 154.39726657225901 0 154.39726657225901 -397.34603242220237 0 0 0 0 294.49141012266045 40.428658351464037 0 40.428658351464037 -433.57735912409953 0 0 0 0 364.88877599700936 53.964907967308818 0 53.964907967308818 -202.71230860548167 0 0 0 0 646.73917053974583 167.78422395315465 0 167.78422395315465 -220.88918884011389 0 0 0 0 283.87705228765844 177.11313473702558 0 177.11313473702558 -363.65660133347956 0 0 0 0 -357.46707679714018 -41.606481367584365 0 -41.606481367584365 -219.31767818856224 0 0 0 0 -175.19391081841604 -232.60236165605238 0 -232.60236165605238 -66.945020937433583 0 0 0 0 -77.996080173848895 -285.64532652396065 0 -285.64532652396065 207.26335044521056 0 0 0 0 468.9531998395978 -412.17238795818002 0 -412.17238795818002 158.33027211544322 0 0 0 0 412.2525432385155 -203.68249178700808 0 -203.68249178700808 -109.35875909784409 0 0 0 0 580.71303102526872 158.17091575101153 0 158.17091575101153 194.55312024804061 0 0 0 0 741.44894313093391 474.2622851307824 0 474.2622851307824 585.34135204240647 0 0 0 0 1010.0655492054066 33.800674546247137 0 33.800674546247137 16.582670825676303 0 0 0 0 339.23332953327917 -151.74812427769348 0 -151.74812427769348 22.018149197650928 0 0 0 0 2.192320313342293 -0.78656087016027243 0 -0.78656087016027243 4.1761147887650027 0 0 0 0 801.22227217978798 -244.32878224421847 0 -244.32878224421847 22.367363070537294 0 0 0 0 710.77810564136598 181.43524685625653 0 181.43524685625653 93.924652496569706 0 0 0 0 96.864322722365614 151.61043559415793 0 151.61043559415793 398.64863447100379 0 0 0 0 30.6433682476179 -10.991258441680522 0 -10.991258441680522 6.2484688256844869 0 0 0 0 38.473462633002782 -0.94734891422012879 0 -0.94734891422012879 -17.17210145973695 0 0 0 0 -45.564473056448833 -1.0105109360172122 0 -1.0105109360172122 54.669603036084482 0 0 0 0 3.5378231219610399 -1.3767892679958607 0 -1.3767892679958607 14.596648562366777 0 0 0 0 12.930367760316585 -0.55208108579381587 0 -0.55208108579381587 49.344169042611156 0 0 0 0 481.55024530267838 -60.097273600788299 0 -60.097273600788299 37.730114383459295 0 0 0 0 192.86718883844151 18.411110477825105 0 18.411110477825105 57.478536892444481 0 0 0 0 570.20512373681413 -44.470095207832401 0 -44.470095207832401 26.252709581403451 0 0 0 0 29.104489663863205 -56.213882811314761 0 -56.213882811314761 267.70191566486437 0 0 0 0 562.45979046597495 -28.756081030082669 0 -28.756081030082669 30.399604449266917 0 0 0 0 -27.473626120437984 30.966558328892916 0 30.966558328892916 504.96648291537133 0 0 0 0 541.66353151715884 -332.41919590018546 0 -332.41919590018546 318.07283277179954 0 0 0 0 1012.125819634879 -120.35158644463809 0 -120.35158644463809 -6.6773674882271052 0 0 0 0 115.58823383264826 51.311523291025537 0 51.311523291025537 16.069044429111614 0 0 0 0 28.401594727911288 89.227100471617064 0 89.227100471617064 147.74078847691726 0 0 0 0 -66.352478835295187 -365.51196713073381 0 -365.51196713073381 318.05830922058169 0 0 0 0 0.27698127824255536 1.3142680405640021 0 1.3142680405640021 5.3172125446395011 0 0 0 0 -36.801795322058751 58.647271742680886 0 58.647271742680886 35.575601685919992 0 0 0 0 21.641277194255963 -97.460480914308391 0 -97.460480914308391 43.226733369574958 0 0 0 0 -66.81095359128085 -1.6854454065196478 0 -1.6854454065196478 -54.486870739486562 0 0 0 0 -73.834894009691197 172.56958023011651 0 172.56958023011651 -39.742638918900298 0 0 0 0 2.4869761784793809 157.62318274192501 0 157.62318274192501 95.568090213338451 0 0 0 0 -69.594750120231765 -17.869145834817573 0 -17.869145834817573 227.21132635300967 0 0 0 0 -112.72284953704366 -201.66411281173964 0 -201.66411281173964 -37.473327349625379 0 0 0 0 -255.72575768269598 -88.275441816950206 0 -88.275441816950206 242.84669064391619 0 0 0 0 29.017928866029251 -60.633316483365206 0 -60.633316483365206 129.08256526538321 0 0 0 0 158.5552311456704 64.582583071497083 0 64.582583071497083 27.554525914185433 0 0 0 0 297.10174651937905 -43.637363430477478 0 -43.637363430477478 -109.76244968153378 0 0 0 0 131.0901325009836 -175.58469285015178 0 -175.58469285015178 -148.45910037604972 0 0 0 0 277.2665034943484 178.11990888530099 0 178.11990888530099 17.98422004708118 0 0 0 0 59.414101781378207 -13.121320387469432 0 -13.121320387469432 -0.65044838873454136 0 0 0 0 -1.3228142968017096 -0.75113566374659513 0 -0.75113566374659513 1.9665515826000899 0 0 0 0 -17.994484459486557 82.756014722477175 0 82.756014722477175 132.21765305093595 0 0 0 0 -554.15729318404919 -362.6412368673532 0 -362.6412368673532 131.353474111487 0 0 0 0 -323.65848510639626 156.51912431982146 0 156.51912431982146 -141.17847150265698 0 0 0 0 -31.597500111209229 -142.22762240409804 0 -142.22762240409804 146.62308277673856 0 0 0 0 59.991131095426681 -444.07410232489292 0 -444.07410232489292 -393.90603900969472 0 0 0 0 20.543667432284565 -306.95771838119049 0 -306.95771838119049 -401.0705764956632 0 0 0 0 66.357797735147386 -23.823339111213947 0 -23.823339111213947 2.3135394289534283 0 0 0 0 159.56515286587819 16.46739406629149 0 16.46739406629149 -127.76988397143941 0 0 0 0 -376.8622125915158 -626.05677090296138 0 -626.05677090296138 -106.04119361530229 0 0 0 0 13.724827319721129 0.30814158894661148 0 0.30814158894661148 -4.3832465365432931 0 0 0 0 -62.533694600046147 -314.84090008340775 0 -314.84090008340775 -316.8718423684993 0 0 0 0 90.765635820513126 -253.21188153995729 0 -253.21188153995729 -326.13836972887316 0 0 0 0 -64.430119357653894 -167.64504925430884 0 -167.64504925430884 -398.53065036083603 0 0 0 0 -15.402315388637362 -205.44339641290398 0 -205.44339641290398 -373.82929603046261 0 0 0 0 123.89530068796012 -205.74369430450224 0 -205.74369430450224 -457.02022690085278 0 0 0 0 -34.456857451201358 -160.46039659918969 0 -160.46039659918969 -198.99654180963239 0 0 0 0 -108.67897737749809 -219.59795590034702 0 -219.59795590034702 -234.74923491087509 0 0 0 0 111.53055905592191 -25.921612440111744 0 -25.921612440111744 -348.56098435869444 0 0 0 0 107.81864293910621 -110.25088251452166 0 -110.25088251452166 -209.92298355782464 0 0 0 0 143.01635020510003 61.06518059107907 0 61.06518059107907 -52.157900264355661 0 0 0 0 255.22520283636186 67.004242313719828 0 67.004242313719828 -209.2171391183997 0 0 0 0 -24.790500207112927 -81.254018088585724 0 -81.254018088585724 -209.61836341982371 0 0 0 0 43.625871053596455 -4.6033670297618627 0 -4.6033670297618627 -1.4567523779141318 0 0 0 0 74.374250259977998 -32.416033937854081 0 -32.416033937854081 -246.02910992815032 0 0 0 0 153.20096265395114 73.66003914141811 0 73.66003914141811 -188.05072790117651 0 0 0 0 94.706441523332614 41.576891139149836 0 41.576891139149836 -116.04925623998645 0 0 0 0 216.58155548970899 193.78494880688379 0 193.78494880688379 -18.652672431655219 0 0 0 0 167.83011900483689 306.18707307662817 0 306.18707307662817 55.816836949583603 0 0 0 0 47.609797251119744 233.36371658990538 0 233.36371658990538 135.94953932766066 0 0 0 0 -65.219072615131154 96.619061730287285 0 96.619061730287285 51.774997036269951 0 0 0 0 169.01351033869287 166.64296401172123 0 166.64296401172123 -41.963869662293291 0 0 0 0 372.93515132143511 -340.11268266293553 0 -340.11268266293553 -558.33888270758462 0 0 0 0 1490.6445842506873 69.330783922114733 0 69.330783922114733 -734.91601598124817 0 0 0 0 162.68595450347493 386.05849533292087 0 386.05849533292087 -12.957743492293048 0 0 0 0 427.11090455763042 653.02644580090032 0 653.02644580090032 202.11753540270843 0 0 0 0 -26.872894473475753 325.17812269450451 0 325.17812269450451 422.42594182138828 0 0 0 0 678.4091470996209 -328.33707067754563 0 -328.33707067754563 174.65150927073591 0 0 0 0 5.3101982206838443 4.3505696325005658 0 4.3505696325005658 4.0808541227030943 0 0 0 0 505.82000255290041 -468.65077859098699 0 -468.65077859098699 348.85754243180372 0 0 0 0 286.91943782314775 -339.63240153542233 0 -339.63240153542233 320.52628822860532 0 0 0 0 441.33718400471844 -141.90756189919716 0 -141.90756189919716 33.658041009859744 0 0 0 0 90.095789259896264 47.829077668095579 0 47.829077668095579 -158.50825540465667 0 0 0 0 50.645252923422959 92.026560947069811 0 92.026560947069811 -183.36508463865403 0 0 0 0 221.75770415382431 -265.1770971615569 0 -265.1770971615569 239.58006623392384 0 0 0 0 354.6793076466638 -91.644861281817725 0 -91.644861281817725 39.282858700776615 0 0 0 0 20.740217976299448 9.8734107833745313 0 9.8734107833745313 5.5428075610852954 0 0 0 0 3.6584032737723362 1.9850376175438313 0 1.9850376175438313 2.0071833996793145 0 0 0 0 70.599616625098861 -200.84627002638808 0 -200.84627002638808 538.86754862481803 0 0 0 0 116.92478618249879 -66.305747578210571 0 -66.305747578210571 123.59014088534855 0 0 0 0 409.71455446958862 8.1638970259920569 0 8.1638970259920569 132.91321320894212 0 0 0 0 373.04153859886355 -327.92858244900776 0 -327.92858244900776 194.51026885214196 0 0 0 0 185.35762115305988 -176.206899629242 0 -176.206899629242 104.17096256622574 0 0 0 0 76.583196696563391 78.610159504282365 0 78.610159504282365 -8.7660776845264081 0 0 0 0 339.19073351902443 -95.402883910442 0 -95.402883910442 94.4154493213141 0 0 0 0 233.33031160137762 -91.004305515866463 0 -91.004305515866463 66.845374335741781 0 0 0 0 159.73132066326798 -132.09276061142191 0 -132.09276061142191 372.40713597713238 0 0 0 0 185.22582409612369 38.556671338093906 0 38.556671338093906 -10.651736042767425 0 0 0 0 4.2388003835512791 73.761376974784866 0 73.761376974784866 113.57785334632587 0 0 0 0 -170.78421563803568 -25.821179138215712 0 -25.821179138215712 73.252959898233371 0 0 0 0 -5.0101953742268961 29.220895363119979 0 29.220895363119979 -71.633942481269742 0 0 0 0 35.004001920271548 73.838283315042645 0 73.838283315042645 -189.01733711134128 0 0 0 0 -12.053327872461523 109.04047408361771 0 109.04047408361771 -58.717884948609935 0 0 0 0 24.292398830439197 99.210520588341069 0 99.210520588341069 -10.58913990348583 0 0 0 0 21.621971319473232 47.930433395572649 0 47.930433395572649 -87.940072153161509 0 0 0 0 52.30461673582613 129.11356660313459 0 129.11356660313459 -158.39231862193847 0 0 0 0 -572.36690176656703 96.046394081976359 0 96.046394081976359 -35.054231774931964 0 0 0 0 231.03332117287209 -211.98940084946699 0 -211.98940084946699 27.938734748848219 0 0 0 0 108.86821274677641 8.8677323621651567 0 8.8677323621651567 41.559098524508386 0 0 0 0 135.08894172514556 -10.605918871223253 0 -10.605918871223253 -10.955075775782916 0 0 0 0 -73.621631821850315 89.112480487161747 0 89.112480487161747 -39.565397665011318 0 0 0 0 -11.739764931146055 -148.18315198214594 0 -148.18315198214594 14.109605453225328 0 0 0 0 2.1740284072996019 -1.7072458224896039 0 -1.7072458224896039 0.55887815761576209 0 0 0 0 181.15736362614552 129.54537360586414 0 129.54537360586414 -78.288335476992756 0 0 0 0 157.6824426385283 -199.03998235356607 0 -199.03998235356607 -37.539981037825328 0 0 0 0 127.37355854437919 -153.74513564239101 0 -153.74513564239101 11.952693144941804 0 0 0 0 118.75228885094839 -131.68031778722263 0 -131.68031778722263 102.95766079771465 0 0 0 0 91.186514482120401 -42.444355099192876 0 -42.444355099192876 116.52410556432528 0 0 0 0 243.64976387153729 -211.99427840660098 0 -211.99427840660098 170.64812641688684 0 0 0 0 -0.028913598845662136 -0.10498053525968487 0 -0.10498053525968487 -0.2719451553025467 0 0 0 0 57.115407949633664 -74.667911582254078 0 -74.667911582254078 240.62364382516591 0 0 0 0 -17.248528882097162 -64.84498450598619 0 -64.84498450598619 103.04055834897986 0 0 0 0 -18.317853713469958 -52.155538919713223 0 -52.155538919713223 -11.772749891762032 0 0 0 0 2.8053003498966973 -3.4240159324131412 0 -3.4240159324131412 -1.6901676330000024 0 0 0 0 71.363394142361358 -101.51957128036247 0 -101.51957128036247 98.991326253352781 0 0 0 0 170.0663363283893 -241.86940428480864 0 -241.86940428480864 119.44352221096051 0 0 0 0 41.274170586657419 -108.15461763760385 0 -108.15461763760385 252.86063062824178 0 0 0 0 -2.0525815586497593 11.833330421823362 0 11.833330421823362 25.118748534685587 0 0 0 0 -124.62962468217302 -30.940187991587436 0 -30.940187991587436 49.477903677977451 0 0 0 0 -52.599390230891004 -26.798658111525199 0 -26.798658111525199 20.212211924317899 0 0 0 0 -2.0354162461364567 10.687136874899252 0 10.687136874899252 21.309950511175234 0 0 0 0 4.9402896043466171 -31.4935331019758 0 -31.4935331019758 2.5985752953392875 0 0 0 0 4.4250447682883305 -3.3211982077420528 0 -3.3211982077420528 -0.63930533065217787 0 0 0 0 19.738142182730371 -32.181875228162767 0 -32.181875228162767 2.6239300109244965 0 0 0 0 11.393264309910592 -15.916996517605639 0 -15.916996517605639 77.995023783303083 0 0 0 0 27.27002773501772 -4.5657773734432681 0 -4.5657773734432681 -0.57362163977427372 0 0 0 0 0.19445356984178375 -0.062204912592491723 0 -0.062204912592491723 -0.4514390667410102 0 0 0 0 13.307560949356457 89.398653682572046 0 89.398653682572046 126.61077800989597 0 0 0 0 -3.2879940161639922 -1.6384548321865822 0 -1.6384548321865822 -0.74519940712307231 0 0 0 0 -4.1247382565779844 -7.1615252610052949 0 -7.1615252610052949 1.5511766804628451 0 0 0 0 -9.9740116357570514 -4.3643505448274595 0 -4.3643505448274595 3.4465457006728002 0 0 0 0 0.41374824012746103 -1.7943973823619785 0 -1.7943973823619785 3.9061353933543614 0 0 0 0 -9.3018817005449819 7.1545351149215932 0 7.1545351149215932 3.6614931772801356 0 0 0 0 4.812008286038008 -0.0868999993502797 0 -0.0868999993502797 -0.31258151577660076 0 0 0 0 -1.400972321844165 4.8277937787713192 0 4.8277937787713192 5.5295183066565414 0 0 0 0 499.14987987640416 751.30659937412747 0 751.30659937412747 824.88710158584854 0 0 0 0 15.269488878519041 -3.1734197513973186 0 -3.1734197513973186 -0.6475574827948094 0 0 0 0 3.0365095834713429 2.9054821034976328 0 2.9054821034976328 0.91100398684773154 0 0 0 0 -2.1467499421851244 3.2553467943184273 0 3.2553467943184273 5.3373327543204709 0 0 0 0 20.259224590150168 -2.4162525986184136 0 -2.4162525986184136 2.3037576541973204 0 0 0 0 29.658145985056763 -73.71313071969098 0 -73.71313071969098 236.87175258827028 0 0 0 0 32.104220601264387 -64.456495253276671 0 -64.456495253276671 196.18955342580011 0 0 0 0 2.3256886272122017 -0.77195534954380207 0 -0.77195534954380207 3.0992963168477448 0 0 0 0 -0.96450870317349313 0.015498762922007359 0 0.015498762922007359 0.55360819467931055 0 0 0 0 -99.870163612795295 205.93274116247335 0 205.93274116247335 193.83787876641236 0 0 0 0 55.622604071744718 79.018541501465279 0 79.018541501465279 128.2247049241887 0 0 0 0 -72.503321170632262 137.64211803734202 0 137.64211803734202 747.19569883239683 0 0 0 0 -65.116037155326921 181.87019903944497 0 181.87019903944497 36.905894160852768 0 0 0 0 -0.18877306574266584 1.3754644722867226 0 1.3754644722867226 -1.6434515400126459 0 0 0 0 269.45709806575178 158.27396208587095 0 158.27396208587095 64.960573255807049 0 0 0 0 189.96750705249724 139.37599002583568 0 139.37599002583568 74.503013729468762 0 0 0 0 -530.47794549903483 257.97230561029119 0 257.97230561029119 185.01784208862614 0 0 0 0 447.2481030063791 380.74277932024143 0 380.74277932024143 165.35625357849344 0 0 0 0 443.95017522465059 573.77184359703188 0 573.77184359703188 -40.500999424346446 0 0 0 0 102.1334471826849 107.10281399478731 0 107.10281399478731 113.39815066399296 0 0 0 0 -85.847278424873366 49.352345880047494 0 49.352345880047494 -105.93733134340414 0 0 0 0 2.3517694306353576 2.9299944003359286 0 2.9299944003359286 -5.9017401738064317 0 0 0 0 162.25892488249519 187.39520606839937 0 187.39520606839937 203.83064230389232 0 0 0 0 191.45620267096911 84.601556369418688 0 84.601556369418688 17.242343696717398 0 0 0 0 299.09353836617083 165.1043194152968 0 165.1043194152968 46.182242884394725 0 0 0 0 99.295441659196513 57.09847296886096 0 57.09847296886096 57.373850270541482 0 0 0 0 78.20713028110913 158.28663048547924 0 158.28663048547924 203.52901289233228 0 0 0 0 60.447330583505391 77.478257148493412 0 77.478257148493412 87.756017711074719 0 0 0 0 89.547592149467164 -45.716172383784041 0 -45.716172383784041 7.6682033511722238 0 0 0 0 125.90131243437645 -86.273374559716444 0 -86.273374559716444 80.358184589318057 0 0 0 0 -190.58254257854423 18.865308873302297 0 18.865308873302297 90.53691114689741 0 0 0 0 -2.2847737119167491 12.467601542525614 0 12.467601542525614 27.748636641954832 0 0 0 0 -114.98725896466021 52.834382348531165 0 52.834382348531165 49.018983910769634 0 0 0 0 86.824660886079073 98.064748702628464 0 98.064748702628464 23.002214095996251 0 0 0 0 96.851208642488928 185.51106634080327 0 185.51106634080327 105.89132673263869 0 0 0 0 297.56795921055163 22.504859827656333 0 22.504859827656333 -52.569818594031858 0 0 0 0 130.85359414725099 38.010560792207343 0 38.010560792207343 -50.690221624560053 0 0 0 0 152.145510202281 -22.624773319089854 0 -22.624773319089854 -24.244913622000411 0 0 0 0 3.430192084807544 -0.1305463183544191 0 -0.1305463183544191 -1.6624681068366018 0 0 0 0 133.08013740796378 -81.918306201321286 0 -81.918306201321286 38.311120946742676 0 0 0 0 55.31389150378709 -1.3093474638644516 0 -1.3093474638644516 -39.323328772780769 0 0 0 0 1.9766055174799035 0.60985038900182076 0 0.60985038900182076 -6.0689273437291309 0 0 0 0 26.884500905231107 -18.139455726412166 0 -18.139455726412166 24.095526780053206 0 0 0 0 -0.23190259538577251 0.21487755579519785 0 0.21487755579519785 -2.0226512590139767 0 0 0 0 -39.242917761956051 -133.13066310533645 0 -133.13066310533645 75.992058396774951 0 0 0 0 -9.8700238320889184 -31.262228154464346 0 -31.262228154464346 -51.660209504682257 0 0 0 0 -19.868370847281767 -30.093870824395438 0 -30.093870824395438 -38.515570843813208 0 0 0 0 83.041333671979373 -220.87356175683982 0 -220.87356175683982 28.805724393104271 0 0 0 0 2.4587452369761706 -3.9722811440687416 0 -3.9722811440687416 -4.0296250973537902 0 0 0 0 165.04270458270912 13.572373698681361 0 13.572373698681361 -136.67983984448054 0 0 0 0 -24.688612999263569 -57.326742083793135 0 -57.326742083793135 -2.9180384175895142 0 0 0 0 109.84552931966027 -1.1022893157033877 0 -1.1022893157033877 -64.048801127950128 0 0 0 0 100.52126420647255 -10.551612734740026 0 -10.551612734740026 -67.117471791319758 0 0 0 0 81.56927485082997 2.2956887603575566 0 2.2956887603575566 -53.953415346997303 0 0 0 0 117.87008297167631 20.621511008320013 0 20.621511008320013 -47.331973893829897 0 0 0 0 107.43933035746159 7.7935319023305141 0 7.7935319023305141 -44.821867372372537 0 0 0 0 111.80463829881046 34.475550090538178 0 34.475550090538178 -37.283262882850238 0 0 0 0 98.012269911501789 30.431392012702716 0 30.431392012702716 -36.126846307969949 0 0 0 0 47.503338928453047 -2.9135757494220318 0 -2.9135757494220318 2.3187606831673593 0 0 0 0 90.286195493616106 19.759413127112435 0 19.759413127112435 -35.91102498776381 0 0 0 0 77.005611621076241 19.857346022901012 0 19.857346022901012 -29.60269637483816 0 0 0 0 89.755875908740563 25.299102236886046 0 25.299102236886046 -39.108226120922836 0 0 0 0 25.511312365400954 23.860177529778554 0 23.860177529778554 -19.583269622165801 0 0 0 0 5.5209738351641704 4.9938293808576972 0 4.9938293808576972 14.190137410664988 0 0 0 0 21.527448733540041 8.2679092060355117 0 8.2679092060355117 11.386697302744189 0 0 0 0 72.184052884491393 31.511474151215225 0 31.511474151215225 -56.264273642846092 0 0 0 0 23.487717677780893 24.799753458947905 0 24.799753458947905 19.571512803709908 0 0 0 0 9.7659536660357844 58.224017887534245 0 58.224017887534245 4.0598174700861307 0 0 0 0 -10.675248922390892 38.470048581150742 0 38.470048581150742 15.077374502184625 0 0 0 0 88.851702524271332 50.46854302409708 0 50.46854302409708 -9.0538312678335728 0 0 0 0 74.587218075510464 25.007068077136182 0 25.007068077136182 -13.322060224164943 0 0 0 0 83.155238324674428 45.519779900780804 0 45.519779900780804 -16.225558413088038 0 0 0 0 -19.981002524567884 85.642553610094637 0 85.642553610094637 -10.582145329319303 0 0 0 0 30.034683980309637 49.224960587289388 0 49.224960587289388 -14.847990960908191 0 0 0 0 60.991666855610674 14.78454192824438 0 14.78454192824438 -16.744604128427 0 0 0 0 73.598746518953703 33.844581582473438 0 33.844581582473438 -33.552775083980123 0 0 0 0 96.360527341952547 -13.470481715126198 0 -13.470481715126198 -13.819335470518809 0 0 0 0 93.447020478051854 -30.023707397172075 0 -30.023707397172075 16.119979564316964 0 0 0 0 117.22368557399022 14.832802946594484 0 14.832802946594484 -24.344713187707384 0 0 0 0 158.63737188906816 -78.935585751408098 0 -78.935585751408098 37.451315336384368 0 0 0 0 124.88719199073967 -46.327273761593005 0 -46.327273761593005 5.9487866068356539 0 0 0 0 103.55047943926184 -115.72319379034195 0 -115.72319379034195 148.82175481569101 0 0 0 0 142.44460356375203 -89.015314089171397 0 -89.015314089171397 34.254467117732474 0 0 0 0 405.92713025584817 -26.686983262735851 0 -26.686983262735851 -70.952941242441284 0 0 0 0 181.32746671152017 14.989067529173553 0 14.989067529173553 -34.163275202864043 0 0 0 0 124.23032046682783 37.207299990896104 0 37.207299990896104 -35.241074663197878 0 0 0 0 136.85017625485489 71.417333100438782 0 71.417333100438782 -15.598187176527972 0 0 0 0 -64.356572922406485 154.45767988316834 0 154.45767988316834 -0.85891375953156057 0 0 0 0 -2.0848150306680111 1.8541623744629305 0 1.8541623744629305 -2.6453148737905634 0 0 0 0 79.988409449841129 -438.20707365332083 0 -438.20707365332083 -77.863383999995207 0 0 0 0 -124.77977060466583 33.69102783831562 0 33.69102783831562 37.879077769778633 0 0 0 0 -57.319044345786097 33.537340625033835 0 33.537340625033835 10.822280033944253 0 0 0 0 8.2528579713605836 -1.1670333076216455 0 -1.1670333076216455 -1.7772372466762691 0 0 0 0 -33.173016220272984 8.6245746308042044 0 8.6245746308042044 36.476985509179173 0 0 0 0 19.160961584559118 37.596111320605303 0 37.596111320605303 -81.18654366480007 0 0 0 0 -15.283137452788651 -35.664145316948805 0 -35.664145316948805 -55.213094811217559 0 0 0 0 16.612714921109728 19.858954935824841 0 19.858954935824841 -5.5047246030219412 0 0 0 0 8.3787405168186524 32.437165487641096 0 32.437165487641096 -19.846337298670278 0 0 0 0 -17.446725991147105 16.656970915469628 0 16.656970915469628 -4.4575753729641292 0 0 0 0 26.543817749101436 37.442481389421118 0 37.442481389421118 -34.387812342781217 0 0 0 0 15.45836841466371 24.954052518907247 0 24.954052518907247 -36.656943885074725 0 0 0 0 24.368559736933094 23.225908746055097 0 23.225908746055097 -37.568518322032105 0 0 0 0 -22.394151830390911 -36.587116950589305 0 -36.587116950589305 -48.431030254243467 0 0 0 0 2.3968285196258563 5.0637180851586692 0 5.0637180851586692 -11.082609893758541 0 0 0 0 27.943979694341564 -10.65559769463232 0 -10.65559769463232 -3.3924476919965469 0 0 0 0 45.730603868258186 -6.8538986625482039 0 -6.8538986625482039 -6.4887135824135385 0 0 0 0 37.515310099814741 -5.8890746014314317 0 -5.8890746014314317 -5.4464750518892373 0 0 0 0 24.953353855795285 29.141112184604026 0 29.141112184604026 -43.63184651920119 0 0 0 0 31.381318003986962 -2.2370948580539789 0 -2.2370948580539789 0.79032559346524067 0 0 0 0 35.635359986757976 -7.2467168842979959 0 -7.2467168842979959 2.9502106216682478 0 0 0 0 36.379662097926712 -5.6244193504432545 0 -5.6244193504432545 -4.1569988846196351 0 0 0 0 52.459135583107127 8.8538534483936928 0 8.8538534483936928 -94.391436689457805 0 0 0 0 18.970480892217893 7.6387889552688648 0 7.6387889552688648 -60.271874598408431 0 0 0 0 46.378874995352817 33.599536028450984 0 33.599536028450984 -47.565436828661177 0 0 0 0 30.107445530175028 27.511590737229653 0 27.511590737229653 -33.192060916364426 0 0 0 0 61.925791544636013 9.1867521679787387 0 9.1867521679787387 -34.625371708031707 0 0 0 0 70.664678269604337 -16.79166702758539 0 -16.79166702758539 -11.781033581551583 0 0 0 0 77.09823842944752 21.825708702343945 0 21.825708702343945 -38.605150614463128 0 0 0 0 52.746556835787487 10.928572908099341 0 10.928572908099341 -43.321846065878162 0 0 0 0 48.750330716313329 33.331989716227326 0 33.331989716227326 -66.964309092839358 0 0 0 0 52.066958832321689 -2.436754351098898 0 -2.436754351098898 -45.037781616540087 0 0 0 0 56.509987580990128 9.9209467199978008 0 9.9209467199978008 -62.212509004105414 0 0 0 0 41.923337162967073 -15.225639338503925 0 -15.225639338503925 -1.4025771911001357 0 0 0 0 -1.6224502448458225 16.425389355222251 0 16.425389355222251 -60.516637988150933 0 0 0 0 48.420905805454822 41.456814738053254 0 41.456814738053254 -112.33575006869023 0 0 0 0 39.735562746296637 18.995390570464338 0 18.995390570464338 -38.982846429094479 0 0 0 0 58.823349162172235 -8.6222509687935371 0 -8.6222509687935371 -35.630179215886074 0 0 0 0 15.623354693263536 -16.228405670820962 0 -16.228405670820962 -36.837528405988905 0 0 0 0 43.167896834522253 8.132396412710591 0 8.132396412710591 -37.16314258922057 0 0 0 0 153.71582032698643 -3.3837221945415195 0 -3.3837221945415195 -37.009636430495902 0 0 0 0 -60.41588019784831 -40.193236687397416 0 -40.193236687397416 40.154792628743962 0 0 0 0 13.238208161070361 -2.2386819224344663 0 -2.2386819224344663 -1.8055871550964184 0 0 0 0 -0.26473184897761115 -0.18733344795768403 0 -0.18733344795768403 -0.24160367207531053 0 0 0 0 15.252060780854663 -2.2752178557320804 0 -2.2752178557320804 -3.1612942542251403 0 0 0 0 14.48431432529469 -11.544387298595211 0 -11.544387298595211 -19.831860084349955 0 0 0 0 21.944470983027713 -3.7876244898316145 0 -3.7876244898316145 -23.384696463213913 0 0 0 0 34.882448338757968 -8.7439914422749325 0 -8.7439914422749325 12.849368091185397 0 0 0 0 25.138265375967933 1.8134460327316049 0 1.8134460327316049 -0.53120626491719025 0 0 0 0 1.9862826139142271 -18.884044374759242 0 -18.884044374759242 -7.9818028219910957 0 0 0 0 24.898136341580539 7.618077898599779 0 7.618077898599779 -3.4112489389003713 0 0 0 0 39.704571072768886 -3.9442136982202101 0 -3.9442136982202101 -8.1617506497086652 0 0 0 0 24.043259831902105 7.9368383493056172 0 7.9368383493056172 4.2046964781353608 0 0 0 0 31.11957173221316 7.9901415885510829 0 7.9901415885510829 -3.7196911788867784 0 0 0 0 21.846392348234076 0.29202690301508483 0 0.29202690301508483 -9.1702647273265825 0 0 0 0 28.689204127556877 6.66491473264864 0 6.66491473264864 -8.5639024173651705 0 0 0 0 3.3933042231020067 3.3382628551858886 0 3.3382628551858886 -3.3866214179296521 0 0 0 0 41.420141361908463 -2.4005512977944932 0 -2.4005512977944932 -8.9897245608840421 0 0 0 0 -114.7562970911531 96.436250141764276 0 96.436250141764276 -49.414639099152964 0 0 0 0 -35.663447130951681 12.838514147799145 0 12.838514147799145 19.714586316047217 0 0 0 0 38.112222920003092 -6.323389798677411 0 -6.323389798677411 -1.6831456500001876 0 0 0 0 -110.94965876919173 413.30214370747444 0 413.30214370747444 -314.70679609130866 0 0 0 0 12.614519249385921 2.6598874229828198 0 2.6598874229828198 0.12997235055900092 0 0 0 0 928.22687844722532 209.780971459179 0 209.780971459179 -628.35591843857992 0 0 0 0 23.893888966849772 7.1520735613353281 0 7.1520735613353281 -1.8716992255458536 0 0 0 0 15.267094508890295 3.9340344672423271 0 3.9340344672423271 0.7392040644615463 0 0 0 0 15.720432148045802 -2.731585946064456 0 -2.731585946064456 -4.44699247954577 0 0 0 0 20.428149713101448 -1.6216125830635519 0 -1.6216125830635519 -5.021949176176804 0 0 0 0 19.808669474950875 0.41056894225675933 0 0.41056894225675933 -2.3700975181454851 0 0 0 0 15.389053385792067 -1.2170637311440942 0 -1.2170637311440942 -2.0435734838483768 0 0 0 0 14.541930877923733 -0.65459906857427086 0 -0.65459906857427086 -2.3865645253084296 0 0 0 0 15.541775328943913 1.4507557788190866 0 1.4507557788190866 -1.3090188934547768 0 0 0 0 10.087638416516711 1.8138794158584233 0 1.8138794158584233 -0.99615928669265941 0 0 0 0 11.702458385305363 -1.5280125215518865 0 -1.5280125215518865 -0.32210225539279236 0 0 0 0 2.7857843750011853 -0.91858939680287222 0 -0.91858939680287222 -0.2799179404905292 0 0 0 0 12.63251365603719 2.4099101503850306 0 2.4099101503850306 -1.6403114924705733 0 0 0 0 11.990939160779817 3.9214156096546162 0 3.9214156096546162 -2.7706888845107187 0 0 0 0 296.59511791029945 -570.46893754259736 0 -570.46893754259736 790.99117498348983 0 0 0 0 13.032287788271788 -3.1135655180757453 0 -3.1135655180757453 6.2703418422458412 0 0 0 0 10.029063175576823 0.93738933109839451 0 0.93738933109839451 -0.18488978575819415 0 0 0 0 11.077371169027174 -1.7450990802281581 0 -1.7450990802281581 5.479483225802511 0 0 0 0 12.59831243037479 -1.1441339862413571 0 -1.1441339862413571 2.2074780875250894 0 0 0 0 10.934819690487416 1.386400922208928 0 1.386400922208928 -0.088315839496925896 0 0 0 0 16.294436997297453 -1.8414826524438581 0 -1.8414826524438581 -0.89888692380526436 0 0 0 0 4.1159671548449168 -0.40300654602540931 0 -0.40300654602540931 -1.4847216072492913 0 0 0 0 -51.954710647361935 24.443683892655713 0 24.443683892655713 14.339399023641818 0 0 0 0 18.776431627273269 -0.023932425643408806 0 -0.023932425643408806 -2.1357730894881115 0 0 0 0 31.515337794728111 34.585527680470591 0 34.585527680470591 -40.417388245841266 0 0 0 0 24.451396064247092 4.505171906496642 0 4.505171906496642 -31.294057351551373 0 0 0 0 142.66409724106779 2.173971635962971 0 2.173971635962971 -33.10794640305221 0 0 0 0 33.063608015349018 88.471080949217821 0 88.471080949217821 42.859668868806921 0 0 0 0 38.733968292093778 -101.36252824056493 0 -101.36252824056493 62.164316479911577 0 0 0 0 15.2490680978608 -0.44666654222704949 0 -0.44666654222704949 -0.28886993432570307 0 0 0 0 64.400810254897806 -134.79135985756761 0 -134.79135985756761 50.476395171099284 0 0 0 0 44.403886907821288 -62.406291142401642 0 -62.406291142401642 -49.88389117558836 0 0 0 0 35.563867944118101 -103.19025733002309 0 -103.19025733002309 1.1953165944655666 0 0 0 0 21.775870260204101 -93.192030057320835 0 -93.192030057320835 84.96249934367188 0 0 0 0 27.241207541679614 -63.809832385918071 0 -63.809832385918071 105.18413586560973 0 0 0 0 99.036763710275409 -156.26601335595501 0 -156.26601335595501 214.41045804001624 0 0 0 0 11.212589331007621 -46.500055258368889 0 -46.500055258368889 145.80522259596728 0 0 0 0 19.010354819969507 -32.557345808814262 0 -32.557345808814262 146.16592212422529 0 0 0 0 -23.92494376905961 19.001437838008314 0 19.001437838008314 271.16106830233366 0 0 0 0 -8.8185809188732378 1.6939670131567794 0 1.6939670131567794 12.463270589959773 0 0 0 0 3.9670826667570509 -86.580995808060834 0 -86.580995808060834 122.0384780798604 0 0 0 0 104.01059991167858 -63.047161169788637 0 -63.047161169788637 6.780482851670584 0 0 0 0 28.502490153536201 -55.980178540564339 0 -55.980178540564339 38.232331993679509 0 0 0 0 17.583320753328735 -50.421608977594587 0 -50.421608977594587 96.945976512451125 0 0 0 0 62.994212572848483 -72.159583460316298 0 -72.159583460316298 3.4925673705010922 0 0 0 0 74.661974716218538 -226.52177522303282 0 -226.52177522303282 99.207877323926368 0 0 0 0 -18.088673063042165 -6.6077342285502283 0 -6.6077342285502283 7.9052710803480704 0 0 0 0 45.547426567434741 -95.046291434706518 0 -95.046291434706518 2.2440871852641067 0 0 0 0 86.492495185273583 9.2286997719172632 0 9.2286997719172632 -62.275960671293433 0 0 0 0 108.03660820744699 -160.64157185866361 0 -160.64157185866361 131.55041969754552 0 0 0 0 37.118867938639596 32.022807679386766 0 32.022807679386766 27.64978020566619 0 0 0 0 61.419309617712372 -3.6230074910591927 0 -3.6230074910591927 -3.1416822622876261 0 0 0 0 116.95122600617833 -113.92406350513102 0 -113.92406350513102 -298.0703454332363 0 0 0 0 41.906174893214484 70.489159555691458 0 70.489159555691458 -111.40782562374363 0 0 0 0 15.521644487384805 2.5822443871485348 0 2.5822443871485348 -3.5906549793007545 0 0 0 0 98.168571752408752 -78.127149492898241 0 -78.127149492898241 -249.61869574529351 0 0 0 0 95.989033871563151 92.068631374384267 0 92.068631374384267 -226.02455725831487 0 0 0 0 388.07571680433466 117.47191375060879 0 117.47191375060879 -370.67477626816719 0 0 0 0 140.21998468678794 -422.51422145119 0 -422.51422145119 -38.482572122613419 0 0 0 0 116.42801584032713 -142.12855013039143 0 -142.12855013039143 252.79761581848879 0 0 0 0 34.621983755612746 -236.02111879468566 0 -236.02111879468566 977.61126708953952 0 0 0 0 881.49305745505262 -562.10637653786534 0 -562.10637653786534 155.87994455877583 0 0 0 0 278.88202455255669 273.93578059669699 0 273.93578059669699 337.35209692124749 0 0 0 0 -263.02181850711349 516.95031721442638 0 516.95031721442638 322.48029741774371 0 0 0 0 2.2284177386736133 -6.6233513471692191 0 -6.6233513471692191 4.3973841046198459 0 0 0 0 -730.15276583004743 280.91751534866944 0 280.91751534866944 -215.36074603603765 0 0 0 0 8.609659526534017 -4.0924780167968038 0 -4.0924780167968038 -0.78833915420891998 0 0 0 0 1.9851183453288854 0.11601187323213935 0 0.11601187323213935 0.54844556087820351 0 0 0 0 452.89935374207562 -167.19449954158699 0 -167.19449954158699 43.401903901217054 0 0 0 0 364.44881575871841 -50.427984168814874 0 -50.427984168814874 25.754766161477392 0 0 0 0 122.51562430127524 632.21820013995625 0 632.21820013995625 -297.05407105071663 0 0 0 0 304.36294498411007 0.017838366075594081 0 0.017838366075594081 -12.933168628353272 0 0 0 0 15.696989708289038 -0.54367224292812466 0 -0.54367224292812466 4.5571205320847525 0 0 0 0 5.7141732228291175 -3.0579767235144573 0 -3.0579767235144573 -0.807409839704884 0 0 0 0 13.07904754404808 7.6711502170706041 0 7.6711502170706041 13.412903987283471 0 0 0 0 456.5422517802217 17.392562408179174 0 17.392562408179174 -102.83274744520888 0 0 0 0 378.11140223889379 120.04397453303682 0 120.04397453303682 -212.12501864576188 0 0 0 0 326.78091035373654 109.98640610437009 0 109.98640610437009 -97.669302558412483 0 0 0 0 325.51742634549737 105.74200555225661 0 105.74200555225661 -104.55459026187991 0 0 0 0 303.05360044230474 95.142808752075183 0 95.142808752075183 -42.112048282582094 0 0 0 0 274.34556865631021 112.20102644460638 0 112.20102644460638 66.097685276973337 0 0 0 0 271.27253667550394 164.30475569587151 0 164.30475569587151 -60.957183480133608 0 0 0 0 195.14724988857051 211.49531108313192 0 211.49531108313192 -113.24553073019433 0 0 0 0 254.23498521733563 139.98338765631274 0 139.98338765631274 -26.76377214541769 0 0 0 0 268.89051271702192 121.53479835889286 0 121.53479835889286 -170.73652545933942 0 0 0 0 272.44034806810669 141.33308799485405 0 141.33308799485405 -107.56279063407692 0 0 0 0 50.655111072273428 -14.442013301873967 0 -14.442013301873967 3.6453468618466163 0 0 0 0 446.45726677023049 -200.09195000311126 0 -200.09195000311126 -228.11217532167029 0 0 0 0 319.17370253015542 139.93533959308422 0 139.93533959308422 -293.51321565995045 0 0 0 0 34.541602336685173 -93.286109110614234 0 -93.286109110614234 3.5431112509224931 0 0 0 0 499.38907142161042 -17.133616517675819 0 -17.133616517675819 -170.89058882567429 0 0 0 0 5.8373782421695068 -76.482514578478913 0 -76.482514578478913 4.5595861289200457 0 0 0 0 35.487849263179669 -24.665115551935514 0 -24.665115551935514 -94.336213939046502 0 0 0 0 35.048867813224206 195.29644212831761 0 195.29644212831761 -161.57214422764974 0 0 0 0 89.479763475887012 157.32184941621148 0 157.32184941621148 -13.850760445220217 0 0 0 0 146.40217020511045 59.741114175708219 0 59.741114175708219 -220.0791071614095 0 0 0 0 130.48205129352573 162.20300161401238 0 162.20300161401238 -76.714703340196607 0 0 0 0 -152.41893638377223 -87.503805907859402 0 -87.503805907859402 -180.18739629577823 0 0 0 0 134.35561180325749 -70.687389517674873 0 -70.687389517674873 -120.05428241757767 0 0 0 0 133.43801529187476 34.396337498641486 0 34.396337498641486 -274.39595024223661 0 0 0 0 -172.97296964888665 107.5839737868418 0 107.5839737868418 -282.98527469384828 0 0 0 0 58.642731385718378 -16.235470176218644 0 -16.235470176218644 3.6149240640480267 0 0 0 0 79.227184053364908 -107.5788067327112 0 -107.5788067327112 -187.96484677523313 0 0 0 0 153.73051591179683 -101.35838265375384 0 -101.35838265375384 -595.10682580095568 0 0 0 0 26.394693557448591 -123.97414466801371 0 -123.97414466801371 -83.029227404267658 0 0 0 0 407.87140689929947 102.28041462154931 0 102.28041462154931 123.39089808381061 0 0 0 0 277.18656365151401 108.0852520659426 0 108.0852520659426 138.43473228123543 0 0 0 0 406.41963604462217 73.069728368743654 0 73.069728368743654 36.447929284680185 0 0 0 0 187.14206044636376 3.687779045561399 0 3.687779045561399 16.513300117490189 0 0 0 0 227.20389254123438 6.7542391011597402 0 6.7542391011597402 -65.215483642731954 0 0 0 0 43.560509231843753 35.951622191327459 0 35.951622191327459 -23.48230478373506 0 0 0 0 256.00145939044887 90.821605592464138 0 90.821605592464138 -10.735149822878384 0 0 0 0 223.20430841602501 168.6057742610717 0 168.6057742610717 53.836379177606602 0 0 0 0 181.24357928197423 110.88489106479517 0 110.88489106479517 86.737795393928081 0 0 0 0 159.44642713401117 95.072619351796106 0 95.072619351796106 7.9311754007175637 0 0 0 0 196.43795096524263 208.9453496889158 0 208.9453496889158 29.43446918533084 0 0 0 0 208.73469154708437 147.3496896319341 0 147.3496896319341 124.25323093057 0 0 0 0 239.22299844868394 199.70275307446309 0 199.70275307446309 60.245358836717514 0 0 0 0 2.3658197716493135 -0.19344748344244067 0 -0.19344748344244067 -2.0873564362172057 0 0 0 0 228.12909992883215 170.30739355679532 0 170.30739355679532 120.91011749960995 0 0 0 0 173.40593391208677 157.99751116266975 0 157.99751116266975 177.01249839777142 0 0 0 0 223.75927513268834 171.63372830262722 0 171.63372830262722 139.58383840879969 0 0 0 0 304.5939333858405 140.77587103282806 0 140.77587103282806 93.856114836528604 0 0 0 0 231.01857542908692 180.18199439309501 0 180.18199439309501 147.68552595039728 0 0 0 0 290.3580481990939 173.91063613275537 0 173.91063613275537 148.25492389315983 0 0 0 0 9.9186133967305068 -6.8986075979521502 0 -6.8986075979521502 -4.5369104254094168 0 0 0 0 1.8566397891043493 0.28576596050299941 0 0.28576596050299941 -0.9909041072966347 0 0 0 0 9.7733337941026548 2.153846052891339 0 2.153846052891339 -2.6091125391533296 0 0 0 0 8.574572276789695 1.6601231727322983 0 1.6601231727322983 2.664788270367012 0 0 0 0 290.76458140474278 161.81936828540188 0 161.81936828540188 51.899955464458273 0 0 0 0 351.36000045763467 255.63572508400787 0 255.63572508400787 40.727197737958505 0 0 0 0 -3.1763991242769407 5.4287978586095846 0 5.4287978586095846 8.3343692103762947 0 0 0 0 25.612569254823029 5.9088137633870588 0 5.9088137633870588 -28.385821170928807 0 0 0 0 0.16775820909575145 -0.13353708282016896 0 -0.13353708282016896 -0.42735868956142187 0 0 0 0 323.38266218468198 133.07228565383139 0 133.07228565383139 109.63064388968075 0 0 0 0 2.7487065182402546 -1.4068577718803397 0 -1.4068577718803397 -1.7988083839138405 0 0 0 0 212.18921075286926 156.19762313372792 0 156.19762313372792 -28.507006839433643 0 0 0 0 255.4941880828701 229.76994910329751 0 229.76994910329751 -6.2919850138335249 0 0 0 0 276.40999428269788 276.90198613855239 0 276.90198613855239 62.397039375150001 0 0 0 0 232.08173636969877 218.28982138373905 0 218.28982138373905 120.54399395392571 0 0 0 0 10.555503736628452 6.9554089151953491 0 6.9554089151953491 -1.5109844402250872 0 0 0 0 10.38992562610656 5.776760161746779 0 5.776760161746779 -9.0336664000239466 0 0 0 0 -11.970789977698587 -21.614984484420972 0 -21.614984484420972 24.530731119711731 0 0 0 0 12.326133003749419 0.95928726904350015 0 0.95928726904350015 -17.869672172660671 0 0 0 0 12.966161696589552 -7.4092698925443301 0 -7.4092698925443301 -17.72734774076099 0 0 0 0 11.336442255822476 -2.5310720041557033 0 -2.5310720041557033 5.8690111386802215 0 0 0 0 12.645643265888793 -7.1778792697583995 0 -7.1778792697583995 -8.8263173719097381 0 0 0 0 12.277202618531192 1.7177366890662888 0 1.7177366890662888 -5.0994248646583742 0 0 0 0 12.864453153633804 0.76574167913117552 0 0.76574167913117552 -2.0399497774316515 0 0 0 0 9.168636876718665 2.4807591528007276 0 2.4807591528007276 -1.9779020919047525 0 0 0 0 11.718444100115448 3.4622565369946585 0 3.4622565369946585 -6.7514830638576058 0 0 0 0 9.6696751264389604 4.6760661939786505 0 4.6760661939786505 -1.6949050644610466 0 0 0 0 9.709259417199064 3.5629797436356796 0 3.5629797436356796 -1.0248457963560895 0 0 0 0 6.4152268875041045 2.5117462023250141 0 2.5117462023250141 -0.38437534695810882 0 0 0 0 7.1019359264755622 1.8159569045106423 0 1.8159569045106423 0.28970276224660552 0 0 0 0 7.3670899872086011 4.4038773535342557 0 4.4038773535342557 2.8124607413526519 0 0 0 0 8.3439542421256192 4.0695561266690561 0 4.0695561266690561 -0.086879765891467287 0 0 0 0 8.4108878286060644 2.6122818986581535 0 2.6122818986581535 -1.2234158532276069 0 0 0 0 7.062065928359516 3.5123298571963915 0 3.5123298571963915 -1.705044611195774 0 0 0 0 6.8691531337190099 1.2217720003417882 0 1.2217720003417882 -1.3130639767445971 0 0 0 0 6.8494437357257993 1.4236673015936692 0 1.4236673015936692 -0.980062668252625 0 0 0 0 6.170621785815456 1.7127355306517753 0 1.7127355306517753 -0.0010401618533075669 0 0 0 0 6.433300006268837 2.0542620330946586 0 2.0542620330946586 -0.54646970897698166 0 0 0 0 6.6079438705791063 1.3025352490359854 0 1.3025352490359854 -0.62485687682552027 0 0 0 0 6.8094097864523064 2.0627712581940338 0 2.0627712581940338 -2.134621747242055 0 0 0 0 9.5978283040021779 3.2557549817136646 0 3.2557549817136646 -4.1696122769347994 0 0 0 0 8.3985541532510979 2.0541243647699616 0 2.0541243647699616 -1.9396988232640524 0 0 0 0 64.084056604944635 -17.686362206867898 0 -17.686362206867898 -49.76609037441991 0 0 0 0 242.01899826305453 -37.585347994522635 0 -37.585347994522635 -61.669703848529366 0 0 0 0 168.60687934178168 208.3498585089381 0 208.3498585089381 237.78298574403107 0 0 0 0 5.6659342068027172 -1.1717365996611306 0 -1.1717365996611306 -1.2507481466033279 0 0 0 0 2.5931541925133388 0.33564420998479516 0 0.33564420998479516 -0.58016980570456866 0 0 0 0 396.39279370670556 239.75435461025995 0 239.75435461025995 156.21188782350782 0 0 0 0 266.5314547950984 276.81655329153318 0 276.81655329153318 245.25737019776534 0 0 0 0 579.21769880133797 -328.24295517831706 0 -328.24295517831706 90.71769137410638 0 0 0 0 73.433110445403145 -19.474841589537789 0 -19.474841589537789 50.606062548954696 0 0 0 0 588.87909116367518 137.32880504181466 0 137.32880504181466 -130.58750824189909 0 0 0 0 0.59194757413519028 1.3707543802070177 0 1.3707543802070177 -1.6232101135076586 0 0 0 0 238.73506245834142 422.55164232346073 0 422.55164232346073 0.33563394414672837 0 0 0 0 115.0418559959071 91.387418019054621 0 91.387418019054621 30.33341294515111 0 0 0 0 274.50474930982455 105.21905814875743 0 105.21905814875743 -0.0052963043885305653 0 0 0 0 1.1897914107454994 1.2827532990760346 0 1.2827532990760346 1.1343222068817016 0 0 0 0 605.30562900724544 85.201370264858483 0 85.201370264858483 -255.64539634512175 0 0 0 0 258.84021297335858 -1.5526078829384176 0 -1.5526078829384176 -13.458006381980226 0 0 0 0 0.69192427201468831 0.75430187952582628 0 0.75430187952582628 1.4311350210782026 0 0 0 0 413.53401421636227 0.29938754352168218 0 0.29938754352168218 -35.604776736273436 0 0 0 0 -39.983679843935533 -78.346281013830264 0 -78.346281013830264 544.58756137335968 0 0 0 0 534.42094089432067 39.924240422416119 0 39.924240422416119 -52.240550225417564 0 0 0 0 801.53597774665104 -21.427498596528949 0 -21.427498596528949 -337.78832987163389 0 0 0 0 2.3812287106246686 -2.0187089114599814 0 -2.0187089114599814 -0.83479326339963933 0 0 0 0 6.4505255804688204 -5.5036152511525813 0 -5.5036152511525813 5.344346472776536 0 0 0 0 21.094973605970154 -6.7093355916102837 0 -6.7093355916102837 -1.1930524684940451 0 0 0 0 26.779982667329023 -14.290126448119892 0 -14.290126448119892 3.4505119344694606 0 0 0 0 19.885823395990883 -9.6084250663373041 0 -9.6084250663373041 0.27815138303196818 0 0 0 0 36.285209158799262 2.9722508649032875 0 2.9722508649032875 -10.410702414590901 0 0 0 0 37.681881213589804 4.0302810189342608 0 4.0302810189342608 -45.151774727117754 0 0 0 0 24.301709564053454 -9.3779776868111639 0 -9.3779776868111639 -0.71619605615615001 0 0 0 0 21.618923038707862 -0.51020609216539725 0 -0.51020609216539725 -3.342064594643432 0 0 0 0 21.469204028893728 -7.4536375044924625 0 -7.4536375044924625 0.78923948000124255 0 0 0 0 14.691739456382493 -0.60594570819908 0 -0.60594570819908 1.0429766543065568 0 0 0 0 4.5240746126120968 -3.3568856248054146 0 -3.3568856248054146 2.1770567450047897 0 0 0 0 18.84048493536875 0.099378441072232704 0 0.099378441072232704 -2.5052885136608731 0 0 0 0 20.93094733478938 -8.1378608946903981 0 -8.1378608946903981 0.028728540462452656 0 0 0 0 13.818773353443248 -1.4804040493395529 0 -1.4804040493395529 0.53711646763568766 0 0 0 0 11.77871408626379 -1.8394498365501315 0 -1.8394498365501315 1.9231641372004376 0 0 0 0 11.792457279276732 -1.1075863877457965 0 -1.1075863877457965 1.9411144276859318 0 0 0 0 11.51660831598565 0.16097329455908138 0 0.16097329455908138 -1.5738572803531063 0 0 0 0 13.128863106976496 -3.3046550465687545 0 -3.3046550465687545 0.016122094908212148 0 0 0 0 12.588380170942401 -1.5839208640427298 0 -1.5839208640427298 0.20727332888656491 0 0 0 0 8.0069288873273763 0.37811550478645728 0 0.37811550478645728 -2.2304563053709217 0 0 0 0 11.014630903708166 1.4282581990437251 0 1.4282581990437251 -1.8638328780592701 0 0 0 0 9.9773452656518202 0.81188646750322846 0 0.81188646750322846 -0.38197280363274899 0 0 0 0 8.6410994121106341 -0.1066218418342828 0 -0.1066218418342828 -0.92875570066192381 0 0 0 0 14.668388775535277 0.81438210132739641 0 0.81438210132739641 -2.1212661751221731 0 0 0 0 11.945760246722784 -0.88575406625494679 0 -0.88575406625494679 -1.488671120886238 0 0 0 0 11.619769986282336 -0.82305825643032904 0 -0.82305825643032904 1.4487713165271145 0 0 0 0 12.752964903833345 -1.0094537853219094 0 -1.0094537853219094 -3.7598638905573694 0 0 0 0 8.1347341551008867 -0.067346112335769037 0 -0.067346112335769037 -3.5074763600432104 0 0 0 0 9.5979363512045666 0.96251178823884942 0 0.96251178823884942 -0.50193274957869083 0 0 0 0 11.11919895070605 0.90111343033021996 0 0.90111343033021996 -6.1042910827404926 0 0 0 0 9.2693229813303333 1.9726636196251093 0 1.9726636196251093 -5.2980338423242301 0 0 0 0 8.1680771561514121 1.2993432637048081 0 1.2993432637048081 -2.129962387574909 0 0 0 0 8.1147280541879923 1.2659914328294111 0 1.2659914328294111 0.10713462869084241 0 0 0 0 9.0077548225672217 0.65556094468409853 0 0.65556094468409853 -2.9560623096028924 0 0 0 0 7.071977936764597 0.25334750956339042 0 0.25334750956339042 -0.0010245928635476691 0 0 0 0 7.0717791930237581 -2.0481159155223083 0 -2.0481159155223083 -3.7886912360037748 0 0 0 0 7.0947051608236507 -1.0091177922877488 0 -1.0091177922877488 -2.0551125872486411 0 0 0 0 2.1899893599620555 -7.6912510897685209 0 -7.6912510897685209 -7.373849406628235 0 0 0 0 5.8244145914868568 -2.2172165074100079 0 -2.2172165074100079 -0.0069775585297368707 0 0 0 0 4.0822692119875228 -0.84884049770488179 0 -0.84884049770488179 -0.12695936511415884 0 0 0 0 3.8552030627906788 -5.93156567659641 0 -5.93156567659641 -11.274323392421582 0 0 0 0 7.3749743916923762 1.2120372453569148 0 1.2120372453569148 -3.6963256301282916 0 0 0 0 1.6843296906869369 -0.14279861176541431 0 -0.14279861176541431 -0.071890659686403263 0 0 0 0 15.38758869470621 -9.7913494742307705 0 -9.7913494742307705 7.0330266514601334 0 0 0 0 18.186960221573827 -9.3959985325459172 0 -9.3959985325459172 3.9060307726348071 0 0 0 0 2.043765902868472 -8.2427070864146632 0 -8.2427070864146632 -9.1951127218351054 0 0 0 0 35.55965872095112 0.022925144739165404 0 0.022925144739165404 -25.760124656685555 0 0 0 0 0.23026825200213352 -8.1978639297257203 0 -8.1978639297257203 -0.0034034695358690888 0 0 0 0 61.089038196849287 -41.824447586621289 0 -41.824447586621289 2.4366127250612877 0 0 0 0 57.458809351024684 58.024778271767751 0 58.024778271767751 -5.7661226020013814 0 0 0 0 98.071427634509746 -67.097023164326515 0 -67.097023164326515 -21.169336506811533 0 0 0 0 16.241579160086985 -8.5261797978790579 0 -8.5261797978790579 26.536204027273129 0 0 0 0 1.3743304430145713 -0.24624327094550491 0 -0.24624327094550491 0.052635061875946486 0 0 0 0 -4.7209082400077023 -57.031259323472227 0 -57.031259323472227 96.413301409440308 0 0 0 0 -21.481640960158984 -24.712506843286768 0 -24.712506843286768 -17.544746068734462 0 0 0 0 13.628784203683608 -22.948242304264777 0 -22.948242304264777 -0.025131960419238052 0 0 0 0 -13.327067811398592 -42.706098796171212 0 -42.706098796171212 1.9254149617204348 0 0 0 0 -13.190957370155957 -8.9496551006778091 0 -8.9496551006778091 63.120811220008079 0 0 0 0 -19.609828117099823 4.8422744849232284 0 4.8422744849232284 -23.157994103708976 0 0 0 0 -22.63111554068746 -8.9095804359274542 0 -8.9095804359274542 2.9425321619267288 0 0 0 0 -12.131736087146237 2.0550258962271948 0 2.0550258962271948 -25.911046712502639 0 0 0 0 -0.093134253937648737 -0.09602699553741445 0 -0.09602699553741445 -0.13220201297703377 0 0 0 0 -10.930967263062485 15.8203632106421 0 15.8203632106421 -105.7653696939516 0 0 0 0 -19.843684402643703 -16.577979208167246 0 -16.577979208167246 -48.906242435504261 0 0 0 0 -26.518334799038712 17.332368988394933 0 17.332368988394933 -41.346118921019659 0 0 0 0 -35.652147584303748 -16.396162162003169 0 -16.396162162003169 -15.841893807056245 0 0 0 0 1.328204695665363 -0.76680254901106615 0 -0.76680254901106615 -0.6522465624970466 0 0 0 0 -7.2557287282834295 -4.8974191254670245 0 -4.8974191254670245 6.8099506137043875 0 0 0 0 4.8601720281876624 -1.5149059195715893 0 -1.5149059195715893 -2.9577015270016034 0 0 0 0 2.4029430049704388 5.1046478605667289 0 5.1046478605667289 4.5246218290366471 0 0 0 0 -11.069170634771581 15.325910737683387 0 15.325910737683387 39.735481869816113 0 0 0 0 -4.8076645398541586 47.142614945343439 0 47.142614945343439 -64.624686077261273 0 0 0 0 -1.5908775100979256 -2.1947458099508594 0 -2.1947458099508594 21.202113849415696 0 0 0 0 -0.22531880783151337 -0.48769307943305762 0 -0.48769307943305762 -0.16400141374960225 0 0 0 0 -17.134919856332999 6.6410430231907362 0 6.6410430231907362 -38.964101370463993 0 0 0 0 -2.9385254644439556 -7.465988067581236 0 -7.465988067581236 21.513066786958348 0 0 0 0 -7.959482788493915 -9.1872854007092997 0 -9.1872854007092997 21.775241683906074 0 0 0 0 37.679128633222717 -4.0838609116988209 0 -4.0838609116988209 37.880836500644818 0 0 0 0 10.42588737377082 -24.428701180647579 0 -24.428701180647579 41.196051447403988 0 0 0 0 20.58052428571682 -1.0549543628936249 0 -1.0549543628936249 -30.843368761106376 0 0 0 0 14.722471525907167 -5.1547080999800983 0 -5.1547080999800983 -32.700670572568583 0 0 0 0 6.2736881888704374 -25.71798692767652 0 -25.71798692767652 -11.045746306520385 0 0 0 0 4.2757805241460005 0.071960406552562972 0 0.071960406552562972 -2.437667078177927 0 0 0 0 24.922576133540133 -19.230813470840829 0 -19.230813470840829 -9.0686817359823664 0 0 0 0 11.408727269532392 -33.382375644080554 0 -33.382375644080554 21.113339733236543 0 0 0 0 33.819184583378956 -37.252986423634738 0 -37.252986423634738 -9.2194765100127825 0 0 0 0 -26.392415267473552 -18.23814923222838 0 -18.23814923222838 -17.999296410115253 0 0 0 0 34.39502500524577 -22.572671247478404 0 -22.572671247478404 -63.976828572820807 0 0 0 0 57.797417986381333 29.21378606255513 0 29.21378606255513 -129.32689338283672 0 0 0 0 -16.065424069704022 6.9188555300080452 0 6.9188555300080452 -9.4126393436810361 0 0 0 0 -5.1024072050058749 -6.7481898251522239 0 -6.7481898251522239 17.051086343123643 0 0 0 0 -0.31400599243988836 -0.040606330286996339 0 -0.040606330286996339 -0.68276354449789489 0 0 0 0 0.18743911806973301 -1.4884163060170295 0 -1.4884163060170295 -0.8880988531210916 0 0 0 0 1.8694402610417455 20.317669192129529 0 20.317669192129529 -48.9783253462451 0 0 0 0 -8.5891206084052101 -24.763118372487384 0 -24.763118372487384 2.4062860615521231 0 0 0 0 5.2139796409755945 -8.6279919698895355 0 -8.6279919698895355 4.7462108340646409 0 0 0 0 -5.7957715773081873 -17.479831184413342 0 -17.479831184413342 4.8546000352369791 0 0 0 0 -1.124538456031587 -5.668867458649629 0 -5.668867458649629 16.019991567116222 0 0 0 0 -4.3311383328255033 -12.174661634616882 0 -12.174661634616882 10.551990992790479 0 0 0 0 -2.0430113720649388 -12.026922061901587 0 -12.026922061901587 9.5386350510443663 0 0 0 0 -0.97409739370050374 -20.403084115604884 0 -20.403084115604884 -3.2486532203295155 0 0 0 0 16.478858590135758 -10.273872561289252 0 -10.273872561289252 0.64285012878974968 0 0 0 0 1.0451976264303084 -15.307020372987211 0 -15.307020372987211 -3.5841056070389641 0 0 0 0 0.85745087471150327 -5.153951347583309 0 -5.153951347583309 -1.0849117854115458 0 0 0 0 8.2768775595905026 -1.6835440269791206 0 -1.6835440269791206 -12.196869192900749 0 0 0 0 26.02218099226593 -49.981034899898205 0 -49.981034899898205 -4.1183607958428183 0 0 0 0 45.51088608707505 -62.056436054776611 0 -62.056436054776611 83.449488844308007 0 0 0 0 81.188251971529098 62.178737641444059 0 62.178737641444059 -3.5433016126013399 0 0 0 0 2.0627802437513196 0.75813311734865962 0 0.75813311734865962 -0.26698458805552705 0 0 0 0 -11.236692486461834 -32.682445734083359 0 -32.682445734083359 13.782032571320769 0 0 0 0 15.823964546549689 -9.7022891581262201 0 -9.7022891581262201 0.59104539079858531 0 0 0 0 3.5652573323550314 -4.2789062152515811 0 -4.2789062152515811 0.64171144459078178 0 0 0 0 -0.30181599529169034 -23.144806720725228 0 -23.144806720725228 -13.005212896061494 0 0 0 0 -8.9858512687351322 -17.355503772951124 0 -17.355503772951124 9.1629582516324177 0 0 0 0 1.8175855331210187 -33.309882546746508 0 -33.309882546746508 25.167465046427822 0 0 0 0 -1.0661938684788765 -19.35445953714359 0 -19.35445953714359 0.26120163059999868 0 0 0 0 7.4061964337306563 -17.104743372132475 0 -17.104743372132475 45.722147727313654 0 0 0 0 18.900703725827043 -48.624371040063465 0 -48.624371040063465 12.904265996879133 0 0 0 0 15.887965082205483 -23.86156454611853 0 -23.86156454611853 -27.788090768964139 0 0 0 0 -3.901406419405248 -48.311932102058222 0 -48.311932102058222 -45.12647787892854 0 0 0 0 -5.4831070729123894 -35.398368016795189 0 -35.398368016795189 -9.3376672251405068 0 0 0 0 -6.1883748406980885 -31.889712319783939 0 -31.889712319783939 -0.63706087484570872 0 0 0 0 -114.79725410161336 62.616729850849993 0 62.616729850849993 49.869703251908959 0 0 0 0 343.64776710080332 -425.14574571359981 0 -425.14574571359981 57.477850959978241 0 0 0 0 17.787436468737326 -9.1234797512696275 0 -9.1234797512696275 -0.47967476602782 0 0 0 0 10.042171358159976 -39.73058910336772 0 -39.73058910336772 19.429068031780446 0 0 0 0 5.2749910316896376 -4.6122430179828342 0 -4.6122430179828342 0.075777401951464096 0 0 0 0 31.340141775994368 -25.621480500659274 0 -25.621480500659274 12.429807906719454 0 0 0 0 -21.490991199651035 -65.243251304656724 0 -65.243251304656724 37.000352677527189 0 0 0 0 41.647679832589347 -33.701661682902341 0 -33.701661682902341 -13.795821964336028 0 0 0 0 46.722012829937739 -29.304578489060077 0 -29.304578489060077 -25.494564590702197 0 0 0 0 577.07573960638547 -151.091200507233 0 -151.091200507233 -192.95680003607947 0 0 0 0 30.75163554735343 -10.959961043553754 0 -10.959961043553754 -2.4900148444321646 0 0 0 0 50.291317596900626 -32.838647997963562 0 -32.838647997963562 -32.764332532386106 0 0 0 0 -92.378277315292507 9.8491744515313258 0 9.8491744515313258 87.739648216570231 0 0 0 0 3.9561292098106833 0.14230774297764626 0 0.14230774297764626 0.13602299139902818 0 0 0 0 -243.552489504189 32.968092781827181 0 32.968092781827181 146.10594195471981 0 0 0 0 190.22802470828174 -35.56641948827837 0 -35.56641948827837 -39.770259233611796 0 0 0 0 13.654965815690275 0.69148580216029387 0 0.69148580216029387 0.13830483367178281 0 0 0 0 -12.863697544133174 -8.154449736055426 0 -8.154449736055426 71.164769844802549 0 0 0 0 34.132454736618854 -5.6731838241461432 0 -5.6731838241461432 -4.8416605005397049 0 0 0 0 51.775141064805211 29.996882314936329 0 29.996882314936329 -29.361088960057202 0 0 0 0 32.627423226062092 34.433119011433519 0 34.433119011433519 -23.74087598376218 0 0 0 0 88.761854647367727 23.318690440632508 0 23.318690440632508 -39.024407301497547 0 0 0 0 7.793698902867618 13.416375949175517 0 13.416375949175517 -32.209736910060201 0 0 0 0 36.647514889482409 43.005080589624413 0 43.005080589624413 -9.6793001866672057 0 0 0 0 17.813343402027385 11.410567861369827 0 11.410567861369827 -130.54141300046854 0 0 0 0 -57.145872742767096 77.297669247310296 0 77.297669247310296 -52.597683029538985 0 0 0 0 15.38948609403451 -12.788639606542802 0 -12.788639606542802 -0.53647153757401611 0 0 0 0 264.68861056226888 -111.57597077742389 0 -111.57597077742389 -11.421937749464746 0 0 0 0 241.05376603489276 -32.313246350669715 0 -32.313246350669715 28.62542074212115 0 0 0 0 96.409571532160044 -79.569456651979635 0 -79.569456651979635 23.481098968135484 0 0 0 0 224.38504895824008 -101.67909294224023 0 -101.67909294224023 -13.658237239247626 0 0 0 0 342.15416954220746 -91.715707804242044 0 -91.715707804242044 -20.849332687415426 0 0 0 0 342.17323053312248 -91.364531917234203 0 -91.364531917234203 -14.87591651949424 0 0 0 0 250.49234619327035 -21.828577538576269 0 -21.828577538576269 0.16801047055560048 0 0 0 0 329.5402770677465 -97.827457240046442 0 -97.827457240046442 9.7120020979116362 0 0 0 0 336.75244922282855 -20.188396837250153 0 -20.188396837250153 -30.764336990364427 0 0 0 0 248.31236822009669 -15.738779350103869 0 -15.738779350103869 9.2204976470520705 0 0 0 0 164.97981306142174 86.107323735807086 0 86.107323735807086 -95.902508498615816 0 0 0 0 105.58473105539451 -34.261915666417735 0 -34.261915666417735 30.224191902229904 0 0 0 0 93.419553860760061 -135.57575578700653 0 -135.57575578700653 201.95465393996665 0 0 0 0 116.03609851381771 -54.037932149307153 0 -54.037932149307153 -12.032118505358085 0 0 0 0 122.50701032139114 -93.274814049043528 0 -93.274814049043528 26.248395348148279 0 0 0 0 19.959241250850027 -39.65600906896907 0 -39.65600906896907 120.78561882051667 0 0 0 0 257.54537412558602 -107.77220597753225 0 -107.77220597753225 53.048887933401602 0 0 0 0 1.3388776833170937 -8.0496987391421584 0 -8.0496987391421584 2.0416632448464127 0 0 0 0 -6.1599084009067155 -54.618533909515236 0 -54.618533909515236 27.289499084813315 0 0 0 0 -24.762082370434655 -49.490405480188002 0 -49.490405480188002 45.411231852942819 0 0 0 0 21.510324582748581 -36.01513669631322 0 -36.01513669631322 36.963083398221784 0 0 0 0 -193.52770002915349 16.244298465842348 0 16.244298465842348 134.45447939796463 0 0 0 0 56.805636116536334 -3.2025942870774884 0 -3.2025942870774884 -45.823006530189787 0 0 0 0 121.65679099888075 -5.966681738228317 0 -5.966681738228317 -84.578332985214331 0 0 0 0 2.2654463730551129 -0.031066601854508491 0 -0.031066601854508491 0.10585889986295316 0 0 0 0 -0.66458973161860513 0.81634065414567658 0 0.81634065414567658 0.12144383206304044 0 0 0 0 467.4390054315445 26.300683586415744 0 26.300683586415744 -177.05460348016413 0 0 0 0 102.54448021037388 -144.00061269929938 0 -144.00061269929938 -26.238377494227962 0 0 0 0 191.34554016863694 -91.044566513145583 0 -91.044566513145583 -22.723013320878863 0 0 0 0 104.70982529676985 -23.337612135799418 0 -23.337612135799418 -46.550315838018832 0 0 0 0 103.46497639614245 -32.40594581213935 0 -32.40594581213935 -25.098957534423334 0 0 0 0 123.61891838579322 -16.96487323860697 0 -16.96487323860697 -47.295394676888463 0 0 0 0 60.971225043846061 24.62779232709704 0 24.62779232709704 -56.888584396071224 0 0 0 0 -6.0867101003227617 2.8990295376522326 0 2.8990295376522326 -26.502404469263865 0 0 0 0 67.083922382356832 -13.018209926544614 0 -13.018209926544614 -24.39124707727855 0 0 0 0 68.56505070294952 -17.863822151838065 0 -17.863822151838065 -43.857752342899545 0 0 0 0 95.018407729250612 -31.712108538226119 0 -31.712108538226119 -53.485635605244397 0 0 0 0 52.334569310158258 68.26464164517165 0 68.26464164517165 -129.03889127700813 0 0 0 0 33.683830526977545 -61.099794544615634 0 -61.099794544615634 11.618916414619605 0 0 0 0 182.10544808954 -76.646042178454763 0 -76.646042178454763 -26.451784919669421 0 0 0 0 94.710212942809449 -75.392623536591714 0 -75.392623536591714 50.934334688948411 0 0 0 0 215.82012175493583 -112.65212982881758 0 -112.65212982881758 2.7149383903961279 0 0 0 0 312.26298384339316 -199.0209169655883 0 -199.0209169655883 39.012644665765265 0 0 0 0 171.39638317478239 -74.370465111319959 0 -74.370465111319959 85.115723860701877 0 0 0 0 168.47122723719804 -75.965216262900299 0 -75.965216262900299 -49.071661684999128 0 0 0 0 53.288269409800705 -119.5037291105203 0 -119.5037291105203 199.58978607055559 0 0 0 0 107.82231432004482 -74.980517845282691 0 -74.980517845282691 25.853294375478754 0 0 0 0 1.877656294576127 -0.60000094255238423 0 -0.60000094255238423 -0.76564347252909282 0 0 0 0 118.67695475406072 -55.938942876237093 0 -55.938942876237093 40.70697972702294 0 0 0 0 0.99375471811760008 -0.1641384123554559 0 -0.1641384123554559 -0.2331086571135097 0 0 0 0 99.72660344709584 -169.80667600127629 0 -169.80667600127629 177.07050709991859 0 0 0 0 -2.1856042357831029 -62.941912300673209 0 -62.941912300673209 141.92991139191366 0 0 0 0 0.67556613610656768 -0.38669050752820233 0 -0.38669050752820233 -0.028348920720081522 0 0 0 0 90.866102941872668 -36.724454274093944 0 -36.724454274093944 22.599583421247701 0 0 0 0 1.4645603106174008 -0.75298325404473943 0 -0.75298325404473943 -0.09681468476295417 0 0 0 0 -10.527507428632816 -31.708125180214793 0 -31.708125180214793 -53.106496372612526 0 0 0 0 -2.7745842434087535 -23.823021204668734 0 -23.823021204668734 52.764428185623728 0 0 0 0 -24.719351092164288 -19.884203641349725 0 -19.884203641349725 -44.389927230867329 0 0 0 0 -23.537678065593354 -33.166205635672327 0 -33.166205635672327 -60.623266584440429 0 0 0 0 0.26164721912937239 -31.72200417917108 0 -31.72200417917108 -57.803580146084848 0 0 0 0 29.667442224526894 -21.56635442235762 0 -21.56635442235762 -147.80902110029254 0 0 0 0 1.5526581152735162 -60.232584739500766 0 -60.232584739500766 -0.058144417809993632 0 0 0 0 -36.042752936657052 -32.460559380958621 0 -32.460559380958621 0.0073734062344022024 0 0 0 0 -14.507496149912186 -35.637509589600548 0 -35.637509589600548 -37.681168093463008 0 0 0 0 46.404941646993393 -78.997725124413094 0 -78.997725124413094 35.354129525089689 0 0 0 0 97.231050277019676 -100.60008171541642 0 -100.60008171541642 -55.592292640675964 0 0 0 0 28.291931882195058 -75.564499517793678 0 -75.564499517793678 -56.389241166541396 0 0 0 0 44.546728761364648 -106.11365776446087 0 -106.11365776446087 -0.030334828299468472 0 0 0 0 33.812851416922058 -24.381228241865571 0 -24.381228241865571 -142.98345539861583 0 0 0 0 84.442736285724095 -125.82140162015409 0 -125.82140162015409 -81.012418709110278 0 0 0 0 99.488414766168717 -161.10127983873497 0 -161.10127983873497 -0.053649151273411549 0 0 0 0 100.72541569709574 -155.94488114404396 0 -155.94488114404396 12.378169005512632 0 0 0 0 101.63884924361628 -153.83792936815209 0 -153.83792936815209 0.027570739137322053 0 0 0 0 111.92862180780503 -167.82119857501004 0 -167.82119857501004 13.556103681356106 0 0 0 0 95.803425932594109 -164.57208837041759 0 -164.57208837041759 29.214324965691503 0 0 0 0 107.69501491903793 -170.86023014651718 0 -170.86023014651718 11.231913577660293 0 0 0 0 55.051232347512268 -111.92402220353574 0 -111.92402220353574 4.3271724673796257 0 0 0 0 124.75817796812044 -137.09949504966124 0 -137.09949504966124 49.153349531367553 0 0 0 0 133.48591672561815 -127.43867426312531 0 -127.43867426312531 -4.4847516660798874 0 0 0 0 131.28589170405758 -204.2178917817086 0 -204.2178917817086 172.89889465713986 0 0 0 0 0.84660204157404451 -0.44581627425354498 0 -0.44581627425354498 -0.32088624275218702 0 0 0 0 130.75446925105643 -275.11609269653172 0 -275.11609269653172 200.9497068631922 0 0 0 0 194.82571255879157 -249.1730326362223 0 -249.1730326362223 79.484063799504383 0 0 0 0 195.54987699550111 -75.469839933416182 0 -75.469839933416182 40.166032302722698 0 0 0 0 174.89515309923809 -35.581893737884627 0 -35.581893737884627 197.43704324816491 0 0 0 0 396.08825747347146 -17.110562344314566 0 -17.110562344314566 0.14980117597561621 0 0 0 0 134.58191567625909 -131.40214089169086 0 -131.40214089169086 0.10193450788735806 0 0 0 0 117.16373634792399 -127.86722743884644 0 -127.86722743884644 41.952052703066357 0 0 0 0 93.777910511519622 -149.83306026906735 0 -149.83306026906735 -22.863662348114531 0 0 0 0 81.712915473326575 -176.98520599572277 0 -176.98520599572277 19.097343724577655 0 0 0 0 137.49587328766938 -157.81481862474823 0 -157.81481862474823 -25.740224252045692 0 0 0 0 79.541342530469592 -117.79302293726013 0 -117.79302293726013 114.38431783139532 0 0 0 0 143.67906328020035 -234.22759265623375 0 -234.22759265623375 -54.024383364645018 0 0 0 0 82.070516601994314 -136.7551914839454 0 -136.7551914839454 212.47576780180782 0 0 0 0 320.50647942918295 -68.240392773702069 0 -68.240392773702069 58.442379470946989 0 0 0 0 166.83281575240107 -68.030554065048136 0 -68.030554065048136 -807.63650395985474 0 0 0 0 91.393875446752645 -116.42682271969045 0 -116.42682271969045 -180.80445903235227 0 0 0 0 -43.499774676092784 -143.59117367830459 0 -143.59117367830459 -185.22640226706557 0 0 0 0 149.58458489655459 -205.71715544498488 0 -205.71715544498488 -453.99735584577422 0 0 0 0 239.86703249371203 -69.699114828702363 0 -69.699114828702363 -253.09641948147748 0 0 0 0 134.8868587691104 -214.88718185930432 0 -214.88718185930432 -188.3982538795492 0 0 0 0 208.20642232351747 17.404017808461646 0 17.404017808461646 -87.911209329990356 0 0 0 0 242.50571849617154 -70.168340856042846 0 -70.168340856042846 -185.11466491397323 0 0 0 0 16.720654667878989 37.090863972239504 0 37.090863972239504 -207.40688655232339 0 0 0 0 190.90024570284004 34.034416517264845 0 34.034416517264845 -198.16422277134643 0 0 0 0 249.52389108325474 130.12263321293602 0 130.12263321293602 -106.95153900557807 0 0 0 0 3.115628417602295 1.3489024743121014 0 1.3489024743121014 -0.21757301825910735 0 0 0 0 98.075484684370167 128.36289931443974 0 128.36289931443974 44.612697794777318 0 0 0 0 0.094396071333903819 29.457202638381318 0 29.457202638381318 -30.611804087799555 0 0 0 0 76.358937674420304 40.345083342243242 0 40.345083342243242 -29.064859684192015 0 0 0 0 192.50180660640763 11.110936500548405 0 11.110936500548405 -50.496364327838364 0 0 0 0 34.471575059520546 2.7993070521769141 0 2.7993070521769141 -38.699255019361999 0 0 0 0 36.653054599453753 -12.598974884588415 0 -12.598974884588415 -14.618515965291863 0 0 0 0 45.075235404161504 -1.1813240663923352 0 -1.1813240663923352 -8.3009265825148759 0 0 0 0 36.668272681530652 -22.755494724718062 0 -22.755494724718062 -8.5405766571934691 0 0 0 0 18.384835590841249 -9.2268485935601348 0 -9.2268485935601348 -5.0001772822970452 0 0 0 0 -0.016403877265759093 1.9487420829554907 0 1.9487420829554907 -4.7234532657422363 0 0 0 0 17.118821610943996 -13.680193509463834 0 -13.680193509463834 -7.781270951305487 0 0 0 0 6.5577069252909723 3.4581077481006055 0 3.4581077481006055 -0.069171931037402046 0 0 0 0 30.612983664235799 8.5902578681133264 0 8.5902578681133264 -90.548888977152046 0 0 0 0 23.983143400040717 -18.616123361015866 0 -18.616123361015866 -52.643161837312618 0 0 0 0 -153.17085412450251 -238.53182708738143 0 -238.53182708738143 -23.211216666563431 0 0 0 0 2.3657600537657686 -1.2674450659331313 0 -1.2674450659331313 0.19376637433182653 0 0 0 0 296.24514808956883 -152.15383199853628 0 -152.15383199853628 -22.249087932280759 0 0 0 0 173.09928154252702 -241.70095713054724 0 -241.70095713054724 -28.158512225754862 0 0 0 0 -5.6668484677793458 -108.78210489695542 0 -108.78210489695542 -7.1227958414741579 0 0 0 0 114.62478561264288 -124.02532314034403 0 -124.02532314034403 -75.098917455702917 0 0 0 0 71.855596368826809 -54.734473524451289 0 -54.734473524451289 -103.1440083585718 0 0 0 0 82.48397897346149 -101.79342034721208 0 -101.79342034721208 -56.37501344421014 0 0 0 0 0.10315184686623979 -34.093173398448471 0 -34.093173398448471 -107.63346927226996 0 0 0 0 -51.847501302330784 -177.97453361227917 0 -177.97453361227917 -192.91106422100052 0 0 0 0 19.560584183105675 -23.263635112379461 0 -23.263635112379461 -134.70837124739455 0 0 0 0 67.571363499868312 -93.088825801991902 0 -93.088825801991902 -36.327542080366698 0 0 0 0 52.456697709174477 -104.97836728862728 0 -104.97836728862728 -186.8106176633745 0 0 0 0 4.9263549590417028 -2.5456618366665964 0 -2.5456618366665964 0.37596569202586494 0 0 0 0 30.413875015336089 -71.661690931476528 0 -71.661690931476528 -25.506300280467258 0 0 0 0 25.759027906378833 -54.011555297954942 0 -54.011555297954942 26.763386975020694 0 0 0 0 456.73109154933991 -13.507314632709949 0 -13.507314632709949 -60.675706982481188 0 0 0 0 190.67213691717188 10.949195059395151 0 10.949195059395151 -52.624292378561563 0 0 0 0 121.37809876320534 -5.5571397946393972 0 -5.5571397946393972 21.625752835919371 0 0 0 0 72.21691079318407 4.6990571926185112 0 4.6990571926185112 36.437646531136238 0 0 0 0 162.05951606428425 -82.844007896440985 0 -82.844007896440985 57.590949139138047 0 0 0 0 168.02013268374139 -22.09904729020468 0 -22.09904729020468 52.93431418662172 0 0 0 0 22.894163427699823 -38.20564758994135 0 -38.20564758994135 59.192132889399545 0 0 0 0 14.706534274853766 -1.7500958652287864 0 -1.7500958652287864 -11.870097089858319 0 0 0 0 3.2530340552330017 5.9390850661965828 0 5.9390850661965828 11.170067744584685 0 0 0 0 -4.4944155672019406 -6.986244405494574 0 -6.986244405494574 57.515867902536684 0 0 0 0 92.036267650080845 -59.957337299602841 0 -59.957337299602841 72.696880364864228 0 0 0 0 47.932457475923002 19.070265976059773 0 19.070265976059773 15.139180073175567 0 0 0 0 49.439286692533642 -28.859629861598023 0 -28.859629861598023 52.523546655466816 0 0 0 0 103.20292897347827 -5.3444473974409448 0 -5.3444473974409448 48.997865329777824 0 0 0 0 77.51913099095691 -31.592067360237706 0 -31.592067360237706 47.07561919239788 0 0 0 0 46.88879267979064 29.934498674603901 0 29.934498674603901 16.418849029601915 0 0 0 0 33.573435513593722 10.375106147877887 0 10.375106147877887 -18.816598239853192 0 0 0 0 9.3699402440979611 64.763616706429048 0 64.763616706429048 -31.631251705780983 0 0 0 0 6.1544512885448057 51.48826854013987 0 51.48826854013987 -14.858384922963978 0 0 0 0 35.729687777929939 12.911236926421907 0 12.911236926421907 -8.7001010814979054 0 0 0 0 43.810723426897312 -11.706639304727105 0 -11.706639304727105 -19.472762261000753 0 0 0 0 14.108411278575659 48.244308055324836 0 48.244308055324836 -65.998451154741815 0 0 0 0 -0.70307270587363746 6.5825142373500967 0 6.5825142373500967 -35.15232306487178 0 0 0 0 -7.0670893159112893 7.3384991761367928 0 7.3384991761367928 18.073638750909595 0 0 0 0 -22.574658225188614 64.829767582566546 0 64.829767582566546 -45.68440445362944 0 0 0 0 -35.421914069054765 34.895625005272905 0 34.895625005272905 8.8879901203176814 0 0 0 0 5.9111660464706404 -1.7285797369294755 0 -1.7285797369294755 -0.024009679860933275 0 0 0 0 5.5649753082427651 -2.4188931122936026 0 -2.4188931122936026 -3.6404042397592065 0 0 0 0 18.570060739381006 17.183994036901822 0 17.183994036901822 -89.516134757360476 0 0 0 0 18.817169369736803 22.5679711064804 0 22.5679711064804 -5.1189207418241267 0 0 0 0 3.9813158215837916 4.2211022582422544 0 4.2211022582422544 -3.2434375201061441 0 0 0 0 2.3584660921696923 33.307338516696973 0 33.307338516696973 -93.0958163317855 0 0 0 0 35.230691007585847 -35.194985558775898 0 -35.194985558775898 -13.141079054409147 0 0 0 0 84.993551469680824 -24.383643746496318 0 -24.383643746496318 -38.06124715876831 0 0 0 0 29.232536569368676 -21.574048125218724 0 -21.574048125218724 -15.606874253862259 0 0 0 0 16.872481205879012 -13.899832677077484 0 -13.899832677077484 -7.6146754002955959 0 0 0 0 33.111965619179898 -6.5511965829767504 0 -6.5511965829767504 0.1310126271615708 0 0 0 0 29.36302293879271 -23.82139182993842 0 -23.82139182993842 -11.754083561916673 0 0 0 0 4.4383169153006747 -17.087793591197169 0 -17.087793591197169 13.968215987393592 0 0 0 0 21.565247865815763 -25.704719317574018 0 -25.704719317574018 15.897069011943131 0 0 0 0 -17.493183438491542 32.676955155174483 0 32.676955155174483 -7.3002116808006576 0 0 0 0 -17.221102858195081 30.02610883605098 0 30.02610883605098 -41.903837656092264 0 0 0 0 0.53729054172953283 -1.1158742251943607 0 -1.1158742251943607 -3.6043265244039313 0 0 0 0 77.378026732360013 -70.735237525516823 0 -70.735237525516823 16.219021545747069 0 0 0 0 29.688138705736492 -40.628536931392546 0 -40.628536931392546 29.485044893008308 0 0 0 0 14.641159501887159 -46.834377405881924 0 -46.834377405881924 33.954114175111499 0 0 0 0 -20.240143400900706 2.9883235678886422 0 2.9883235678886422 0.76437336072581274 0 0 0 0 28.659498371154768 -48.688499312020667 0 -48.688499312020667 29.285075933267763 0 0 0 0 -7.0581928177853115 22.58113239678255 0 22.58113239678255 26.0997497405383 0 0 0 0 1.5874152233397183 -2.5937147455345979 0 -2.5937147455345979 -4.2749304078887702 0 0 0 0 -18.955576927277434 22.995141816490559 0 22.995141816490559 20.477100433869964 0 0 0 0 -22.660267704661237 9.2184992538420829 0 9.2184992538420829 -14.163060037381115 0 0 0 0 -30.948975697450805 -11.48895220192594 0 -11.48895220192594 26.372321578119681 0 0 0 0 -30.545668102959098 -17.624499472324285 0 -17.624499472324285 -5.8033819023419255 0 0 0 0 5.0401281378338467 -2.1103849249075779 0 -2.1103849249075779 -1.1614410217647775 0 0 0 0 129.25617165181029 22.84536267720955 0 22.84536267720955 21.569074509582606 0 0 0 0 0.75726319360896355 -1.0541489994637914 0 -1.0541489994637914 -0.11603151187163441 0 0 0 0 250.11400178182521 -71.151304990079097 0 -71.151304990079097 -115.88933160443685 0 0 0 0 197.28056983370334 -15.004279505371414 0 -15.004279505371414 -54.527209761569338 0 0 0 0 386.67423267161939 -101.54462507887001 0 -101.54462507887001 -21.577448441385968 0 0 0 0 158.96669498828123 76.044510111999443 0 76.044510111999443 190.2629610412144 0 0 0 0 185.70631322264671 -168.37165054676279 0 -168.37165054676279 184.66770371251005 0 0 0 0 93.342190559545998 -114.70310108801596 0 -114.70310108801596 100.08475815346725 0 0 0 0 313.23526217340259 85.486815772343562 0 85.486815772343562 5.9270482355066747 0 0 0 0 15.71481651882641 -33.243006409073587 0 -33.243006409073587 91.67735640360479 0 0 0 0 2.7807831160481555 -2.0332750041814762 0 -2.0332750041814762 0.073732003436276727 0 0 0 0 2.639517771473038 1.3505366463170958 0 1.3505366463170958 -3.6075158855787777 0 0 0 0 -0.062262726976769045 33.090442470998482 0 33.090442470998482 -36.168347968234684 0 0 0 0 6.6066136801382527 25.651545180938911 0 25.651545180938911 -29.562015764129455 0 0 0 0 -57.969028027495369 35.855544744703366 0 35.855544744703366 0.01931753488315735 0 0 0 0 71.140495163621381 5.0816319808004664 0 5.0816319808004664 -22.312674670678462 0 0 0 0 74.379412252776092 -21.838348944587779 0 -21.838348944587779 -32.468078726763451 0 0 0 0 59.109043149772333 -23.075872104795963 0 -23.075872104795963 -30.635245947536077 0 0 0 0 146.22033261433535 -114.41148608320339 0 -114.41148608320339 33.099495271781052 0 0 0 0 114.09153790929122 -39.43931598924064 0 -39.43931598924064 4.777863353488101 0 0 0 0 -53.999872256885283 -60.538238543355874 0 -60.538238543355874 102.67921728880265 0 0 0 0 -67.019773650506977 77.431878752236571 0 77.431878752236571 -23.243881458564601 0 0 0 0 -10.061293698869491 9.1613490011723968 0 9.1613490011723968 -1.867990443715569 0 0 0 0 40.496023273837636 -33.079236267140459 0 -33.079236267140459 19.040190871020968 0 0 0 0 96.057775685701927 -13.641126039053233 0 -13.641126039053233 -43.562563352348661 0 0 0 0 58.365484995869338 45.115744183139213 0 45.115744183139213 -86.043323125317329 0 0 0 0 21.132912907418046 16.189533698209928 0 16.189533698209928 -11.706964969023256 0 0 0 0 26.194894390714353 6.5266481222883641 0 6.5266481222883641 -6.6202288579967217 0 0 0 0 39.75305086555818 102.03209433288771 0 102.03209433288771 -51.819023902413392 0 0 0 0 82.286570699361619 -20.33273707952867 0 -20.33273707952867 -28.793433200396066 0 0 0 0 47.522516485725646 -11.445124088348166 0 -11.445124088348166 -38.942812484221804 0 0 0 0 -84.141866879479494 222.97193341114416 0 222.97193341114416 -87.512880238424259 0 0 0 0 49.34872845208514 16.082937524691445 0 16.082937524691445 -18.949643793801666 0 0 0 0 121.25565251443186 -29.126067499317742 0 -29.126067499317742 -97.733829788859111 0 0 0 0 1.2893830742364116 0.52567113352341721 0 0.52567113352341721 -0.60014914318660573 0 0 0 0 -225.36730569472275 -51.221061774156169 0 -51.221061774156169 -216.54018846443705 0 0 0 0 -14.512282415002119 101.26777251996646 0 101.26777251996646 -1.4644867668375809 0 0 0 0 112.1011008117348 -95.013018002639001 0 -95.013018002639001 116.88132221921478 0 0 0 0 160.47907444795419 107.86750347309498 0 107.86750347309498 87.066531506932733 0 0 0 0 224.35556582864956 -86.237622807778052 0 -86.237622807778052 -17.736007941204662 0 0 0 0 45.163671430069371 -40.120481559149312 0 -40.120481559149312 26.041911289189557 0 0 0 0 195.88365320276353 21.25101697079981 0 21.25101697079981 -0.75832602185755604 0 0 0 0 428.48058568029955 19.777855908075708 0 19.777855908075708 -16.034366077753475 0 0 0 0 51.171397919795709 -0.1545617656347531 0 -0.1545617656347531 33.803322369139551 0 0 0 0 252.77129380026599 135.50043019057512 0 135.50043019057512 -76.839461603591587 0 0 0 0 136.6799581713276 278.74444664079647 0 278.74444664079647 -3.4749429509115544 0 0 0 0 42.440922473819825 16.864979064633957 0 16.864979064633957 -22.807494720933356 0 0 0 0 15.869388215942308 -17.303269385618478 0 -17.303269385618478 -6.9995021305130649 0 0 0 0 -45.076083771673439 -49.275947070589268 0 -49.275947070589268 11.052529821049575 0 0 0 0 89.424962906719884 -24.740106094116982 0 -24.740106094116982 -90.485313504189548 0 0 0 0 76.488507946764003 -82.102649236521756 0 -82.102649236521756 -70.654089208154801 0 0 0 0 126.67082393582677 -54.794102057447503 0 -54.794102057447503 -57.564057742396017 0 0 0 0 88.237326740170829 -1.6054285694394821 0 -1.6054285694394821 -70.280240742380101 0 0 0 0 49.156675629786747 7.7233498812841077 0 7.7233498812841077 -25.185204977012507 0 0 0 0 76.93552616686793 -3.8815245410369243 0 -3.8815245410369243 15.732209710013194 0 0 0 0 56.230413433843296 8.2234450493070028 0 8.2234450493070028 -34.45315917217566 0 0 0 0 28.329902111552656 23.602013115854788 0 23.602013115854788 -74.453875968203647 0 0 0 0 43.870676986439264 34.800455917557308 0 34.800455917557308 -33.44334404246213 0 0 0 0 62.492225644782934 -28.354820710470349 0 -28.354820710470349 -25.599921680328009 0 0 0 0 -1.6905081837638818 6.1056822415626115 0 6.1056822415626115 -6.4034649158594732 0 0 0 0 2.1871722400974249 36.691899261026265 0 36.691899261026265 -38.572935535088618 0 0 0 0 -18.374914183412329 0.6123874888262435 0 0.6123874888262435 -0.15720200058240152 0 0 0 0 18.447897750091215 -7.2258083431315754 0 -7.2258083431315754 -20.329449624718109 0 0 0 0 33.481875450583175 -15.417645160994653 0 -15.417645160994653 -43.098453701744347 0 0 0 0 27.768336627894314 -13.950379602973044 0 -13.950379602973044 -18.137623155062101 0 0 0 0 41.05504562017407 -3.1842967683906096 0 -3.1842967683906096 -5.5441804492579259 0 0 0 0 59.356443423137534 9.5159847810764404 0 9.5159847810764404 -46.622924862407672 0 0 0 0 34.266552165761823 -16.635040386066066 0 -16.635040386066066 -40.526997831078916 0 0 0 0 48.660518092260645 -5.7139860986797224 0 -5.7139860986797224 -9.4964446606833164 0 0 0 0 34.056386169730104 -5.5300212654474308 0 -5.5300212654474308 -8.1900017016141646 0 0 0 0 25.546878511697287 -6.4534721114769127 0 -6.4534721114769127 -50.825533374892984 0 0 0 0 78.645925589589751 6.7291685154377774 0 6.7291685154377774 -6.9315693911985363 0 0 0 0 299.83569031763545 -59.413770311749431 0 -59.413770311749431 -15.824569275417161 0 0 0 0 139.78090017310751 -6.5145588105133356 0 -6.5145588105133356 -26.577117025639382 0 0 0 0 125.57960113800073 -83.313789542733502 0 -83.313789542733502 6.1701516909015481 0 0 0 0 62.696340492930176 -36.209475984104756 0 -36.209475984104756 -29.095073440952547 0 0 0 0 31.749022068994236 -17.102115698155103 0 -17.102115698155103 48.253809434922005 0 0 0 0 37.442321480179089 -8.5536054447038623 0 -8.5536054447038623 -7.4097520930263272 0 0 0 0 60.230362983682426 -42.130325955598892 0 -42.130325955598892 -16.256529061323818 0 0 0 0 13.5011037155964 -21.425355563536868 0 -21.425355563536868 9.6734410966855648 0 0 0 0 60.92367846032721 -36.038101468038803 0 -36.038101468038803 -46.71450783529508 0 0 0 0 33.041539491532603 8.3787410266777442 0 8.3787410266777442 -27.249491406142624 0 0 0 0 -0.98456778958620816 5.6643593732646309 0 5.6643593732646309 -1.3529677404900529 0 0 0 0 45.619953537755208 -9.4347709855675248 0 -9.4347709855675248 -11.895822528473484 0 0 0 0 28.23515159182071 -31.072091504268613 0 -31.072091504268613 -3.4414483462251866 0 0 0 0 22.842293471680023 3.2996504423790611 0 3.2996504423790611 -90.124222511760308 0 0 0 0 29.827416723244824 -12.957956492449739 0 -12.957956492449739 -39.490455658076826 0 0 0 0 49.616394432028756 -15.230743513267953 0 -15.230743513267953 -63.999577781491098 0 0 0 0 10.01147140028371 -11.480265018059129 0 -11.480265018059129 -5.3820663626890841 0 0 0 0 -2.0461903442628682 -168.12881098639627 0 -168.12881098639627 3.3371704813907854 0 0 0 0 66.294763932936917 17.032718927410681 0 17.032718927410681 -23.181418641822908 0 0 0 0 17.425217877807995 17.337640194256775 0 17.337640194256775 -16.482142329730912 0 0 0 0 81.564700889983214 -47.117310961045405 0 -47.117310961045405 -35.622089590258838 0 0 0 0 132.09025778523937 -59.260532401425735 0 -59.260532401425735 -63.605031884329037 0 0 0 0 110.34338932079845 -2.7359115836225101 0 -2.7359115836225101 -111.94076153607784 0 0 0 0 137.71688561721021 -21.320922636098658 0 -21.320922636098658 -114.84086640923124 0 0 0 0 80.975283652027798 -10.199295237923963 0 -10.199295237923963 -2.94495786455205 0 0 0 0 111.48066745069082 13.394959299435868 0 13.394959299435868 -115.28797728380778 0 0 0 0 113.25016411719844 -11.95068450168219 0 -11.95068450168219 -116.07804749871502 0 0 0 0 105.02152816022135 -36.166523380066792 0 -36.166523380066792 -82.962278451923339 0 0 0 0 115.39245132394717 -38.876282796943997 0 -38.876282796943997 -89.077948209498572 0 0 0 0 122.61389303441683 -63.015524416672633 0 -63.015524416672633 -91.960108150568885 0 0 0 0 112.96570570823133 -29.088403237651619 0 -29.088403237651619 -110.08458876204531 0 0 0 0 93.921481586774462 -52.272557748099644 0 -52.272557748099644 -138.2584989304105 0 0 0 0 112.60440317445318 -16.847930206517049 0 -16.847930206517049 -152.52669909532369 0 0 0 0 255.56023937971622 -59.427845919100946 0 -59.427845919100946 -64.031808404101412 0 0 0 0 104.7015893405478 -56.640047871229399 0 -56.640047871229399 -57.415356412624533 0 0 0 0 52.048130596607393 -3.7812015232725997 0 -3.7812015232725997 -10.993737313394238 0 0 0 0 68.133953561111412 6.3993672338783654 0 6.3993672338783654 -48.688115213754827 0 0 0 0 52.010982293029684 -7.1442984563194614 0 -7.1442984563194614 -9.7183721922189044 0 0 0 0 144.68310584942628 22.310125752267254 0 22.310125752267254 -129.16121822664354 0 0 0 0 67.506572263419002 42.564474110332867 0 42.564474110332867 -131.77403082008095 0 0 0 0 41.865618815005291 7.2116933998077002 0 7.2116933998077002 -45.407013678375279 0 0 0 0 58.564864360378124 -6.0398062997392117 0 -6.0398062997392117 -45.902915657032281 0 0 0 0 48.871658151386328 72.25646369089236 0 72.25646369089236 -123.72036229343212 0 0 0 0 33.291544140760379 15.576004683960491 0 15.576004683960491 -51.382631588698132 0 0 0 0 31.573330835490196 65.811946940908456 0 65.811946940908456 -84.502364220140407 0 0 0 0 39.174312631570501 8.8431453536077242 0 8.8431453536077242 16.915179470572184 0 0 0 0 78.468831402133219 -44.8019356191312 0 -44.8019356191312 -14.012597779979842 0 0 0 0 28.299083884348562 13.441520740502853 0 13.441520740502853 -18.118269831805563 0 0 0 0 36.342485440371092 -13.833418682364027 0 -13.833418682364027 -16.428897223513331 0 0 0 0 26.171245352653443 -9.0177749470459219 0 -9.0177749470459219 -7.0149171867083471 0 0 0 0 43.427223937920644 -1.9863732513265404 0 -1.9863732513265404 0.097318017809811863 0 0 0 0 49.915280245942995 -16.79268692786718 0 -16.79268692786718 10.817846736979618 0 0 0 0 30.951197862872505 1.076748751186642 0 1.076748751186642 -10.470733383988772 0 0 0 0 30.766193859672967 -12.725937059326554 0 -12.725937059326554 -7.1591014585339927 0 0 0 0 65.235375233067316 0.97019877753882611 0 0.97019877753882611 -36.654311064467947 0 0 0 0 50.007603318324385 0.95176257714831536 0 0.95176257714831536 -15.462137484193754 0 0 0 0 75.901560527272522 24.05847155504307 0 24.05847155504307 -13.660515172512532 0 0 0 0 31.009302941466245 8.3487884374721517 0 8.3487884374721517 -14.539623710159834 0 0 0 0 96.107909273057885 -52.007006673962167 0 -52.007006673962167 -145.90338760427403 0 0 0 0 -12.306470389294191 -14.798380583412666 0 -14.798380583412666 1.1806299352392671 0 0 0 0 20.323259351415867 -19.545321437436996 0 -19.545321437436996 -11.707865034885195 0 0 0 0 -1.1699809549386941 -3.4797821639610191 0 -3.4797821639610191 -0.59833793175865502 0 0 0 0 89.607078142522369 21.053435149679899 0 21.053435149679899 1.5671320190153892 0 0 0 0 60.014287865371443 -11.937209158049882 0 -11.937209158049882 -22.102320088893521 0 0 0 0 61.632720797890215 -1.6217957839162409 0 -1.6217957839162409 -17.574709022218258 0 0 0 0 42.053072885173606 -18.703611686063596 0 -18.703611686063596 -48.401908073101367 0 0 0 0 12.922594185154864 1.4325668785497925 0 1.4325668785497925 -3.5313920539063091 0 0 0 0 18.817235117239761 -50.696767854469272 0 -50.696767854469272 -15.30769278009393 0 0 0 0 129.13870840806339 34.107219938516209 0 34.107219938516209 -29.716127455073092 0 0 0 0 44.065614558026709 -9.0357062272847504 0 -9.0357062272847504 -11.599352037535715 0 0 0 0 35.852714755578404 -3.5587198741943471 0 -3.5587198741943471 -15.920154889580996 0 0 0 0 31.778136510679303 1.0218227399744251 0 1.0218227399744251 -14.669954004355057 0 0 0 0 34.387051232653903 6.5652872087021024 0 6.5652872087021024 -18.406071401540203 0 0 0 0 52.810865498555358 6.3119180101882648 0 6.3119180101882648 -6.4898173283825145 0 0 0 0 17.750571201864403 7.0709411643199189 0 7.0709411643199189 -11.489235486443636 0 0 0 0 52.23072997907002 -10.236650245811234 0 -10.236650245811234 -19.340930872317585 0 0 0 0 7.1045269166157734 1.3559086078930704 0 1.3559086078930704 -8.3820701496047754 0 0 0 0 84.830628423282178 6.5101733004735252 0 6.5101733004735252 -19.173340209506932 0 0 0 0 47.558054486929905 9.0688988233800956 0 9.0688988233800956 -0.23206818828930409 0 0 0 0 34.945795719700982 4.7426492651106855 0 4.7426492651106855 -33.221084694281672 0 0 0 0 78.306463708067895 13.844192477416073 0 13.844192477416073 -7.0355814510730852 0 0 0 0 28.006189813183511 -1.0786480939508039 0 -1.0786480939508039 -9.8019716500758243 0 0 0 0 32.183289375328002 -5.391959040707448 0 -5.391959040707448 -3.0206976235611371 0 0 0 0 12.894585403605253 2.4155142353315995 0 2.4155142353315995 -5.9501635575190761 0 0 0 0 49.153823037398979 -9.0263401253432676 0 -9.0263401253432676 -28.471064582841791 0 0 0 0 73.266616808585241 -3.3571459597687863 0 -3.3571459597687863 -15.405724113313227 0 0 0 0 34.929816125718929 1.1937182703393532 0 1.1937182703393532 -17.078202622239004 0 0 0 0 17.964563253102824 -1.9035342073111678 0 -1.9035342073111678 -12.951628305208942 0 0 0 0 40.923036521708127 -8.8720667401239552 0 -8.8720667401239552 -1.175913483461045 0 0 0 0 38.093508152856252 3.6684282247762212 0 3.6684282247762212 -10.46905031709877 0 0 0 0 31.630977759761464 -5.383124028580994 0 -5.383124028580994 -8.3146497420492089 0 0 0 0 62.515701169823842 -3.3213826348129203 0 -3.3213826348129203 -12.719837032558644 0 0 0 0 25.625703453013557 13.756059653286627 0 13.756059653286627 -17.998277322388375 0 0 0 0 38.484341115166899 10.951363233731854 0 10.951363233731854 -17.843603940561763 0 0 0 0 25.906360591034172 7.7343340286815874 0 7.7343340286815874 -11.417565653815473 0 0 0 0 25.648491601730612 5.8366042531841344 0 5.8366042531841344 -9.8922249430853419 0 0 0 0 23.953975676079608 7.3395596063880575 0 7.3395596063880575 -11.134792672906769 0 0 0 0 29.71013212703582 10.199938442285681 0 10.199938442285681 -13.721115806910808 0 0 0 0 30.111110261537306 4.5668927917600257 0 4.5668927917600257 -12.005271503671253 0 0 0 0 27.739187244005734 1.7804096337629289 0 1.7804096337629289 -6.4110646418007491 0 0 0 0 26.710032375267474 11.034885238910817 0 11.034885238910817 -15.278731582262708 0 0 0 0 63.79806681573973 3.9889527460036334 0 3.9889527460036334 10.241330319735425 0 0 0 0 26.635847460007767 6.9598040529680816 0 6.9598040529680816 -8.7361543523061282 0 0 0 0 13.080894585682131 8.1760728485315184 0 8.1760728485315184 -4.4134104184491818 0 0 0 0 16.637120127446167 4.650988214318204 0 4.650988214318204 -7.060534658923137 0 0 0 0 49.024246056113043 -1.9768582671242712 0 -1.9768582671242712 -5.0615517853034362 0 0 0 0 59.131817444402259 -10.951423683279245 0 -10.951423683279245 -20.946866603007948 0 0 0 0 44.472164827631786 -5.86874045530476 0 -5.86874045530476 -20.236650437520439 0 0 0 0 53.183380005561048 -10.752892843031987 0 -10.752892843031987 -21.79743190068757 0 0 0 0 45.995864376450754 -15.178711137019448 0 -15.178711137019448 -17.187314726168552 0 0 0 0 48.918363718315959 -15.210780669449377 0 -15.210780669449377 -18.491563655044956 0 0 0 0 9.5346220444613401 0.33695343787780985 0 0.33695343787780985 -0.017116224659936563 0 0 0 0 58.907091684348416 -10.83695339258702 0 -10.83695339258702 -16.611074373615338 0 0 0 0 40.054794310883153 -8.5839442921342197 0 -8.5839442921342197 -6.0394563192089663 0 0 0 0 30.146795366468723 -19.809781538085645 0 -19.809781538085645 -16.281350541858956 0 0 0 0 40.347909892081077 -5.0672848928029026 0 -5.0672848928029026 -4.1904646331680517 0 0 0 0 76.197845799743845 -11.898724465227147 0 -11.898724465227147 -37.676038030264408 0 0 0 0 28.911074238914352 -6.4681474606589831 0 -6.4681474606589831 -3.4911201606782516 0 0 0 0 31.671787977902568 2.9936987403129933 0 2.9936987403129933 -38.157998903921452 0 0 0 0 69.110777834013788 -34.385149930227954 0 -34.385149930227954 -9.4566286425979342 0 0 0 0 36.197574920308199 7.1010811426769891 0 7.1010811426769891 -15.852298221304487 0 0 0 0 40.121458641260688 -14.116170460044032 0 -14.116170460044032 -7.247097115573979 0 0 0 0 51.168705327509088 -13.861590766692188 0 -13.861590766692188 -30.412145153975871 0 0 0 0 28.572139577547205 -0.30309733378453529 0 -0.30309733378453529 7.4772793499627142 0 0 0 0 30.597159080338315 12.614353531293091 0 12.614353531293091 -4.1459735219875711 0 0 0 0 254.85257162255584 56.622405737027293 0 56.622405737027293 -26.734900411970557 0 0 0 0 115.97720016488165 -116.000358219384 0 -116.000358219384 43.24739127181283 0 0 0 0 0.67784467986189156 -4.9054700225209729 0 -4.9054700225209729 3.0509824224545739 0 0 0 0 44.992919004231283 -20.055453057863794 0 -20.055453057863794 7.6254724119053705 0 0 0 0 64.053755191984237 -68.675794448103261 0 -68.675794448103261 -89.792675997210608 0 0 0 0 35.435309431893984 -19.598122054798296 0 -19.598122054798296 -26.373660297416791 0 0 0 0 -66.980701500782743 -39.484558024298167 0 -39.484558024298167 -30.827770383053576 0 0 0 0 -76.093645183475019 -90.033792679160115 0 -90.033792679160115 -87.630838346191013 0 0 0 0 -26.589017386708292 9.9170967197715072 0 9.9170967197715072 22.887788372612704 0 0 0 0 -68.965997118662926 40.302519134924296 0 40.302519134924296 64.957523849423524 0 0 0 0 31.908609084255659 -30.246812307851997 0 -30.246812307851997 32.243609610010026 0 0 0 0 1.8010495065540084 -2.6918078426276395 0 -2.6918078426276395 -2.7088443293239877 0 0 0 0 5.3868478762233281 67.641047272111336 0 67.641047272111336 36.835801362005441 0 0 0 0 -26.234361832910508 -17.55661024532219 0 -17.55661024532219 -58.783922592272575 0 0 0 0 12.791326069709612 42.224878497116151 0 42.224878497116151 -5.5095789803162916 0 0 0 0 256.0413956476259 1.23665476293354 0 1.23665476293354 32.839691118566407 0 0 0 0 269.24842383963914 -54.213387089789649 0 -54.213387089789649 31.295672489755816 0 0 0 0 508.80438292767212 16.061126008811698 0 16.061126008811698 -85.400844510561001 0 0 0 0 473.85728177078636 117.50731788140047 0 117.50731788140047 38.83563395731835 0 0 0 0 1038.4802882359654 285.58002554522864 0 285.58002554522864 -27.54184029111093 0 0 0 0 1386.6533351677499 470.54880275458572 0 470.54880275458572 -92.18976723040214 0 0 0 0 850.28001913338085 539.43268576362061 0 539.43268576362061 296.74174571105505 0 0 0 0 833.55872787541739 243.00649993867228 0 243.00649993867228 -35.35890300607025 0 0 0 0 233.66115292685572 265.0852531891187 0 265.0852531891187 194.14883981275307 0 0 0 0 29.601745767438842 -166.63096273030715 0 -166.63096273030715 -146.81433147434132 0 0 0 0 678.37702976495711 256.40681271173662 0 256.40681271173662 77.434197571583354 0 0 0 0 33.513824432125432 -15.805269782241897 0 -15.805269782241897 7.0510509947547924 0 0 0 0 698.00075726601062 212.48933832512921 0 212.48933832512921 152.36476008514774 0 0 0 0 1073.2952472476536 721.29673472403329 0 721.29673472403329 497.01915864607327 0 0 0 0 14.373582550214792 -5.5746045057277378 0 -5.5746045057277378 3.059186421624787 0 0 0 0 211.40912915662921 -49.738704222072556 0 -49.738704222072556 -134.32877605525618 0 0 0 0 65.718750108506356 64.947675149634961 0 64.947675149634961 64.512039835173709 0 0 0 0 130.98453225260891 4.4730756545413897 0 4.4730756545413897 -37.204505365241857 0 0 0 0 47.897574707850708 32.733223717349347 0 32.733223717349347 -46.483935503976682 0 0 0 0 92.821181032253662 -3.5429833673642861 0 -3.5429833673642861 -103.72478715296847 0 0 0 0 87.355456594059433 27.681932781741352 0 27.681932781741352 0.40843475668953033 0 0 0 0 99.898503735021222 -29.680900038056279 0 -29.680900038056279 -40.809417027383461 0 0 0 0 104.78679748013383 33.043117001943756 0 33.043117001943756 -26.937340592692635 0 0 0 0 86.67121287603004 52.303870568414823 0 52.303870568414823 -0.51380718240397982 0 0 0 0 78.632846777225495 35.16702385431563 0 35.16702385431563 -26.904448164321366 0 0 0 0 90.908499501980259 17.184629648621922 0 17.184629648621922 11.419233258350687 0 0 0 0 -2.8343590890290216 -1.2262735678914396 0 -1.2262735678914396 11.647036841173758 0 0 0 0 -3.2808308973326348 27.57515630360831 0 27.57515630360831 23.486607880160591 0 0 0 0 77.474958200589754 37.214492990497092 0 37.214492990497092 -1.0210451014027058 0 0 0 0 36.411017979640746 13.043514290038729 0 13.043514290038729 -9.7199480971376033 0 0 0 0 36.842265754952678 10.872448579697448 0 10.872448579697448 -10.232780711310625 0 0 0 0 31.173928356736724 8.1866940624859126 0 8.1866940624859126 1.887671663902438 0 0 0 0 2.2254151459569584 -0.20401784202562112 0 -0.20401784202562112 2.3865138992000112 0 0 0 0 21.705581033864291 -3.386892822543814 0 -3.386892822543814 5.7412189140886767 0 0 0 0 22.447417331790348 -45.31864536579269 0 -45.31864536579269 58.579866832784319 0 0 0 0 6.4568659771767898 -6.6936860623953152 0 -6.6936860623953152 3.0522083569470411 0 0 0 0 31.326517339939528 9.3394534335575372 0 9.3394534335575372 10.58731668634573 0 0 0 0 21.86246796655314 -0.96492692099650412 0 -0.96492692099650412 3.6002391851361608 0 0 0 0 3.0697150084729401 -1.4195981054688218 0 -1.4195981054688218 7.566454204748652 0 0 0 0 9.9912258149677484 4.6719367745168228 0 4.6719367745168228 0.625153822442023 0 0 0 0 24.753174894533004 -15.781788554355444 0 -15.781788554355444 -9.1650518225869746 0 0 0 0 15.769020871142857 18.328571346319222 0 18.328571346319222 -0.82481438146169239 0 0 0 0 106.87864174339347 50.447821535857088 0 50.447821535857088 -2.4127582514702226 0 0 0 0 5.0989933064880688 2.8784050666353593 0 2.8784050666353593 -2.5602168078604706 0 0 0 0 92.455306876927352 -0.5483833670855347 0 -0.5483833670855347 -15.967263344638923 0 0 0 0 22.371885419262981 -91.951606281063505 0 -91.951606281063505 6.1904375729918684 0 0 0 0 42.507088341480994 -41.149054870007603 0 -41.149054870007603 4.3071024299285909 0 0 0 0 25.302323554147733 -73.568620738677055 0 -73.568620738677055 16.253085245538387 0 0 0 0 30.189831849995244 -75.132575499183076 0 -75.132575499183076 15.756865813167678 0 0 0 0 40.847505377896596 -26.204458384379905 0 -26.204458384379905 2.4688120894334133 0 0 0 0 13.604805069074022 -2.4713876165483128 0 -2.4713876165483128 -0.059292265677399314 0 0 0 0 36.229763349743735 -61.495448961293732 0 -61.495448961293732 26.283266024289333 0 0 0 0 83.784411883316352 17.316202442776557 0 17.316202442776557 -42.74687868302135 0 0 0 0 47.104641186160734 -80.546073482639258 0 -80.546073482639258 3.3931143907570913 0 0 0 0 60.234330130886519 -24.303326645374909 0 -24.303326645374909 -49.768017196325218 0 0 0 0 116.91661202833711 -75.651335955850755 0 -75.651335955850755 -39.96162063484735 0 0 0 0 63.131990440717345 -33.958586250544613 0 -33.958586250544613 -28.011433778672654 0 0 0 0 84.00899203967856 41.034561181887511 0 41.034561181887511 -81.013274852375616 0 0 0 0 65.486568435567506 -8.3262219800927895 0 -8.3262219800927895 -3.4174869243922519 0 0 0 0 60.431248551587487 62.601431698370106 0 62.601431698370106 -12.758749969296332 0 0 0 0 34.017044462583726 -2.2518262670892 0 -2.2518262670892 -10.855172658386437 0 0 0 0 86.846898636082187 -20.272981707879808 0 -20.272981707879808 32.06006207538303 0 0 0 0 35.641950555048737 -6.5921507445390475 0 -6.5921507445390475 5.2638714500395922 0 0 0 0 50.286167314712657 0.51016778568009613 0 0.51016778568009613 22.17371819136315 0 0 0 0 34.317916139232693 -13.454866126470733 0 -13.454866126470733 0.23338064537801984 0 0 0 0 31.740899261058075 -11.547009532871016 0 -11.547009532871016 0.05132448289077729 0 0 0 0 30.119326193988911 -10.241214606173571 0 -10.241214606173571 -3.8729322578764993 0 0 0 0 37.032075911585707 -10.544760054999642 0 -10.544760054999642 -2.6575136296014534 0 0 0 0 27.714432969993471 -1.3062955493587509 0 -1.3062955493587509 -7.5497728376219584 0 0 0 0 35.039367788223899 -8.277594767163464 0 -8.277594767163464 -2.7750332349678501 0 0 0 0 26.018233809413573 -4.8406065461453878 0 -4.8406065461453878 0.14599731682918105 0 0 0 0 17.242442551651038 9.5004466343234526 0 9.5004466343234526 -0.25176801439738483 0 0 0 0 19.221858306977083 3.31518410184799 0 3.31518410184799 1.2385583446593955 0 0 0 0 5.9785167218767192 2.1618220253071598 0 2.1618220253071598 -0.17502059487013355 0 0 0 0 5.5443382791636395 -9.5280027067828996 0 -9.5280027067828996 20.478075856322903 0 0 0 0 4.8589421247670543 -7.2645476942243477 0 -7.2645476942243477 14.188620167100453 0 0 0 0 7.4492697763062168 -3.7796181297594416 0 -3.7796181297594416 -1.9415769043738607 0 0 0 0 41.976960455387598 12.043682331044693 0 12.043682331044693 -31.49885482157697 0 0 0 0 25.976214206399163 9.1859909288723429 0 9.1859909288723429 -22.64800676044797 0 0 0 0 56.993961163258064 55.421908140539017 0 55.421908140539017 6.0273489416267694 0 0 0 0 8.894307051677913 0.62830392708051619 0 0.62830392708051619 0.1562643873363001 0 0 0 0 226.68364541180199 140.27851775562408 0 140.27851775562408 89.782481879112311 0 0 0 0 2.5871283535105078 -0.34373058645486054 0 -0.34373058645486054 -0.39055333156430549 0 0 0 0 68.07216199033428 24.603432377669378 0 24.603432377669378 13.53054422031164 0 0 0 0 10.831059869437013 5.6478784493574494 0 5.6478784493574494 -10.176239586908196 0 0 0 0 27.55200815096353 -5.2446124452361573 0 -5.2446124452361573 0.13035578736117337 0 0 0 0 93.280655139489681 -4.7436718906137685 0 -4.7436718906137685 -37.584693139522642 0 0 0 0 21.662885517051734 -5.0973375101652607 0 -5.0973375101652607 -4.2919566251503198 0 0 0 0 16.502370699687162 -6.2333797914543538 0 -6.2333797914543538 -9.197350687431026 0 0 0 0 37.114160806012478 -9.2421159349132793 0 -9.2421159349132793 -2.1561395718060368 0 0 0 0 30.103921114983635 -7.5533273313524916 0 -7.5533273313524916 -5.1326520336148889 0 0 0 0 85.311884090187959 3.3623536723498546 0 3.3623536723498546 -46.657742167206379 0 0 0 0 38.122108499053866 6.7598647188970062 0 6.7598647188970062 -16.225719649515668 0 0 0 0 18.427840147545794 -1.9380958232850389 0 -1.9380958232850389 -5.5606301972475194 0 0 0 0 28.432053370379052 -3.7173162323264393 0 -3.7173162323264393 -2.9729985982710048 0 0 0 0 25.691319114368525 -5.4540810447761032 0 -5.4540810447761032 0.38957535841291246 0 0 0 0 19.803626970664709 -1.5223679023261205 0 -1.5223679023261205 -1.9770390548649885 0 0 0 0 16.047676025289547 -12.20277199579256 0 -12.20277199579256 10.598453950448242 0 0 0 0 23.018175013898144 -12.920595284532283 0 -12.920595284532283 4.3295559809412225 0 0 0 0 26.284369208835415 -9.3543362557356886 0 -9.3543362557356886 8.201856220175614 0 0 0 0 55.614206186495721 -41.874837420735275 0 -41.874837420735275 31.92336992919445 0 0 0 0 24.824929964799125 -14.001476639982926 0 -14.001476639982926 10.805172897158045 0 0 0 0 -4.4062729022390954 2.0515574365249876 0 2.0515574365249876 3.0233961281942641 0 0 0 0 22.533876556131872 -12.033351517079161 0 -12.033351517079161 3.1492269569477713 0 0 0 0 32.04374857476796 -44.692102516559316 0 -44.692102516559316 -11.786832138217505 0 0 0 0 16.326584507980442 -17.346390573966801 0 -17.346390573966801 -7.4520009796542581 0 0 0 0 21.054691322875442 -19.434714078617617 0 -19.434714078617617 -6.9804861744814843 0 0 0 0 106.33375819574576 -56.558044776596944 0 -56.558044776596944 9.1786520645982819 0 0 0 0 -10.439284430322004 -23.961970697081142 0 -23.961970697081142 20.251868879386166 0 0 0 0 16.350238385799457 -6.3673688918406697 0 -6.3673688918406697 9.5197967237745615 0 0 0 0 88.837981637425401 -3.4333274705049917 0 -3.4333274705049917 8.8604975950656808 0 0 0 0 15.832231019521714 -7.5960023700117745 0 -7.5960023700117745 67.738958158140122 0 0 0 0 54.2754785115103 -50.975491328235876 0 -50.975491328235876 37.433542559143461 0 0 0 0 30.491840898284863 -36.01446548227068 0 -36.01446548227068 45.303130757260078 0 0 0 0 2.8868701733366606 0.72929014909134082 0 0.72929014909134082 -3.0010900059318111 0 0 0 0 100.20829735518782 27.837423344913987 0 27.837423344913987 -6.7913349002469658 0 0 0 0 34.480273325636517 -42.332850529144707 0 -42.332850529144707 51.19784712155888 0 0 0 0 49.088131114505813 -40.478603786243184 0 -40.478603786243184 23.370438149078836 0 0 0 0 40.789476162768551 -17.926795286042761 0 -17.926795286042761 -3.4170031791727524 0 0 0 0 41.594270522648003 -32.252397730257826 0 -32.252397730257826 17.301407815444691 0 0 0 0 43.478430918898084 -34.701881919801963 0 -34.701881919801963 16.361005309652683 0 0 0 0 29.893950144629343 -29.329883628081006 0 -29.329883628081006 23.036302331858678 0 0 0 0 13.703772324952297 -3.2503608032566262 0 -3.2503608032566262 13.196011673257999 0 0 0 0 16.238923514735063 2.1283296115923207 0 2.1283296115923207 -5.3889767338774881 0 0 0 0 25.427854730503896 16.844255786750182 0 16.844255786750182 -19.765395256839838 0 0 0 0 23.476784243495786 -3.3513040043617366 0 -3.3513040043617366 -9.7026543626298007 0 0 0 0 18.942751480441075 18.090436032412981 0 18.090436032412981 -19.159937112883199 0 0 0 0 29.888772264588624 4.2242350373508089 0 4.2242350373508089 -12.060886495815794 0 0 0 0 18.237211033277447 3.4193529548607984 0 3.4193529548607984 -5.3783848373173804 0 0 0 0 11.594645735374797 -7.343657655647803 0 -7.343657655647803 21.593399791720003 0 0 0 0 83.944457445089938 -105.53719170657314 0 -105.53719170657314 80.552528397082824 0 0 0 0 15.199025556750712 -42.136669195549985 0 -42.136669195549985 95.353643410997392 0 0 0 0 28.382624383142684 -18.294950455470826 0 -18.294950455470826 57.242252654226832 0 0 0 0 6.8185477862134576 16.858424405176038 0 16.858424405176038 15.971944806609827 0 0 0 0 57.254668750525525 -46.62914545021863 0 -46.62914545021863 22.486459681491397 0 0 0 0 59.93815607111901 -46.920201311031633 0 -46.920201311031633 21.313211001803211 0 0 0 0 62.831752913654782 -22.744016585747886 0 -22.744016585747886 6.2987320851043478 0 0 0 0 29.088924919047258 12.692092358866034 0 12.692092358866034 -4.8365197088205605 0 0 0 0 -4.735009073629044 19.383660285981023 0 19.383660285981023 -4.4422066384067875 0 0 0 0 0.6240350924787208 -0.38919087782137751 0 -0.38919087782137751 -0.1627817598396355 0 0 0 0 62.864294110091578 -25.228560498375373 0 -25.228560498375373 12.742860328473398 0 0 0 0 4.2946879915101022 -5.8898082692641935 0 -5.8898082692641935 -1.4913022855162765 0 0 0 0 69.958633304486284 -15.188940119735889 0 -15.188940119735889 -4.823753367025347 0 0 0 0 19.0998643000421 -6.310151760431836 0 -6.310151760431836 -1.9688652819377239 0 0 0 0 155.10028251590848 23.683420297525117 0 23.683420297525117 -40.624023381511506 0 0 0 0 93.301679015770787 -54.772294252151823 0 -54.772294252151823 20.404464089799148 0 0 0 0 118.42293900321238 -54.597574536881439 0 -54.597574536881439 -22.162957160395422 0 0 0 0 101.1523927255912 -37.105519554856073 0 -37.105519554856073 -22.853124116714753 0 0 0 0 109.51245941087836 -48.646227941074358 0 -48.646227941074358 -7.0426979264520924 0 0 0 0 97.284984106547199 -38.882433587046762 0 -38.882433587046762 -20.907299763064657 0 0 0 0 108.04615753493272 -33.06453594521372 0 -33.06453594521372 -40.930134065371021 0 0 0 0 53.27100515330676 -0.59276101639443368 0 -0.59276101639443368 -11.648137492954447 0 0 0 0 94.299502909649163 -10.808990174762585 0 -10.808990174762585 -38.642729821704052 0 0 0 0 94.203680915038831 -16.592697352468136 0 -16.592697352468136 18.321296063873888 0 0 0 0 141.00226418412058 -9.3045861919781601 0 -9.3045861919781601 -13.515035254217764 0 0 0 0 85.613313680441934 -15.831017651689763 0 -15.831017651689763 -36.162260615490595 0 0 0 0 104.78888676954375 5.9375590811832808 0 5.9375590811832808 -15.918560839501879 0 0 0 0 106.51321146541886 -19.410296570885748 0 -19.410296570885748 -24.163318518018059 0 0 0 0 15.88252800192987 -15.387018135950541 0 -15.387018135950541 -8.0548410240029753 0 0 0 0 35.593144933740405 -7.2597269059853033 0 -7.2597269059853033 -15.17573271551737 0 0 0 0 121.60064893430535 -37.479322921608855 0 -37.479322921608855 -3.7622133810436935 0 0 0 0 174.06455315084895 -70.345328805700774 0 -70.345328805700774 16.812458391352266 0 0 0 0 1.8280239753600824 -6.137054549330621 0 -6.137054549330621 -1.760307911681263 0 0 0 0 29.903347079103639 -12.87462628632602 0 -12.87462628632602 -8.4017060104694323 0 0 0 0 2.8889193491922924 -43.609727476645276 0 -43.609727476645276 -25.80033646847005 0 0 0 0 34.07753876253264 -20.682404624985793 0 -20.682404624985793 -10.705190948732707 0 0 0 0 30.226559271395672 -3.4881128491470008 0 -3.4881128491470008 -13.471236717883585 0 0 0 0 28.771710709802399 -12.257048120806218 0 -12.257048120806218 -8.9293172242723102 0 0 0 0 43.606088777531596 -14.628866438081666 0 -14.628866438081666 -12.621259579352781 0 0 0 0 73.385765053099021 -2.8965519271878293 0 -2.8965519271878293 10.611283428861498 0 0 0 0 101.5327464293805 -21.73626320153744 0 -21.73626320153744 -17.247037791632465 0 0 0 0 -6.7092233808143646 21.172439887879364 0 21.172439887879364 -33.265476627825592 0 0 0 0 100.20930469391351 -3.6780815486174561 0 -3.6780815486174561 -45.211663471038264 0 0 0 0 45.522557959853145 9.3113493726857968 0 9.3113493726857968 -9.3188334616159274 0 0 0 0 80.611808008103253 15.578601336423617 0 15.578601336423617 -31.277737488329876 0 0 0 0 21.397887990140589 13.447999201835046 0 13.447999201835046 -23.712788125701991 0 0 0 0 20.27200630306919 7.1480127627151404 0 7.1480127627151404 -14.835530174327481 0 0 0 0 58.164314963491051 34.24196040082461 0 34.24196040082461 -57.725672632602254 0 0 0 0 112.23161479459668 15.907226682307737 0 15.907226682307737 -132.62053371635375 0 0 0 0 24.23871113586938 7.3824430301738175 0 7.3824430301738175 -20.443451083849141 0 0 0 0 28.004373995069159 8.757617378986275 0 8.757617378986275 -1.6170755969343116 0 0 0 0 11.196401429362595 -15.261597282425328 0 -15.261597282425328 -27.992927574439818 0 0 0 0 22.249267744186795 11.065442153848608 0 11.065442153848608 -3.8417976193720875 0 0 0 0 23.010150131541991 -5.0724435791386284 0 -5.0724435791386284 -4.3161812859177271 0 0 0 0 25.164396380016115 -12.783896854778504 0 -12.783896854778504 -14.745524617600495 0 0 0 0 31.643292815163363 1.4749034974727522 0 1.4749034974727522 -10.292402121453215 0 0 0 0 27.740572945509484 -59.140459317916793 0 -59.140459317916793 -63.749751091789221 0 0 0 0 21.654785937193083 -20.559103334137035 0 -20.559103334137035 -43.791633237695351 0 0 0 0 3.3870080568885896 -47.694942570156854 0 -47.694942570156854 -7.1500696311268257 0 0 0 0 53.410384043658269 -50.83170524356683 0 -50.83170524356683 -23.636703787367878 0 0 0 0 80.343806919947383 21.48316484067027 0 21.48316484067027 -25.448602609034424 0 0 0 0 62.795332701687585 7.1979605126052775 0 7.1979605126052775 26.151986445802322 0 0 0 0 34.67104778465 -56.828320369186258 0 -56.828320369186258 22.779728116936894 0 0 0 0 62.007374592678389 261.7633990824288 0 261.7633990824288 345.88858847390657 0 0 0 0 114.35731072138515 131.13219311330249 0 131.13219311330249 174.79935680248673 0 0 0 0 241.42657010434777 228.99273708459441 0 228.99273708459441 85.361661073988216 0 0 0 0 559.99681898244307 416.95938617799584 0 416.95938617799584 220.38059866923595 0 0 0 0 2.969692342003043 -1.5246179579299906 0 -1.5246179579299906 0.71087692325384211 0 0 0 0 617.00609788963629 350.30043110621773 0 350.30043110621773 274.01637050137288 0 0 0 0 1239.1252897661761 1160.5821571756624 0 1160.5821571756624 846.78318685941576 0 0 0 0 347.4420940200871 604.68240801152137 0 604.68240801152137 705.15319524735241 0 0 0 0 37.298444492486794 10.533394007991383 0 10.533394007991383 1.3190667848587871 0 0 0 0 237.53940552881886 -97.281011645831313 0 -97.281011645831313 -24.984121031455288 0 0 0 0 -86.429592379698079 297.09687294894445 0 297.09687294894445 306.24969627823521 0 0 0 0 -14.089781065858915 -334.75646088641793 0 -334.75646088641793 287.44045272105359 0 0 0 0 1445.2302518719662 -679.77216323698849 0 -679.77216323698849 120.53660641835086 0 0 0 0 -9.3579305723542348 88.633462556948871 0 88.633462556948871 22.847204294259427 0 0 0 0 52.066125566663686 101.2600148229958 0 101.2600148229958 -222.61686986431005 0 0 0 0 30.661950387872139 4.2231295472671775 0 4.2231295472671775 -2.9625881735788546 0 0 0 0 34.70851043942821 -31.422117611196882 0 -31.422117611196882 22.104917346485308 0 0 0 0 40.484503712883452 -9.137789365122444 0 -9.137789365122444 13.729354217256628 0 0 0 0 3.4704697464142953 2.1401345619194245 0 2.1401345619194245 -0.61483725683362778 0 0 0 0 21.466199481656076 -118.66157173949068 0 -118.66157173949068 121.98344513152642 0 0 0 0 91.582629206095589 -102.36940550362124 0 -102.36940550362124 51.907637196905853 0 0 0 0 0.24689023183266556 0.17077718884947046 0 0.17077718884947046 -0.78332564045992115 0 0 0 0 401.49753076378965 -188.81738086235669 0 -188.81738086235669 239.02367886882712 0 0 0 0 427.85078908249125 86.923506787286101 0 86.923506787286101 111.08760282388539 0 0 0 0 1086.2935953725682 -96.76747070948295 0 -96.76747070948295 24.459735501744944 0 0 0 0 560.87969342744691 -40.224995225420912 0 -40.224995225420912 -124.54704657582988 0 0 0 0 571.04519239191541 29.077530157760748 0 29.077530157760748 44.106480642622046 0 0 0 0 974.62573589250678 145.71501667034681 0 145.71501667034681 -71.178509302269504 0 0 0 0 576.05978418021914 37.777211233524667 0 37.777211233524667 -47.801946252373455 0 0 0 0 248.95545517315622 -212.86667782207951 0 -212.86667782207951 -77.328929246177722 0 0 0 0 576.8723961122887 36.971359919220049 0 36.971359919220049 -51.916535038647453 0 0 0 0 -91.124940349982353 -24.290991383570145 0 -24.290991383570145 104.79812056839182 0 0 0 0 41.663028941675293 -31.419840093148878 0 -31.419840093148878 25.172129975708231 0 0 0 0 52.062878205848392 -21.461729539114913 0 -21.461729539114913 25.894809336015896 0 0 0 0 117.64322390637244 -44.411062531922653 0 -44.411062531922653 14.589313409848728 0 0 0 0 1629.4921042333517 576.19592499133614 0 576.19592499133614 -166.13120145074754 0 0 0 0 1421.9395392524384 575.09489526748575 0 575.09489526748575 -50.795921642486064 0 0 0 0 1084.7668086794147 263.06100535372752 0 263.06100535372752 -133.45781907247147 0 0 0 0 1441.9279170084774 392.00375929179609 0 392.00375929179609 -94.26842969075642 0 0 0 0 1074.2722275240594 71.714833166535755 0 71.714833166535755 -80.476907553198544 0 0 0 0 1205.8361364398297 156.90551262051667 0 156.90551262051667 -49.049664589028907 0 0 0 0 1458.3331177875241 -6.0068223213538374 0 -6.0068223213538374 -52.450657820132619 0 0 0 0 1816.8150945415109 -21.810250444652411 0 -21.810250444652411 -206.26812093301669 0 0 0 0 1848.282785935764 557.54935261472383 0 557.54935261472383 -68.04645369899481 0 0 0 0 1734.4435979724803 504.20993277545858 0 504.20993277545858 89.443969552801718 0 0 0 0 1630.782074224102 385.14015092124282 0 385.14015092124282 -202.23694903491923 0 0 0 0 1634.1199496868117 634.71666125627621 0 634.71666125627621 -66.977207875665044 0 0 0 0 1809.1556163619607 597.74197446344942 0 597.74197446344942 -60.196164448767377 0 0 0 0 1621.1498123606416 403.84798629255306 0 403.84798629255306 281.77129508463986 0 0 0 0 1600.6180761306314 401.22754219930903 0 401.22754219930903 1413.7650601684672 0 0 0 0 2573.8492296526092 1109.1344162980076 0 1109.1344162980076 454.27811707152614 0 0 0 0 15.392029724693941 2.9666758483355338 0 2.9666758483355338 1.1564946267547089 0 0 0 0 1668.1319269343221 -936.56208650663757 0 -936.56208650663757 249.35818752268278 0 0 0 0 3125.7923316932283 -149.09287025531376 0 -149.09287025531376 -344.04927533756199 0 0 0 0 3370.4156463995969 -96.873210574754012 0 -96.873210574754012 334.43319140002131 0 0 0 0 1835.3139320188784 251.00536060587365 0 251.00536060587365 291.49224915517857 0 0 0 0 1416.5510424613603 1459.6858931960232 0 1459.6858931960232 1337.5052569080976 0 0 0 0 2235.9334593720996 407.9912573032525 0 407.9912573032525 -113.07325525601482 0 0 0 0 2031.3453132802169 292.47368929930872 0 292.47368929930872 -48.136855023123644 0 0 0 0 1804.5098053461697 284.30846711997174 0 284.30846711997174 -47.739709542185665 0 0 0 0 1588.6084146347057 434.59783365474095 0 434.59783365474095 -49.620645656455963 0 0 0 0 1764.2746070196517 608.15610999144883 0 608.15610999144883 24.921913470661821 0 0 0 0 1881.918586560374 95.932525782260882 0 95.932525782260882 -877.78296886431963 0 0 0 0 2035.2844286381442 614.12770483601616 0 614.12770483601616 -322.58333151163242 0 0 0 0 1923.5927861331875 294.27038543100389 0 294.27038543100389 -398.47969949606681 0 0 0 0 1638.9941883918364 491.60855490703852 0 491.60855490703852 -89.489290610865282 0 0 0 0 767.4520789127273 633.56801538986656 0 633.56801538986656 350.66775328414815 0 0 0 0 662.55367572635441 396.5941893260806 0 396.5941893260806 32.805001660351991 0 0 0 0 445.94969299212971 357.31511122645588 0 357.31511122645588 51.693148582406138 0 0 0 0 1499.4713885762758 312.57594010411003 0 312.57594010411003 -187.37394853146725 0 0 0 0 260.93975209415657 245.74816775159161 0 245.74816775159161 97.303856355896642 0 0 0 0 236.77510988331051 259.83677858013652 0 259.83677858013652 126.86589423132864 0 0 0 0 219.74750673682138 244.34631167448242 0 244.34631167448242 115.17438842946285 0 0 0 0 328.68698029906955 441.21911490112689 0 441.21911490112689 307.69675191996248 0 0 0 0 428.1047456926899 404.99781938718024 0 404.99781938718024 33.311853128364419 0 0 0 0 361.08736789300747 302.95042179270968 0 302.95042179270968 -106.31152253686014 0 0 0 0 433.0590181130101 144.04606657018394 0 144.04606657018394 -419.38158492152161 0 0 0 0 458.85228356251901 395.51818498234843 0 395.51818498234843 -199.40222560337679 0 0 0 0 521.64346628710337 318.00332986073317 0 318.00332986073317 -106.37807996303309 0 0 0 0 760.79264969596989 199.79143660234422 0 199.79143660234422 -196.92255278199809 0 0 0 0 788.87094048672589 443.71745762900537 0 443.71745762900537 -206.10809304063696 0 0 0 0 427.86392852652352 -760.8124874381806 0 -760.8124874381806 -1219.7415072761403 0 0 0 0 12.951852333370709 -0.14165737208698204 0 -0.14165737208698204 -5.8453828018809766 0 0 0 0 -68.464381506273639 67.620571502614666 0 67.620571502614666 -207.88844307615545 0 0 0 0 259.78862024426053 338.51413854412135 0 338.51413854412135 -296.25996820043383 0 0 0 0 562.9450655298715 191.09078805553281 0 191.09078805553281 -330.44076591980956 0 0 0 0 23.280025618021398 -1.8286155877110701 0 -1.8286155877110701 -10.012356445780746 0 0 0 0 1152.5757966660021 320.13929792917918 0 320.13929792917918 -342.96658799942725 0 0 0 0 554.52625931733928 145.73379683700057 0 145.73379683700057 -406.60378747220886 0 0 0 0 1021.7458850265903 543.39676635204285 0 543.39676635204285 160.70440032845636 0 0 0 0 1518.996462493451 975.32086400042635 0 975.32086400042635 469.49884680843479 0 0 0 0 1990.2520417459309 897.22579219722661 0 897.22579219722661 -19.713045159418471 0 0 0 0 1277.6299032091338 543.45204291962 0 543.45204291962 227.40211284709267 0 0 0 0 1797.9553529131936 390.53900126857866 0 390.53900126857866 89.822298758916986 0 0 0 0 2136.8417848911267 422.60360924822464 0 422.60360924822464 13.952159592909993 0 0 0 0 1507.4280333686474 678.50332010769262 0 678.50332010769262 90.422112356350226 0 0 0 0 2682.9811968739086 1575.6160752234573 0 1575.6160752234573 470.29236357700029 0 0 0 0 -9.5893170733179431 7.0603436911264907 0 7.0603436911264907 -35.666740930465835 0 0 0 0 -11.575339843489928 -9.070141451828249 0 -9.070141451828249 -23.539799366677187 0 0 0 0 -3.5073450891577522 -16.605500977935435 0 -16.605500977935435 -22.52437381684922 0 0 0 0 8.3694901273120195 0.15877119680044416 0 0.15877119680044416 -42.095063078804287 0 0 0 0 3.6315064182672359 -17.212441603147425 0 -17.212441603147425 -23.653946601697953 0 0 0 0 21.949363149324199 -10.074301749592905 0 -10.074301749592905 -37.998334606855678 0 0 0 0 119.18974151014118 -66.693342342547112 0 -66.693342342547112 -20.142886711040774 0 0 0 0 4.432853446691297 -12.323022536891131 0 -12.323022536891131 5.2619714964948798 0 0 0 0 137.74262044130592 -128.17074479839903 0 -128.17074479839903 -82.799442876856119 0 0 0 0 -1.0770082243934667 -10.780537812039427 0 -10.780537812039427 -18.744670141927724 0 0 0 0 2.2873703096417444 -0.12138133066575563 0 -0.12138133066575563 -4.7173925014360032 0 0 0 0 10.456517315152325 16.046836442052367 0 16.046836442052367 -24.102872206080953 0 0 0 0 20.734102077316493 23.616779093174046 0 23.616779093174046 16.12589739113173 0 0 0 0 64.558463231369387 -2.4132984942316398 0 -2.4132984942316398 -9.6227468391771254 0 0 0 0 45.182497189292548 10.238568918828975 0 10.238568918828975 -20.842960110544126 0 0 0 0 9.8999931339240561 2.1768010150254895 0 2.1768010150254895 -10.020448623105484 0 0 0 0 201.15709021658404 -67.283368754022376 0 -67.283368754022376 -69.138143312804459 0 0 0 0 39.429415373005213 -139.43898405688697 0 -139.43898405688697 -64.376698992433376 0 0 0 0 -71.353324516559951 72.68656991343596 0 72.68656991343596 -42.307883921479515 0 0 0 0 190.98512435267912 114.7206536255253 0 114.7206536255253 -242.704916723309 0 0 0 0 5.499240961968372 -2.3287088666268687 0 -2.3287088666268687 -0.68145687353520401 0 0 0 0 39.233715927953256 2.5841135846512344 0 2.5841135846512344 -9.0447977013341401 0 0 0 0 84.193804246533546 37.462080078998952 0 37.462080078998952 -34.896808394732943 0 0 0 0 -23.625897668884136 -37.041530586821864 0 -37.041530586821864 14.120121978532552 0 0 0 0 2.9686194191977222 -4.2459401784030888 0 -4.2459401784030888 0.22335655201219495 0 0 0 0 45.110256158905941 88.523714683032892 0 88.523714683032892 -229.55704578358927 0 0 0 0 -23.199786148126805 93.891816789112397 0 93.891816789112397 -209.81014583753495 0 0 0 0 -174.06180181892705 -167.9207530110798 0 -167.9207530110798 118.88438367879417 0 0 0 0 3.6559638755570631 1.3081264218868682 0 1.3081264218868682 -54.263253392845058 0 0 0 0 1.90838780298904 -7.4898144342345745 0 -7.4898144342345745 -13.662471558998984 0 0 0 0 197.55908425334565 23.589964365600053 0 23.589964365600053 -225.47653701338641 0 0 0 0 73.072718865121715 -172.65230447721024 0 -172.65230447721024 108.98468774965249 0 0 0 0 108.58404004367185 -53.280541898602678 0 -53.280541898602678 145.83953271070277 0 0 0 0 309.81008765830484 26.041300071426804 0 26.041300071426804 -4.7085959330943297 0 0 0 0 481.73409190238453 -22.960555057235979 0 -22.960555057235979 3.2220491339069213 0 0 0 0 333.07960436673602 -41.398772134811225 0 -41.398772134811225 1.0356120866890706 0 0 0 0 169.54956596746342 -27.445818123242134 0 -27.445818123242134 0.94860215186929508 0 0 0 0 304.43163498849026 89.012169021036243 0 89.012169021036243 -109.73333083910256 0 0 0 0 55.117560040860553 97.362759899339835 0 97.362759899339835 -129.26451356180405 0 0 0 0 226.8886882996303 2.94040867149306 0 2.94040867149306 -247.93935295572737 0 0 0 0 -33.287838960925001 -60.122977517205982 0 -60.122977517205982 -6.8071541275776042 0 0 0 0 30.339437690970954 -119.92907416243361 0 -119.92907416243361 -121.75935942093565 0 0 0 0 124.6481279108848 -3.8821103482259787 0 -3.8821103482259787 -23.936945995935353 0 0 0 0 209.11996824412199 2.1972381094828961 0 2.1972381094828961 -131.55078640379361 0 0 0 0 325.01854136414477 114.7957785506369 0 114.7957785506369 -90.365533000918731 0 0 0 0 212.58471840279526 114.72733256535139 0 114.72733256535139 23.90517233139937 0 0 0 0 123.63693320161838 7.4423251086373057 0 7.4423251086373057 -74.082442665443523 0 0 0 0 208.60638913513685 139.63040080828114 0 139.63040080828114 -38.435440129971539 0 0 0 0 389.54002180314274 249.12864836764675 0 249.12864836764675 -10.226278519064181 0 0 0 0 303.16298624400224 143.16321354072807 0 143.16321354072807 -108.71492473916078 0 0 0 0 475.53003710421035 187.94859477231603 0 187.94859477231603 -98.728554576607166 0 0 0 0 408.81109505234053 14.609767611835196 0 14.609767611835196 -58.810367469905032 0 0 0 0 451.54713656124659 223.11781867778973 0 223.11781867778973 -141.60792465271516 0 0 0 0 803.95571742136963 142.33994033615363 0 142.33994033615363 -182.73972647471282 0 0 0 0 561.47810962207586 200.44765014867119 0 200.44765014867119 -117.7210670442746 0 0 0 0 499.4167001380265 -58.117076112757786 0 -58.117076112757786 57.814002276516476 0 0 0 0 1135.0372896279223 -334.01770176621631 0 -334.01770176621631 -46.948403438176683 0 0 0 0 1047.1772448863485 151.35333162706547 0 151.35333162706547 -375.54931590512024 0 0 0 0 519.75698633522552 215.17103883665595 0 215.17103883665595 -310.23933528263933 0 0 0 0 684.57459223428305 269.66875740973796 0 269.66875740973796 -708.36771486368389 0 0 0 0 436.00311257999419 250.35622393687231 0 250.35622393687231 274.11475221810565 0 0 0 0 627.87002823018702 -490.3398477106166 0 -490.3398477106166 372.84051823196205 0 0 0 0 -148.12532605974411 766.12041070471514 0 766.12041070471514 -884.84446307794201 0 0 0 0 -127.25004794583947 27.604464973955146 0 27.604464973955146 -658.2430719672202 0 0 0 0 -0.28098385283863081 1.3120462744824835 0 1.3120462744824835 -2.1531659200185409 0 0 0 0 -0.57579812787361107 3.615016793857027 0 3.615016793857027 -3.9151586655928359 0 0 0 0 320.40027931594523 -257.89233775014463 0 -257.89233775014463 331.87035774744072 0 0 0 0 49.994252916934784 -57.780476326948019 0 -57.780476326948019 -827.56550625800082 0 0 0 0 281.01053314266028 180.20117988336665 0 180.20117988336665 -1124.7065370039027 0 0 0 0 2.8496840242541452 7.1447702511032798 0 7.1447702511032798 -2.0513552061979521 0 0 0 0 -29.839447109072353 246.64782811569569 0 246.64782811569569 -242.88675870020279 0 0 0 0 246.47045151132625 237.28993329118407 0 237.28993329118407 -738.46324047119526 0 0 0 0 241.7856482551399 -23.744656731250828 0 -23.744656731250828 -438.98912001024155 0 0 0 0 386.85275967606867 -202.61712080922024 0 -202.61712080922024 -319.20605149421795 0 0 0 0 371.5849059647735 212.0343615093268 0 212.0343615093268 -226.17913663962946 0 0 0 0 -43.74037620339368 -70.690806642093321 0 -70.690806642093321 -359.34748098026148 0 0 0 0 -6.4124569156265352 308.37512435651252 0 308.37512435651252 -761.00560370040193 0 0 0 0 177.73379821370327 126.87675678442577 0 126.87675678442577 383.55073538347079 0 0 0 0 1279.7077658895432 738.76012553266912 0 738.76012553266912 479.00076212102027 0 0 0 0 297.33170012902701 -72.174142508099493 0 -72.174142508099493 416.21703549729648 0 0 0 0 6.5914764896372162 -0.73980802854478611 0 -0.73980802854478611 -1.9795600995987139 0 0 0 0 -312.517464828019 -603.07364599637287 0 -603.07364599637287 -133.19047174344058 0 0 0 0 510.36256813570071 67.472630418435585 0 67.472630418435585 -183.59270963087465 0 0 0 0 664.25860132990056 746.03927329866826 0 746.03927329866826 27.302836672858646 0 0 0 0 18.141986352509491 -1.999795243099399 0 -1.999795243099399 -7.0771722807582442 0 0 0 0 303.65298642180278 -711.95065432268382 0 -711.95065432268382 -614.33662150434975 0 0 0 0 455.14465176713566 887.71801013762069 0 887.71801013762069 526.55653214529229 0 0 0 0 442.86133680575585 116.4963909120422 0 116.4963909120422 -516.22241805549334 0 0 0 0 422.06775254488457 3.116823469304677 0 3.116823469304677 377.78670822833328 0 0 0 0 1179.8423527550913 7.6698142050556157 0 7.6698142050556157 122.05560972672532 0 0 0 0 1373.5765806726995 844.89845029359583 0 844.89845029359583 586.92331542362649 0 0 0 0 642.59108214827575 82.05684843092746 0 82.05684843092746 1.5153985209955994 0 0 0 0 624.89247346095362 72.884193424663721 0 72.884193424663721 89.689136159354319 0 0 0 0 607.03009985703466 32.133383486235338 0 32.133383486235338 -0.3433082461130687 0 0 0 0 474.50135293075436 152.07138130430812 0 152.07138130430812 141.82739081250838 0 0 0 0 2216.1600900099875 1348.6029166886628 0 1348.6029166886628 182.50055431173561 0 0 0 0 722.75899724278133 681.21177582067776 0 681.21177582067776 508.13154075756495 0 0 0 0 1436.2915624273655 687.17743994811224 0 687.17743994811224 348.15655933618973 0 0 0 0 1498.3761372014524 1019.7108545714586 0 1019.7108545714586 41.161426416603035 0 0 0 0 1771.1322468067665 925.85212801388252 0 925.85212801388252 -11.960548182744475 0 0 0 0 1830.3127423111437 666.90636406530064 0 666.90636406530064 -341.62342774142826 0 0 0 0 -77.147105089436081 105.82645397854162 0 105.82645397854162 41.392683915459656 0 0 0 0 1205.2359701381647 423.64419170932774 0 423.64419170932774 -319.55332116979787 0 0 0 0 1409.506195603135 100.32278437930246 0 100.32278437930246 182.23361841219173 0 0 0 0 1950.28399715669 953.88472213039972 0 953.88472213039972 -170.02471522198812 0 0 0 0 1909.0894684947416 862.06440378568323 0 862.06440378568323 129.04734476189049 0 0 0 0 2414.0413493395608 -37.335875259713134 0 -37.335875259713134 864.78587197366289 0 0 0 0 3470.3929712171957 1378.7437360001577 0 1378.7437360001577 259.05449858335845 0 0 0 0 1638.865720641159 696.05917945303452 0 696.05917945303452 216.24563638256197 0 0 0 0 1351.3676391024928 853.80765368122388 0 853.80765368122388 1305.7589406711099 0 0 0 0 3007.6396928638133 1044.807478906788 0 1044.807478906788 -1.1676221858153346 0 0 0 0 1799.7164555758281 -247.44940409893803 0 -247.44940409893803 -997.12886909850181 0 0 0 0 1754.6078911002187 2037.4876643669122 0 2037.4876643669122 1835.0233478886216 0 0 0 0 642.46982290544111 1165.5329434620364 0 1165.5329434620364 1198.2814941231131 0 0 0 0 26.061530816093807 4.0527321207529319 0 4.0527321207529319 -0.50873164527820303 0 0 0 0 211.78364997609242 99.108660733236377 0 99.108660733236377 144.28061108155225 0 0 0 0 -145.40958733745356 247.02841753216458 0 247.02841753216458 0.18243066060264898 0 0 0 0 -72.87495203303115 224.91661771850173 0 224.91661771850173 -307.24014751401643 0 0 0 0 24.610286606068257 42.602256481757649 0 42.602256481757649 -0.3159044828401712 0 0 0 0 -238.05450959714653 8.942502992549322 0 8.942502992549322 40.920452414002398 0 0 0 0 748.33338690687378 98.218118907790767 0 98.218118907790767 -306.72611393823729 0 0 0 0 62.736108037388874 4.1971198425410599 0 4.1971198425410599 -2.1038294037142977 0 0 0 0 658.93889411428245 -83.588311413595761 0 -83.588311413595761 47.43845965398026 0 0 0 0 7.2336304027285223 -24.538801119751895 0 -24.538801119751895 280.69030301118391 0 0 0 0 9.7921607183525339 11.097230251352812 0 11.097230251352812 109.83525124969765 0 0 0 0 593.94757746439427 622.97368330834615 0 622.97368330834615 255.58988149216702 0 0 0 0 5.2300231214587711 2.5292981076580716 0 2.5292981076580716 -0.63283817317589031 0 0 0 0 -7.7123498611399555 -23.684681452166728 0 -23.684681452166728 19.429876284180409 0 0 0 0 9.3330474594760631 -3.0043481229962605 0 -3.0043481229962605 0.33417610213250382 0 0 0 0 -5.1052396469312953 -9.9942461209333828 0 -9.9942461209333828 98.502513937523901 0 0 0 0 262.73196084327355 -50.259325729868578 0 -50.259325729868578 -356.5108602267137 0 0 0 0 10.391729113880672 1.7886724524953213 0 1.7886724524953213 -1.0621048323497335 0 0 0 0 -0.96329266825705417 -75.068244613215185 0 -75.068244613215185 12.62635463597357 0 0 0 0 16.561735646362649 -25.660715052438491 0 -25.660715052438491 -20.262832689579227 0 0 0 0 -3.114417837743531 -54.149271365824006 0 -54.149271365824006 -8.8240715027144461 0 0 0 0 55.558650009115809 0.67357383097635193 0 0.67357383097635193 0.63325308563935323 0 0 0 0 36.659296743219727 -11.760955687940225 0 -11.760955687940225 -4.4706644138626164 0 0 0 0 14.578363956155954 -25.702329407893131 0 -25.702329407893131 -16.340518781236824 0 0 0 0 55.732429812138434 -3.5144651288860977 0 -3.5144651288860977 -2.5235443156511055 0 0 0 0 62.359622278367169 -13.51658873431208 0 -13.51658873431208 -21.674827808463075 0 0 0 0 82.417208368191496 -9.5116055010799077 0 -9.5116055010799077 -27.705997965671635 0 0 0 0 64.1881238152273 -14.436226294322168 0 -14.436226294322168 -22.106119668327771 0 0 0 0 62.448495959513821 -12.437539587926798 0 -12.437539587926798 -24.145024423664758 0 0 0 0 91.526785844762344 -4.0464046206727566 0 -4.0464046206727566 -64.571776288669994 0 0 0 0 81.274609801217935 -0.18094916730514399 0 -0.18094916730514399 -2.6521617624437672 0 0 0 0 92.497146026045812 -176.15125785071126 0 -176.15125785071126 -188.82129581786126 0 0 0 0 20.210760085925472 0.98315674694882205 0 0.98315674694882205 -6.8535836887241217 0 0 0 0 45.731856213606079 45.679591776561431 0 45.679591776561431 -64.056474904127612 0 0 0 0 71.77753864089027 4.8290150571575072 0 4.8290150571575072 0.0078868100983877972 0 0 0 0 61.322895990982943 -13.313583750740399 0 -13.313583750740399 -24.278008654034103 0 0 0 0 62.530898969853297 -10.631336125869819 0 -10.631336125869819 -25.402567495005474 0 0 0 0 61.474981836152438 -13.634376913834968 0 -13.634376913834968 -24.570131663949137 0 0 0 0 45.387084078218322 -13.422869910625186 0 -13.422869910625186 0.016562061034093217 0 0 0 0 35.331553762858675 -28.977753093991893 0 -28.977753093991893 -22.477542322687416 0 0 0 0 56.59936657120852 -21.217512154388082 0 -21.217512154388082 -42.529086116558645 0 0 0 0 50.960614690885336 -7.8363276663489962 0 -7.8363276663489962 0.49114861196436577 0 0 0 0 61.16346632965724 -12.847780625409284 0 -12.847780625409284 -22.001437985869895 0 0 0 0 60.837080353907368 -11.83701319104971 0 -11.83701319104971 -24.7597617717602 0 0 0 0 33.289944248623215 -25.327838301246327 0 -25.327838301246327 -0.12154589037762474 0 0 0 0 37.952106991535402 -43.538674954656841 0 -43.538674954656841 -57.35498367603666 0 0 0 0 44.52297322020604 10.965244783746442 0 10.965244783746442 -0.93725046407541868 0 0 0 0 49.258639659725702 -6.0017129765521613 0 -6.0017129765521613 0.70213341675125929 0 0 0 0 64.15494552293967 -12.297212678990547 0 -12.297212678990547 -40.410222917120791 0 0 0 0 40.839000130887143 -11.365879582782213 0 -11.365879582782213 -5.5801869148510832 0 0 0 0 55.162154865945922 11.755368250412971 0 11.755368250412971 2.1408218486388364 0 0 0 0 45.158979743137024 -7.4772300063496004 0 -7.4772300063496004 34.743748582077387 0 0 0 0 59.997495923184033 5.31820774805567 0 5.31820774805567 4.2619976288774524 0 0 0 0 19.0152818765022 -4.5779157718450278 0 -4.5779157718450278 -4.9817762906719079 0 0 0 0 51.918272731840261 8.6466525811655401 0 8.6466525811655401 -2.5438642090416579 0 0 0 0 62.200874718735577 -5.2056041531601522 0 -5.2056041531601522 -19.281535138858658 0 0 0 0 73.740174085338367 -1.2993168063297844 0 -1.2993168063297844 1.2808119424090023 0 0 0 0 46.010594233455777 7.1938268602858102 0 7.1938268602858102 26.867281206637585 0 0 0 0 61.807172120068572 5.8464801664645165 0 5.8464801664645165 4.0835398473072928 0 0 0 0 27.022136949020123 -13.32662029722249 0 -13.32662029722249 -6.1931014343796509 0 0 0 0 61.094152027268137 4.7215704493610247 0 4.7215704493610247 11.467635541772324 0 0 0 0 15.721864450963977 -6.812135716957556 0 -6.812135716957556 7.1969079614501137 0 0 0 0 22.84239704429578 -6.0264823468229025 0 -6.0264823468229025 3.3591764802522519 0 0 0 0 -93.207771153960493 -119.18596441592808 0 -119.18596441592808 -35.082055713537557 0 0 0 0 14.205499007163084 -8.6369930142341644 0 -8.6369930142341644 6.0541846956979981 0 0 0 0 23.721223692278727 -3.2818350269853909 0 -3.2818350269853909 3.3622279077038684 0 0 0 0 12.086242937660955 3.7747424178905788 0 3.7747424178905788 3.2133482142907352 0 0 0 0 52.616694587777431 -6.8396806848310625 0 -6.8396806848310625 1.0417690551353878 0 0 0 0 71.72070980609351 6.8526344901461584 0 6.8526344901461584 -28.743970477753237 0 0 0 0 -1.1954942232425196 1.9610654235324887 0 1.9610654235324887 3.5903369067913378 0 0 0 0 -21.452748534604325 -18.326364707280277 0 -18.326364707280277 70.649511296335504 0 0 0 0 3.8691515078188132 -8.767797930016215 0 -8.767797930016215 23.055089542215445 0 0 0 0 94.814696763118263 31.632417732424187 0 31.632417732424187 6.8595129474522309 0 0 0 0 116.15646813050262 -82.731273012891961 0 -82.731273012891961 -56.356145898362229 0 0 0 0 52.051842432363628 -6.9002390047322777 0 -6.9002390047322777 0.72484218991779437 0 0 0 0 62.204861469961543 -2.5393802032699568 0 -2.5393802032699568 -86.63689280492099 0 0 0 0 67.939466973519302 37.169230805326379 0 37.169230805326379 5.7189126104999559 0 0 0 0 72.688852212653728 10.315499043046998 0 10.315499043046998 24.90263011375248 0 0 0 0 46.868646437134885 19.835752202989909 0 19.835752202989909 21.983142047396541 0 0 0 0 53.685973072097113 49.133148760761287 0 49.133148760761287 -1.9551210247691415 0 0 0 0 57.072981263270776 26.678090906358541 0 26.678090906358541 12.587412773866163 0 0 0 0 49.612841062800726 65.112939809759609 0 65.112939809759609 61.218757041102663 0 0 0 0 55.909594203222241 58.914732130608947 0 58.914732130608947 31.560711874302569 0 0 0 0 24.798857814399526 -17.088587037805155 0 -17.088587037805155 130.36434320529551 0 0 0 0 -2.3023241985256391 67.778989092201058 0 67.778989092201058 1.2886431810444066 0 0 0 0 22.654206001439888 -32.407382237358775 0 -32.407382237358775 23.272109785770141 0 0 0 0 5.3281538859557713 -5.0127059640916798 0 -5.0127059640916798 4.8944685511021069 0 0 0 0 -3.3427401752705919 72.177263434681606 0 72.177263434681606 117.72625926522478 0 0 0 0 81.881219238130143 24.743050104661314 0 24.743050104661314 92.524766515277477 0 0 0 0 -60.944275768724765 3.9198866073684258 0 3.9198866073684258 122.68679926947607 0 0 0 0 -162.61442024386633 -160.77584072479317 0 -160.77584072479317 34.962250047790803 0 0 0 0 32.761200212466065 73.012745969582966 0 73.012745969582966 61.054473828436585 0 0 0 0 -47.894801884627668 8.5664929792851581 0 8.5664929792851581 16.339379722217927 0 0 0 0 5.8447174779477962 -10.039177317555684 0 -10.039177317555684 36.12678994755251 0 0 0 0 -226.66262151882256 22.152827727338718 0 22.152827727338718 131.78396108526931 0 0 0 0 -36.334880255635653 -35.876224549967446 0 -35.876224549967446 170.81600892399547 0 0 0 0 111.85976693088014 105.9219828116693 0 105.9219828116693 149.49950210368843 0 0 0 0 333.96705962310807 -10.304524408007637 0 -10.304524408007637 91.004637933992854 0 0 0 0 241.37146566217598 101.78468213704832 0 101.78468213704832 182.42176623925843 0 0 0 0 169.1402997271216 -74.583203013219645 0 -74.583203013219645 57.932390273187139 0 0 0 0 552.95411446992512 61.037984496647368 0 61.037984496647368 84.25354496550608 0 0 0 0 418.0464291338867 164.97148103127984 0 164.97148103127984 211.89693098121552 0 0 0 0 646.85332256976108 86.08092660785951 0 86.08092660785951 99.584123515654937 0 0 0 0 653.77341225532473 200.25865896437261 0 200.25865896437261 200.75308333568501 0 0 0 0 1137.2239280857757 177.50571826812211 0 177.50571826812211 120.93343227776131 0 0 0 0 1263.0995257550967 152.37573647502995 0 152.37573647502995 102.06066842841028 0 0 0 0 1195.6452706614655 287.3978335721622 0 287.3978335721622 174.97116159581583 0 0 0 0 1591.6738002685815 406.95657475852749 0 406.95657475852749 -68.186644547465221 0 0 0 0 511.14060997311753 233.11233156104799 0 233.11233156104799 190.8370393985299 0 0 0 0 1115.9798268116865 314.03927687229361 0 314.03927687229361 123.90339565983504 0 0 0 0 1248.4855057371751 304.78741462180142 0 304.78741462180142 127.30180046835085 0 0 0 0 1144.1359601863078 430.53559377228362 0 430.53559377228362 92.226332123981138 0 0 0 0 1250.9362114724127 343.35213597435745 0 343.35213597435745 -64.834091206284029 0 0 0 0 572.68061210757878 270.98390006328873 0 270.98390006328873 182.19372835168087 0 0 0 0 471.70161126570747 374.31994908680485 0 374.31994908680485 93.842098964863908 0 0 0 0 -72.259038741685799 23.222102764471856 0 23.222102764471856 3.599927581983593 0 0 0 0 298.27487318540443 -46.523536888317153 0 -46.523536888317153 3.0982457047757634 0 0 0 0 60.366239421258797 -148.11573205124114 0 -148.11573205124114 -201.9164102059201 0 0 0 0 70.046842396521242 68.605485565272829 0 68.605485565272829 164.29392519806697 0 0 0 0 3483.7895981502224 -1451.4547899411532 0 -1451.4547899411532 -468.32438292415583 0 0 0 0 3.6471986909844532 4.881991153472498 0 4.881991153472498 4.7333715566100283 0 0 0 0 66.292268542892998 -2.4412436928860188 0 -2.4412436928860188 -15.07335899641464 0 0 0 0 17.496637181422557 16.495110594390098 0 16.495110594390098 18.54114036455843 0 0 0 0 31.49828324898067 1.4151535333664818 0 1.4151535333664818 -0.066625455348841678 0 0 0 0 8.943684604675127 3.4806214286156916 0 3.4806214286156916 -1.0648229733270833 0 0 0 0 406.77098595359712 -15.599545009988219 0 -15.599545009988219 -414.89384395793218 0 0 0 0 7.6051946017109771 5.2684549664014639 0 5.2684549664014639 5.9227092917780482 0 0 0 0 3493.2608984812032 8.7920007242067708 0 8.7920007242067708 6.147864105043169 0 0 0 0 -298.53694973417441 256.40570319575295 0 256.40570319575295 150.78553888793164 0 0 0 0 1262.0740654729016 1029.2416432730279 0 1029.2416432730279 502.37696345009863 0 0 0 0 1387.7028261605883 165.96685549382576 0 165.96685549382576 0.73761537885260853 0 0 0 0 3486.0867065822017 889.72901290550465 0 889.72901290550465 -281.28885778927781 0 0 0 0 506.30102257430553 -266.83774976639955 0 -266.83774976639955 116.22917771444722 0 0 0 0 272.4646865939867 -41.920501662113338 0 -41.920501662113338 -46.182768144544298 0 0 0 0 -57.411608201975469 -85.858657259653057 0 -85.858657259653057 -193.97122644454873 0 0 0 0 -79.365632357279537 -196.15713793384242 0 -196.15713793384242 165.14389657742274 0 0 0 0 46.801738680442213 4.1595204692018815 0 4.1595204692018815 403.42398557809258 0 0 0 0 7.254943800449837 150.80982463072644 0 150.80982463072644 116.36014454806669 0 0 0 0 -232.39633370378579 -154.03626143894633 0 -154.03626143894633 -46.83528997571004 0 0 0 0 27.445927981536443 -41.418291752246361 0 -41.418291752246361 -101.17309065245718 0 0 0 0 -288.67867198624299 -123.71754181779281 0 -123.71754181779281 -49.449821609267133 0 0 0 0 -280.66433276489261 -142.88460411641654 0 -142.88460411641654 -3.6429234012902612 0 0 0 0 62.9953916962113 24.276647483661407 0 24.276647483661407 -40.116186574574272 0 0 0 0 34.873628366019773 -4.3772439487325414 0 -4.3772439487325414 0.15331282077553865 0 0 0 0 -124.18831641938596 -366.0265020069719 0 -366.0265020069719 -137.39422547919702 0 0 0 0 10.185135043964408 0.87079878351713091 0 0.87079878351713091 -3.1397540186655464 0 0 0 0 -174.71708507098083 -93.760346980971462 0 -93.760346980971462 -22.792271260026723 0 0 0 0 21.555238617191208 -14.865957302797142 0 -14.865957302797142 12.51006713418974 0 0 0 0 22.543894623218875 -11.248540828984247 0 -11.248540828984247 9.2021103139013576 0 0 0 0 42.068137237700284 -16.188851801287399 0 -16.188851801287399 -21.086133286637732 0 0 0 0 25.930708492072881 -15.866776122143051 0 -15.866776122143051 6.3212617701806124 0 0 0 0 36.75280087608553 -19.718868229992381 0 -19.718868229992381 4.7961609821277307 0 0 0 0 56.070947445121419 -10.055875574332106 0 -10.055875574332106 -43.636481235461588 0 0 0 0 81.076374898446375 -2.4965278786228566 0 -2.4965278786228566 -135.4352644680564 0 0 0 0 41.653940295895154 -4.5512787366537388 0 -4.5512787366537388 0.36615579315497016 0 0 0 0 2.5530215811959351 9.1013329473699542 0 9.1013329473699542 20.441116621490835 0 0 0 0 3.0775664929376205 -1.8095895661529227 0 -1.8095895661529227 -0.78125761911214653 0 0 0 0 62.778688545658952 67.526539304187793 0 67.526539304187793 18.771350451462244 0 0 0 0 -150.1375871161581 -78.096634828895347 0 -78.096634828895347 -0.085419432607163615 0 0 0 0 -0.86530374837070667 -0.48177841760706031 0 -0.48177841760706031 0.054287670617562456 0 0 0 0 0.56289133937286806 0.11153205157003754 0 0.11153205157003754 -0.31156271777111116 0 0 0 0 83.088439022249077 125.40041171864931 0 125.40041171864931 131.85690394164715 0 0 0 0 2.4447998676914722 -1.1574349924355485 0 -1.1574349924355485 -0.007778553074446911 0 0 0 0 1.4101162364915467 -0.043060303375924036 0 -0.043060303375924036 -0.17752169879765514 0 0 0 0 72.065378968778532 71.181084774135968 0 71.181084774135968 -44.724897359976779 0 0 0 0 40.879439287244168 14.539987270001301 0 14.539987270001301 33.233006950934936 0 0 0 0 31.125623919542704 -22.03840984622493 0 -22.03840984622493 -26.730187977420997 0 0 0 0 29.479050033623935 -26.546173753490848 0 -26.546173753490848 -35.019524878010095 0 0 0 0 195.33501331043954 46.38930683882537 0 46.38930683882537 -35.446067188012847 0 0 0 0 91.928950237605022 -64.032153425812012 0 -64.032153425812012 0.32423801429164945 0 0 0 0 55.88042076711281 -18.313366205980742 0 -18.313366205980742 -1.906369762841905 0 0 0 0 46.231612214547624 -5.7945021535376693 0 -5.7945021535376693 0.51255544569155687 0 0 0 0 99.633832496532705 -47.171081421974165 0 -47.171081421974165 -151.59142954535753 0 0 0 0 55.820605506203719 3.722389120370508 0 3.722389120370508 -42.882049058183782 0 0 0 0 50.723222436419292 -7.6462038393198739 0 -7.6462038393198739 0.97205123618523714 0 0 0 0 34.505068742175354 4.8173393735548871 0 4.8173393735548871 48.286172299523514 0 0 0 0 107.46209330088459 -9.2729226074245616 0 -9.2729226074245616 -192.59076845629147 0 0 0 0 44.006042463799531 -28.648979579604713 0 -28.648979579604713 -67.966196215160721 0 0 0 0 93.269549311637093 11.027232857903556 0 11.027232857903556 70.436935874591427 0 0 0 0 66.84281925871619 76.759287766603791 0 76.759287766603791 68.357220102914113 0 0 0 0 81.88824356659461 39.021624959099611 0 39.021624959099611 174.69003140210634 0 0 0 0 200.42774035855109 54.62364922616198 0 54.62364922616198 88.086147180091785 0 0 0 0 140.28954060002798 -15.773051994057937 0 -15.773051994057937 -66.703669726346561 0 0 0 0 94.547240942956705 65.526166428086071 0 65.526166428086071 10.77011015265424 0 0 0 0 128.79966879164567 -16.397110461469197 0 -16.397110461469197 91.963664194972466 0 0 0 0 57.120095487756771 -77.318403492300945 0 -77.318403492300945 51.576113703235933 0 0 0 0 187.48080346698407 -143.72399169118967 0 -143.72399169118967 211.66743569193537 0 0 0 0 48.404947666938824 -73.456608197528681 0 -73.456608197528681 330.42840548632716 0 0 0 0 68.122433807511698 -157.93664378300966 0 -157.93664378300966 217.85312104676547 0 0 0 0 90.216919412050629 -54.156429701663797 0 -54.156429701663797 23.514559565664626 0 0 0 0 77.910976040409878 -87.830880811960014 0 -87.830880811960014 -179.00692678404084 0 0 0 0 -3.5464177219328121 -19.989369653375775 0 -19.989369653375775 33.197233506358089 0 0 0 0 48.840837259509101 -6.9062764606324194 0 -6.9062764606324194 0.86049771742934045 0 0 0 0 102.65827871595684 -57.609368156785223 0 -57.609368156785223 -220.34539022155877 0 0 0 0 1.2507138458455529 -9.1902207923969037 0 -9.1902207923969037 0.7769931784009122 0 0 0 0 83.759148079083388 12.947614691495602 0 12.947614691495602 -56.106827467185212 0 0 0 0 24.836115924510523 19.014488899835669 0 19.014488899835669 -72.198022777490735 0 0 0 0 32.141957087762421 -95.868224122161791 0 -95.868224122161791 -161.51090155927909 0 0 0 0 64.240012041569571 -4.1202375093621981 0 -4.1202375093621981 1.4782023683790868 0 0 0 0 54.369387832732173 -7.1943499801928965 0 -7.1943499801928965 5.0045081089472205 0 0 0 0 33.95709225905739 -8.7356231632967223 0 -8.7356231632967223 42.984857065644348 0 0 0 0 32.150323825444502 -24.736489914801837 0 -24.736489914801837 25.922336405188389 0 0 0 0 27.004649668742786 -18.928727836596977 0 -18.928727836596977 11.78728002607356 0 0 0 0 27.411551777157001 -15.067169001275772 0 -15.067169001275772 7.9729380084061603 0 0 0 0 28.024483460616466 4.7134113901357182 0 4.7134113901357182 -7.4005160985793736 0 0 0 0 31.987643598225986 -109.42277040268655 0 -109.42277040268655 -16.490229978390744 0 0 0 0 -25.884448597877054 25.749190963340084 0 25.749190963340084 83.976091683623054 0 0 0 0 75.388490418816218 -105.61345408394925 0 -105.61345408394925 -149.30887808035448 0 0 0 0 20.797538335112847 -2.8268310541552033 0 -2.8268310541552033 0.50221361139875731 0 0 0 0 25.712495122263249 -5.9201189177812639 0 -5.9201189177812639 0.63899567545739899 0 0 0 0 15.72831446302007 -14.107717210127333 0 -14.107717210127333 -9.7732351979523173 0 0 0 0 85.19842339229217 -137.23105600862556 0 -137.23105600862556 125.62281773091877 0 0 0 0 -2.3505015815244406 -109.96547181736277 0 -109.96547181736277 228.11043049201504 0 0 0 0 181.31090104117175 -132.37937164522725 0 -132.37937164522725 221.82698056212845 0 0 0 0 30.582997562974924 -320.29182434439736 0 -320.29182434439736 432.32912494736024 0 0 0 0 151.10935259653888 -284.14550299766114 0 -284.14550299766114 327.47251969343262 0 0 0 0 18.8041989547512 1.3193846069446309 0 1.3193846069446309 -2.4710831474086374 0 0 0 0 -35.051525396285797 -230.83285558613687 0 -230.83285558613687 454.92759246607864 0 0 0 0 -58.123403047822649 -121.22579385042332 0 -121.22579385042332 274.3426785637202 0 0 0 0 6.5025496216027108 -0.28057015878221137 0 -0.28057015878221137 0.21449040564735178 0 0 0 0 293.60337542378693 126.03090923376436 0 126.03090923376436 -57.772040633200589 0 0 0 0 -53.091467167032533 76.838849748571647 0 76.838849748571647 211.67865781232331 0 0 0 0 -122.2572964469291 -70.677936362399805 0 -70.677936362399805 720.15178338897169 0 0 0 0 -7.0400559577683453 -264.28856210395509 0 -264.28856210395509 591.45224466771526 0 0 0 0 -4.121059903249261 -270.49592226790219 0 -270.49592226790219 403.46008751841475 0 0 0 0 1430.4004887200135 -1330.9748631728862 0 -1330.9748631728862 784.73486725394434 0 0 0 0 2677.0550642624585 -763.20756912641014 0 -763.20756912641014 -432.47202301040187 0 0 0 0 2540.5932048307732 -1854.4462455239459 0 -1854.4462455239459 991.7452792890067 0 0 0 0 3495.3444010849489 -1413.0840496755491 0 -1413.0840496755491 69.131568564163871 0 0 0 0 576.2278656494891 -96.137874760482774 0 -96.137874760482774 71.440638289577208 0 0 0 0 12.027112891273589 -1.821198307539845 0 -1.821198307539845 -1.2771080254943417 0 0 0 0 3459.7322035656252 -703.738815973295 0 -703.738815973295 142.8528465310423 0 0 0 0 1411.8349372651428 334.57089238678174 0 334.57089238678174 223.30523271462468 0 0 0 0 9.5489396088801186 -2.5058501374347735 0 -2.5058501374347735 1.9030306782695714 0 0 0 0 1666.2664348291728 -451.44815341748551 0 -451.44815341748551 -27.226593951360432 0 0 0 0 445.42049818237138 -608.84901789760374 0 -608.84901789760374 976.60491441185582 0 0 0 0 3480.4150896692736 -118.87946086252018 0 -118.87946086252018 -521.57448657651116 0 0 0 0 21.209726511109466 0.1614692635615107 0 0.1614692635615107 0.48610808811005091 0 0 0 0 18.089506294287276 -2.4403542844495405 0 -2.4403542844495405 1.7512051466485445 0 0 0 0 18.486014009113205 -5.7880613426525542 0 -5.7880613426525542 2.1400132226464872 0 0 0 0 -1189.1206817742786 195.78399335120079 0 195.78399335120079 531.48769470401135 0 0 0 0 13.404314590642798 -1.5009648611434443 0 -1.5009648611434443 4.1856954584710246 0 0 0 0 44.140954477596097 -13.066905269894676 0 -13.066905269894676 -6.6190408521689506 0 0 0 0 10.13071610341207 3.3959792619289999 0 3.3959792619289999 3.5688667320406582 0 0 0 0 5.4706552674018099 1.0264348566553814 0 1.0264348566553814 1.2878035947885358 0 0 0 0 2031.6948951256272 664.44726664604423 0 664.44726664604423 222.13391210671057 0 0 0 0 3735.7588445162692 595.77170683668783 0 595.77170683668783 -147.28823933238476 0 0 0 0 -230.74882802268985 256.32324923400984 0 256.32324923400984 101.88368669442838 0 0 0 0 1.756748754134513 3.5410648630331707 0 3.5410648630331707 1.2519389451246565 0 0 0 0 667.89267398579977 508.88494398688408 0 508.88494398688408 169.89803980385241 0 0 0 0 2006.6502867672589 390.76120904198189 0 390.76120904198189 -224.69361990802872 0 0 0 0 3498.897929161998 778.02715992360618 0 778.02715992360618 -252.09004361205581 0 0 0 0 2097.2949111062208 -48.145852145850306 0 -48.145852145850306 -427.60221110802775 0 0 0 0 2134.3902649888769 -52.909529347156052 0 -52.909529347156052 -499.83869934221786 0 0 0 0 3499.5550499933206 -1000.5936336571294 0 -1000.5936336571294 -478.58711475091735 0 0 0 0 1444.0652817624068 261.39971185960519 0 261.39971185960519 -247.45369494502569 0 0 0 0 1810.1445034927892 -82.263433994178683 0 -82.263433994178683 -427.98141407177434 0 0 0 0 1065.4853467435023 -238.90697493130381 0 -238.90697493130381 -42.727683049667888 0 0 0 0 1256.8819163177541 -592.09475605134458 0 -592.09475605134458 68.354383197657384 0 0 0 0 64.879278260457795 -179.97990462249578 0 -179.97990462249578 124.76027807374851 0 0 0 0 69.346192478978878 255.4496284638609 0 255.4496284638609 -219.40213680108752 0 0 0 0 225.86804109972036 35.720448864352988 0 35.720448864352988 -47.39926192693963 0 0 0 0 260.51073095742322 -102.5374568083639 0 -102.5374568083639 178.89054101743477 0 0 0 0 777.49141348755256 -0.50891799107004054 0 -0.50891799107004054 -95.962887583426664 0 0 0 0 286.23902911400364 19.930125481239372 0 19.930125481239372 -87.59220408483867 0 0 0 0 324.47938971608528 -8.9675728256093237 0 -8.9675728256093237 -103.72570973285769 0 0 0 0 138.36600907941465 -45.251075572952075 0 -45.251075572952075 70.43101631116275 0 0 0 0 137.40681676432723 -16.259568553253246 0 -16.259568553253246 -141.48288123132417 0 0 0 0 -0.53731190422195141 -0.027562879282527319 0 -0.027562879282527319 -1.8166563237707374 0 0 0 0 -87.96220315163373 -60.345790025401016 0 -60.345790025401016 -13.237303335018396 0 0 0 0 117.33940653438913 80.088829603409891 0 80.088829603409891 -87.560318246411782 0 0 0 0 280.03203250947263 116.51641212125728 0 116.51641212125728 -67.598125054403667 0 0 0 0 -66.641099090280022 -20.677200604207933 0 -20.677200604207933 -66.446575121735549 0 0 0 0 -70.211539414605113 73.458623841655069 0 73.458623841655069 19.019088215801958 0 0 0 0 96.575013657973614 -1.824247490763355 0 -1.824247490763355 50.625331605113871 0 0 0 0 -129.33295417070622 31.456654224843533 0 31.456654224843533 73.126263498101878 0 0 0 0 13.364394371369571 2.055005783590353 0 2.055005783590353 -0.98294784520015244 0 0 0 0 158.93825488891162 -251.02481532588348 0 -251.02481532588348 412.40763124284013 0 0 0 0 326.0996847136048 -343.23645472314217 0 -343.23645472314217 448.89720798542265 0 0 0 0 114.16122225280378 -98.583319317399855 0 -98.583319317399855 269.55435477847783 0 0 0 0 -62.888995551502376 181.86949953855839 0 181.86949953855839 -75.657203953420264 0 0 0 0 4.802062258598113 0.73333191925464547 0 0.73333191925464547 -0.014190239094585833 0 0 0 0 395.92266924949945 -10.315534766825987 0 -10.315534766825987 129.830673301513 0 0 0 0 100.32787122175796 37.046782147097758 0 37.046782147097758 240.50003767093256 0 0 0 0 74.063120567821898 -121.50207755311834 0 -121.50207755311834 248.68824485748297 0 0 0 0 74.611172920805984 -119.27621232020593 0 -119.27621232020593 67.29489274564537 0 0 0 0 310.77938404351153 -201.11048281522488 0 -201.11048281522488 5.2256727148600248 0 0 0 0 136.7947833242506 -59.115312804401555 0 -59.115312804401555 -46.257194372665793 0 0 0 0 171.33681297118164 -18.382515663080817 0 -18.382515663080817 -65.211389864036533 0 0 0 0 150.68178184235148 -100.01296745004443 0 -100.01296745004443 -47.356113800488856 0 0 0 0 135.4320138451294 -72.224008949915117 0 -72.224008949915117 -60.798006633492278 0 0 0 0 64.15555992317968 -91.879375388056474 0 -91.879375388056474 -35.198910604040094 0 0 0 0 37.4435204884212 -75.444238252965647 0 -75.444238252965647 -23.902161551137368 0 0 0 0 477.76726556176436 78.252044517910406 0 78.252044517910406 -423.72278949965704 0 0 0 0 -348.35762782010352 -40.776586215629251 0 -40.776586215629251 345.29809361630191 0 0 0 0 -330.59541714803527 -207.10381500244188 0 -207.10381500244188 247.12290917505129 0 0 0 0 -93.166821211732895 71.442113258445346 0 71.442113258445346 281.97931358802145 0 0 0 0 146.47007681785908 37.868646452369489 0 37.868646452369489 53.737878574534761 0 0 0 0 5.3066958826384507 -91.277941503001671 0 -91.277941503001671 82.300527860641637 0 0 0 0 -118.70829343916375 -147.60795429314723 0 -147.60795429314723 67.017301375441434 0 0 0 0 161.52646902849665 -43.466944539664311 0 -43.466944539664311 -67.3373261843156 0 0 0 0 126.0239618057094 -76.962223122921472 0 -76.962223122921472 -97.473785832129749 0 0 0 0 97.712733900450985 -0.95875734588572215 0 -0.95875734588572215 -67.075563187328157 0 0 0 0 57.314827722439077 5.3360818918390578 0 5.3360818918390578 -53.639510237386389 0 0 0 0 39.683708957480121 -11.214215380267603 0 -11.214215380267603 -68.881157559131907 0 0 0 0 81.193998249334982 -83.034622979936756 0 -83.034622979936756 -98.182504444084003 0 0 0 0 1.8758874675000641 -2.3947515253292124 0 -2.3947515253292124 1.338203123767699 0 0 0 0 241.44992179275141 233.84297017985614 0 233.84297017985614 -24.681986684237472 0 0 0 0 -1.7159409563610097 -95.282813494847019 0 -95.282813494847019 -67.59622016751878 0 0 0 0 -20.321270650980296 -14.861205792786393 0 -14.861205792786393 -36.66570105071736 0 0 0 0 -39.575814637646545 -14.716426208521106 0 -14.716426208521106 -15.592081851435367 0 0 0 0 -18.569150508395978 15.13292782125631 0 15.13292782125631 -22.028325166379741 0 0 0 0 -256.91429109450837 52.060271443750821 0 52.060271443750821 414.07326486929014 0 0 0 0 12.843434844917084 -9.7017726585521871 0 -9.7017726585521871 4.3081547090435723 0 0 0 0 71.067242010874907 32.482075846703083 0 32.482075846703083 55.616317436757527 0 0 0 0 99.460272191907279 -100.70743515758204 0 -100.70743515758204 -116.23265927070997 0 0 0 0 67.843447909719544 39.004539106541415 0 39.004539106541415 50.565859580308825 0 0 0 0 68.68923800351331 35.624399413155516 0 35.624399413155516 57.695476429450594 0 0 0 0 73.636366219143383 29.510509159929825 0 29.510509159929825 58.152610909448413 0 0 0 0 67.963129751231463 40.241401909806882 0 40.241401909806882 72.235235274099978 0 0 0 0 83.117253533608164 65.439872251475208 0 65.439872251475208 102.77481229145997 0 0 0 0 84.185090568993473 28.417239267320838 0 28.417239267320838 43.949791002685743 0 0 0 0 98.048022619012045 40.205664332702327 0 40.205664332702327 47.949570013066477 0 0 0 0 75.880703936039936 25.984615208023115 0 25.984615208023115 37.640335672785113 0 0 0 0 64.83439274322518 35.24681421392097 0 35.24681421392097 45.513559910395998 0 0 0 0 66.239906964809052 28.215690602481118 0 28.215690602481118 44.340589008987763 0 0 0 0 59.978406858943345 23.956546736002565 0 23.956546736002565 39.423683574509596 0 0 0 0 -11.904477143124495 -20.641865630676875 0 -20.641865630676875 45.42841770792802 0 0 0 0 28.607216705474883 -8.205996572431836 0 -8.205996572431836 14.522490413178112 0 0 0 0 60.764949069554859 27.968701165088532 0 27.968701165088532 32.786811091318668 0 0 0 0 39.319418210192822 31.830085679227366 0 31.830085679227366 31.543452651205175 0 0 0 0 48.01185213093413 28.610721536179881 0 28.610721536179881 44.925439149883459 0 0 0 0 47.380779740039543 34.746253182006001 0 34.746253182006001 46.340495116510283 0 0 0 0 221.82872264723119 23.859511882890502 0 23.859511882890502 -91.969952103525884 0 0 0 0 49.964590089486592 32.928579543488013 0 32.928579543488013 47.147433643116528 0 0 0 0 25.28569039312589 -4.182132447382088 0 -4.182132447382088 11.171093594498004 0 0 0 0 58.994285600027069 30.684825301825185 0 30.684825301825185 45.307983305461221 0 0 0 0 55.076357487705536 35.754191978838207 0 35.754191978838207 50.083596719022353 0 0 0 0 50.764688347670017 30.875909844874968 0 30.875909844874968 50.061160704670328 0 0 0 0 99.69802621670533 76.285092751811135 0 76.285092751811135 53.63446564838523 0 0 0 0 17.04925202080193 -3.5419868300495523 0 -3.5419868300495523 5.6843566376406649 0 0 0 0 52.810408975001337 -10.586297533826562 0 -10.586297533826562 -19.996264078232493 0 0 0 0 44.746909914872958 0.42785180540038636 0 0.42785180540038636 -20.646167943288617 0 0 0 0 60.822714435521135 -2.3922630121163095 0 -2.3922630121163095 12.612229322755304 0 0 0 0 98.67290486201091 57.623970349953652 0 57.623970349953652 -0.54922696411790639 0 0 0 0 53.247728752698464 34.281229910384958 0 34.281229910384958 29.945373993448186 0 0 0 0 70.183432110839931 29.618378977666453 0 29.618378977666453 22.179353063636881 0 0 0 0 98.471004258354014 32.681988872927306 0 32.681988872927306 -8.7810020334982255 0 0 0 0 53.776574906938237 -1.2312763570989418 0 -1.2312763570989418 -12.505389378178885 0 0 0 0 133.72791541648621 44.892859795888853 0 44.892859795888853 12.594047037388918 0 0 0 0 129.95105730752402 65.118453122559004 0 65.118453122559004 -6.8497643914301989 0 0 0 0 79.528695184344542 34.729035887914051 0 34.729035887914051 9.932596511955353 0 0 0 0 72.41068144167366 -1.7318306142676647 0 -1.7318306142676647 16.59593383720312 0 0 0 0 25.896443663456864 -2.8750471166980276 0 -2.8750471166980276 -5.9805263209576971 0 0 0 0 70.986862463294528 26.469106785338226 0 26.469106785338226 29.949286901959567 0 0 0 0 139.77952247389476 84.049921448123087 0 84.049921448123087 20.863191218570137 0 0 0 0 79.147986664538621 76.014238659229022 0 76.014238659229022 35.513767453373475 0 0 0 0 80.173864471544221 30.927685422281002 0 30.927685422281002 8.8053814631194882 0 0 0 0 53.996516496961704 -5.0594515152900641 0 -5.0594515152900641 2.8146519659207083 0 0 0 0 40.583526302534096 11.732299405580697 0 11.732299405580697 2.8932286678805434 0 0 0 0 23.469030868093547 -22.981404837462946 0 -22.981404837462946 -10.373923754484677 0 0 0 0 75.407865530411073 15.597275519560846 0 15.597275519560846 -17.990966616545748 0 0 0 0 6.9752919906251662 1.4428269404531306 0 1.4428269404531306 -5.4455654860044778 0 0 0 0 24.783820235894382 -0.2203161614680198 0 -0.2203161614680198 -17.665226713303355 0 0 0 0 65.487222235460649 4.2434352242666762 0 4.2434352242666762 -24.226379851057331 0 0 0 0 42.625133607856696 -9.2473410134132905 0 -9.2473410134132905 -38.507499622437962 0 0 0 0 42.567043503280729 9.9441309793734263 0 9.9441309793734263 -16.508772390615547 0 0 0 0 32.858083279497805 58.426013550702052 0 58.426013550702052 -18.593133189689567 0 0 0 0 43.823541218716855 22.274641885433599 0 22.274641885433599 -4.1932098279463617 0 0 0 0 239.72403102654789 -30.951474730808741 0 -30.951474730808741 -83.225846018522816 0 0 0 0 206.969385493554 2.596676050769986 0 2.596676050769986 -53.739928141729365 0 0 0 0 248.02458813790872 40.638846347722392 0 40.638846347722392 -32.349930721605688 0 0 0 0 220.34647307248815 67.846572112596078 0 67.846572112596078 -52.155020212867839 0 0 0 0 226.04143470472627 5.5738912401896386 0 5.5738912401896386 7.6668998906613979 0 0 0 0 240.1831540086423 -83.110978275507932 0 -83.110978275507932 16.036609964768559 0 0 0 0 5.1083046199970283 -2.018191457522903 0 -2.018191457522903 -1.475797884144908 0 0 0 0 89.308054123190232 -35.014459861150499 0 -35.014459861150499 1.5162957475102985 0 0 0 0 188.05605010486033 -4.924436933078141 0 -4.924436933078141 -23.880577506614372 0 0 0 0 112.47213800455575 5.1280205330295416 0 5.1280205330295416 -24.366411110358058 0 0 0 0 30.985141041787891 -23.361707445746319 0 -23.361707445746319 1.7121666041667449 0 0 0 0 165.55853761118487 22.844325504172957 0 22.844325504172957 -7.1020854310255572 0 0 0 0 109.45391722527131 21.646636908348071 0 21.646636908348071 1.8386195871621918 0 0 0 0 144.13731315583573 26.238593161213203 0 26.238593161213203 -19.749411003906971 0 0 0 0 95.629070413531736 53.146562186267147 0 53.146562186267147 -34.675118390655825 0 0 0 0 34.91752124851719 2.5403513801134778 0 2.5403513801134778 -0.003990189552029122 0 0 0 0 136.29518829080916 38.960739455514158 0 38.960739455514158 -24.490854336513621 0 0 0 0 162.67312377024791 27.121899009783192 0 27.121899009783192 -41.269410526754655 0 0 0 0 162.00775054490077 32.529945889469104 0 32.529945889469104 -26.265150743281538 0 0 0 0 169.45115107683523 22.94599930377899 0 22.94599930377899 -22.013727316164477 0 0 0 0 184.64818315348384 48.64643539527026 0 48.64643539527026 -22.773167753367488 0 0 0 0 135.82854671403766 51.258433645544756 0 51.258433645544756 -14.893106464271568 0 0 0 0 138.611451761637 43.816232442270916 0 43.816232442270916 4.9663740212822631 0 0 0 0 29.67406262147589 2.6550783441100521 0 2.6550783441100521 0.065300115311925921 0 0 0 0 138.35314743131676 23.109549730985123 0 23.109549730985123 7.429895700209272 0 0 0 0 124.98618046870979 43.730900269683843 0 43.730900269683843 -31.08402500521629 0 0 0 0 149.15287397900829 58.207973154256024 0 58.207973154256024 -22.883585191009843 0 0 0 0 94.323518491599572 17.205437999584959 0 17.205437999584959 4.2403654486544573 0 0 0 0 143.08160946316275 14.324113033309374 0 14.324113033309374 -13.107405127520451 0 0 0 0 131.71994353007176 7.7622352095138467 0 7.7622352095138467 -2.0889099228865007 0 0 0 0 15.567940921387944 -12.796144317626727 0 -12.796144317626727 2.6802170266137644 0 0 0 0 3494.3775964302913 -582.44524624530379 0 -582.44524624530379 -46.568202961270799 0 0 0 0 159.2940491312329 18.233496111878452 0 18.233496111878452 -2.4639167538823727 0 0 0 0 85.488298460696853 15.846799102795323 0 15.846799102795323 0.17484829399997315 0 0 0 0 137.66410955364699 37.414157085674674 0 37.414157085674674 -12.604272432865173 0 0 0 0 5.0580906088018196 -0.32959721559386068 0 -0.32959721559386068 6.791926088165769 0 0 0 0 11.464067780939693 17.113160876074247 0 17.113160876074247 6.4322464723677202 0 0 0 0 2066.4832957664257 1401.6327764245295 0 1401.6327764245295 963.34224039456899 0 0 0 0 3495.5485132250219 727.3117031298143 0 727.3117031298143 -136.15905461632082 0 0 0 0 3363.4873164913297 764.27014371478504 0 764.27014371478504 -27.9424141512376 0 0 0 0 -0.5922264201500127 11.405646643202189 0 11.405646643202189 4.6434853797449014 0 0 0 0 119.94312501387321 49.27408863637902 0 49.27408863637902 7.9045582226458464 0 0 0 0 51.943775329615164 77.446015568179803 0 77.446015568179803 6.8492734035833109 0 0 0 0 123.14281027867401 71.068576143822838 0 71.068576143822838 1.7555194082847265 0 0 0 0 155.93112502453732 69.319543200270687 0 69.319543200270687 0.065560855150124553 0 0 0 0 318.80160394635095 90.46871723736929 0 90.46871723736929 -72.621419236876477 0 0 0 0 143.03873287334136 115.22122258118469 0 115.22122258118469 -72.858076694926922 0 0 0 0 3501.2855874444722 628.33454675846247 0 628.33454675846247 102.35290740380454 0 0 0 0 1371.0141327869351 199.57507436681317 0 199.57507436681317 -128.45168164519782 0 0 0 0 747.24029492849513 209.82711222859871 0 209.82711222859871 72.990045410576386 0 0 0 0 224.988830957147 -71.043951839264992 0 -71.043951839264992 -2.8749438410577568 0 0 0 0 757.09570213036932 121.23080633163227 0 121.23080633163227 -76.62917217012 0 0 0 0 12.811990309567449 12.858357575506787 0 12.858357575506787 11.604940876752217 0 0 0 0 854.38139067898737 123.52415578718865 0 123.52415578718865 -102.40653831810232 0 0 0 0 827.53774245260138 169.95081688290884 0 169.95081688290884 -0.72372696942056791 0 0 0 0 1631.3909201619026 558.18341695132676 0 558.18341695132676 -204.68920886359956 0 0 0 0 1417.8006252732885 466.38296018781602 0 466.38296018781602 -32.42325187519782 0 0 0 0 1389.7107367588324 511.88410502247916 0 511.88410502247916 -6.2712243075566221 0 0 0 0 1098.9931119691537 406.76839900199866 0 406.76839900199866 242.91306157888357 0 0 0 0 1518.3308899567273 680.46816575952698 0 680.46816575952698 377.16915678280384 0 0 0 0 1599.5867562772619 34.516585475037573 0 34.516585475037573 322.14814030733942 0 0 0 0 1305.9319536327312 398.88256376730624 0 398.88256376730624 456.4601033996023 0 0 0 0 876.92592215553304 272.51593872166495 0 272.51593872166495 266.70970258499983 0 0 0 0 1253.6738378703158 243.68079886085252 0 243.68079886085252 106.81132196625913 0 0 0 0 812.73948382674644 104.82523623532052 0 104.82523623532052 65.245373112466041 0 0 0 0 1050.7392589375831 221.76708950108377 0 221.76708950108377 -12.07719358250506 0 0 0 0 579.81544907082571 177.93892722186138 0 177.93892722186138 185.0961127167111 0 0 0 0 228.95098393126682 95.336319998576073 0 95.336319998576073 107.68182219839127 0 0 0 0 540.69654081924455 59.001271374287171 0 59.001271374287171 26.27398770587024 0 0 0 0 185.51382243358239 71.309041811946372 0 71.309041811946372 180.85626079153371 0 0 0 0 179.82262801109027 26.601184995649533 0 26.601184995649533 29.803698416906627 0 0 0 0 -188.68349378196035 147.91778517117723 0 147.91778517117723 80.040812208822899 0 0 0 0 61.538044808563427 -12.394812888147499 0 -12.394812888147499 32.940109605830003 0 0 0 0 17.630415333150594 11.497016671426749 0 11.497016671426749 20.813339907403204 0 0 0 0 -112.92058676300076 -6.4675426847879862 0 -6.4675426847879862 78.614895834215531 0 0 0 0 224.70671720796145 66.112578041911092 0 66.112578041911092 -85.283272588687396 0 0 0 0 9.4852406088757562 -54.472034997403284 0 -54.472034997403284 116.16133546389442 0 0 0 0 -53.446952944665099 -63.250558101483108 0 -63.250558101483108 46.54750314847427 0 0 0 0 13.777426158002058 -22.301828500905941 0 -22.301828500905941 28.10668756132938 0 0 0 0 -170.56538628770068 -33.219397226777559 0 -33.219397226777559 224.23932895551127 0 0 0 0 -33.515098176852916 -13.648096720437188 0 -13.648096720437188 107.86347825097744 0 0 0 0 96.727587169067647 -19.659429031521995 0 -19.659429031521995 93.636419700387137 0 0 0 0 2.8546318977168994 -77.669253202076618 0 -77.669253202076618 31.851151626707832 0 0 0 0 -4.2735622269829037 -63.979551764178836 0 -63.979551764178836 166.45752149618212 0 0 0 0 -120.05913803853764 -41.791702140365288 0 -41.791702140365288 61.722990921586529 0 0 0 0 -40.444946475559846 -129.18913348167604 0 -129.18913348167604 89.185887751775567 0 0 0 0 71.926220953813754 -122.73597892350551 0 -122.73597892350551 29.470828180907688 0 0 0 0 115.02164267553599 -137.47858602660034 0 -137.47858602660034 -11.098764576869826 0 0 0 0 62.947877567698015 -104.66852423008788 0 -104.66852423008788 1.8010302114884098 0 0 0 0 11.505234829208348 -67.292120871591891 0 -67.292120871591891 29.004183005343975 0 0 0 0 5.060972253895482 -3.231862712075241 0 -3.231862712075241 0.67671230944117211 0 0 0 0 161.73079313887138 -90.198561187696129 0 -90.198561187696129 -99.806298453878426 0 0 0 0 53.316731612285366 -23.1234327900263 0 -23.1234327900263 18.34215119534565 0 0 0 0 6.6192187857602676 -24.592106334747001 0 -24.592106334747001 34.686503498709619 0 0 0 0 68.904803793368046 -45.684803752185871 0 -45.684803752185871 37.42243266915375 0 0 0 0 -9.1934707244552527 7.3887162084370885 0 7.3887162084370885 2.8363366297056931 0 0 0 0 29.031282563766581 39.718097098069762 0 39.718097098069762 -122.88964991633281 0 0 0 0 190.43390506629657 -220.2458322553741 0 -220.2458322553741 -84.146528767136488 0 0 0 0 408.82990027804044 -11.418334070247397 0 -11.418334070247397 -164.67174919486646 0 0 0 0 -832.88554000260774 629.47341924194518 0 629.47341924194518 198.25204248640284 0 0 0 0 58.934429208660731 -249.81372868968018 0 -249.81372868968018 -90.77797183908342 0 0 0 0 -36.147601012111409 -160.55534961514763 0 -160.55534961514763 -10.113630081318718 0 0 0 0 98.190092033473775 -143.10493614408847 0 -143.10493614408847 -30.466678374403671 0 0 0 0 99.278429907863028 -151.82882761945791 0 -151.82882761945791 -61.880557909957702 0 0 0 0 100.2396487280057 -106.4833409864637 0 -106.4833409864637 -76.052840373181425 0 0 0 0 13.835095408756771 16.510805619219028 0 16.510805619219028 14.756036056312634 0 0 0 0 -31.991718918841798 251.03507645982154 0 251.03507645982154 25.218781164381653 0 0 0 0 58.683763518929482 -13.525183637200826 0 -13.525183637200826 33.166114252489024 0 0 0 0 55.38613733832608 0.15319517711577646 0 0.15319517711577646 -5.9361750205844146 0 0 0 0 69.875323337533018 -35.053329788593203 0 -35.053329788593203 -24.736875903287 0 0 0 0 106.6368593254665 -46.912858417993448 0 -46.912858417993448 -22.788231722323872 0 0 0 0 351.61810518962011 60.92785177555163 0 60.92785177555163 -127.76115029419816 0 0 0 0 76.945546542898228 -85.297528248624985 0 -85.297528248624985 -51.623714151653985 0 0 0 0 -19.478175672054931 -64.916124973689875 0 -64.916124973689875 230.78374676844032 0 0 0 0 274.39565379897249 -186.41386382720884 0 -186.41386382720884 -1.7564642447059668 0 0 0 0 -150.92236914252862 -314.06606033736671 0 -314.06606033736671 29.176492365362037 0 0 0 0 6.3489700991165137 -3.6590844096265158 0 -3.6590844096265158 1.2849922295330849 0 0 0 0 298.23330592663842 161.92054490875103 0 161.92054490875103 53.305424449027669 0 0 0 0 110.31110260113201 3.8964222746105861 0 3.8964222746105861 67.865961386421532 0 0 0 0 193.20242942741606 84.035939644053315 0 84.035939644053315 69.609701818993926 0 0 0 0 136.83160893287277 91.808765977935764 0 91.808765977935764 115.02490526787369 0 0 0 0 788.17592674714979 -547.95710809035859 0 -547.95710809035859 49.117604612480619 0 0 0 0 240.18615356138616 -17.551566683473084 0 -17.551566683473084 -6.9522348353293637 0 0 0 0 103.14329491896933 -44.546262980818597 0 -44.546262980818597 55.437391101480898 0 0 0 0 4.8279928072582576 -26.720737045005748 0 -26.720737045005748 38.853761756212045 0 0 0 0 6.8693256159385783 -69.298565006159151 0 -69.298565006159151 28.637760742865339 0 0 0 0 73.654479261910183 -116.08496362937422 0 -116.08496362937422 61.273403685983794 0 0 0 0 -42.150761508702999 18.800412047507052 0 18.800412047507052 107.03611042463854 0 0 0 0 5.5916135881649636 -25.928830248942305 0 -25.928830248942305 30.341440842172702 0 0 0 0 -3.4052265808921334 -0.10285739926307258 0 -0.10285739926307258 2.0333369492738065 0 0 0 0 -2.6670891219037003 -255.97953259379847 0 -255.97953259379847 -32.967630984159769 0 0 0 0 94.204068464212469 -8.8482703437844066 0 -8.8482703437844066 37.163011630524124 0 0 0 0 112.25929631364124 -23.609501688984892 0 -23.609501688984892 30.151008387898855 0 0 0 0 99.629061951423864 31.396698218505833 0 31.396698218505833 41.683529155161523 0 0 0 0 125.10895414552942 14.906085179897673 0 14.906085179897673 37.646540540919887 0 0 0 0 151.1085792609374 47.527056519727921 0 47.527056519727921 40.429515860745425 0 0 0 0 84.550982602399017 -11.756245404674246 0 -11.756245404674246 38.824980940532441 0 0 0 0 70.35094756478793 15.272722580368736 0 15.272722580368736 37.823133942153731 0 0 0 0 22.832010657346387 -22.235543822171081 0 -22.235543822171081 15.392070944476206 0 0 0 0 22.104819968553784 43.609602018963415 0 43.609602018963415 -67.05939851428775 0 0 0 0 -258.61939022278239 55.63178981524652 0 55.63178981524652 204.30779703285771 0 0 0 0 3.7477600709382646 -2.8614293100575594 0 -2.8614293100575594 0.21519174768950933 0 0 0 0 -55.366929695996077 -33.27416112855235 0 -33.27416112855235 152.28509727889832 0 0 0 0 75.897552065580385 -47.915070797469525 0 -47.915070797469525 4.2696303278189589 0 0 0 0 -10.021927792667157 -33.891744428681932 0 -33.891744428681932 104.51744299214261 0 0 0 0 272.2372054988009 36.183413077927071 0 36.183413077927071 115.77984854424722 0 0 0 0 230.39470493780027 -38.66785475675897 0 -38.66785475675897 557.25825885705308 0 0 0 0 59.298210738801572 -91.108999866553859 0 -91.108999866553859 260.64756098059115 0 0 0 0 68.07778102827433 208.32104673062167 0 208.32104673062167 329.62256201873788 0 0 0 0 228.81634006158129 243.05789835301312 0 243.05789835301312 198.62866561961528 0 0 0 0 581.56775494695466 424.34000395088879 0 424.34000395088879 514.01566308180315 0 0 0 0 1106.8035188585345 609.13011328168841 0 609.13011328168841 384.68835736134315 0 0 0 0 1760.2532079730227 660.49286619702616 0 660.49286619702616 585.87475101420841 0 0 0 0 1920.1084754423719 178.00328668553902 0 178.00328668553902 338.82806187332062 0 0 0 0 -156.52961328071251 184.27122846830935 0 184.27122846830935 342.92179721711705 0 0 0 0 2894.1111393230894 147.59419901058754 0 147.59419901058754 -87.005440016751891 0 0 0 0 5.8738114733242384 4.7922545248493975 0 4.7922545248493975 4.9746298202448642 0 0 0 0 1617.2586427013666 0.79561897221446998 0 0.79561897221446998 -91.57568127936247 0 0 0 0 20.823616342780952 142.08465372525711 0 142.08465372525711 -114.47477517430343 0 0 0 0 1488.6443882290259 669.14632663363454 0 669.14632663363454 170.35382922585086 0 0 0 0 1907.1373335088647 658.84946974560989 0 658.84946974560989 -168.17010256226786 0 0 0 0 1767.4427089838064 370.38263575982819 0 370.38263575982819 624.81106536614971 0 0 0 0 1903.9205175417446 501.31115680505718 0 501.31115680505718 -5.5513628649823659 0 0 0 0 1910.1649462855567 161.25463512477381 0 161.25463512477381 436.89450323445635 0 0 0 0 2059.7650565658914 -113.47222394399887 0 -113.47222394399887 813.92770138438573 0 0 0 0 2379.4212325589688 811.14550088147098 0 811.14550088147098 382.94256383815082 0 0 0 0 1419.4703572417638 305.64126762216165 0 305.64126762216165 1191.3985346161444 0 0 0 0 1067.9376931688239 -30.981482764304019 0 -30.981482764304019 104.71541954159147 0 0 0 0 1505.4026504397916 531.59308895511913 0 531.59308895511913 778.51093555504485 0 0 0 0 1789.091010871356 -224.85016294812272 0 -224.85016294812272 52.481573377637687 0 0 0 0 828.33418994539534 -179.74656431683979 0 -179.74656431683979 134.01324392440438 0 0 0 0 964.09857772194482 -236.18881695659536 0 -236.18881695659536 -62.259033321741299 0 0 0 0 901.43349997212499 189.05055337594604 0 189.05055337594604 -55.246994601899132 0 0 0 0 460.20907380530116 -139.10937119956998 0 -139.10937119956998 -181.09514039341775 0 0 0 0 712.63738010991074 -30.629936795782669 0 -30.629936795782669 -182.24414157145839 0 0 0 0 1791.2842815014374 853.58189211885838 0 853.58189211885838 -342.49212094210088 0 0 0 0 1662.1777981713676 491.88707244567377 0 491.88707244567377 -235.77231768814181 0 0 0 0 2726.540110816517 520.35776900098244 0 520.35776900098244 -370.75810121643372 0 0 0 0 3.9168732219700217 4.4561345701966957 0 4.4561345701966957 2.9062599637104043 0 0 0 0 -335.83056798600956 695.17595027922516 0 695.17595027922516 295.96127395388794 0 0 0 0 1319.6625503251416 1129.2308058412614 0 1129.2308058412614 565.81437937936062 0 0 0 0 8.2703139041178133 -2.829100453245708 0 -2.829100453245708 2.1845874678725536 0 0 0 0 1999.8494494902334 828.8788082897355 0 828.8788082897355 364.45949106047556 0 0 0 0 1964.5449501269031 462.89485710212921 0 462.89485710212921 628.68952603971047 0 0 0 0 1193.9276581180839 996.26072840975974 0 996.26072840975974 272.52870370921664 0 0 0 0 1475.7815913347531 628.02013778245123 0 628.02013778245123 945.76508476832896 0 0 0 0 365.43186082266766 206.44471559616159 0 206.44471559616159 693.23440529838717 0 0 0 0 1194.7563251708234 -53.985143294923546 0 -53.985143294923546 545.36771773562032 0 0 0 0 323.18211052319384 561.30464255719744 0 561.30464255719744 450.95647101569375 0 0 0 0 217.41210105213395 295.29355108557138 0 295.29355108557138 643.04950387606732 0 0 0 0 255.35887932884361 317.62640637401751 0 317.62640637401751 307.20158146748145 0 0 0 0 537.24529167017317 591.69006527546844 0 591.69006527546844 314.05315452386827 0 0 0 0 -127.5581437175133 71.977499854343478 0 71.977499854343478 520.7278106770749 0 0 0 0 236.12511011616152 663.03790571671743 0 663.03790571671743 393.75020797835532 0 0 0 0 654.14963114252896 1157.632599286364 0 1157.632599286364 849.94919498881245 0 0 0 0 273.65128758308856 549.75344775177018 0 549.75344775177018 475.86564051088135 0 0 0 0 23.705549536876788 84.201210065782107 0 84.201210065782107 -49.453934290630059 0 0 0 0 -1.5252682449046517 3.967176380216479 0 3.967176380216479 9.6170409784387196 0 0 0 0 -19.925285525345316 26.663623524168543 0 26.663623524168543 106.04619456071305 0 0 0 0 12.268743030843325 130.45850489253826 0 130.45850489253826 107.36618817916451 0 0 0 0 164.78890414373745 3.9218925941070211 0 3.9218925941070211 115.03567281214418 0 0 0 0 629.83831396463756 243.04427005452249 0 243.04427005452249 -77.735084336181899 0 0 0 0 31.268830896151485 92.941250723420126 0 92.941250723420126 45.390280262885426 0 0 0 0 1244.3885352253565 344.1692747185989 0 344.1692747185989 -71.020323201318661 0 0 0 0 297.21429930820705 -496.62654318043064 0 -496.62654318043064 2067.7634251821146 0 0 0 0 5.2986457412700645 6.399089772139547 0 6.399089772139547 8.1214681507925626 0 0 0 0 6.6445943474682281 78.468981014388191 0 78.468981014388191 121.47894744836412 0 0 0 0 65.859456750833488 -400.44666263971158 0 -400.44666263971158 815.48076331918128 0 0 0 0 18.79868691706011 17.2768637961371 0 17.2768637961371 18.553831165883519 0 0 0 0 331.07539073136286 -445.73241227956714 0 -445.73241227956714 773.58035299869152 0 0 0 0 -1089.1295935415874 306.37795202162124 0 306.37795202162124 595.21983771108353 0 0 0 0 -72.728375632905227 -26.637682595282058 0 -26.637682595282058 374.7785902824653 0 0 0 0 -134.55417776549439 102.07723631976842 0 102.07723631976842 1124.9160321514246 0 0 0 0 1972.6226453665804 480.44741107142272 0 480.44741107142272 -1.0995968028510106 0 0 0 0 1433.3644067406167 195.68737429913904 0 195.68737429913904 7.8129747941147798 0 0 0 0 545.77045523648849 -177.34162662278322 0 -177.34162662278322 227.22082171252168 0 0 0 0 1144.2014344064737 747.45125093868501 0 747.45125093868501 1644.2012944155831 0 0 0 0 1308.8950374961496 440.29721358125244 0 440.29721358125244 -9.2279488255990145 0 0 0 0 -146.78530262575077 -164.1066770948637 0 -164.1066770948637 -41.839871060732548 0 0 0 0 1262.064446804914 1178.3217249624631 0 1178.3217249624631 -764.00027529750719 0 0 0 0 9.6465686436077931 -4.5827748834885114 0 -4.5827748834885114 1.7712218742774297 0 0 0 0 337.62776336400566 -719.7690046371672 0 -719.7690046371672 -1038.8402724965163 0 0 0 0 842.77945622985135 78.794103374437327 0 78.794103374437327 -195.23833972177272 0 0 0 0 734.55754458542287 273.91779521232183 0 273.91779521232183 12.21729133018016 0 0 0 0 15.50637582873631 -8.465192979819669 0 -8.465192979819669 5.0679946261866533 0 0 0 0 -262.86140884266933 415.08907579019797 0 415.08907579019797 1709.8923150446117 0 0 0 0 459.5934294904655 243.52887851102514 0 243.52887851102514 -3.9536610204340832 0 0 0 0 29.53408346168726 -431.57867684368102 0 -431.57867684368102 57.596574392700859 0 0 0 0 1007.5065282324576 -53.329786999036514 0 -53.329786999036514 -348.62968864779396 0 0 0 0 1712.106409711836 758.59115643385121 0 758.59115643385121 32.244366636029781 0 0 0 0 2401.2603017267538 188.13009386526574 0 188.13009386526574 -432.89389241346998 0 0 0 0 854.61461369154131 -468.83009219377072 0 -468.83009219377072 -241.10984419041779 0 0 0 0 -426.03311020366527 -190.68752860575478 0 -190.68752860575478 167.9172108489588 0 0 0 0 16.132597950564872 10.823802421898051 0 10.823802421898051 8.0709154483488419 0 0 0 0 226.02530665570521 517.16553945238593 0 517.16553945238593 1278.5622390470276 0 0 0 0 2522.5609972752791 471.21283745350956 0 471.21283745350956 1630.484247585051 0 0 0 0 2820.2438786806106 285.06850988426163 0 285.06850988426163 -180.46042736278832 0 0 0 0 -47.940642906327412 116.0848698476151 0 116.0848698476151 -133.40053068652105 0 0 0 0 -191.94558747811243 56.856819729350718 0 56.856819729350718 114.80814430524697 0 0 0 0 -92.756843941991974 41.578856859026018 0 41.578856859026018 3.4889017690402397 0 0 0 0 33.883617621820406 26.569000093528082 0 26.569000093528082 18.559756637379706 0 0 0 0 -560.87045599574049 117.64143768380745 0 117.64143768380745 -19.956146750341418 0 0 0 0 -143.61164184392328 -177.66064911352578 0 -177.66064911352578 644.40204440377056 0 0 0 0 26.519849953285302 -58.501845529096499 0 -58.501845529096499 -80.628822029841103 0 0 0 0 -156.00285489498856 -79.42219455614395 0 -79.42219455614395 351.46896989280867 0 0 0 0 -50.102000822265836 166.50645545703901 0 166.50645545703901 316.67718201079697 0 0 0 0 130.79397270298796 416.0107434849524 0 416.0107434849524 413.97099180564351 0 0 0 0 302.87342596783856 555.99031240543445 0 555.99031240543445 763.93459011613095 0 0 0 0 -57.727943395759212 149.1173788415781 0 149.1173788415781 394.27051982230478 0 0 0 0 532.54410339501555 326.80577855734646 0 326.80577855734646 86.438527237874951 0 0 0 0 364.87468148538755 377.14953343421439 0 377.14953343421439 104.41289662302188 0 0 0 0 47.600731851446653 200.71113407075245 0 200.71113407075245 44.857305537630964 0 0 0 0 -74.483090198940772 344.77973065660171 0 344.77973065660171 123.34487454682494 0 0 0 0 1602.882641020658 -712.40785825256 0 -712.40785825256 -335.70281710788549 0 0 0 0 3201.0222968126691 584.99317189417002 0 584.99317189417002 -335.69616773569578 0 0 0 0 2974.3602266857915 -501.48086148456582 0 -501.48086148456582 -477.26744096437324 0 0 0 0 1641.7774557463272 1436.2869043375431 0 1436.2869043375431 1067.5752453190394 0 0 0 0 643.25132181156005 433.63366247663907 0 433.63366247663907 337.39397628295774 0 0 0 0 775.83484252377821 655.28972448066634 0 655.28972448066634 365.86590072095521 0 0 0 0 1409.3556880252945 189.92146555254294 0 189.92146555254294 -148.84990737409134 0 0 0 0 1709.0353534555616 324.04800611281826 0 324.04800611281826 -246.34723798706318 0 0 0 0 1080.2421664807625 -384.73845509575085 0 -384.73845509575085 -39.169173383719681 0 0 0 0 7.1400195616807238 9.01403968200853 0 9.01403968200853 14.180335643553249 0 0 0 0 1306.3341978482058 -183.27076471673354 0 -183.27076471673354 268.42381326491886 0 0 0 0 2323.886902094433 -28.212432780685049 0 -28.212432780685049 -430.15658850499312 0 0 0 0 405.11989163282851 3.5744214597398241 0 3.5744214597398241 -211.50628592047906 0 0 0 0 1534.0256898263251 -895.8812354648544 0 -895.8812354648544 456.61901626986764 0 0 0 0 6.3772479217775526 4.944185189800578 0 4.944185189800578 -0.56443080048105543 0 0 0 0 2435.948346017376 -914.30282221511436 0 -914.30282221511436 -51.644120555440168 0 0 0 0 213.19455092817952 267.57697160248881 0 267.57697160248881 -573.0275900791712 0 0 0 0 270.01764971201192 159.38555629911843 0 159.38555629911843 -213.24100897491007 0 0 0 0 196.61919021249923 72.383106027313261 0 72.383106027313261 -305.2876035029185 0 0 0 0 504.69574376152741 238.99507310675654 0 238.99507310675654 -186.25617874318959 0 0 0 0 -877.06553129370513 852.10755273299537 0 852.10755273299537 -277.29498668963424 0 0 0 0 -608.6152699619488 627.96731588935017 0 627.96731588935017 -446.98949449614247 0 0 0 0 2.0560739646577701 3.0938924206095493 0 3.0938924206095493 2.2042887491543581 0 0 0 0 657.35666612377827 6.9870936015195184 0 6.9870936015195184 -55.97495931931644 0 0 0 0 1226.5627803011757 -70.312699213186988 0 -70.312699213186988 -172.89723117023459 0 0 0 0 696.87733588085393 24.928305991668367 0 24.928305991668367 -87.874828831114428 0 0 0 0 5.665572866709752 8.0939966243641521 0 8.0939966243641521 4.7547542411876904 0 0 0 0 626.0490719047084 152.29084354701445 0 152.29084354701445 -265.24549606347659 0 0 0 0 450.21481296065031 262.33923402720575 0 262.33923402720575 143.49255587279185 0 0 0 0 190.36840986553943 580.02337873982697 0 580.02337873982697 -61.070765997044873 0 0 0 0 1342.6403716973582 1145.4181566611715 0 1145.4181566611715 562.27720542878114 0 0 0 0 2394.37063534053 1071.8770739787949 0 1071.8770739787949 -265.71105840316159 0 0 0 0 342.61656325464719 291.9243258121769 0 291.9243258121769 311.59316408072937 0 0 0 0 591.30717050391286 215.18076067956122 0 215.18076067956122 28.512223306453961 0 0 0 0 279.63502573502046 196.80935759400199 0 196.80935759400199 179.70837046844827 0 0 0 0 4.5489005223067664 5.0947806502956468 0 5.0947806502956468 8.2244249995455689 0 0 0 0 557.72239448083565 0.1686340199858023 0 0.1686340199858023 -273.96246886759582 0 0 0 0 2.4671360736587573 -1.2778705710205003 0 -1.2778705710205003 -3.1237826889264624 0 0 0 0 3353.7690755832627 444.76811110591569 0 444.76811110591569 -520.84973721374467 0 0 0 0 3494.0280978145129 -1002.9986248255063 0 -1002.9986248255063 22.738060161559282 0 0 0 0 2229.1824937434176 -765.86978063283323 0 -765.86978063283323 122.39841931195443 0 0 0 0 547.46196705461625 219.69479105578614 0 219.69479105578614 -57.758949781392175 0 0 0 0 4.2563440225858358 379.30828501228495 0 379.30828501228495 295.53968531935237 0 0 0 0 -157.23603727436421 128.19414305088321 0 128.19414305088321 886.82880728158852 0 0 0 0 -401.48644243242961 11.768297043647578 0 11.768297043647578 305.588555921958 0 0 0 0 6.8809594324525047 -14.941900546975582 0 -14.941900546975582 23.670002456416952 0 0 0 0 177.59915570962039 -248.03790789952745 0 -248.03790789952745 -15.730301800296729 0 0 0 0 169.49490411312581 -168.37579357689702 0 -168.37579357689702 -49.782712428293507 0 0 0 0 71.03269335540972 203.75180320926916 0 203.75180320926916 39.637219288071549 0 0 0 0 3803.4870085982293 -88.164949317838108 0 -88.164949317838108 41.536921645055912 0 0 0 0 177.65288808172045 -0.92642300182669146 0 -0.92642300182669146 118.0839792278029 0 0 0 0 216.93006718001561 44.89862767605797 0 44.89862767605797 -24.314938962279257 0 0 0 0 3504.1292081581632 573.71200866485162 0 573.71200866485162 60.19223246657819 0 0 0 0 3.2600421691497878 -5.3784344318654433 0 -5.3784344318654433 0.86731991448134271 0 0 0 0 -0.3776572661456683 -2.2117079622442475 0 -2.2117079622442475 -6.9735009880220602 0 0 0 0 150.68594658328402 -0.82352739514215045 0 -0.82352739514215045 3.0269483558180355 0 0 0 0 2835.5739635282152 275.48738265470536 0 275.48738265470536 35.256844940868447 0 0 0 0 70.683574834394676 28.266607349563742 0 28.266607349563742 36.191047104833615 0 0 0 0 162.02352272226562 48.664872515330785 0 48.664872515330785 -1.3599056600669428 0 0 0 0 25.616215433135356 -10.274718914946249 0 -10.274718914946249 12.217484949764257 0 0 0 0 20.503293690108247 1.1436966201727472 0 1.1436966201727472 -7.2791728663792457 0 0 0 0 103.65112757350289 67.034369212279557 0 67.034369212279557 36.538583336496004 0 0 0 0 295.92984300885655 117.56415621587598 0 117.56415621587598 -64.838448505818633 0 0 0 0 -94.821545742610397 45.256022676062202 0 45.256022676062202 91.80703928968569 0 0 0 0 0.74428914413918079 -15.069392840036357 0 -15.069392840036357 22.963859453380444 0 0 0 0 142.48673590327235 -51.092610750020413 0 -51.092610750020413 -11.13924919239912 0 0 0 0 148.44818057900557 1.9511002799157495 0 1.9511002799157495 163.74782022943145 0 0 0 0 285.04814031682201 111.4624966686189 0 111.4624966686189 34.035693777414053 0 0 0 0 286.99038380337151 27.558013667670366 0 27.558013667670366 -5.8342922994543187 0 0 0 0 130.52926553916132 -3.6810049568404395 0 -3.6810049568404395 -6.6914446488776775 0 0 0 0 211.59830362813227 -16.166297306667275 0 -16.166297306667275 -20.912114309247045 0 0 0 0 193.13698317908984 73.446975921410456 0 73.446975921410456 34.548109376801222 0 0 0 0 210.49524631867826 52.538089134692655 0 52.538089134692655 -5.176852181668437 0 0 0 0 14.31737105903904 21.585412913983539 0 21.585412913983539 13.961347389831552 0 0 0 0 130.68135588586301 25.103606531311016 0 25.103606531311016 0.8924354239557033 0 0 0 0 1457.1894237576853 -1304.4645635067291 0 -1304.4645635067291 559.16773951370851 0 0 0 0 60.366467634573041 -18.85580913512333 0 -18.85580913512333 -15.260904788662046 0 0 0 0 441.3909210223319 -184.14611941942667 0 -184.14611941942667 -347.56319132011413 0 0 0 0 -658.41570524234157 -100.03780726687683 0 -100.03780726687683 -78.054360099484256 0 0 0 0 859.3434697030134 506.78650808431166 0 506.78650808431166 -946.37495785869396 0 0 0 0 95.356693132518558 26.297388145972945 0 26.297388145972945 -83.909578268181576 0 0 0 0 13.094665570199638 1.1617667364962188 0 1.1617667364962188 -5.317562759269304 0 0 0 0 16.129776821326303 -4.7322234149464819 0 -4.7322234149464819 8.2432263893007072 0 0 0 0 -278.51041660525516 469.02083729532114 0 469.02083729532114 -325.46707124680142 0 0 0 0 159.05199857720436 29.016553222843868 0 29.016553222843868 -301.35809272430015 0 0 0 0 -550.54711987634801 -391.22484315410156 0 -391.22484315410156 364.61207679121253 0 0 0 0 329.44982776080724 264.38353103076292 0 264.38353103076292 -224.13853444762753 0 0 0 0 -191.62131665088964 84.223072198432419 0 84.223072198432419 -56.282144558475011 0 0 0 0 104.6924945158371 -169.35206857548064 0 -169.35206857548064 -286.03484556319563 0 0 0 0 -47.576654439486447 59.546609754997917 0 59.546609754997917 99.81139758651625 0 0 0 0 -54.83564453020881 -46.352607114453633 0 -46.352607114453633 109.79410529794404 0 0 0 0 336.87620649936434 -61.242101120741609 0 -61.242101120741609 -1.2433567335247062 0 0 0 0 -0.69692151012745995 0.005254014640478033 0 0.005254014640478033 -0.93089721809662862 0 0 0 0 43.950602510361932 57.937911299355619 0 57.937911299355619 96.514303858817584 0 0 0 0 1188.9811072536395 583.7017274212069 0 583.7017274212069 -803.20422054248047 0 0 0 0 3.5176953095583343 -2.5402270810213921 0 -2.5402270810213921 2.3572854862013735 0 0 0 0 44.323109822682454 -173.38580931302567 0 -173.38580931302567 97.513926754108979 0 0 0 0 162.27276812706259 -192.41758422787825 0 -192.41758422787825 95.146180607440328 0 0 0 0 120.80893291698885 -137.83638689877807 0 -137.83638689877807 95.312319590892002 0 0 0 0 220.16932889407326 -157.57125085574808 0 -157.57125085574808 72.264939901782782 0 0 0 0 186.19083602282626 -211.54518220896716 0 -211.54518220896716 85.0358078408035 0 0 0 0 206.78012573660817 7.1852412324606121 0 7.1852412324606121 74.855444973898557 0 0 0 0 159.75537833650014 -128.80713225560248 0 -128.80713225560248 96.866762976300379 0 0 0 0 71.636006313721737 -94.252107976146362 0 -94.252107976146362 -215.29766453342017 0 0 0 0 10.424195237690981 -8.6117339865564571 0 -8.6117339865564571 7.2873166351422025 0 0 0 0 32.817390056618024 -634.68709311464045 0 -634.68709311464045 -632.60213254546716 0 0 0 0 232.56859442798304 -243.90202166549443 0 -243.90202166549443 -89.651233270898956 0 0 0 0 69.324332230287837 -89.627322885306057 0 -89.627322885306057 -189.58883955517922 0 0 0 0 275.25300152056298 -179.75990363040182 0 -179.75990363040182 -38.283117281080195 0 0 0 0 182.64656139472208 -198.98148646255777 0 -198.98148646255777 41.680528331725327 0 0 0 0 6.8530147378554602 -1.1676183376904445 0 -1.1676183376904445 -0.37534076934467997 0 0 0 0 -90.629045552152093 -266.34894964004616 0 -266.34894964004616 505.51500084307008 0 0 0 0 1578.9318600082042 339.62994241646174 0 339.62994241646174 -828.31205516032514 0 0 0 0 1015.0879177239513 463.0670936307265 0 463.0670936307265 -224.49329338865209 0 0 0 0 633.03254558859771 -462.58743017957113 0 -462.58743017957113 150.85427009530395 0 0 0 0 742.68006533251173 725.34691809726655 0 725.34691809726655 75.21619750778973 0 0 0 0 236.52185782729794 310.27574282472324 0 310.27574282472324 392.3412885139187 0 0 0 0 995.81318328913767 459.89024569095182 0 459.89024569095182 313.83394425025108 0 0 0 0 214.93429473715878 384.9227462759377 0 384.9227462759377 144.5683018948057 0 0 0 0 368.42710870381597 493.4908275727056 0 493.4908275727056 -67.983970437720927 0 0 0 0 359.11554317658647 428.20012950781927 0 428.20012950781927 -500.00078591966394 0 0 0 0 7.7599046998350474 11.500266071031099 0 11.500266071031099 11.419728639211273 0 0 0 0 297.51042342260553 761.38266294056825 0 761.38266294056825 -385.06525670249357 0 0 0 0 577.93896747870167 561.92179654499887 0 561.92179654499887 -135.97022500063304 0 0 0 0 1219.7340461499625 319.83192153199229 0 319.83192153199229 -277.35615509724448 0 0 0 0 625.83163499522198 382.25986840848645 0 382.25986840848645 -193.07310839857564 0 0 0 0 409.13049502434296 217.03806409306526 0 217.03806409306526 -268.16198467166043 0 0 0 0 273.1766774964708 183.0885866325882 0 183.0885866325882 55.597733302911365 0 0 0 0 297.28490077875904 174.03954392686956 0 174.03954392686956 -219.53608116208488 0 0 0 0 609.36189299730904 -405.92208934614473 0 -405.92208934614473 -614.65918386238218 0 0 0 0 679.48153691511834 -892.6697493607744 0 -892.6697493607744 -373.69196472952149 0 0 0 0 280.88699489177088 -26.264531031456499 0 -26.264531031456499 -91.835541984226438 0 0 0 0 213.1618846813908 -66.71890011664982 0 -66.71890011664982 -43.577135510604421 0 0 0 0 192.54771619866369 -166.38216828312966 0 -166.38216828312966 1373.5469341714215 0 0 0 0 290.05306719467626 -79.817937772646474 0 -79.817937772646474 -45.814133674221011 0 0 0 0 365.12708152392588 -96.689549622547929 0 -96.689549622547929 -442.4767586336402 0 0 0 0 362.77935761045956 -70.693501557120726 0 -70.693501557120726 -83.223830799344796 0 0 0 0 -308.46612518504116 645.38062929484329 0 645.38062929484329 120.98602136607406 0 0 0 0 11.455742612159767 4.887992151303318 0 4.887992151303318 -0.12835672415959731 0 0 0 0 -158.27218688156427 136.21672450225833 0 136.21672450225833 600.11512914800187 0 0 0 0 73.038936879616813 -22.771808901418126 0 -22.771808901418126 56.978738305559318 0 0 0 0 85.461248672992951 66.151097920091956 0 66.151097920091956 94.227022445339117 0 0 0 0 61.565064167225501 34.941523170873552 0 34.941523170873552 23.062540781949792 0 0 0 0 156.79322141563171 -28.394867452586141 0 -28.394867452586141 51.088275741313936 0 0 0 0 108.42155630026537 -41.30210104204707 0 -41.30210104204707 11.121336216864847 0 0 0 0 35.436484827754995 -12.323171424827777 0 -12.323171424827777 -18.727297771878689 0 0 0 0 34.690628108964276 -3.9831313766527501 0 -3.9831313766527501 -1.9447654933475746 0 0 0 0 43.789076257438865 72.537692435286317 0 72.537692435286317 170.44731335063443 0 0 0 0 22.691181493785422 8.7988846401974818 0 8.7988846401974818 -0.7346335386997157 0 0 0 0 73.234815676638391 52.004892905265478 0 52.004892905265478 84.185546465699645 0 0 0 0 97.372988788112707 71.113210163223812 0 71.113210163223812 79.405227611712235 0 0 0 0 106.38343755251844 35.72564553356051 0 35.72564553356051 73.975639888158639 0 0 0 0 168.8122711131291 0.90416653438023786 0 0.90416653438023786 122.80299151304371 0 0 0 0 141.88496358544398 98.775017252874363 0 98.775017252874363 111.9419809017254 0 0 0 0 190.93867892768321 611.37457201253392 0 611.37457201253392 44.008265379111435 0 0 0 0 -315.4934399648555 140.12780122832919 0 140.12780122832919 1294.720275519333 0 0 0 0 469.60707401155378 -1252.9518246237485 0 -1252.9518246237485 374.94388945290302 0 0 0 0 -67.34226125531859 1291.5920281328363 0 1291.5920281328363 740.33972605448707 0 0 0 0 257.35355427891045 701.41590469494031 0 701.41590469494031 296.20602475209125 0 0 0 0 -218.71710784899187 -3.4624709420968429 0 -3.4624709420968429 567.52815758443649 0 0 0 0 -92.852706030476838 110.99258538016056 0 110.99258538016056 641.25287874515652 0 0 0 0 21.112588660471374 37.240422419127754 0 37.240422419127754 145.36901781484812 0 0 0 0 22.510344184091082 13.514722403248811 0 13.514722403248811 87.37545925685663 0 0 0 0 25.189900865065283 58.882997686161389 0 58.882997686161389 100.74216434269511 0 0 0 0 27.28663543456787 45.158155419326135 0 45.158155419326135 36.592255017465504 0 0 0 0 28.263834918107023 40.349533333991076 0 40.349533333991076 86.423988360060321 0 0 0 0 74.04491840875653 81.583933786446238 0 81.583933786446238 113.9718800687051 0 0 0 0 33.025853513914626 5.9986260325813419 0 5.9986260325813419 49.994585801152738 0 0 0 0 23.273945893906756 10.088132963904966 0 10.088132963904966 7.6573796446730267 0 0 0 0 29.647608024955844 22.499185913218753 0 22.499185913218753 58.946595192604718 0 0 0 0 -15.156706304500403 30.036550514555984 0 30.036550514555984 38.669061985678127 0 0 0 0 11.955514838901081 9.1321523854529048 0 9.1321523854529048 6.0004169210501423 0 0 0 0 13.874003353692558 18.545131942718811 0 18.545131942718811 25.435529917197179 0 0 0 0 102.45626794553073 -61.17137007857167 0 -61.17137007857167 691.31686075227299 0 0 0 0 -253.72693200742651 -44.884314983254626 0 -44.884314983254626 893.49775585980581 0 0 0 0 -174.5696249085504 -117.67754356838668 0 -117.67754356838668 725.77560554659249 0 0 0 0 -284.22525815792324 130.00416374523593 0 130.00416374523593 597.72590677726839 0 0 0 0 -283.95852170231228 -153.74859521395229 0 -153.74859521395229 693.02032953084017 0 0 0 0 -503.09779706451809 853.18808501832291 0 853.18808501832291 -247.57094321591649 0 0 0 0 -21.82089040306164 176.64590639852213 0 176.64590639852213 -289.89988713724597 0 0 0 0 -468.4778661437449 286.62056971075799 0 286.62056971075799 516.82259293644529 0 0 0 0 -177.53117758008739 -136.66688154515577 0 -136.66688154515577 184.06777813668123 0 0 0 0 -407.32432289909775 290.06966323876418 0 290.06966323876418 79.815857895506269 0 0 0 0 -233.89783254601934 46.779799333943629 0 46.779799333943629 -110.09247857210767 0 0 0 0 -250.3115769020078 367.74896612270368 0 367.74896612270368 -234.61319198013007 0 0 0 0 26.482602788895889 26.657914260961313 0 26.657914260961313 21.482207194050705 0 0 0 0 -112.47830359499858 93.392887379364311 0 93.392887379364311 -132.29447249167606 0 0 0 0 -257.52293366245431 61.532796548109218 0 61.532796548109218 89.420330658386007 0 0 0 0 -259.16201584507508 149.28178508401288 0 149.28178508401288 43.47011386462691 0 0 0 0 -251.45470901262524 125.23860493669144 0 125.23860493669144 191.33482939480746 0 0 0 0 -258.68341539065295 -9.2118101597675377 0 -9.2118101597675377 234.4463751444182 0 0 0 0 -217.03180273655016 90.897654550824882 0 90.897654550824882 116.18118065631643 0 0 0 0 -209.53856635640841 -5.8076078069370851 0 -5.8076078069370851 217.78122982961031 0 0 0 0 -298.3783346286873 50.702803205216696 0 50.702803205216696 186.411078288721 0 0 0 0 -189.20191690058709 38.998848396998255 0 38.998848396998255 109.21367771542964 0 0 0 0 -249.63042616528401 -11.462509763828166 0 -11.462509763828166 227.08483450634048 0 0 0 0 -281.65225264037144 -0.38255323974044586 0 -0.38255323974044586 241.25698204481887 0 0 0 0 -230.66641271361914 100.32148776967324 0 100.32148776967324 163.89779999936218 0 0 0 0 -221.04605284277204 66.136328131908158 0 66.136328131908158 284.60783329036349 0 0 0 0 -351.5076034545782 166.87927555627903 0 166.87927555627903 96.798183470732056 0 0 0 0 -381.14420304704981 260.96823182756816 0 260.96823182756816 -33.433778852009986 0 0 0 0 -260.19696049091726 40.657892359380639 0 40.657892359380639 66.229176362054432 0 0 0 0 -261.56715282377689 118.090159552388 0 118.090159552388 -33.054704982871044 0 0 0 0 -202.67259031126741 253.83179137779007 0 253.83179137779007 -97.033445067312641 0 0 0 0 -338.0134510777134 89.798340988967539 0 89.798340988967539 123.54805425416271 0 0 0 0 86.436936849197082 60.494083709158986 0 60.494083709158986 -73.823022979388497 0 0 0 0 18.001061676642408 8.0899476786213498 0 8.0899476786213498 0.12303182684876646 0 0 0 0 -128.76885013376886 255.12793888167471 0 255.12793888167471 -126.66986938182117 0 0 0 0 10.724507825774857 21.511326897075492 0 21.511326897075492 38.028297931682147 0 0 0 0 1335.4027979667662 193.4712321123136 0 193.4712321123136 1799.3540946628636 0 0 0 0 -138.34426725980484 272.56876028585566 0 272.56876028585566 -150.18761830182302 0 0 0 0 -104.58583035405354 146.94278471098164 0 146.94278471098164 19.373540899236104 0 0 0 0 -71.322754564789648 239.59080399828781 0 239.59080399828781 -218.99593523565454 0 0 0 0 5.0897247911707382 71.766926730674641 0 71.766926730674641 -132.5046565059929 0 0 0 0 -526.18152974406621 274.5299822034317 0 274.5299822034317 595.68650907037136 0 0 0 0 -14.831313229910847 -18.753718218162248 0 -18.753718218162248 -2.2386398624366848 0 0 0 0 -216.17785359745903 38.284807142043519 0 38.284807142043519 341.57796430144936 0 0 0 0 -171.70497640999383 55.246785082038514 0 55.246785082038514 138.09231634616845 0 0 0 0 -212.46555430901935 48.397731104932063 0 48.397731104932063 318.65597010106285 0 0 0 0 81.926681509025002 165.40759028496905 0 165.40759028496905 262.09105614469263 0 0 0 0 -48.119093503675685 237.84372116115583 0 237.84372116115583 547.95334410892974 0 0 0 0 561.61522611058535 1082.070463868748 0 1082.070463868748 1057.5454394358276 0 0 0 0 2310.1465887746454 1101.0430937241281 0 1101.0430937241281 36.763436167961117 0 0 0 0 -23.477800100648892 429.43654125523517 0 429.43654125523517 -148.6210831872213 0 0 0 0 2105.8823406794022 -271.13752375061841 0 -271.13752375061841 81.853960927757726 0 0 0 0 71.253954840860388 -193.64243561827016 0 -193.64243561827016 1213.2687600404715 0 0 0 0 20.969146095354517 -162.39558667589699 0 -162.39558667589699 -304.1225692507187 0 0 0 0 -443.52925931473328 -610.38123808079081 0 -610.38123808079081 159.30786868813811 0 0 0 0 -17.318960471900937 187.33351998434409 0 187.33351998434409 504.04728673530371 0 0 0 0 297.05092393431732 83.315596605831161 0 83.315596605831161 505.24552605825602 0 0 0 0 5.6740985593451612 8.4705810606513907 0 8.4705810606513907 14.700580325528165 0 0 0 0 2875.2305598743533 -438.41317752832788 0 -438.41317752832788 -532.12756179529515 0 0 0 0 1286.1511955165552 1081.9519363287188 0 1081.9519363287188 957.32221397111948 0 0 0 0 2015.8874020062867 -896.17777902606304 0 -896.17777902606304 -521.84784520976962 0 0 0 0 880.72342122616101 -795.13512401320713 0 -795.13512401320713 -80.571320160729357 0 0 0 0 12.803138192532174 -4.2059361265028707 0 -4.2059361265028707 1.4499837304870868 0 0 0 0 2330.5294834800679 156.99779239100474 0 156.99779239100474 -429.96481761876885 0 0 0 0 1363.0850045947864 1028.236941470002 0 1028.236941470002 247.64233286147805 0 0 0 0 1186.8456156113934 470.09413271179051 0 470.09413271179051 -61.161575507306452 0 0 0 0 1093.0284683478021 5.4836247091569135 0 5.4836247091569135 -406.52473892330505 0 0 0 0 156.25490952624477 57.057347513472308 0 57.057347513472308 79.757334434122981 0 0 0 0 403.22367888979352 663.66686131018787 0 663.66686131018787 121.37573713208224 0 0 0 0 -460.3677664974075 387.89098739092054 0 387.89098739092054 445.50424298371672 0 0 0 0 298.30091766894111 522.90736016127289 0 522.90736016127289 279.48326463020112 0 0 0 0 66.476367273437063 621.31192774554393 0 621.31192774554393 291.31558254712377 0 0 0 0 0.75973766906207274 -0.63051207681930777 0 -0.63051207681930777 10.536616866562976 0 0 0 0 29.547830501211934 -8.074467681768958 0 -8.074467681768958 1.3644758889298148 0 0 0 0 177.41182571955142 -1255.8666295087564 0 -1255.8666295087564 72.989404504906801 0 0 0 0 494.43948546946194 56.805917850916387 0 56.805917850916387 -905.17048213862893 0 0 0 0 -445.66837218636283 61.588650415381949 0 61.588650415381949 510.13485153499732 0 0 0 0 424.05277155117801 -1330.3090446074625 0 -1330.3090446074625 1001.2274739606985 0 0 0 0 16.497350151922845 -3.9543114822351146 0 -3.9543114822351146 2.2483506738451564 0 0 0 0 1194.0955234814887 1710.0591303360752 0 1710.0591303360752 410.08684605616969 0 0 0 0 1463.5853693206845 -189.14565719624596 0 -189.14565719624596 -193.55465829770532 0 0 0 0 3495.520181974478 917.78419590108103 0 917.78419590108103 336.28603027057062 0 0 0 0 3494.277365172853 -250.96246329570084 0 -250.96246329570084 -500.4908519268198 0 0 0 0 188.71254598722044 334.89130194647009 0 334.89130194647009 -34.724706408169368 0 0 0 0 -460.1013117774055 -107.41070131500874 0 -107.41070131500874 530.87791870329693 0 0 0 0 5.2958803960826533 -4.9462928967529365 0 -4.9462928967529365 21.868814205311349 0 0 0 0 626.8590162197479 -717.21295043203395 0 -717.21295043203395 848.88709841263267 0 0 0 0 11.962854699743474 -4.0295573940375053 0 -4.0295573940375053 5.2788965044365925 0 0 0 0 1480.6671072701865 435.40886201937013 0 435.40886201937013 297.42078068171332 0 0 0 0 2419.8802935380936 -100.05037454109751 0 -100.05037454109751 -270.81948591559808 0 0 0 0 2238.227193996775 539.80086618921973 0 539.80086618921973 77.798714165713719 0 0 0 0 1989.0466890771959 176.03397372398118 0 176.03397372398118 75.915175641725966 0 0 0 0 3499.9838820282948 -123.96894032412334 0 -123.96894032412334 -368.06243133623525 0 0 0 0 1575.4565853491404 -649.82034998594588 0 -649.82034998594588 -167.72294437321307 0 0 0 0 1106.4412847415479 -1734.1678700051907 0 -1734.1678700051907 806.5488218016427 0 0 0 0 3493.5089535119046 -1304.5677935795991 0 -1304.5677935795991 -122.10384010747546 0 0 0 0 461.61218859921428 -60.431909795970839 0 -60.431909795970839 353.2453042543886 0 0 0 0 1311.957176890508 -375.98763340132183 0 -375.98763340132183 333.39469098992231 0 0 0 0 1774.1683369786679 -352.66871511329333 0 -352.66871511329333 261.83169089128273 0 0 0 0 2154.4313221878183 -547.38344558769438 0 -547.38344558769438 -159.28106999550184 0 0 0 0 930.73176947664615 15.047289371323842 0 15.047289371323842 178.23524173517643 0 0 0 0 1014.9073163509966 270.4127226996705 0 270.4127226996705 97.777708132161735 0 0 0 0 754.27209323709576 432.8878980011911 0 432.8878980011911 -26.841452852077623 0 0 0 0 946.91613224426328 139.26290302955155 0 139.26290302955155 20.273246330500712 0 0 0 0 749.75367176364307 290.8470228591633 0 290.8470228591633 137.50224347957868 0 0 0 0 688.29670792592242 378.27620356152488 0 378.27620356152488 223.95688932771321 0 0 0 0 1094.8208936838146 185.45264033217677 0 185.45264033217677 169.76144539779281 0 0 0 0 1105.5885885426214 221.47610178051667 0 221.47610178051667 250.87987228876298 0 0 0 0 54.591202485419217 -252.28960278016734 0 -252.28960278016734 -48.020242013082679 0 0 0 0 16.572986457561996 -24.811513285865725 0 -24.811513285865725 31.733890994686199 0 0 0 0 89.837397457085416 -10.161012232349265 0 -10.161012232349265 71.946824947719506 0 0 0 0 29.667664015814694 9.1359565118077732 0 9.1359565118077732 7.9196476934162732 0 0 0 0 156.73872673637334 74.544591971741056 0 74.544591971741056 4.3157717325802878 0 0 0 0 42.869469163347496 70.269921237882642 0 70.269921237882642 26.149209551434744 0 0 0 0 275.90417688287988 73.815837512422604 0 73.815837512422604 -3.6616747534571914 0 0 0 0 481.5788349467266 122.92539984364753 0 122.92539984364753 178.65846651941527 0 0 0 0 36.639492187805878 -28.441833348480667 0 -28.441833348480667 47.702357284671066 0 0 0 0 168.70857787610316 -45.920866202256548 0 -45.920866202256548 -32.963865565266815 0 0 0 0 20.913924529988719 23.172650683732567 0 23.172650683732567 55.149532299642303 0 0 0 0 765.43540894928492 196.37046581254347 0 196.37046581254347 58.040323600792306 0 0 0 0 627.38448110650461 65.534076891116058 0 65.534076891116058 -4.4934769077234478 0 0 0 0 186.48842163390873 84.786947046312889 0 84.786947046312889 9.0423773238471767 0 0 0 0 -312.32288298821368 297.72393656156146 0 297.72393656156146 -78.364416670041464 0 0 0 0 113.80889352463055 77.696777980020215 0 77.696777980020215 29.33581743952891 0 0 0 0 29.820780394568345 11.0198414881243 0 11.0198414881243 -4.9247159600555932 0 0 0 0 38.82595483858411 52.187417534006158 0 52.187417534006158 16.187310340884935 0 0 0 0 -112.84089174798282 121.18689142922631 0 121.18689142922631 -19.011645622842479 0 0 0 0 -325.7764722041029 16.041147279467623 0 16.041147279467623 48.796567246219638 0 0 0 0 -179.53651833689582 328.59114855089774 0 328.59114855089774 -273.4518590415264 0 0 0 0 -1.7769340646962632 0.44488473721052202 0 0.44488473721052202 -2.3138142375383808 0 0 0 0 -792.35882765285169 36.220059533201947 0 36.220059533201947 47.693947719009884 0 0 0 0 -138.86899768453623 215.67564055864523 0 215.67564055864523 -123.41122506898319 0 0 0 0 0.32742810306127978 0.48413369426742037 0 0.48413369426742037 -1.8771634821782541 0 0 0 0 -1.3415457485243678 -12.692439559558807 0 -12.692439559558807 27.696789286022977 0 0 0 0 443.44626156902814 427.78947810742011 0 427.78947810742011 -164.86181741205655 0 0 0 0 -152.89481978288677 79.116044774536931 0 79.116044774536931 152.43752932894313 0 0 0 0 -152.97772693945444 75.136843589818454 0 75.136843589818454 -10.058769405789462 0 0 0 0 -95.664344225257082 43.989639954469567 0 43.989639954469567 -8.3915389707108261 0 0 0 0 -252.44607962171358 168.41512655349561 0 168.41512655349561 103.48495425356214 0 0 0 0 86.531920209661621 215.39679275764229 0 215.39679275764229 67.784096449718163 0 0 0 0 -0.049995933725803354 1.6237675203669326 0 1.6237675203669326 -3.0405332256693427 0 0 0 0 46.058246821249952 78.04106053989085 0 78.04106053989085 48.763656313628417 0 0 0 0 -341.88569256852861 151.46127511765462 0 151.46127511765462 54.262086526148323 0 0 0 0 725.04949979221965 349.99361486081057 0 349.99361486081057 -501.1656838442251 0 0 0 0 -91.201563537014636 399.09079673724636 0 399.09079673724636 -187.15275152983941 0 0 0 0 -0.18019571124955291 0.61561825972493978 0 0.61561825972493978 -1.3600262445006166 0 0 0 0 235.31623773093997 -55.507193014258974 0 -55.507193014258974 -21.562594556035037 0 0 0 0 -357.67580825771438 203.35507235790828 0 203.35507235790828 -63.328027534294961 0 0 0 0 434.58883766087092 -99.378608455996073 0 -99.378608455996073 -83.855965773096614 0 0 0 0 -738.4153419834422 -73.865303036431158 0 -73.865303036431158 337.55729471632731 0 0 0 0 -754.12044916438754 221.4115741834994 0 221.4115741834994 183.12798759355246 0 0 0 0 61.706899377153604 -26.599382818443701 0 -26.599382818443701 -278.86918451911697 0 0 0 0 147.57948796202845 168.91361164763964 0 168.91361164763964 -297.16303127539834 0 0 0 0 -178.78883228393465 -82.597023326930241 0 -82.597023326930241 -102.47260292475733 0 0 0 0 45.79023407562913 82.082683024144089 0 82.082683024144089 64.259262338332192 0 0 0 0 -911.56100513508522 759.84235720702623 0 759.84235720702623 782.68710367346534 0 0 0 0 1794.5291151519066 -201.0764097298443 0 -201.0764097298443 -402.30026225076426 0 0 0 0 839.54870629041943 1021.1394782803559 0 1021.1394782803559 661.52582160253223 0 0 0 0 216.60090838644021 -274.48301248926452 0 -274.48301248926452 1192.96340163069 0 0 0 0 1586.5937363267958 293.15418993669255 0 293.15418993669255 -179.85042139410263 0 0 0 0 507.26752208309881 880.81689496481408 0 880.81689496481408 -285.69763678919912 0 0 0 0 745.1226020909744 -940.86810205200959 0 -940.86810205200959 250.82622335340761 0 0 0 0 22.663510358302403 -1.1677458478417053 0 -1.1677458478417053 -0.63175647220979458 0 0 0 0 561.2775114121099 -323.03824515412492 0 -323.03824515412492 212.64094635813217 0 0 0 0 -143.76991147722629 -537.66851749077421 0 -537.66851749077421 218.04864062473848 0 0 0 0 527.25900397402575 -126.85569261884712 0 -126.85569261884712 -319.48640630704108 0 0 0 0 608.27162194935977 -198.97509811480722 0 -198.97509811480722 -255.48891865607584 0 0 0 0 214.5632166628875 24.77948650298822 0 24.77948650298822 -57.369102092525281 0 0 0 0 155.34031327897696 -4.9323092700117286 0 -4.9323092700117286 -42.483586601080788 0 0 0 0 193.9129362479764 -5.4786013081768488 0 -5.4786013081768488 -53.571101953142716 0 0 0 0 174.99353566022182 23.503375781937393 0 23.503375781937393 -47.892028061365636 0 0 0 0 208.12418377453923 -177.50077195176129 0 -177.50077195176129 153.06486601609504 0 0 0 0 673.71260520288911 109.59139121878479 0 109.59139121878479 -63.891944623795098 0 0 0 0 -2.7828353053771302 1.9605079889351162 0 1.9605079889351162 3.235618164856124 0 0 0 0 78.865397124349329 61.483912498081963 0 61.483912498081963 -13.447883699226935 0 0 0 0 7.5260265470933057 -8.2697997890275463 0 -8.2697997890275463 13.065569646979828 0 0 0 0 2223.911124370371 245.0872601721386 0 245.0872601721386 229.71072507679938 0 0 0 0 -194.06086033228439 -55.767081963779788 0 -55.767081963779788 467.82680899089883 0 0 0 0 -173.81408722855485 -300.27849878886241 0 -300.27849878886241 577.05324318922487 0 0 0 0 -423.47160426718074 -105.0779781924976 0 -105.0779781924976 -312.57854286822749 0 0 0 0 1254.1176033873435 306.31942448665683 0 306.31942448665683 -1667.4387859718704 0 0 0 0 -1339.7010654296737 287.65991097203863 0 287.65991097203863 396.82296004290197 0 0 0 0 52.009857991360235 -1.248581689722017 0 -1.248581689722017 -2.7824530248658021 0 0 0 0 1106.5000776358047 -911.39664955640194 0 -911.39664955640194 -1433.4529793754075 0 0 0 0 642.40155443956496 -1366.6825893693517 0 -1366.6825893693517 772.55795074636592 0 0 0 0 -192.67771972570381 1432.1003775184965 0 1432.1003775184965 925.17797493596879 0 0 0 0 -394.61689879366503 -1805.9369273896893 0 -1805.9369273896893 353.26755846111678 0 0 0 0 3.0274495091522211 -4.089161289897695 0 -4.089161289897695 -0.93059199532778569 0 0 0 0 2835.1601104584306 -113.83920280463686 0 -113.83920280463686 -769.64784370247651 0 0 0 0 3494.2720908855135 -1575.5561049159905 0 -1575.5561049159905 -977.75135567083817 0 0 0 0 1530.4348161356666 -2590.9033355297015 0 -2590.9033355297015 65.905012200692639 0 0 0 0 1984.6615166145857 2061.7774807365663 0 2061.7774807365663 48.563703974254757 0 0 0 0 29.472836560686769 -0.83797941172599244 0 -0.83797941172599244 0.18182623522593996 0 0 0 0 3492.1666431361705 1544.7437170729738 0 1544.7437170729738 -31.885601130360698 0 0 0 0 2111.002433593243 855.89288252712038 0 855.89288252712038 -2.9769442049530399 0 0 0 0 2175.860485936606 570.79631904952839 0 570.79631904952839 1229.9453505907916 0 0 0 0 3500.5236369489758 544.64215702955562 0 544.64215702955562 6.5613773637368231 0 0 0 0 527.71341913760989 -18.475306814259966 0 -18.475306814259966 -39.90055333564851 0 0 0 0 3.1195690831742766 1.9903615885418873 0 1.9903615885418873 1.8349852357888423 0 0 0 0 689.14485093787039 78.770706298706742 0 78.770706298706742 -92.237026921669894 0 0 0 0 688.02781380513625 -131.15254793995064 0 -131.15254793995064 35.039193318380057 0 0 0 0 566.91970930237949 26.171492828302689 0 26.171492828302689 -23.402744977771363 0 0 0 0 538.99298456412362 -13.002519341041989 0 -13.002519341041989 -37.263992261885505 0 0 0 0 1090.8820334903139 -74.289938097477716 0 -74.289938097477716 88.035763796833635 0 0 0 0 901.20639213503455 -399.18509767941396 0 -399.18509767941396 3.2896769001536086 0 0 0 0 928.267726686885 -178.4390511531692 0 -178.4390511531692 211.50358488754409 0 0 0 0 144.29832082788198 268.19881406041623 0 268.19881406041623 4.8651836591234314 0 0 0 0 21.243975012223018 19.134929529710533 0 19.134929529710533 -3.3427572059417656 0 0 0 0 1598.1319872741333 -481.91983491729707 0 -481.91983491729707 -4.7028719414411171 0 0 0 0 1039.4440179991725 -484.47315817460367 0 -484.47315817460367 215.02733377370168 0 0 0 0 1450.5765157557689 -425.90306134851016 0 -425.90306134851016 137.80465015850677 0 0 0 0 290.67557472163753 -143.30465079512396 0 -143.30465079512396 -207.04795894853032 0 0 0 0 316.33336027329028 143.81294501654753 0 143.81294501654753 -299.19707076996565 0 0 0 0 -249.22129517365101 143.23327657935806 0 143.23327657935806 -218.36850168880846 0 0 0 0 318.04214751176028 202.91701939054482 0 202.91701939054482 -474.57394243452654 0 0 0 0 16.55524763137106 14.715232842744641 0 14.715232842744641 -1.9403671708466916 0 0 0 0 1477.3982948063785 -423.69057682048697 0 -423.69057682048697 130.27490074503658 0 0 0 0 -297.62111495304998 505.60371721688625 0 505.60371721688625 -321.01913252082159 0 0 0 0 1466.9919342578396 -395.41476767176664 0 -395.41476767176664 134.82192207981279 0 0 0 0 6.1333372970588229 6.4641580056899244 0 6.4641580056899244 7.3903505799142835 0 0 0 0 1435.1816350300396 -401.85462016077508 0 -401.85462016077508 143.37995687631701 0 0 0 0 895.48634041645346 -155.84689825185887 0 -155.84689825185887 -30.423720445295658 0 0 0 0 1032.9735004016402 -241.89442543080986 0 -241.89442543080986 103.18142577076105 0 0 0 0 842.50207500818578 -92.071044224765501 0 -92.071044224765501 -0.43976742112499778 0 0 0 0 1187.9614787301616 8.1225741280813963 0 8.1225741280813963 -115.79249298463401 0 0 0 0 762.89353990990276 162.12974384379777 0 162.12974384379777 -70.033088665888499 0 0 0 0 933.71214976932242 221.46804532486749 0 221.46804532486749 -148.13258985490984 0 0 0 0 566.3521438414391 251.10477371278284 0 251.10477371278284 -96.757775768408465 0 0 0 0 847.4938323108363 196.69178936392291 0 196.69178936392291 -160.00998222213821 0 0 0 0 934.52832808611493 -38.934292770226421 0 -38.934292770226421 -58.294548259626026 0 0 0 0 774.83353504717525 109.4045131111543 0 109.4045131111543 -91.179422043829845 0 0 0 0 170.40245806795429 167.54755123607811 0 167.54755123607811 -45.986598602125014 0 0 0 0 471.2511903050181 278.81498097958684 0 278.81498097958684 -207.31784497481522 0 0 0 0 693.66212362622355 444.49804017997099 0 444.49804017997099 -119.19543675250679 0 0 0 0 342.2373718584131 458.29983164484293 0 458.29983164484293 -146.72237050392505 0 0 0 0 -133.09359485813638 237.76502433057544 0 237.76502433057544 -5.9103779285997007 0 0 0 0 385.18218579291351 246.02691185345702 0 246.02691185345702 -100.03746110649081 0 0 0 0 263.08607399038283 124.12268605418126 0 124.12268605418126 -41.332508503550343 0 0 0 0 387.51529230866799 226.35491295179236 0 226.35491295179236 -6.7249186021482501 0 0 0 0 702.96466671352391 86.123530764335555 0 86.123530764335555 -93.497483372551869 0 0 0 0 547.59028124397264 222.74638928235299 0 222.74638928235299 -137.63598969940904 0 0 0 0 469.54350026918837 295.7856881092257 0 295.7856881092257 -113.0448792414536 0 0 0 0 470.06847292044404 143.44231519357618 0 143.44231519357618 -86.165665758952059 0 0 0 0 519.0733951846014 182.70175337642104 0 182.70175337642104 -82.420420632508467 0 0 0 0 337.60864857564229 223.35668661116051 0 223.35668661116051 -69.2326056318459 0 0 0 0 401.75817994997851 342.45401841819421 0 342.45401841819421 -149.00461540907781 0 0 0 0 555.96344315598253 309.64827979989423 0 309.64827979989423 -187.26511639258115 0 0 0 0 83.180411037596059 131.12565979309602 0 131.12565979309602 -58.487333681248856 0 0 0 0 377.80878311615015 194.64549186684417 0 194.64549186684417 -77.246308743733607 0 0 0 0 393.290376643934 84.947387239844829 0 84.947387239844829 -34.578169193775466 0 0 0 0 493.89482755000063 257.95814692457679 0 257.95814692457679 -105.4079138570105 0 0 0 0 557.66719576004107 268.3842121183061 0 268.3842121183061 -192.59135088675612 0 0 0 0 593.45901477629741 250.82068372820686 0 250.82068372820686 -185.87038320828651 0 0 0 0 570.80280942152604 -3.6581737831720602 0 -3.6581737831720602 -124.9151310187699 0 0 0 0 1376.0777259874521 -423.94358208187714 0 -423.94358208187714 -150.5593853891769 0 0 0 0 430.5749818501863 -22.148201960164442 0 -22.148201960164442 -117.88400525270845 0 0 0 0 1312.7812383471392 460.88983520295005 0 460.88983520295005 -170.85700730315148 0 0 0 0 564.68980478965386 727.26855137898292 0 727.26855137898292 314.8601112048018 0 0 0 0 450.46214791129205 -896.80942276807582 0 -896.80942276807582 517.58852497046064 0 0 0 0 18.10595241795059 -3.4808367294518163 0 -3.4808367294518163 0.82218543500744801 0 0 0 0 1906.5293802726774 704.63641795864623 0 704.63641795864623 154.42050366726107 0 0 0 0 10.69986482719105 -232.14856511553626 0 -232.14856511553626 1240.0508532020067 0 0 0 0 137.31176631443668 194.96438758765726 0 194.96438758765726 -418.10271177496907 0 0 0 0 268.79494909608547 114.85703201617434 0 114.85703201617434 -373.43450906596991 0 0 0 0 137.04412262792903 233.00089716717775 0 233.00089716717775 113.923728984646 0 0 0 0 -132.69440434654462 -310.63580578787969 0 -310.63580578787969 -280.38225946618331 0 0 0 0 238.23694562993842 -981.77599898955123 0 -981.77599898955123 -1424.3866902287136 0 0 0 0 -1899.5611638237242 -445.66875812067883 0 -445.66875812067883 203.05301891508861 0 0 0 0 49.393388434208546 -5.7028523922619492 0 -5.7028523922619492 -1.0299449741829036 0 0 0 0 1141.9244070804652 1631.8438198712074 0 1631.8438198712074 -1280.0494847849805 0 0 0 0 55.307502148971821 -1.4244670386001914 0 -1.4244670386001914 -2.0918498880321295 0 0 0 0 6901.4966705918778 -10.139637443164247 0 -10.139637443164247 -1128.7558602382142 0 0 0 0 2858.6057320015461 319.28940775473529 0 319.28940775473529 -477.22193334017356 0 0 0 0 1964.561085494377 822.01986020237928 0 822.01986020237928 -546.95433992063045 0 0 0 0 2520.0996162267111 129.28422730794 0 129.28422730794 62.060932692482311 0 0 0 0 14.55132176018455 9.7636635247637784 0 9.7636635247637784 5.958867381542575 0 0 0 0 2652.7340346838928 -123.20036513465675 0 -123.20036513465675 -39.162555069840892 0 0 0 0 -3259.0686356204787 7.4613255388303514 0 7.4613255388303514 -267.74544849676477 0 0 0 0 195.19687632874138 -560.24195092936827 0 -560.24195092936827 -279.90653132793523 0 0 0 0 61.076653774061924 208.41636450361761 0 208.41636450361761 -384.95178342808867 0 0 0 0 274.7938107749651 -39.344436377838065 0 -39.344436377838065 -896.60072778504309 0 0 0 0 -22.360600028023327 -70.873301805270785 0 -70.873301805270785 -351.3021223633732 0 0 0 0 207.77003426182637 -136.787716597486 0 -136.787716597486 -236.06601190168567 0 0 0 0 267.13357385605923 139.70065660720138 0 139.70065660720138 -358.76196107182864 0 0 0 0 294.19323167159018 -11.04974866336579 0 -11.04974866336579 -96.308164536800177 0 0 0 0 512.36686784384437 -137.50069978365082 0 -137.50069978365082 -65.58747253546062 0 0 0 0 880.85259013434552 -16.563467934072833 0 -16.563467934072833 -108.52707775710678 0 0 0 0 260.97083429084523 106.98148484465764 0 106.98148484465764 -15.069462242645386 0 0 0 0 972.49541719390618 -64.931868913822427 0 -64.931868913822427 -132.90522999412315 0 0 0 0 505.69183314776092 -49.203741415692093 0 -49.203741415692093 -23.625661541887894 0 0 0 0 913.50006393619697 -263.60766605778372 0 -263.60766605778372 -295.80816214844344 0 0 0 0 902.77107764454558 -359.40702974316991 0 -359.40702974316991 -146.70077431033224 0 0 0 0 1451.3159046166838 -6.9822699341402767 0 -6.9822699341402767 -197.35632199097336 0 0 0 0 992.05061365687106 -509.4517572836603 0 -509.4517572836603 -410.44032752691965 0 0 0 0 200.70666066017293 64.678903173273284 0 64.678903173273284 1051.3983004110414 0 0 0 0 1060.6135234513404 415.9000251084517 0 415.9000251084517 477.09678633266594 0 0 0 0 24.345456525031494 2.124405536295189 0 2.124405536295189 -0.61963663477602626 0 0 0 0 -336.16153678687988 2022.6817630148416 0 2022.6817630148416 712.925446242014 0 0 0 0 1872.401131677394 -155.35057581991805 0 -155.35057581991805 -1163.8009965809579 0 0 0 0 415.23750790668782 -757.43110502273794 0 -757.43110502273794 633.91528571683375 0 0 0 0 206.29277105780056 -82.662479203052499 0 -82.662479203052499 -339.92881297691747 0 0 0 0 217.09697577007682 -288.37997125688344 0 -288.37997125688344 255.8526653186982 0 0 0 0 155.93604759291975 -469.68344984289047 0 -469.68344984289047 -10.130544854004256 0 0 0 0 413.74364093443364 -411.85364451742862 0 -411.85364451742862 -53.153365041227516 0 0 0 0 27.921798875419789 9.5785262273794132 0 9.5785262273794132 -21.931299751733974 0 0 0 0 405.84333832712946 -460.14398250443264 0 -460.14398250443264 32.194096008470297 0 0 0 0 232.24731440551113 -85.851780702751057 0 -85.851780702751057 -19.469576253694868 0 0 0 0 175.31249091993232 -207.73733469312538 0 -207.73733469312538 203.94385095652069 0 0 0 0 173.88754967001478 -12.325730408519121 0 -12.325730408519121 -14.193232178607104 0 0 0 0 154.31304069600264 -56.295613369221428 0 -56.295613369221428 -50.136602671260334 0 0 0 0 127.2931145691764 -39.81731174466313 0 -39.81731174466313 -20.132021511708444 0 0 0 0 60.269258194261624 -61.409387349904939 0 -61.409387349904939 2.6826700282783023 0 0 0 0 144.35870393108053 -146.46943995933179 0 -146.46943995933179 65.404890566772792 0 0 0 0 57.979625480282266 -101.98908177744579 0 -101.98908177744579 61.079091559577137 0 0 0 0 11.97484021468361 -8.5351305711310204 0 -8.5351305711310204 -1.5892999191616397 0 0 0 0 144.4297692237451 -40.266885095450561 0 -40.266885095450561 -25.565686991605617 0 0 0 0 84.48210673716423 -52.018655988635153 0 -52.018655988635153 4.4168458376188156 0 0 0 0 65.977887001368799 23.221330177568461 0 23.221330177568461 3.0664734943984513 0 0 0 0 55.475603178745587 -1.4869313958388375 0 -1.4869313958388375 14.965889233431881 0 0 0 0 16.561320031040708 6.1399115438169716 0 6.1399115438169716 -8.9833843913510947 0 0 0 0 57.069284449635234 5.4358763739774076 0 5.4358763739774076 43.451920702511416 0 0 0 0 67.399235954313554 30.142806932114127 0 30.142806932114127 36.531844467006522 0 0 0 0 167.23059770926193 -4.2396515644004467 0 -4.2396515644004467 -1.7851343007769174 0 0 0 0 34.330589916688041 3.2830961007603037 0 3.2830961007603037 3.2042128892494475 0 0 0 0 33.064462068996363 24.30671686270307 0 24.30671686270307 11.930691820207358 0 0 0 0 320.55259019895675 -148.70871281885957 0 -148.70871281885957 47.248610076418117 0 0 0 0 124.26665429048444 33.183455969374336 0 33.183455969374336 402.96753209765029 0 0 0 0 114.94387334080966 -27.759769976276402 0 -27.759769976276402 126.48845349543444 0 0 0 0 18.466984359990121 16.269930291867993 0 16.269930291867993 -12.279423436178718 0 0 0 0 131.14359696556312 -89.215245915488595 0 -89.215245915488595 57.241285894466273 0 0 0 0 120.2247033826643 -34.083001860522927 0 -34.083001860522927 11.980219243737338 0 0 0 0 22.08793450810569 19.019072150956049 0 19.019072150956049 -6.8602352731047063 0 0 0 0 189.44738053850961 -107.042892752851 0 -107.042892752851 -57.678932240492941 0 0 0 0 77.158536706316227 -127.7300839259633 0 -127.7300839259633 -58.844535510927017 0 0 0 0 245.9361119354453 -35.50245629440019 0 -35.50245629440019 -196.24386591785151 0 0 0 0 18.413241621485213 -93.658615063519392 0 -93.658615063519392 -140.86153018104778 0 0 0 0 112.42999158593011 -67.089456271251038 0 -67.089456271251038 -51.076329417417583 0 0 0 0 82.587269189681138 -21.608252694081102 0 -21.608252694081102 -77.406700594174254 0 0 0 0 67.10721145567004 21.939360789562215 0 21.939360789562215 -36.222896333893004 0 0 0 0 26.183331951504442 33.173780322414586 0 33.173780322414586 -31.119915112711169 0 0 0 0 -2.42867625252984 -25.871166637324677 0 -25.871166637324677 -53.105703983231706 0 0 0 0 52.521922892638031 -11.729804204532911 0 -11.729804204532911 -175.52722335450017 0 0 0 0 -14.883817641255519 -143.80455249814077 0 -143.80455249814077 -310.51985328305818 0 0 0 0 -20.973581135556742 -7.4168877016663828 0 -7.4168877016663828 -174.10555623246364 0 0 0 0 12.429348584657419 -31.710266672114244 0 -31.710266672114244 -202.58864348448333 0 0 0 0 180.75597155334253 -86.34413433060945 0 -86.34413433060945 -401.32164046214893 0 0 0 0 11.170642867388523 -3.6842138784295884 0 -3.6842138784295884 0.095557298576562033 0 0 0 0 93.347845637770661 14.768208889968264 0 14.768208889968264 -275.03774685918324 0 0 0 0 517.60521813352352 207.18006946004698 0 207.18006946004698 -441.09489686821689 0 0 0 0 54.664443799072615 -246.93848085922673 0 -246.93848085922673 -396.51562080376971 0 0 0 0 363.33913741303331 295.03389171493382 0 295.03389171493382 15.142939984347322 0 0 0 0 4.4197371488913006 -1.3914671819912243 0 -1.3914671819912243 0.054808075924924538 0 0 0 0 -86.242055076167162 -75.105336764608182 0 -75.105336764608182 -141.09822386004453 0 0 0 0 -7.1643119700747775 -28.877517024930057 0 -28.877517024930057 -113.36879330718966 0 0 0 0 0.42338114107155889 -2.0306575067536432 0 -2.0306575067536432 0.82326439603587076 0 0 0 0 -27.862882064098812 -78.705390544362217 0 -78.705390544362217 -146.28635232910528 0 0 0 0 9.9742532121940144 -6.0427032369570224 0 -6.0427032369570224 1.7589806864782425 0 0 0 0 36.439697209760197 4.2270392028040078 0 4.2270392028040078 -120.86166552721147 0 0 0 0 -44.179673691774951 -324.06757919391748 0 -324.06757919391748 -158.58151109167761 0 0 0 0 -14.539793736075808 91.724866455941992 0 91.724866455941992 -245.69658443738081 0 0 0 0 -109.47355792547023 -7.1742055179602175 0 -7.1742055179602175 266.75820919341641 0 0 0 0 1.5085818541001714 0.80659460431235885 0 0.80659460431235885 -1.9797276717775532 0 0 0 0 73.83896802693198 -19.23857927089739 0 -19.23857927089739 -371.11107402134439 0 0 0 0 10.784054892705171 78.089478602823874 0 78.089478602823874 -342.56680274642292 0 0 0 0 -82.970446097569948 -143.50355796987606 0 -143.50355796987606 -119.01435020147983 0 0 0 0 -18.261590642112424 41.889751311805412 0 41.889751311805412 -143.58622663199822 0 0 0 0 28.382352258784522 -23.893437710219587 0 -23.893437710219587 -264.1829329990469 0 0 0 0 -50.835926707964973 -159.9213544090926 0 -159.9213544090926 -346.6523075246987 0 0 0 0 28.537575340909825 -39.877898164568251 0 -39.877898164568251 -191.02954455524014 0 0 0 0 3.0470207699181628 -42.752425150359159 0 -42.752425150359159 -178.72699457927411 0 0 0 0 13.798033823361038 -112.24990976956906 0 -112.24990976956906 -263.97213349351932 0 0 0 0 15.567991528383573 -72.988370658296844 0 -72.988370658296844 -134.17488442857939 0 0 0 0 51.225906962536101 -8.0371853242813813 0 -8.0371853242813813 -174.28100253812954 0 0 0 0 2.4499399015912786 -53.632494884459447 0 -53.632494884459447 -108.4075327122664 0 0 0 0 0.22315887178120875 -0.50548350534382358 0 -0.50548350534382358 0.44366020321913169 0 0 0 0 -2.0212735919449187 -2.1097265615535434 0 -2.1097265615535434 6.2672698707028758 0 0 0 0 41.406354434810055 28.182155885720931 0 28.182155885720931 -54.727772461896166 0 0 0 0 94.652535974717466 -55.246451450326276 0 -55.246451450326276 -139.43974910575298 0 0 0 0 54.374597289312078 11.866138358468561 0 11.866138358468561 -20.507277851689651 0 0 0 0 -75.417486246125918 -10.96389422711627 0 -10.96389422711627 65.867606089908804 0 0 0 0 29.904561836781795 -19.671592215527198 0 -19.671592215527198 1.1173780804797389 0 0 0 0 2.7049488471857046 -1.616169499340387 0 -1.616169499340387 -1.3812318904623098 0 0 0 0 -1.4413778343530339 13.135431135483572 0 13.135431135483572 24.303000387535576 0 0 0 0 -3.7728406278038165 85.87637901312155 0 85.87637901312155 105.46611034371199 0 0 0 0 25.171482243204082 36.689103913604413 0 36.689103913604413 55.011070718952396 0 0 0 0 11.852809911171789 82.376590110117377 0 82.376590110117377 139.50421330812242 0 0 0 0 -31.205332229332271 74.805330197632429 0 74.805330197632429 34.731214073057345 0 0 0 0 -91.713569212842913 51.01603621077237 0 51.01603621077237 109.33922113090739 0 0 0 0 -97.492170283367159 -111.86561209905085 0 -111.86561209905085 -8.4910730134979531 0 0 0 0 5.1056525170571803 -2.982132021610731 0 -2.982132021610731 0.10595915217841423 0 0 0 0 -3.4703534753061831 -5.674075070897743 0 -5.674075070897743 -2.2391421305765107 0 0 0 0 199.33475359432487 221.04866809377381 0 221.04866809377381 158.54900997740697 0 0 0 0 28.879727769461169 -7.6537070129888889 0 -7.6537070129888889 88.471611735189072 0 0 0 0 249.53424968520994 71.916124285960905 0 71.916124285960905 89.77679926737801 0 0 0 0 110.27279184796498 136.40555585723814 0 136.40555585723814 99.93132770388911 0 0 0 0 129.62405406859762 100.84900401932646 0 100.84900401932646 155.61278899653371 0 0 0 0 128.82809138129232 91.625399507052862 0 91.625399507052862 71.314614240691299 0 0 0 0 294.15392591783166 104.05453494754056 0 104.05453494754056 58.044214445413672 0 0 0 0 196.41136743367679 167.86385102276927 0 167.86385102276927 117.83437065739417 0 0 0 0 201.40811419817692 133.7988693915504 0 133.7988693915504 79.115753322446835 0 0 0 0 118.95936542675918 134.77354087041203 0 134.77354087041203 78.813466011400578 0 0 0 0 147.47737352622789 103.62814317582161 0 103.62814317582161 67.754139116303122 0 0 0 0 70.632193435332738 118.49647067287333 0 118.49647067287333 116.11174631502581 0 0 0 0 66.758305038689286 88.017684323018329 0 88.017684323018329 62.100663118317243 0 0 0 0 38.393557213858003 100.64572967427739 0 100.64572967427739 88.323591387430497 0 0 0 0 66.936351593842119 73.370257651426527 0 73.370257651426527 5.7942445889639203 0 0 0 0 104.14704185309893 105.14017473056037 0 105.14017473056037 37.451659243750328 0 0 0 0 84.800773403665517 98.969303383379156 0 98.969303383379156 35.577488471966717 0 0 0 0 132.93509706544137 121.72289418631499 0 121.72289418631499 -1.23202132343431 0 0 0 0 194.78762616471067 131.98534478484999 0 131.98534478484999 0.0017037894544955634 0 0 0 0 199.46832842727326 88.388419401815781 0 88.388419401815781 -25.962505115046952 0 0 0 0 188.91569144456298 103.30763142561409 0 103.30763142561409 5.1235684376224526 0 0 0 0 38.461867702106247 29.292766832083544 0 29.292766832083544 -9.0448605422625405 0 0 0 0 -0.74493284396614001 0.3789289124806956 0 0.3789289124806956 -3.1095922023018616 0 0 0 0 42.420500943832394 67.656622960118113 0 67.656622960118113 41.4881557599183 0 0 0 0 34.2452810497889 61.181120391500372 0 61.181120391500372 37.372218397648794 0 0 0 0 59.493847193181864 75.840290172574896 0 75.840290172574896 34.350725371444469 0 0 0 0 74.456321706273229 49.453229310303414 0 49.453229310303414 -12.452265147816433 0 0 0 0 121.29089585267006 18.433412305678047 0 18.433412305678047 -10.830427826232 0 0 0 0 80.353083542366221 55.58999082141645 0 55.58999082141645 -38.939362532417363 0 0 0 0 77.191619226439798 78.333556280912489 0 78.333556280912489 -45.439167403222655 0 0 0 0 91.70933700004025 60.205368894277854 0 60.205368894277854 -96.71219557873701 0 0 0 0 68.089597207006591 74.546524789482646 0 74.546524789482646 -19.544400111803498 0 0 0 0 112.5820730311975 23.31630570739755 0 23.31630570739755 -9.7898790408413916 0 0 0 0 103.7050269201427 102.16761810240041 0 102.16761810240041 -110.06466917414855 0 0 0 0 164.65162101354872 -42.286758395296602 0 -42.286758395296602 -62.303161731562795 0 0 0 0 173.25297618391778 -21.544675855191826 0 -21.544675855191826 -77.596744984995894 0 0 0 0 123.14210743315925 68.714521110396163 0 68.714521110396163 -64.220116901587971 0 0 0 0 156.29124137373583 88.149037826453423 0 88.149037826453423 -52.873228941301932 0 0 0 0 198.28714826847863 70.177771633126213 0 70.177771633126213 -96.109093920893429 0 0 0 0 150.80892765941826 83.933880908864012 0 83.933880908864012 -51.636231110280278 0 0 0 0 112.2135245419995 95.931888594681368 0 95.931888594681368 -29.351854083472062 0 0 0 0 93.191134766777395 77.450400783056466 0 77.450400783056466 -36.490474478675878 0 0 0 0 131.47183372346626 77.497248130463049 0 77.497248130463049 -86.159228846556289 0 0 0 0 99.384115076376474 86.469077622718032 0 86.469077622718032 -85.724382292049995 0 0 0 0 70.648404885323544 82.270608455204638 0 82.270608455204638 -80.218151883491373 0 0 0 0 138.97774771138211 42.36112260084883 0 42.36112260084883 -102.69175049157275 0 0 0 0 95.396002567344112 36.525981217642766 0 36.525981217642766 -99.68992233467543 0 0 0 0 174.07432806438737 53.596194507874316 0 53.596194507874316 -106.81305158919167 0 0 0 0 144.11210993925488 44.415814469442921 0 44.415814469442921 -106.78075193905534 0 0 0 0 162.28661529376404 21.759562954280227 0 21.759562954280227 -116.36512283359843 0 0 0 0 159.12366046815805 13.713410763920365 0 13.713410763920365 -122.20996891770119 0 0 0 0 135.03346181828238 2.6615242023053725 0 2.6615242023053725 -113.23342342845535 0 0 0 0 123.71933510724921 -33.184923916747721 0 -33.184923916747721 -119.27630095304812 0 0 0 0 173.72874306589074 -25.887849175978772 0 -25.887849175978772 -155.58540196677905 0 0 0 0 186.91198127391135 -14.357660745211945 0 -14.357660745211945 -145.74282445946665 0 0 0 0 184.62113982191659 26.771992664410391 0 26.771992664410391 -116.49591733193301 0 0 0 0 186.07421198311386 33.833018945963659 0 33.833018945963659 -126.55888353769478 0 0 0 0 255.42997108712007 18.096187925092636 0 18.096187925092636 -166.40671910164019 0 0 0 0 216.67034429156047 27.852857362152463 0 27.852857362152463 -118.49662861899196 0 0 0 0 267.82048809176194 49.203687512239412 0 49.203687512239412 -122.35601489404735 0 0 0 0 268.1377807102981 88.465454254832366 0 88.465454254832366 -106.06046974841365 0 0 0 0 231.68950781953754 69.222615806531394 0 69.222615806531394 -100.09209515336806 0 0 0 0 243.16952473326819 -118.91986364089644 0 -118.91986364089644 -199.87974310086247 0 0 0 0 -6.0978876699373359 -74.036961879177397 0 -74.036961879177397 -182.3092633809556 0 0 0 0 223.11364670678449 7.882945865731017 0 7.882945865731017 -150.16812983780892 0 0 0 0 217.17948730401986 -51.952540770498672 0 -51.952540770498672 -188.34204476753712 0 0 0 0 151.65645726621733 -40.101516036613248 0 -40.101516036613248 -172.8774461949979 0 0 0 0 141.3878820346863 -101.19019134295922 0 -101.19019134295922 -227.81632717752655 0 0 0 0 92.771664846905423 -82.919468467306842 0 -82.919468467306842 -164.24973372793102 0 0 0 0 178.56043541122926 -69.394560386244848 0 -69.394560386244848 -192.89783552268909 0 0 0 0 91.752421311372018 -70.284344580891229 0 -70.284344580891229 -129.24932220691517 0 0 0 0 125.99813039372293 -46.824505610920141 0 -46.824505610920141 -113.85742140686853 0 0 0 0 -37.824751849526365 -83.324970213277084 0 -83.324970213277084 -50.826852099587995 0 0 0 0 -49.440842777336002 -116.9445769915219 0 -116.9445769915219 -115.52694184054235 0 0 0 0 3.4374748112445559 -7.6357962494485605 0 -7.6357962494485605 2.6364263680193432 0 0 0 0 517.65321084785683 11.947860430776927 0 11.947860430776927 -10.58743504531958 0 0 0 0 588.90417371582589 -49.635186714126576 0 -49.635186714126576 -23.603628974288057 0 0 0 0 502.80156785512736 5.0332841947943052 0 5.0332841947943052 41.903665915338934 0 0 0 0 387.47559381007522 -243.1718207464387 0 -243.1718207464387 126.34189210962904 0 0 0 0 2721.3530507853975 -224.92245118555456 0 -224.92245118555456 -70.639304624213764 0 0 0 0 632.97782461174575 -502.78533286017228 0 -502.78533286017228 108.02907031103678 0 0 0 0 215.02437485090195 -116.50026741738202 0 -116.50026741738202 89.667976362361514 0 0 0 0 1231.188190369161 232.15174475124377 0 232.15174475124377 101.53906351915248 0 0 0 0 -141.54591950654867 -368.46741896678577 0 -368.46741896678577 91.566599415144992 0 0 0 0 -311.89739786434802 -309.18276247072754 0 -309.18276247072754 141.42532670815854 0 0 0 0 77.97075249547197 -220.22138644768711 0 -220.22138644768711 -2.1596194274206937 0 0 0 0 -675.18930344375985 -516.18389947937112 0 -516.18389947937112 83.547863515663266 0 0 0 0 2.4893346597100319 -2.6062001738211862 0 -2.6062001738211862 1.3165291997301978 0 0 0 0 -20.187999018398841 -55.710441723760937 0 -55.710441723760937 -222.12974819176816 0 0 0 0 -13.150044207293831 -126.81357030978234 0 -126.81357030978234 -160.14692023658608 0 0 0 0 -367.51333644604165 -14.392262454806769 0 -14.392262454806769 -122.15119488856635 0 0 0 0 -83.961921652313322 -194.50396138843644 0 -194.50396138843644 -152.94063268932041 0 0 0 0 -59.272209659058717 -234.19978864762561 0 -234.19978864762561 -144.7323391665268 0 0 0 0 133.21891571631568 -230.37099498011776 0 -230.37099498011776 -189.90853774069546 0 0 0 0 -140.93481655843789 -347.39037696405285 0 -347.39037696405285 -84.723221204461879 0 0 0 0 -86.683262288981496 -789.59702894565726 0 -789.59702894565726 -116.37396915361751 0 0 0 0 -301.18530658811505 -244.43265219280511 0 -244.43265219280511 -35.960407137514267 0 0 0 0 471.37377163166821 -802.2564340939025 0 -802.2564340939025 -247.39632941626769 0 0 0 0 131.29637063491828 -522.32936343648907 0 -522.32936343648907 -9.1697838206819142 0 0 0 0 208.50555739538686 -191.5146613667539 0 -191.5146613667539 -3.8632734031016298 0 0 0 0 345.30387613477069 -323.69368364885486 0 -323.69368364885486 -90.50672712907658 0 0 0 0 1.1728304206707785 -1.0707895673464662 0 -1.0707895673464662 -0.042607479226909106 0 0 0 0 -437.84912230506598 -123.16524993678468 0 -123.16524993678468 137.10278536873375 0 0 0 0 2671.7026242143802 -404.54741159743389 0 -404.54741159743389 40.749876329646213 0 0 0 0 -64.667727854146506 -106.92349767084306 0 -106.92349767084306 -23.713644691060836 0 0 0 0 -206.06766085371783 -94.669777664328649 0 -94.669777664328649 17.805529832337925 0 0 0 0 1289.4358141730772 -613.77767216078064 0 -613.77767216078064 -213.70649918567506 0 0 0 0 1755.1223561713487 209.78435153032115 0 209.78435153032115 -370.33896232240659 0 0 0 0 686.8254635707126 -556.43888009135117 0 -556.43888009135117 -207.66245166317822 0 0 0 0 1015.3892975671333 99.137879964320746 0 99.137879964320746 -376.69925303823402 0 0 0 0 -63.556093339895597 -39.741560716069216 0 -39.741560716069216 -74.213730970361212 0 0 0 0 -224.62426319418591 43.183712526773888 0 43.183712526773888 -59.015899368132523 0 0 0 0 -201.31351754272691 -26.464141196944183 0 -26.464141196944183 -44.491575257161458 0 0 0 0 -142.10897861089325 12.510729545567301 0 12.510729545567301 -98.614840027461469 0 0 0 0 -38.257578154181829 -62.97899011636764 0 -62.97899011636764 -74.64782194307918 0 0 0 0 -85.529093831806676 -80.489943274604229 0 -80.489943274604229 -46.790015243750531 0 0 0 0 165.25088950627105 -115.49437501193279 0 -115.49437501193279 125.14417379993029 0 0 0 0 3.7719534126352521 -4.2889445063949054 0 -4.2889445063949054 -3.0340368375848925 0 0 0 0 -48.071320391056361 -57.047745013719577 0 -57.047745013719577 -58.071288346021902 0 0 0 0 -60.30853144451612 -76.585943993747151 0 -76.585943993747151 -46.93533455819852 0 0 0 0 -28.29462330705428 -59.33623851892844 0 -59.33623851892844 -56.821380071425665 0 0 0 0 289.6400953294069 -333.56056118701508 0 -333.56056118701508 361.84529122017557 0 0 0 0 -49.687415803280601 -58.105774027731968 0 -58.105774027731968 -56.708725363147096 0 0 0 0 5.7191682569809643 -4.9220540668902082 0 -4.9220540668902082 -1.0731079331093749 0 0 0 0 298.67581793966383 -408.99084214573304 0 -408.99084214573304 511.09649506031565 0 0 0 0 804.23001295769791 -208.02242014155718 0 -208.02242014155718 -3.406957452010829 0 0 0 0 546.72023451861969 -532.64622393429181 0 -532.64622393429181 243.52478559626252 0 0 0 0 458.63797820072796 -415.8306974870975 0 -415.8306974870975 -151.6755050599204 0 0 0 0 459.77680048898037 -395.09744345787658 0 -395.09744345787658 37.059207117073129 0 0 0 0 496.04090192093281 -110.98357073301668 0 -110.98357073301668 499.62187027856999 0 0 0 0 575.13375434642512 106.79136819600717 0 106.79136819600717 215.89370205682462 0 0 0 0 557.33834133617347 37.310054029192543 0 37.310054029192543 10.290922209616838 0 0 0 0 361.03767976337986 94.430242861506485 0 94.430242861506485 192.25400832366586 0 0 0 0 529.71977343573963 -44.473272417963017 0 -44.473272417963017 156.5837253259092 0 0 0 0 275.10162328687875 74.086217326230326 0 74.086217326230326 156.80015592700511 0 0 0 0 404.27413175869151 74.219927537922558 0 74.219927537922558 98.943266114429207 0 0 0 0 375.25160209239402 104.66604912172079 0 104.66604912172079 47.579760872304178 0 0 0 0 391.25496674061287 93.315306960888847 0 93.315306960888847 -63.279673021726921 0 0 0 0 266.80764037404151 98.534884771892393 0 98.534884771892393 50.292061375429512 0 0 0 0 282.57636374195863 126.03961810235523 0 126.03961810235523 -9.8463247008839971 0 0 0 0 259.79032496950822 74.249477867782844 0 74.249477867782844 -62.209849260700139 0 0 0 0 362.553821428839 52.05841284442613 0 52.05841284442613 -81.970256757611423 0 0 0 0 328.8289605627906 -30.954162097832977 0 -30.954162097832977 -140.17817310444298 0 0 0 0 389.50035759640741 -138.92696280888777 0 -138.92696280888777 -126.61625193565487 0 0 0 0 114.42337580239018 -118.9797583550278 0 -118.9797583550278 -118.1184231651896 0 0 0 0 329.86495209587883 8.8150274638287556 0 8.8150274638287556 6.7216591957803757 0 0 0 0 -57.668292868729623 -93.475186755879804 0 -93.475186755879804 -74.723939140998482 0 0 0 0 -40.43701411083839 -8.1520505524272266 0 -8.1520505524272266 15.01122355500047 0 0 0 0 -7.2497705483183381 -7.55388544743073 0 -7.55388544743073 -9.3216504110314418 0 0 0 0 0.63459305837817936 -0.83538733285061539 0 -0.83538733285061539 1.9389678479608747 0 0 0 0 54.865243129512237 -103.57611808444562 0 -103.57611808444562 -150.78153595012918 0 0 0 0 33.315884358114999 45.674612839361544 0 45.674612839361544 113.53951967091052 0 0 0 0 92.065922892215895 129.69564058926971 0 129.69564058926971 -248.1486436358573 0 0 0 0 -30.314430087342771 28.640614749644556 0 28.640614749644556 14.226501232791634 0 0 0 0 31.719539710335084 23.137294345202463 0 23.137294345202463 -37.086081863035361 0 0 0 0 46.564180889370618 -21.038360849905075 0 -21.038360849905075 16.165037898143055 0 0 0 0 61.850508987816283 -24.240935507132235 0 -24.240935507132235 -14.363512378989981 0 0 0 0 75.559120011072082 -59.905885475534888 0 -59.905885475534888 37.80497689616459 0 0 0 0 65.023760737545672 -21.740985021268898 0 -21.740985021268898 -0.41773887159251899 0 0 0 0 77.011995494518487 -47.062981484096781 0 -47.062981484096781 32.205953540709743 0 0 0 0 91.973416820481361 -33.105797728831931 0 -33.105797728831931 44.451624926688964 0 0 0 0 56.937581748603407 -4.9474487333291108 0 -4.9474487333291108 22.413167425605934 0 0 0 0 56.528033194204909 -7.6330598602053215 0 -7.6330598602053215 1.814482893105378 0 0 0 0 11.827476603219111 -6.2271072619100778 0 -6.2271072619100778 12.539591541002665 0 0 0 0 61.45233422498859 -3.2807835631574562 0 -3.2807835631574562 -8.4183484464620051 0 0 0 0 22.541986053860455 16.119897517644858 0 16.119897517644858 8.2427666470075565 0 0 0 0 63.798108440714714 3.5566726257620758 0 3.5566726257620758 18.88394860947119 0 0 0 0 84.504871875862591 -12.548660874141206 0 -12.548660874141206 31.68625396045104 0 0 0 0 89.052354873572767 -26.184028624004895 0 -26.184028624004895 -4.3853389513678849 0 0 0 0 88.050730884802761 -22.041127070749098 0 -22.041127070749098 59.221132402464718 0 0 0 0 127.81741774703551 -39.128403964563404 0 -39.128403964563404 35.443592742380133 0 0 0 0 79.034296261430427 -33.590378259335921 0 -33.590378259335921 40.014037186409041 0 0 0 0 97.134143135859631 -14.872078872360362 0 -14.872078872360362 13.034421269672748 0 0 0 0 99.075122376147192 -23.812339737230104 0 -23.812339737230104 41.087555087340661 0 0 0 0 107.33758143518571 -58.09526897764863 0 -58.09526897764863 52.44814514830432 0 0 0 0 138.40511596302531 -39.610471270070775 0 -39.610471270070775 56.41512601593422 0 0 0 0 158.69460033490213 -83.892356949158966 0 -83.892356949158966 68.495819157729784 0 0 0 0 132.5472001693779 -56.22218753015477 0 -56.22218753015477 56.320186143169849 0 0 0 0 134.50901456661813 -52.191821398017055 0 -52.191821398017055 64.410965565132528 0 0 0 0 207.05084947021896 -112.57358339910479 0 -112.57358339910479 87.594629022840309 0 0 0 0 223.84450438904605 -61.664311108381298 0 -61.664311108381298 44.616544257654823 0 0 0 0 236.32055976893753 -109.96701155373012 0 -109.96701155373012 72.044595948198548 0 0 0 0 248.50436665800225 -85.017090476269004 0 -85.017090476269004 54.511897520175808 0 0 0 0 159.47796040627145 -146.7534930541733 0 -146.7534930541733 97.985217400699185 0 0 0 0 127.12378318933042 -33.226009524445544 0 -33.226009524445544 49.775732738944498 0 0 0 0 105.11760331274127 -54.241101892597726 0 -54.241101892597726 98.129516867874827 0 0 0 0 107.9974219831638 -57.141653705264616 0 -57.141653705264616 24.857269428812288 0 0 0 0 36.984751396563297 -55.767568145896803 0 -55.767568145896803 40.885227293823846 0 0 0 0 -58.746539051371656 -60.650043654877663 0 -60.650043654877663 -28.889287289312051 0 0 0 0 71.309047053357062 -90.035944777964687 0 -90.035944777964687 -34.301467829820467 0 0 0 0 77.059690561764 -52.069844446732532 0 -52.069844446732532 -45.508365783274712 0 0 0 0 67.81975685388943 -19.781677644745344 0 -19.781677644745344 -0.2599854804284405 0 0 0 0 61.278847015331849 -43.66127496716399 0 -43.66127496716399 -15.779175378873333 0 0 0 0 33.226780805576709 -48.436933100745591 0 -48.436933100745591 -36.168478831850734 0 0 0 0 47.564790706412168 -70.280519723393809 0 -70.280519723393809 -62.036949594654288 0 0 0 0 28.834899923414923 -76.737025781447301 0 -76.737025781447301 -74.346348636478069 0 0 0 0 -35.263567455811426 -73.410916930519306 0 -73.410916930519306 -50.473843065163237 0 0 0 0 6.0160611391620478 -86.398195437850518 0 -86.398195437850518 -64.604008922120556 0 0 0 0 6.8313212611392373 -61.073672872495081 0 -61.073672872495081 -82.080915292569443 0 0 0 0 13.249891925945121 -69.25588906050325 0 -69.25588906050325 -44.473748209071346 0 0 0 0 0.2384636605202104 -59.82082760598496 0 -59.82082760598496 -81.719421815741953 0 0 0 0 51.343034066056134 -85.870387447106623 0 -85.870387447106623 -75.295540271465143 0 0 0 0 51.416474663964948 -93.151179373618845 0 -93.151179373618845 -40.778052396817657 0 0 0 0 1.4260160223960412 -1.028298380577418 0 -1.028298380577418 -1.6389254636332495 0 0 0 0 9.8811942949978402 4.7364059899118729 0 4.7364059899118729 -181.60070833195641 0 0 0 0 51.674458927434898 -74.48141028246846 0 -74.48141028246846 10.957957980130232 0 0 0 0 13.132838496711656 7.3586402313749772 0 7.3586402313749772 -179.51411578931402 0 0 0 0 61.108624145224894 -26.652066469740475 0 -26.652066469740475 14.863668020916521 0 0 0 0 61.742613650065323 -36.436384685283883 0 -36.436384685283883 -30.12431689742516 0 0 0 0 80.086044401589334 -13.666646506178495 0 -13.666646506178495 -11.892795120547817 0 0 0 0 7.6580112163428566 3.8630962681527308 0 3.8630962681527308 8.8267319764790955 0 0 0 0 -48.253588044230128 15.520876883665551 0 15.520876883665551 0.66585961628697987 0 0 0 0 -29.573317619222507 -34.148427190226357 0 -34.148427190226357 -152.34884217891886 0 0 0 0 10.976985889346679 45.37178132359827 0 45.37178132359827 -73.796328392658324 0 0 0 0 2.962679738731822 -5.0502619924645842 0 -5.0502619924645842 -62.085351332919799 0 0 0 0 -24.740389746366418 26.642551410310261 0 26.642551410310261 -125.81494293480864 0 0 0 0 -12.677845620077278 -11.600353431165786 0 -11.600353431165786 -60.180410283381207 0 0 0 0 46.969155232909543 -61.086089105177962 0 -61.086089105177962 -53.939832491549168 0 0 0 0 39.458593411618494 -33.177421480067096 0 -33.177421480067096 -154.27972834928005 0 0 0 0 -7.8500792236445704 -2.3433003875052236 0 -2.3433003875052236 -19.053541268862318 0 0 0 0 -14.397771310155804 -14.285649300497425 0 -14.285649300497425 1.7178287601702777 0 0 0 0 23.313929425981769 11.594403454497296 0 11.594403454497296 -19.548983107821982 0 0 0 0 19.711924141507552 15.589662785883547 0 15.589662785883547 -11.190500324906679 0 0 0 0 2.1144128110086626 -1.3542613384776132 0 -1.3542613384776132 -1.6862784055682702 0 0 0 0 50.984584500358324 -13.364222293022976 0 -13.364222293022976 -20.336062515856611 0 0 0 0 28.593620397645282 -6.9110980267359992 0 -6.9110980267359992 -21.904336038602196 0 0 0 0 8.6968371270631906 -10.463534050330054 0 -10.463534050330054 -9.9038113853312097 0 0 0 0 26.480576520170871 -30.617967901303018 0 -30.617967901303018 6.2086422615902848 0 0 0 0 24.687128268211382 -22.934759158211818 0 -22.934759158211818 11.539881459641038 0 0 0 0 45.307919624843635 -59.458546148196547 0 -59.458546148196547 48.348252064311964 0 0 0 0 53.957621765846852 -41.900102524337854 0 -41.900102524337854 -10.258364765332772 0 0 0 0 -10.137284123600693 -48.742972666666901 0 -48.742972666666901 -170.18710878161619 0 0 0 0 -0.15854035797619304 -2.066649924775799 0 -2.066649924775799 0.2835893505319742 0 0 0 0 8.1039870319655165 -37.470359155015103 0 -37.470359155015103 93.517016858591887 0 0 0 0 41.792106130116736 -14.600166439055101 0 -14.600166439055101 -192.51568970509106 0 0 0 0 19.458853314150474 -13.465654927091691 0 -13.465654927091691 -192.79396568315315 0 0 0 0 15.833906402936918 -31.408454336979503 0 -31.408454336979503 39.382255622371304 0 0 0 0 -10.174043479695683 19.800207551896165 0 19.800207551896165 -227.97572358543403 0 0 0 0 1.0170507908780451 -0.30224005694077505 0 -0.30224005694077505 -0.53725855375461862 0 0 0 0 -1.8074671663240167 -2.2142773783383731 0 -2.2142773783383731 -2.0942591644609365 0 0 0 0 18.001652982347878 -23.793029227671468 0 -23.793029227671468 15.694451542472962 0 0 0 0 14.179849881308655 -47.36496572505871 0 -47.36496572505871 31.216807452345165 0 0 0 0 7.3822413684465573 -45.786165820654787 0 -45.786165820654787 -8.2798175745338085 0 0 0 0 37.107204311076202 -41.933270213521155 0 -41.933270213521155 -9.1470179325351637 0 0 0 0 12.228549727529753 -11.302338557807161 0 -11.302338557807161 -1.2649688577862435 0 0 0 0 1.0158484114596291 -6.2339245005790573 0 -6.2339245005790573 -4.8267128167282536 0 0 0 0 8.5520436613660422 -7.716246439790666 0 -7.716246439790666 -3.7209099735555355 0 0 0 0 6.2229833123383287 -6.5405305214753753 0 -6.5405305214753753 -2.7832616257019254 0 0 0 0 5.895482229336011 -3.3957215926340147 0 -3.3957215926340147 0.45545445895288683 0 0 0 0 9.7216649129841244 -6.1455084541339602 0 -6.1455084541339602 -9.9255377792139825 0 0 0 0 10.285308115386101 -5.5597252251412179 0 -5.5597252251412179 -0.88798173832261451 0 0 0 0 8.7106489890429657 -6.1240599525226571 0 -6.1240599525226571 -4.487342052254462 0 0 0 0 15.728632020862278 -5.927297263813216 0 -5.927297263813216 -2.4565697646312401 0 0 0 0 9.5793082137949455 -6.1678981284256622 0 -6.1678981284256622 0.54980302968450445 0 0 0 0 11.508742735941524 -2.5381691061277323 0 -2.5381691061277323 -0.21130529821997435 0 0 0 0 17.161397165189044 -9.3729422371451392 0 -9.3729422371451392 -3.0929403785547649 0 0 0 0 30.032219892658759 -16.684996548985509 0 -16.684996548985509 7.4342444089461424 0 0 0 0 9.4753455439750809 -0.063974103921609071 0 -0.063974103921609071 -2.8194186910011325 0 0 0 0 29.908446064723648 -12.968281898692794 0 -12.968281898692794 8.3062331536093552 0 0 0 0 27.562045001506704 -16.074780825653761 0 -16.074780825653761 11.43975841543579 0 0 0 0 31.552148926726659 -11.418421926008705 0 -11.418421926008705 10.610600913712005 0 0 0 0 25.056785130640492 -10.327400427857356 0 -10.327400427857356 11.030288877831481 0 0 0 0 29.214471674773449 -11.602701817927027 0 -11.602701817927027 12.376313653083344 0 0 0 0 15.491728872504609 -6.1295428974081005 0 -6.1295428974081005 -8.7286569868792867 0 0 0 0 31.075926266268652 -23.688418058769457 0 -23.688418058769457 -5.4655108161314274 0 0 0 0 22.186508922722822 -7.2488011073770249 0 -7.2488011073770249 -0.29636187987849194 0 0 0 0 23.969432779723732 -5.1284284300060516 0 -5.1284284300060516 -0.15664490109029572 0 0 0 0 25.807144878141116 -10.690571259256103 0 -10.690571259256103 -45.769757537380428 0 0 0 0 16.49354539430351 -42.893049184440315 0 -42.893049184440315 -46.759705952292279 0 0 0 0 30.479763850220479 -11.86134558696358 0 -11.86134558696358 -1.7615474723079387 0 0 0 0 25.710557491688519 -8.1095409016639657 0 -8.1095409016639657 -0.77210719849323439 0 0 0 0 36.303324432439695 -32.990000788740872 0 -32.990000788740872 -42.0199322663575 0 0 0 0 -3.7037476029800018 -33.998636408083257 0 -33.998636408083257 -11.004740808040879 0 0 0 0 -10.295490195378079 -45.421911809515223 0 -45.421911809515223 -23.635759898577817 0 0 0 0 -16.243848040801822 -20.783104443631601 0 -20.783104443631601 -47.959888640129066 0 0 0 0 -5.4276304716768209 -39.01681230165741 0 -39.01681230165741 -34.607591101332218 0 0 0 0 -15.525183674602886 -30.937851662616595 0 -30.937851662616595 -29.110108327104172 0 0 0 0 -87.366824883516529 -100.37708274083707 0 -100.37708274083707 -132.9391679657565 0 0 0 0 1.8501409541142237 -0.19914964405514723 0 -0.19914964405514723 -1.2839997750964613 0 0 0 0 24.310867561654476 -4.9923621093186394 0 -4.9923621093186394 3.6623580131583715 0 0 0 0 31.194486561495978 0.74688519459093072 0 0.74688519459093072 8.516724926783354 0 0 0 0 34.617746857184102 -6.4653328341591987 0 -6.4653328341591987 -5.8246124687266274 0 0 0 0 10.073641238241935 0.74963439849807401 0 0.74963439849807401 -0.002160734524430552 0 0 0 0 30.501747724974848 -14.957471821289801 0 -14.957471821289801 -14.885381120348029 0 0 0 0 -516.075515016797 -119.14251600353055 0 -119.14251600353055 252.20064045200706 0 0 0 0 14.600120675396397 -14.469576493054575 0 -14.469576493054575 -5.7655004590014869 0 0 0 0 -306.28515208075987 -205.99409789228957 0 -205.99409789228957 282.89745943577873 0 0 0 0 24.776165964998597 -12.637710008892387 0 -12.637710008892387 -1.2108933425278749 0 0 0 0 17.599089125389582 -16.744057776002592 0 -16.744057776002592 -5.0514511226938339 0 0 0 0 25.112606094399069 -10.878794913099355 0 -10.878794913099355 -3.4981187774546072 0 0 0 0 -281.38148283273586 -465.73246535038379 0 -465.73246535038379 -103.31575019504089 0 0 0 0 32.889613938590628 -142.93030237410494 0 -142.93030237410494 -240.51235761092539 0 0 0 0 33.113642189188297 -7.9282484625491527 0 -7.9282484625491527 -4.8124421993975801 0 0 0 0 19.313035953906365 8.7451950476279308 0 8.7451950476279308 -73.536223447139491 0 0 0 0 61.569906786215142 -16.067100726835633 0 -16.067100726835633 -87.448327408164914 0 0 0 0 -4.7240990372182523 -2.5665802831214819 0 -2.5665802831214819 0.87227753175160849 0 0 0 0 -22.669996781231021 2.9271777496624054 0 2.9271777496624054 -36.82342006079125 0 0 0 0 20.934874497243754 2.3716478050973819 0 2.3716478050973819 -33.152339121530531 0 0 0 0 20.336549480205576 -20.178139789368288 0 -20.178139789368288 -24.794422142880649 0 0 0 0 -59.513278524866109 -10.115493467319084 0 -10.115493467319084 -41.267230886303878 0 0 0 0 37.835356678522658 2.301074388629786 0 2.301074388629786 -55.385695609213144 0 0 0 0 53.846215415906045 -12.167237386544002 0 -12.167237386544002 -62.620432601366701 0 0 0 0 58.05968239421054 -6.8881403322702681 0 -6.8881403322702681 -46.237018490137416 0 0 0 0 53.530653634661576 -13.85830186282692 0 -13.85830186282692 -39.202816922974307 0 0 0 0 54.320439358067233 -16.342465468449518 0 -16.342465468449518 -46.06383133439931 0 0 0 0 1321.4050927481512 -59.955235493176588 0 -59.955235493176588 -122.62983381660098 0 0 0 0 610.07638693244371 -551.19799850765003 0 -551.19799850765003 262.05091782085219 0 0 0 0 391.56878052750108 49.898326197002461 0 49.898326197002461 135.86095652196309 0 0 0 0 787.66148545896431 384.6886446289318 0 384.6886446289318 242.43869147216537 0 0 0 0 320.9074636937894 184.40322677522363 0 184.40322677522363 117.85153397681643 0 0 0 0 660.26922072725938 -65.920744834485049 0 -65.920744834485049 132.01269684326871 0 0 0 0 831.86595043863053 -349.82377445250722 0 -349.82377445250722 186.00860818108777 0 0 0 0 679.60079419762769 -134.2042174432263 0 -134.2042174432263 -118.73440727625911 0 0 0 0 89.545892573005403 84.764566294103133 0 84.764566294103133 99.752301361950686 0 0 0 0 865.02873427734448 -274.00190933374643 0 -274.00190933374643 -77.335674605139502 0 0 0 0 634.60187618097916 24.848939730651182 0 24.848939730651182 -140.35745589020007 0 0 0 0 6.5656720158876851 -8.1376633125764783 0 -8.1376633125764783 -4.5820581294556177 0 0 0 0 6.6519879959313162 -4.3634909446493566 0 -4.3634909446493566 -4.8237172948540561 0 0 0 0 5.9718960026293644 -15.43067387348492 0 -15.43067387348492 7.5116360571119003 0 0 0 0 -2.8907959871856406 -0.83602287527132901 0 -0.83602287527132901 1.2742544287183861 0 0 0 0 12.870622904134507 -4.5402714282745364 0 -4.5402714282745364 -1.0014690414100187 0 0 0 0 4.6655372274502032 1.6189866748132999 0 1.6189866748132999 -1.3956360502006575 0 0 0 0 -26.863132571510505 33.410667378757353 0 33.410667378757353 61.75253605495891 0 0 0 0 -56.107586612451996 -44.612618087339797 0 -44.612618087339797 -34.176282493497638 0 0 0 0 142.70838840449142 25.528344414611638 0 25.528344414611638 37.911478411448115 0 0 0 0 323.79789942697971 -116.44655853426957 0 -116.44655853426957 106.19791934003115 0 0 0 0 49.615585938459844 126.88696514015464 0 126.88696514015464 98.049559613731617 0 0 0 0 18.736317746305701 -3.6657403240583832 0 -3.6657403240583832 -0.69061702206183817 0 0 0 0 40.072060009501001 -84.983114409234986 0 -84.983114409234986 -102.4953236472677 0 0 0 0 120.45782332318413 -21.775670086439277 0 -21.775670086439277 -62.630857170068339 0 0 0 0 -30.241573816136224 2.7528411967005013 0 2.7528411967005013 204.88790583206719 0 0 0 0 11.676611398586829 -3.9334535710322598 0 -3.9334535710322598 0.0092287080244659592 0 0 0 0 -81.351684638238794 -48.359793473624507 0 -48.359793473624507 101.01949852938924 0 0 0 0 5.5731999504670808 -5.201048018373271 0 -5.201048018373271 0.062851210790434209 0 0 0 0 -55.742178595333826 86.43512576008834 0 86.43512576008834 -17.589580072835815 0 0 0 0 1.0567974621240381 -1.2032045165671121 0 -1.2032045165671121 -0.70837287311385921 0 0 0 0 92.13065807466046 -109.52201740689725 0 -109.52201740689725 33.560499396091473 0 0 0 0 561.83879862169124 189.72126266904706 0 189.72126266904706 42.737773196311537 0 0 0 0 1440.2272517540041 -71.271121836457496 0 -71.271121836457496 -257.43859648936814 0 0 0 0 751.73192461386498 -177.25787309739189 0 -177.25787309739189 275.89780594896183 0 0 0 0 7.6810740726137681 -1.0756963400416204 0 -1.0756963400416204 0.22193928857600831 0 0 0 0 996.42160558894102 420.61689350437246 0 420.61689350437246 -32.307103785879008 0 0 0 0 1690.5819901845171 -157.13876234936288 0 -157.13876234936288 -228.28034222242422 0 0 0 0 678.4009491672623 -111.13238379270479 0 -111.13238379270479 489.81826666171219 0 0 0 0 430.48337957007607 213.85533115933231 0 213.85533115933231 85.027285146061331 0 0 0 0 -315.26454125942291 187.05880074787638 0 187.05880074787638 206.66648890872966 0 0 0 0 525.29638167406665 -548.54882745918803 0 -548.54882745918803 -118.20692478800402 0 0 0 0 90.399272562511669 -362.98845601316953 0 -362.98845601316953 -73.000954355922659 0 0 0 0 1175.9069936836604 160.11772798798847 0 160.11772798798847 -168.12632903381018 0 0 0 0 5.2895371411769929 -2.2304323240640453 0 -2.2304323240640453 0.80561812623670903 0 0 0 0 1030.9478385063339 -317.27457616658103 0 -317.27457616658103 -170.87702382611133 0 0 0 0 508.57331733150022 -104.08247486391815 0 -104.08247486391815 248.14850176179789 0 0 0 0 531.69168137413362 -329.71070847586816 0 -329.71070847586816 -52.141918516784244 0 0 0 0 481.35249755311088 -8.5363524514314122 0 -8.5363524514314122 -61.290240231084681 0 0 0 0 602.63821905602526 -74.282285486951878 0 -74.282285486951878 -67.750962775815424 0 0 0 0 869.12266787346744 121.32395595873413 0 121.32395595873413 -88.812929838193668 0 0 0 0 333.36175834124151 177.01053150121516 0 177.01053150121516 -42.266515545383754 0 0 0 0 -10.994954404959572 78.962532635438038 0 78.962532635438038 43.206601412632153 0 0 0 0 0.95869684383187792 -0.05336095397925078 0 -0.05336095397925078 -0.098675672070399401 0 0 0 0 49.66720210573294 -20.652291192751932 0 -20.652291192751932 4.3103225122213189 0 0 0 0 -22.975434855128697 -40.186869789644334 0 -40.186869789644334 -50.881636718018854 0 0 0 0 -31.03683677270601 -75.486599256812042 0 -75.486599256812042 1.795062924928061 0 0 0 0 2.3479466161629716 -37.551038625669605 0 -37.551038625669605 15.983433759774925 0 0 0 0 -0.096129338862738223 -8.6428659228680544 0 -8.6428659228680544 75.386261983836448 0 0 0 0 74.251264406389964 -37.209431152481557 0 -37.209431152481557 46.940970942192507 0 0 0 0 327.2636156478984 -15.056163439856391 0 -15.056163439856391 -17.459685089079358 0 0 0 0 145.47985933479504 -7.4866416577933705 0 -7.4866416577933705 38.886512032276187 0 0 0 0 307.37229695082351 75.507133352974051 0 75.507133352974051 8.3622977304203232 0 0 0 0 298.66898367797694 -130.25792899913995 0 -130.25792899913995 -6.0161140339587291 0 0 0 0 2.574163944430893 -0.71894540110908167 0 -0.71894540110908167 0.29457463917293047 0 0 0 0 149.35914032396249 -116.38519868520052 0 -116.38519868520052 30.407742699460869 0 0 0 0 -21.732581384016157 38.60775261628919 0 38.60775261628919 -15.920080149255227 0 0 0 0 -42.023836976855819 -33.060564892231923 0 -33.060564892231923 82.024300200433572 0 0 0 0 49.507719788780378 6.2017669955330348 0 6.2017669955330348 -52.068618911456724 0 0 0 0 407.19770877505289 127.48510307932247 0 127.48510307932247 -33.909502492322645 0 0 0 0 140.64319531839465 164.19603544910433 0 164.19603544910433 180.47040077414385 0 0 0 0 418.47146759795214 -56.731018289039639 0 -56.731018289039639 -69.462594292966969 0 0 0 0 306.49690584615382 17.959780965357368 0 17.959780965357368 185.0774716158312 0 0 0 0 56.519510810998327 0.30100904591472499 0 0.30100904591472499 4.3046769594366197 0 0 0 0 51.769407265648624 2.2209004285332412 0 2.2209004285332412 9.5589733003944275 0 0 0 0 3.5125413934725742 5.3433555619661917 0 5.3433555619661917 6.7322687027203472 0 0 0 0 25.626271337183425 -0.91872361239984457 0 -0.91872361239984457 8.3283014514672686 0 0 0 0 21.042497109803662 3.0080178001699096 0 3.0080178001699096 5.3659621946062543 0 0 0 0 11.932697090567672 3.77976460319951 0 3.77976460319951 5.3536000672738737 0 0 0 0 14.443871467214194 0.58527649086772726 0 0.58527649086772726 -1.2921910860040953 0 0 0 0 16.427501284159007 -9.3823283588976665 0 -9.3823283588976665 12.28114154276409 0 0 0 0 21.149285251216497 -13.100476224619342 0 -13.100476224619342 13.977646104667656 0 0 0 0 19.631246533157537 -15.10968920815867 0 -15.10968920815867 11.323251307989722 0 0 0 0 25.031290563922084 -28.649394824105912 0 -28.649394824105912 5.1698706799907086 0 0 0 0 4.2137968363967957 -22.501759903859238 0 -22.501759903859238 43.427348544995766 0 0 0 0 -5.353759778161475 -5.040005142280279 0 -5.040005142280279 12.967749986156605 0 0 0 0 -22.005216729812673 18.040075097487716 0 18.040075097487716 30.115675303314674 0 0 0 0 6.1291982406182797 -2.2719275637937244 0 -2.2719275637937244 -28.466068697136507 0 0 0 0 12.188388996910362 12.950602007835187 0 12.950602007835187 -58.638059525659628 0 0 0 0 6.6849147127569495 -1.0059290572452362 0 -1.0059290572452362 0.35400874310222186 0 0 0 0 21.766423328837845 -8.2974378669177895 0 -8.2974378669177895 -17.308984722922105 0 0 0 0 -11.016011499312299 13.441178329137983 0 13.441178329137983 24.178671289679187 0 0 0 0 3.8958519030275056 10.08072549973258 0 10.08072549973258 0.88555850089642263 0 0 0 0 9.651066867379825 -1.0043613908727025 0 -1.0043613908727025 -1.4303521231723586 0 0 0 0 1.7893366592634266 3.1407547915282521 0 3.1407547915282521 -1.8079235767690989 0 0 0 0 14.895120997804042 7.5648113508968891 0 7.5648113508968891 -13.530302311219202 0 0 0 0 -0.33431241272353729 5.2076345367129733 0 5.2076345367129733 -2.3829743533832044 0 0 0 0 19.538574092559429 1.5479498336690085 0 1.5479498336690085 -6.3147831675341877 0 0 0 0 14.178264543559635 -3.929419525560661 0 -3.929419525560661 -15.391699262447219 0 0 0 0 1.8588140044909549 5.982457551182506 0 5.982457551182506 -7.891746328501398 0 0 0 0 50.431092596481903 9.5158323162531815 0 9.5158323162531815 -7.3350124711310514 0 0 0 0 72.893138840978281 -1.7250061364917855 0 -1.7250061364917855 -9.9582817476875789 0 0 0 0 56.620960604501306 -3.3665443666814099 0 -3.3665443666814099 -6.8591309406024266 0 0 0 0 69.413730384418045 3.1362588891278165 0 3.1362588891278165 -8.0192737701545411 0 0 0 0 40.319856372480899 5.7101534989902802 0 5.7101534989902802 -6.031456088889172 0 0 0 0 62.301516571456887 6.3156979800078261 0 6.3156979800078261 -24.724650798154471 0 0 0 0 78.982620624214178 4.0349413691546943 0 4.0349413691546943 -21.581381511763539 0 0 0 0 -0.59107436965859961 0.18748969219359424 0 0.18748969219359424 -9.7285633148258057 0 0 0 0 1.7081105222643522 -0.6070324635405342 0 -0.6070324635405342 -11.126499020819637 0 0 0 0 23.470490586145047 2.8029042084645397 0 2.8029042084645397 -16.605825702325092 0 0 0 0 21.005460707150633 -6.3602493095622776 0 -6.3602493095622776 -29.963238455056853 0 0 0 0 2.3968777925995877 0.15321847029194657 0 0.15321847029194657 -15.83426473075405 0 0 0 0 0.25358958780759622 -22.479939241479997 0 -22.479939241479997 -43.788507614055561 0 0 0 0 -17.776453303675225 0.72425665074115386 0 0.72425665074115386 -18.950587627234199 0 0 0 0 54.844444109090546 33.723906767236258 0 33.723906767236258 20.858988459784086 0 0 0 0 -1.0434222588428952 0.68796554189902182 0 0.68796554189902182 -0.14013563867679579 0 0 0 0 39.951017592497237 45.147871004151284 0 45.147871004151284 -21.044381483789039 0 0 0 0 41.499543146000633 15.820570290816192 0 15.820570290816192 8.7838459514423448 0 0 0 0 24.818265425543359 27.175921353005833 0 27.175921353005833 -35.82241001942748 0 0 0 0 17.266165260385606 17.04857842785168 0 17.04857842785168 13.510194411630437 0 0 0 0 5.6687759483174887 6.2003263390324719 0 6.2003263390324719 -26.333807725764927 0 0 0 0 16.162568277513856 23.330495813454036 0 23.330495813454036 -18.977511402736127 0 0 0 0 0.568123768571553 1.7633273281996793 0 1.7633273281996793 -5.3787605215741081 0 0 0 0 23.16750823362764 2.9830084626699147 0 2.9830084626699147 -26.370776350973117 0 0 0 0 28.052709749870701 1.7970296928197058 0 1.7970296928197058 -13.697234860294884 0 0 0 0 32.475207623585433 4.9984865614227658 0 4.9984865614227658 -22.913961607440513 0 0 0 0 23.832497948375476 38.084304622302511 0 38.084304622302511 -40.103067869760707 0 0 0 0 28.995501741794396 -2.858318305170485 0 -2.858318305170485 -20.127000791400334 0 0 0 0 40.628617373308771 6.8402656065147198 0 6.8402656065147198 90.891234527625784 0 0 0 0 14.146524962555986 11.014412098936205 0 11.014412098936205 -25.50572869600866 0 0 0 0 7.950482705529339 2.7768424909826308 0 2.7768424909826308 -7.1302464215237933 0 0 0 0 94.103690995634679 49.275266809747336 0 49.275266809747336 -13.202598613323062 0 0 0 0 13.200765071960632 -4.0082383826884325 0 -4.0082383826884325 -50.753600371561333 0 0 0 0 34.742701796727488 -38.405942372795835 0 -38.405942372795835 -17.162738839304438 0 0 0 0 65.047556853722199 -38.533751972619029 0 -38.533751972619029 -27.80148529825783 0 0 0 0 37.386554889904801 -46.605914473519078 0 -46.605914473519078 -17.744790163116704 0 0 0 0 35.342319856543327 -45.438933654601897 0 -45.438933654601897 -15.068251439892265 0 0 0 0 52.302171324727624 35.441751697453043 0 35.441751697453043 -14.147807857403677 0 0 0 0 45.661079105397221 7.3556181561434641 0 7.3556181561434641 -14.590747762202227 0 0 0 0 32.337410002077377 1.7304672881105603 0 1.7304672881105603 -21.884313863156422 0 0 0 0 38.448415352414628 -1.7299496467296898 0 -1.7299496467296898 -32.756790230711815 0 0 0 0 30.210206875178969 9.1333250674056927 0 9.1333250674056927 -16.516710381432755 0 0 0 0 293.52724590630532 -16.870327363933029 0 -16.870327363933029 -121.55577275805399 0 0 0 0 175.50049196013424 37.591580117013564 0 37.591580117013564 -93.409357309570623 0 0 0 0 214.10673539072741 -20.985172681394943 0 -20.985172681394943 -72.21269331575968 0 0 0 0 198.27579404052085 58.938214147970939 0 58.938214147970939 -53.096131698263889 0 0 0 0 -1.4509240036641131 -54.082136252212877 0 -54.082136252212877 -66.899957348789485 0 0 0 0 197.00203034622245 95.358526107180296 0 95.358526107180296 51.6578996391072 0 0 0 0 -0.10177269773626563 0.21322553799622312 0 0.21322553799622312 -0.18697719282488379 0 0 0 0 55.346263050689686 30.758861508213386 0 30.758861508213386 22.20673418998922 0 0 0 0 282.78235992697319 18.637344777604767 0 18.637344777604767 -40.328619342704769 0 0 0 0 197.46600333372771 -15.601832159140031 0 -15.601832159140031 -48.186819792624647 0 0 0 0 148.73802243122191 -37.092559894919759 0 -37.092559894919759 16.390416909107444 0 0 0 0 115.84190383156965 31.340842597659503 0 31.340842597659503 1.2258960027666035 0 0 0 0 89.847831973500433 36.39821601343283 0 36.39821601343283 -43.72240843380041 0 0 0 0 146.6945237073669 -10.992742172460567 0 -10.992742172460567 -53.854237473123703 0 0 0 0 75.231727944785234 16.609281045331045 0 16.609281045331045 16.410687439831236 0 0 0 0 132.81457822907578 -7.8373938450113201 0 -7.8373938450113201 105.24502737508737 0 0 0 0 234.10210737625039 -121.06087496781674 0 -121.06087496781674 24.400034429203515 0 0 0 0 309.27511088326719 -94.346277868832658 0 -94.346277868832658 -93.886510819389969 0 0 0 0 0.71369980338988626 -1.5175208855261673 0 -1.5175208855261673 2.2580075873466257 0 0 0 0 299.37212268984968 -33.842579900598707 0 -33.842579900598707 -203.65016197660952 0 0 0 0 116.85655078929267 -172.16746992025674 0 -172.16746992025674 53.407516123454116 0 0 0 0 -75.040342584223254 -97.514949558421904 0 -97.514949558421904 110.59269626931518 0 0 0 0 -37.130598587944405 2.0092193230575504 0 2.0092193230575504 0.51443633162102742 0 0 0 0 -16.866251518717036 -53.737860050778181 0 -53.737860050778181 53.066774254633856 0 0 0 0 -60.66930618276092 -46.088852581669926 0 -46.088852581669926 -38.499995198491888 0 0 0 0 -38.35354495044885 -8.5846405163856616 0 -8.5846405163856616 6.012354129702544 0 0 0 0 2.0421347292890744 -3.6240069679050251 0 -3.6240069679050251 4.4254132181566845 0 0 0 0 -135.61660713297897 -103.3674402571778 0 -103.3674402571778 -28.495094908773126 0 0 0 0 2.587003879929398 -248.72863598282356 0 -248.72863598282356 -151.94379317020503 0 0 0 0 -99.97293753941085 22.082347345382118 0 22.082347345382118 6.0945718568673328 0 0 0 0 218.88755899339594 -401.37057872484002 0 -401.37057872484002 76.62581442586179 0 0 0 0 3.5869252240081551 -7.5428361159438282 0 -7.5428361159438282 -23.786238044065612 0 0 0 0 254.6759445689022 -234.58091869676946 0 -234.58091869676946 220.61542174789429 0 0 0 0 0.10308256986884601 -0.057577786574029233 0 -0.057577786574029233 2.2548252538495888 0 0 0 0 31.483467161535373 22.696821841394012 0 22.696821841394012 5.8489209050603677 0 0 0 0 -0.2974546093042818 -0.25740122638651997 0 -0.25740122638651997 1.302859450628624 0 0 0 0 -58.015262453236346 21.122604368219299 0 21.122604368219299 11.410373117487325 0 0 0 0 11.652089465344034 8.7823493563705597 0 8.7823493563705597 18.646490746243217 0 0 0 0 -30.559297571278876 11.016320458072187 0 11.016320458072187 12.67985629875875 0 0 0 0 -0.32454470770487376 -0.72637695365830268 0 -0.72637695365830268 5.6611197098959565 0 0 0 0 32.10562198523985 70.498185959669172 0 70.498185959669172 33.750053509837016 0 0 0 0 169.95457763565355 30.169136525952126 0 30.169136525952126 -8.4857601708263246 0 0 0 0 96.347010399069404 72.991383789874817 0 72.991383789874817 13.582544153940034 0 0 0 0 123.63725899438032 -66.151720759959062 0 -66.151720759959062 142.0039315476788 0 0 0 0 185.69251478413935 -69.856963202895713 0 -69.856963202895713 124.30358755913403 0 0 0 0 249.14050068504002 -96.893489902461624 0 -96.893489902461624 48.782132705879576 0 0 0 0 175.82633168782922 -202.47672273597163 0 -202.47672273597163 280.97013245194557 0 0 0 0 1180.6047290862771 -762.7342258922863 0 -762.7342258922863 369.09486853887302 0 0 0 0 42.173283126139722 -527.79311220489399 0 -527.79311220489399 796.18067081270783 0 0 0 0 80.087121031312563 -181.37550759241731 0 -181.37550759241731 492.89735000320798 0 0 0 0 150.56689862423809 66.638113663156219 0 66.638113663156219 124.40686785081562 0 0 0 0 384.53479696404975 -309.13906782322647 0 -309.13906782322647 300.71944265481579 0 0 0 0 364.6246145854675 -350.04214671377849 0 -350.04214671377849 385.28574550932535 0 0 0 0 473.75014526656014 -219.35092801121664 0 -219.35092801121664 84.659317733882745 0 0 0 0 840.38526721916423 -417.77893115275344 0 -417.77893115275344 189.39382377455695 0 0 0 0 465.05757079138539 -284.21575819619704 0 -284.21575819619704 216.71429786159933 0 0 0 0 733.21748156936519 -181.0666946107167 0 -181.0666946107167 22.635297559423634 0 0 0 0 222.55591733146866 -253.4863175779883 0 -253.4863175779883 305.81583600478734 0 0 0 0 225.9307998629447 -197.6272037178951 0 -197.6272037178951 265.46139046128155 0 0 0 0 301.07962546072667 -170.47449294186845 0 -170.47449294186845 151.69357613032116 0 0 0 0 231.19988401655428 -238.49109725789549 0 -238.49109725789549 242.06409106557476 0 0 0 0 204.39951936610305 -214.94432104490897 0 -214.94432104490897 275.4890743511246 0 0 0 0 124.73025956479978 -209.44564679921132 0 -209.44564679921132 234.17208478633165 0 0 0 0 217.03917546832963 -195.60021181943966 0 -195.60021181943966 184.60392128889725 0 0 0 0 190.6772314472546 -74.142172485483798 0 -74.142172485483798 81.848773225774494 0 0 0 0 324.3702380560062 -172.13940025030024 0 -172.13940025030024 150.80556050928772 0 0 0 0 174.21863171142468 -103.10587422830395 0 -103.10587422830395 78.32042790045648 0 0 0 0 199.40608109410095 -87.842672656443028 0 -87.842672656443028 -45.120337301130348 0 0 0 0 61.338148869486758 -75.538225615650845 0 -75.538225615650845 128.63494564333087 0 0 0 0 485.95447754177076 -73.327438416179575 0 -73.327438416179575 -21.949234302814148 0 0 0 0 656.07235676271375 -14.708715833681708 0 -14.708715833681708 -73.986858777796442 0 0 0 0 433.08960960893819 -24.674034008654417 0 -24.674034008654417 9.7373272798067774 0 0 0 0 299.05608993930218 28.324053314252524 0 28.324053314252524 -65.739892956007679 0 0 0 0 387.48509131178434 -52.258018589092899 0 -52.258018589092899 1.8572553615936158 0 0 0 0 494.17471083618148 63.081002323305711 0 63.081002323305711 -41.23370130544572 0 0 0 0 533.37849278957947 27.850078212762583 0 27.850078212762583 -267.07459478198143 0 0 0 0 372.71521079487866 -16.032502628365364 0 -16.032502628365364 -52.552712187594352 0 0 0 0 389.39231242307324 -55.166687520125379 0 -55.166687520125379 -157.78950270140194 0 0 0 0 395.01796628275588 12.858654554886471 0 12.858654554886471 -316.02426964849656 0 0 0 0 171.01172348338878 44.185729557207196 0 44.185729557207196 -200.91727283248292 0 0 0 0 405.45184889131633 57.643523710075897 0 57.643523710075897 -355.94469457247578 0 0 0 0 367.89294105804584 51.674665283815557 0 51.674665283815557 -269.81550162457643 0 0 0 0 -16.416360573879501 -18.892045618824341 0 -18.892045618824341 -67.134640891493291 0 0 0 0 67.355605425856993 -217.49011795511547 0 -217.49011795511547 -89.176167089035516 0 0 0 0 -79.621735940148938 -47.468891780067679 0 -47.468891780067679 -266.01154046500415 0 0 0 0 223.72131495422946 -89.555393005143287 0 -89.555393005143287 -284.95356137042836 0 0 0 0 12.949774184614455 -5.2721173416105032 0 -5.2721173416105032 0.95824919389885821 0 0 0 0 39.515306390081605 -306.61604162740878 0 -306.61604162740878 -484.05752149873479 0 0 0 0 -74.307289335549285 -26.765481595195524 0 -26.765481595195524 -283.7060487099543 0 0 0 0 2.3632870392902987 -125.03784078962053 0 -125.03784078962053 -130.79474016086351 0 0 0 0 6.2126584103971254 -364.38340000293454 0 -364.38340000293454 -372.05886471941449 0 0 0 0 -9.7319058104767464 -42.638364698921578 0 -42.638364698921578 -175.00188086012076 0 0 0 0 10.481900590247989 -5.3521080830496164 0 -5.3521080830496164 1.8531821494238088 0 0 0 0 -4.8313672319563921 -66.012546090244541 0 -66.012546090244541 -78.616642582603163 0 0 0 0 204.41175975992155 -80.898689705606557 0 -80.898689705606557 -153.12111221434316 0 0 0 0 549.51560821067687 -288.01920485388291 0 -288.01920485388291 -67.99696397821117 0 0 0 0 3.7534292188692575 -2.7459351393507525 0 -2.7459351393507525 1.6675912526559991 0 0 0 0 233.56210531538818 75.087617129368937 0 75.087617129368937 -77.144982191020972 0 0 0 0 410.54615254465443 -278.51884171219626 0 -278.51884171219626 99.250901229683222 0 0 0 0 -175.85052688926226 -258.94417708874198 0 -258.94417708874198 195.31590137129751 0 0 0 0 -111.13546637653781 -408.36618326487223 0 -408.36618326487223 358.02275131565148 0 0 0 0 -63.690758383003413 -35.787398977166959 0 -35.787398977166959 -14.005292508270941 0 0 0 0 -210.0886178053097 -321.81332481562958 0 -321.81332481562958 420.63537351362538 0 0 0 0 0.45388249580190632 -2.0463545542602262 0 -2.0463545542602262 3.0224332562825822 0 0 0 0 231.04862796648013 -338.53275035707975 0 -338.53275035707975 316.39050491250237 0 0 0 0 138.95285875661648 -122.4558764436988 0 -122.4558764436988 -62.888116631848334 0 0 0 0 45.720141787955072 -89.321277436401033 0 -89.321277436401033 242.62511298356912 0 0 0 0 174.56115325787687 -340.84558929632294 0 -340.84558929632294 43.781288684098399 0 0 0 0 -75.333968031758559 -429.18838674992548 0 -429.18838674992548 388.91552090878031 0 0 0 0 
</DataArray>
<DataArray type="Float64" Name="cross_section_updated" format="ascii">
1 1 1 1 1 1 1 1 1 1 1 1 1 1 0.0098417259416659526 1 1 1 1 1 1 0.010885996634365264 1 0.012459347718604252 1 1 1 1 1 1 1 1 1 1 1 1 1 1 1 1 1 1 1 1 1 1 0.01049126613087973 1 1 1 1 1 1 0.011357820737746943 1 0.010828697222186389 1 1 1 1 1 1 1 1 1 1 1 1 1 1 0.010866554606867196 1 1 1 1 1 1 1 1 1 1 1 0.01336520923372541 1 0.01121023570290205 1 1 1 0.0097918350934602556 1 1 1 1 1 0.012197768277660377 0.015153489749328716 1 1 1 1 1 1 1 1 1 1 0.0099900557440001092 1 1 1 0.010001217638763896 1 1 1 1 1 1 1 1 1 1 0.010279555346087585 1 0.011701152416248528 1 1 0.012290217856086055 1 1 1 1 1 1 1 0.010860764992145187 1 1 1 1 1 1 1 1 0.011913296882918274 1 1 0.0098223806728980241 1 1 0.011670572026111652 1 1 0.010130410788097748 1 1 1 1 1 1 1 1 1 1 1 1 1 0.01004769748024411 1 1 0.0093900143574853472 1 0.011111502504162438 0.011346620129100531 1 1 1 1 1 1 1 1 1 0.011380317120601929 1 1 1 1 1 1 1 1 1 1 1 1 1 1 1 1 1 1 1 1 1 1 1 1 1 1 1 1 1 1 1 0.01185526994810477 0.0098229500026706645 1 1 0.011438255167750808 0.010510857551757033 1 1 0.013000833110453917 1 0.011631020434057216 1 1 0.013373061076900672 1 0.011850554030869428 1 1 1 1 1 1 1 1 0.010953553554286065 1 1 1 0.014675826098674353 1 1 0.018001520703169332 1 0.0088592652337586598 1 1 0.0098677585964766501 0.014352820191882909 1 1 1 0.015737523056551496 1 1 0.010198709930629499 0.015065156862214367 1 1 1 1 0.011007953272873383 0.01548930926856331 0.014721707442795412 1 1 1 0.015252463751940058 1 1 0.010085492465142166 1 1 1 1 1 1 1 0.0095797481254743209 1 1 0.0087545987637058231 1 1 1 1 0.0074173351420011302 1 1 1 1 1 1 1 1 0.012619844354240912 1 1 0.01529814195275081 1 0.016868749541317569 1 1 1 0.010874237124976776 1 1 1 1 1 1 1 1 1 1 1 1 0.0099960026006503996 1 1 1 1 0.010063811068760749 1 0.011510804402806333 0.013091917429424969 1 1 1 1 1 1 1 1 1 1 0.014430472385834871 0.01423904913816732 1 1 1 1 1 1 1 1 1 1 1 1 1 1 1 1 1 1 1 1 1 1 1 1 1 1 1 1 1 1 1 1 1 1 1 1 1 1 1 1 1 1 1 1 1 1 1 1 1 1 1 1 1 1 1 1 1 1 0.017804774802768382 1 1 0.01395773852640216 1 1 1 1 1 1 1 1 1 1 1 1 0.017736480713485839 1 1 1 1 1 1 0.0099901155281445931 1.0408340855860843e-17 1 1 1 1 1 0.0094198418017575163 0.012534757818265333 1 1 1 1 0.0099583618021654701 1 0.0123625493350937 1 1 1 1 1 0.010674481363975585 1 0.017917793662437568 1 1 0.0172928475615397 0.0096130311676732895 0.01595397505458657 1 1 1 0.016820514435757966 1 1 1 0.010194753394710369 1 1 0.02414402505407948 1 1 1 1 1 1 1 1 1 1 1 1 1 1 1 1 1 1 1 1 1 1 1 1 1 1 0.011535894316763946 1 1 1 1 1 1 1 1 1 1 1 1 1 1 1 1 1 1 1 1 1 1 1 1 1 1 1 1 1 1 1 1 1 1 1 1 0.010870493076879213 1 1 1 1 1 1 1 1 1 1 1 1 1 1 1 1 1 0.015243226014156855 1 0.012865647994652965 1 1 1 1 0.019219184326594772 1 1 0.018719247560388827 1 1 1 1 1 1 0.01981544358041424 1 1 1 1 1 1 1 1 1 1 1 0.013782116133630125 1 1 1 1 1 1 1 1 1 1 1 1 1 1 1 1 1 1 1 1 1 1 1 1 1 1 1 1 1 1 1 1 1 1 1 1 1 1 1 1 1 1 1 0.012150543939762077 1 1 1 1 1 1 1 1 1 1 1 1 0.018707117902535229 1 1 1 0.015528482126243246 1 1 1 0.0097349102804067302 0.024722528871421581 1 1 0.0013513922718592416 1 1 1 1 1 1 1 1 1 1 1 1 1 1 1 1 1 1 1 1 1 1 1 1 1 1 1 1 1 1 1 1 1 0.018056918327803428 1 1 1 1 1 1 1 1 1 0.0093356189629857089 1 1 0.010012717162578108 0.013598872125333571 1 1 1 1 1 0.011645838600203212 1 1 0.014314950208178551 0.0099956802235705768 1 1 0.021194515763796416 1 0.0092259723695802924 1 1 1 1 1 0.025194978871226958 1 1 1 0.024928155869044573 1 1 1 1 1 1 1 1 1 1 1 1 0.024477617162963282 0.0098422806270704061 1 1 0.0097113142588691331 1 1 1 1 1 1 1 1 1 1 1 1 1 1 1 1 1 1 1 1 1 1 0.011350924748862696 1 1 1 1 0.010595737499701698 1 1 1 1 1 1 1 1 0.010559173047650179 1 0.0017953804352789124 1 1 1 1 1 1 1 1 1 1 1 0.011314360296811175 1 1 1 1 0.010533143057080934 1 1 1 1 1 1 0.011233234514216685 1 1 1 1 0.0086623749375831956 0.0063220757494078777 1 0.010066384733197976 1 1 0.019101129782943732 1 1 1 1 1 1 1 1 1 1 1 1 1 1 1 1 1 0.0096629738109461297 1 0.012180908220843568 1 1 1 1 1 0.010634931660546944 1 1 1 1 1 1 1 1 1 1 1 1 1 1 1 1 1 1 1 1 1 1 1 1 1 1 1 1 1 1 1 1 1 1 1 1 1 1 1 1 1 1 1 1 1 1 1 1 1 1 1 1 1 1 1 1 1 1 1 1 1 1 1 1 1 1 1 0.014326917899168606 1 0.010030571955645797 1 1 1 1 1 1 1 1 1 1 1 1 1 1 1 1 1 1 1 1 1 1 1 1 1 1 1 1 1 1 1 1 1 1 1 1 1 1 1 1 1 0.010484922919435823 1 1 1 1 1 1 1 1 1 1 1 1 1 1 1 0.010289283016995658 1 1 1 1 1 1 0.01012914348124197 1 1 1 1 1 1 1 1 1 1 1 1 1 1 1 1 1 1 1 0.011045320191233993 1 1 0.012416594105585385 1 1 0.014916022430515185 1 1 1 1 0.01397029293058967 1 0.01686075526670976 1 1 1 1 1 1 1 1 1 1 1 1 1 1 1 1 1 1 1 1 1 1 1 1 1 0.012814102851694003 1 0.01106216153215678 1 1 1 1 1 1 1 1 1 1 1 0.020715367380676589 1 1 1 0.018426264416279592 1 1 0.0092622966059188287 1 0.0077453150486781397 1 1 1 1 1 1 1 1 1 1 1 1 1 1 0.010205548044748639 1 1 1 1 1 1 0.010173793072469883 1 1 1 1 1 1 1 1 0.01250032856215681 1 1 1 1 1 1 1 1 1 1 1 1 1 1 1 1 1 1 1 0.017867997009594919 1 1 1 1 1 1 1 1 1 1 1 1 1 1 1 1 1 1 1 1 1 1 1 1 1 1 0.016140837492179289 1 1 1 1 0.013356955162768924 1 1 1 0.01370137889799854 1 1 1 1 1 1 1 1 1 1 1 1 1 1 0.01088137085022851 1 1 1 0.013788256091054316 1 1 1 1 1 0.013669108909856238 1 1 1 1 1 1 1 1 1 1 1 1 1 1 1 1 0.010575308233834567 1 0.0097997008979188692 1 0.010228923726059082 1 1 1 0.0099302893007362451 1 1 1 1 1 1 1 1 1 1 1 1 1 1 0.010660571916493292 1 1 1 1 1 1 1 1 1 1 1 1 1 1 0.010183162623249269 0.010314187408717805 1 1 1 1 1 1 1 1 1 1 1 1 1 1 1 1 1 1 1 1 1 1 1 1 1 1 1 1 0.010900600282965056 1 1 1 1 0.0099643461744226836 1 1 1 0.010495627552207039 1 1 1 1 1 1 1 1 0.009342824566484477 1 1 1 0.013963361766979224 1 1 0.0032061671879681942 1 1 0.0099974703845754301 0.012498538985703828 1 1 1 1 1 1 0.016730222302752056 1 1 1 1 1 1 1 1 1 1 1 1 1 0.019150624497557781 1 1 1 1 0.010817579210882156 1 1 1 1 1 1 1 1 1 1 1 1 1 1 1 1 1 1 1 1 1 1 1 1 1 1 1 1 1 1 1 1 1 1 1 1 1 1 1 1 1 1 1 1 1 1 1 1 1 1 1 1 1 1 1 1 1 1 1 1 1 1 1 1 1 1 1 1 1 1 0.016036059272212445 1 1 1 1 1 1 1 1 1 1 1 0.0036560190344193094 1 1 1 1 0.010103184870899036 1 1 1 1 1 0.0040058690542129627 1 1 1 0.017221248654297604 1 1 1 0.0044161862376891174 1 1 1 1 1 1 1 1 0.016697675293850946 1 1 1 0.011758799612990974 1 0.010274568743766943 1 1 0.012530659000909543 1 1 1 1 1 0.010329810927237268 1 1 1 1 1 1 0.010741909676179297 1 1 1 1 1 1 1 1 1 1 1 0.0099566894576619928 0.0119593957934927 1 1 1 1 1 1 1 1 1 1 1 1 1 1 1 1 1 1 1 1 1 1 1 1 1 1 1 1 1 0.010169671391483583 1 1 1 1 0.0098143807384324239 1 1 1 1 1 1 1 1 0.0094942686581412535 1 1 1 1 0.010137251931593958 0.010630246706791163 1 1 1 1 1 1 1 1 1 1 0.010921312212896205 1 1 1 1 1 1 1 1 1 0.012390497762276275 1 1 1 1 1 1 1 1 1 1 1 1 1 1 1 1 1 1 1 1 1 1 1 1 1 1 1 0.010113337189670946 1 1 1 1 1 1 1 1 1 1 1 1 1 1 1 1 1 1 1 1 1 1 1 1 1 1 1 1 1 1 1 1 1 1 1 1 1 1 1 1 1 1 1 1 1 1 1 1 1 0.0099877247580645 1 1 1 1 0.011114250743054107 0.010129839392233242 1 1 1 1 1 1 1 1 1 1 1 1 1 1 1 1 1 1 0.010158612810849774 1 1 1 1 1 1 1 1 1 1 1 1 1 1 1 0.01040711237042609 1 1 1 1 1 1 1 1 1 1 1 1 1 1 1 1 1 1 1 1 1 1 1 1 1 1 1 1 1 1 1 0.009987871026728103 1 1 0.0097565861500679661 1 1 0.011129369879114944 1 1 1 1 0.010810872784929397 0.010226170811768687 1 1 1 1 1 1 1 0.010044752760499338 1 1 1 1 1 1 0.010251537097573036 1 1 1 1 1 1 1 1 1 1 1 1 1 0.01020500853323887 1 0.010819486335320745 1 1 1 1 1 1 0.010370007972947086 1 1 1 1 1 1 1 1 1 1 1 1 1 1 1 1 1 1 1 1 1 1 0.011319586290002792 0.010438870013429864 1 0.012244553312169722 1 1 1 1 1 0.015554522941856889 1 0.0099751044497818769 1 1 1 0.014608162394831588 1 0.013506411180304453 1 1 1 1 0.013846803450530274 1 1 0.018770445680501076 1 1 1 0.014133585351973944 1 1 1 0.012809124982651346 1 1 1 0.01003815238407977 1 1 1 1 1 1 1 1 1 0.013656710924231232 1 1 1 1 0.0098524756708798181 1 0.013268800711183998 1 1 0.010874443685067021 1 1 1 0.015675958592462971 1 0.020083741194337087 1 1 1 1 1 1 0.010924216982178984 1 1 0.01050910656365564 1 0.019095427914179952 1 1 1 1 1 1 1 1 1 1 1 1 1 1 0.015918842745862923 1 1 1 1 1 0.010542055077425314 0.0087096948555643473 1 1 1 0.0084100236028939301 1 1 1 1 0.010773791253688705 1 1 0.01221742209204754 1 1 1 1 1 1 1 0.0094726754269003552 1 1 1 1 1 1 1 1 1 1 1 1 1 1 1 0.01139553926491337 1 1 1 1 1 1 1 1 0.013796707480194344 1 0.017758649189116158 1 1 1 0.011430012360943861 1 0.019322232249743138 1 1 1 1 1 1 1 1 1 1 1 1 1 1 1 1 1 1 1 1 1 1 1 1 1 1 1 0.012715816434637775 1 1 1 0.015838464370005058 1 1 1 1 1 1 0.013804384345325098 1 1 1 0.01008570801697573 1 0.010145697114420711 1 1 1 1 1 1 1 1 0.0043150671329892495 0.018048560876372941 1 1 1 1 1 1 0.01164087558866677 1 1 1 0.019739204835391072 1 1 1 0.010743710883983621 1 1 1 1 1 1 1 1 1 1 1 1 0.0096942393788021393 1 0.010002427694501746 1 1 1 1 1 1 1 1 1 1 0.012224852658513918 1 0.021195987141539571 0.010043777048944153 1 1 1 1 1 1 1 1 1 1 1 1 1 0.024412129990439013 1 1 0.023148476333149853 1 0.010815789376336309 1 1 1 1 1 1 0.015247982171340824 1 1 1 0.012212461748405 1 0.010929539747905559 1 1 1 0.0092918592305996466 1 1 0.011007623858294716 0.011192573418506845 1 0.016181409582981466 1 1 0.021611733210586286 1 1 1 1 1 1 1 1 1 1 1 1 1 0.010566427891114456 0.011364948260939993 1 1 1 1 1 1 1 1 1 1 1 1 1 1 1 1 1 1 1 1 0.015738991048069903 1 0.015830637848942179 0.0099968279906189044 1 1 1 0.02141524721887534 1 0.020059281435445463 0.010651048421326997 1 1 1 1 0.0099743605808858913 1 1 1 1 1 1 0.010401776100916643 1 1 1 1 1 1 1 1 1 1 1 1 0.010145378311693366 1 1 1 1 1 1 1 1 1 1 1 1 1 0.010897104357145228 1 0.010821752559960223 1 1 1 1 1 1 1 1 0.0093329164031494948 1 0.0090187135490125414 1 1 1 0.0092576996018150625 1 1 1 1 1 0.0097873604477547536 1 0.011032762952731976 0.010248165426713958 1 1 0.01000486852737149 1 1 1 1 0.011039372288793517 1 0.018637351131652338 1 1 0.015815693430164045 1 1 0.0095333142410075865 1 1 1 1 1 1 0.012856236874880592 0.01000056132532098 1 1 0.01661695516443637 1 1 0.012216904447052106 1 1 0.011761177027148234 0.0081505751670508612 1 1 1 0.010004909625805299 1 1 1 0.012253608758241583 1 0.0091541886000740345 1 0.011294567607580214 1 1 0.012833921164523336 1 1 0.010030337494497443 1 1 1 0.0097574508269111342 1 1 1 0.011313489119008412 1 1 1 0.010842217535839378 1 0.010943892186002054 1 1 1 0.010519300812735204 1 1 1 1 1 1 1 1 1 1 1 1 1 1 1 1 1 1 1 1 1 1 1 1 1 1 1 1 1 1 1 1 1 1 1 1 1 1 1 1 1 1 1 0.010079334543119173 1 1 1 1 1 1 0.00999839917558599 0.010010821119239391 1 1 1 1 1 1 1 1 1 1 1 1 1 1 1 1 1 1 1 1 1 1 1 1 1 1 1 1 1 1 1 1 1 1 1 1 1 1 1 1 0.015476408393162638 1 1 1 0.01055707313206416 1 1 0.010224825877531887 0.012961541046608733 1 1 0.013147376689794512 1 0.0101555011487174 1 0.01246420139595472 0.013247171131191254 1 1 1 1 1 0.011882569857866549 1 0.013048038864805664 1 1 0.016207667731418969 1 1 1 1 1 0.016449406071714939 1 1 1 1 1 1 1 1 1 1 1 1 0.0099605179811546058 1 0.013706311513021029 1 0.013000353343720255 1 1 1 1 1 0.012259808990110302 0.01360732389667014 0.011621200091732876 1 1 0.01538196723642813 0.013796581780563082 1 1 1 0.010510996140647053 1 0.011639260470565531 1 0.01273527366873058 0.010680735866407715 1 0.014515516885920598 1 1 1 0.010008412961768453 1 1 1 1 1 1 1 0.010790935535214808 0.0098507541792392482 1 1 0.010020452172606869 1 1 0.009945646725534078 1 0.014057316426951932 1 1 0.014649692060617506 1 1 0.0091336519034185756 1 0.0082172871349688592 1 1 1 0.012933728523522309 1 0.010180535655598955 1 1 0.0099976852084210019 1 0.0098363291686836742 0.0096035953812261023 1 0.010374863775699485 0.011684024074304458 0.011847468520985414 1 1 1 1 0.01003386806421103 1 1 0.012479810081805076 1 1 1 1 0.011046378561985357 1 1 1 1 1 1 0.0099977124113341861 1 0.014948837726197791 1 1 1 0.010007598778373821 0.018593782589175017 1 1 1 1 1 1 0.010031246685654735 1 1 0.0083256122848880416 1 0.01218070041295268 1 1 0.011382147899628863 1 1 0.012489188659778442 1 1 1 1 0.01043633472191988 0.010090100936749197 1 1 1 1 0.0098767794310611386 1 1 1 1 1 1 1 1 1 0.010276249338449644 1 1 1 1 1 1 1 0.012106498230937773 1 0.009523495516085452 1 0.0099877404929429939 1 1 0.009986980357320787 1 1 1 1 0.014410468326365038 0.011996113285987119 1 1 1 0.010252477853098083 0.013071488894618583 0.011874444700133865 1 1 1 1 0.013228225349434389 0.014073133653555309 0.0099070230942893481 0.012650651150680451 1 1 0.01147444905282438 1 1 0.012617275038875912 1 1 1 0.011790804180050636 1 1 1 0.012624508389764144 1 0.01081565905129727 1 1 1 1 1 1 1 0.011349258768459811 0.0124066416900196 1 1 0.0099620110339135454 1 1 1 1 1 1 1 0.010929195669675318 1 1 1 1 1 1 1 0.011702148794031244 1 1 1 1 1 1 1 1 1 1 1 1 1 1 0.0097051313366292562 1 1 1 1 1 1 1 1 1 1 0.0089072453669376741 1 1 0.025196560909731137 1 0.012798671049323095 1 1 1 0.019903628212353076 1 0.010436621298339504 1 1 1 1 1 1 1 0.019541474731611753 1 1 1 1 1 1 1 1 1 1 1 1 1 1 1 1 0.010289520755537896 1 1 0.010767799222661297 1 0.010777694950325871 1 0.010561287676399966 1 0.010704048911151199 1 1 1 0.011376646807875056 0.0099473429610244177 1 1 1 1 1 1 0.010002346006875633 1 1 1 1 1 1 1 0.0099715746546232172 1 1 0.010578077524131611 1 1 1 1 1 1 1 1 1 1 1 1 1 1 1 1 1 0.010469737200853549 1 1 1 0.011310719786533356 1 1 1 1 1 1 1 1 1 1 1 1 1 1 1 1 1 1 1 1 1 1 1 1 0.010737067421541908 1 1 1 1 1 1 1 1 1 1 1 0.010272946190697685 1 1 1 1 1 1 0.011768589253755748 1 1 1 1 1 1 1 1 1 1 0.016441808712746052 1 1 0.010014828446231586 0.010053305390281091 1 0.011779151908192818 1 1 1 0.016158328465828563 1 1 1 0.013643553839156129 1 1 1 1 1 1 1 1 1 1 0.00988478489996307 1 1 1 1 1 1 1 1 1 1 1 1 0.019207716526382833 1 1 0.009069063912480458 1 1 1 1 0.010836425963811626 1 1 0.011516543345589764 1 1 1 0.019572235489872296 1 1 1 0.019133082287543429 0.018893591271616099 1 1 1 0.020937364938556469 1 0.0094636532756373678 1 1 1 1 1 1 1 1 1 1 1 0.0097511238696346859 1 1 0.030151874420662444 1 1 1 1 0.028520556023873302 1 1 0.0093231822071593515 1 1 1 1 1 0.011360648209970861 0.0099923309196144269 1 1 1 1 0.012702740014982979 1 1 1 1 1 1 1 0.018007032028722537 1 1 1 1 0.0099959831488206433 1 1 1 1 1 1 0.019553964135418926 1 1 0.010049801183837824 1 1 0.023467171075724092 1 1 0.010057725167162843 0.012047951333159342 1 0.023389837432858312 1 1 1 0.026674414008918124 -2.6020852139652106e-18 1 1 0.029228655410560855 1 1 0.037330450819686653 1 0 1 1 1 1 1 1 1 0.0072610776571758809 1 1 1 1 0.0072895260832893695 1 1 1 1 1 1 1 1 1 1 1 1 1 1 1 1 1 0.0090433624345016665 1 1 1 1 1 1 1 1 1 1 1 1 1 1 0.010478918335006976 1 1 1 1 1 0.012801050260701781 1 1 -5.2041704279304213e-18 1 1 1 1 0.0099154516602662293 1 1 1 0.0078270448340416431 1 1 1 0.009248209897903573 1 1 1 1 1 1 1 1 1 1 1 1 1 1 1 1 1 1 1 0.00090158207868966563 1 1 1 0.0067776360142412168 1 1 0.0093889477153749901 1 1 1 1 2.6020852139652106e-18 1 1 1 1 1 0.011228883907956067 1 1 1 1 1 1 1 1 1 1 1 0.009273732615338065 1 1 1 1 1 1 1 1 1 1 1 0.008477538984627284 1 1 1 1 0.010457897994120415 1 0.0060542083931519001 1 1 1 1 1 1 1 1 1 1 0.002915424788283983 1 0.005526524025531227 0.013857701104672533 1 0.009817371622775661 1 1 1 1 0.0090721090866732624 0.021428757088689583 1 1 0.0099490959726797144 1 1 0.010134118438527523 1 1 1 0.0088500513172411407 1 1 0.011032365110164854 1 1 1 1 0.011676705713380038 1 1 1 1 0.011853023377203235 0.0068480213646836159 1 1 1 1 1 1 1 0.0094211941629403426 1 1 1 1 1 1 1 1 1 1 1 1 1 1 1 1 1 1 1 0.010144438992731996 0.0081464843330603942 1 1 1 1 0.010508089971487796 1 1 1 0.017833418359593504 1 1 1 1 1 1 1 1 1 1 1 0.016364850775520537 1 1 0.014198022139958594 1 1 1 1 1 1 0.018748132293262082 1 0.01966562644069219 1 1 1 1 0.019395886061412113 1 0.0086282783360281043 1 1 0.022658064907193742 1 1 0.0089348336752364081 1 1 1 0.01030374836898186 1 1 1 0.016224847511170808 1 1 0.010003774846252825 1 1 1 1 1 1 0.0098126744232435916 1 1 0.009500919669871391 1 1 1 1 1 0.016409028541880304 1 0.013774452266031094 1 1 0.01338753775634963 1 1 0.011890314822055496 1 0.0099943882203280855 1 1 1 1 1 0.014247484526432748 0.011126327800720591 1 1 1 1 1 0.0081717434709275994 1 1 1 1 1 1 1 1 1 1 1 1 1 1 1 1 1 1 1 1 0.013997469344713343 1 1 1 1 0.011385723597356486 1 1 1 0.011422658555077778 0.010310634047540561 1 1 1 1 1 0.013227729990376906 1 1 1 1 1 1 1 0.015233759245052051 1 1 1 1 1 1 1 1 0.016991897253548473 1 1 0.010245038427565587 1 1 1 1 0.0092634845625010828 1 1 1 1 0.014882645015878021 1 0.017484253539585916 1 1 0.0063137934988468283 1 1 1 1 1 0.015985677320358393 1 1 1 1 0.013951842521896496 1 1 1 1 1 0.0099313528018078797 1 1 1 1 1 1 0.0084119814389227963 1 1 0.0096042054806442893 1 1 0.011064973718784529 1 1 1 0.01011776235165552 1 0.017390786656425451 1 1 0.021204019700160361 1 1 1 1 1 1 1 0.020898860754901577 1 1 1 1 1 0.011192477993870409 1 1 1 0.02039847478901231 1 1 1 1 1 1 1 1 1 1 1 1 1 1 1 1 1 0.0096360063279057155 1 1 1 1 0.013451392087507612 1 1 1 1 1 1 1 1 1 1 1 1 1 1 1 1 1 0.015916279603129094 1 1 1 1 1 0.015610185327965572 0.010069269331689987 1 1 1 0.013696280915256613 1 1 1 1 0.010667292088402981 1 1 1 1 1 1 0.012578222212664063 0.010749951989694261 1 1 1 1 1 1 0.010941199311952721 0.010961149251876552 1 1 1 1 0.010520106800856055 1 1 1 1 1 1 0.010074975304666556 1 1 1 1 1 1 1 1 1 1 0.010152743102664209 1 1 0.010077767797997655 1 1 1 1 1 1 1 1 1 1 1 1 1 1 1 1 1 1 1 1 1 1 1 1 1 1 1 1 1 1 1 1 1 1 1 1 1 1 1 1 1 0.008206912867590857 1 1 1 0.0082254612101959872 1 1 1 1 1 1 0.0095611593558981404 1 1 1 1 1 1 1 1 1 0.0097553755896411624 1 1 1 1 1 1 1 1 1 1 1 1 1 1 0.0095970784634851879 1 1 0.0090363336051631528 0.0094389996221552128 1 1 1 1 1 1 1 1 1 1 1 1 1 1 1 1 1 1 1 1 1 0.0088207400442289717 1 1 1 1 0.0065955689234080406 1 1 1 1 1 1 0.0094703743710108507 1 1 0.01015302124398002 1 1 0.011897842437731156 1 1 1 0.010585006510558308 1 1 1 1 1 1 1 1 0.0078518837222369704 1 1 1 1 1 1 1 1 1 1 0.0032937656372573655 1 0.011578221965728622 1 1 1 1 0.0061238650773374342 1 1 0.010141297323848568 1 1 1 1 1 1 1 1 1 1 0.010702389513254739 1 1 1 1 1 1 1 1 1 1 1 0.01058622923586959 1 0.016916979221503415 1 1 1 1 1 1 1 1 1 1 1 1 1 1 1 1 1 1 1 1 0.0067331302670598078 1 1 1 0.0095261561792895459 1 0.0095052092745645349 1 0.012545346579084652 1 1 0.014237303774215327 1 0.017907733898737056 0.008240084383867639 1 1 1 0.0094683006211285989 0.0099817683019031538 1 1 0.010252347145943924 1 1 1 1 1 1 1 1 1 1 1 1 1 1 0.010043370716426754 0.011272028614400484 1 1 0.0060628905014544756 1 0.0087404187768037565 1 1 1 1 0.01010321813024909 1 1 1 1 1 1 1 1 0.016728006646172584 1 1 1 1 1 1 1 1 1 1 1 1 1 1 1 1 1 1 1 1 1 0.013155835080929856 1 0.010395619766295978 1 1 1 1 0.014222511747641343 0.010634904982077892 1 0.010885146026086713 1 1 1 1 1 0.012549883422170669 1 1 1 0.015570490713417904 1 0.010302063607574354 1 0.016482920697240368 1 1 1 1 1 1 1 1 1 1 0.012261181329755995 1 1 0.010527756545737062 1 1 1 0.011785641100860254 1 1 1 1 1 1 1 1 1 1 1 1 1 1 0.010087547851561064 0.0079237646195084947 1 1 1 1 0.013846976650337708 1 0.011167668248015711 1 0.0067865594397596152 1 1 1 1 1 1 0.010119113565049413 1 0.015366356741650281 0.015191147410540104 1 1 1 1 0.012724470581523623 0.014896228551866585 1 0.0099445628662911505 1 1 1 1 1 0.011405149369369693 1 1 1 1 1 1 1 0.0098638490635541993 1 1 1 1 1 1 0.012295125745121724 0.012598102494735499 1 1 1 1 1 0.0062075231492974108 1 1 1 1 1 0.010017752011425447 0.014844590349924854 1 1 1 0.0099562401009184107 1 1 1 0.0097357475156146962 1 1 1 1 1 1 1 1 1 1 1 1 1 1 1 1 1 1 1 1 1 1 1 1 1 1 1 1 1 0.019130743517467554 1 1 1 1 0.021021720081754562 0.010742855525766423 1 1 1 1 1 1 1 1 1 1 1 1 1 1 1 1 0.013837356406062262 1 1 1 1 1 1 1 1 1 1 1 1 1 1 1 0.010683531484133989 1 1 1 1 1 1 1 1 1 1 0.012108699008742984 1 1 1 1 1 1 0.011425167524608993 1 1 1 1 1 1 1 1 1 1 1 1 1 1 1 1 1 1 1 1 1 1 1 1 1 1 1 1 1 1 1 1 1 1 1 1 1 1 1 1 1 1 1 1 1 1 1 1 1 1 1 1 0.01117765303287716 1 1 1 1 1 1 1 1 1 1 1 1 1 1 1 1 1 1 1 1 1 1 1 1 1 1 1 1 0.010539831937649178 1 1 1 1 1 1 1 1 1 1 1 1 1 1 1 1 1 1 1 1 1 1 1 1 1 1 1 1 1 1 1 1 1 1 1 1 1 1 1 1 1 1 1 1 1 1 1 1 1 1 1 1 1 1 1 1 1 1 1 1 1 1 1 1 1 1 1 1 0.0086911760286888257 1 1 1 1 1 1 1 1 1 1 1 1 1 1 0.010091980397821342 1 1 0.01037488554977809 1 1 1 1 1 1 1 1 1 1 1 1 0.011348105085100695 0.013422932830676857 1 1 1 1 1 1 1 1 1 1 1 1 1 0.013756914717281889 1 0.013854909682989313 1 1 1 1 0.014764957740427362 1 1 1 1 1 1 1 1 1 1 1 0.012756452323742482 1 1 1 1 1 1 1 1 1 0.011045612139495412 1 0.017116373165298619 1 1 0.0094054044006093244 1 1 0.01000117388527825 0.013058967565884991 1 1 1 0.015851143249943439 0.0098486966151015605 1 1 1 1 1 1 1 0.012530895184921557 1 0.013169270629068485 0.010049368275298938 1 1 0.011575172042262577 1 1 1 1 1 1 1 0.011593877767395944 1 1 0.012951358798534771 1 1 0.010301348121027353 1 0.010671712158529896 1 0.0099942822295252705 1 1 1 1 1 0.010533174903669345 0.0072207440539507617 0.010038934184608449 1 1 1 1 1 1 1 0.010964070193049293 1 1 1 0.0096751876001088706 0.011598546255505628 1 1 1 1 1 0.010148483869131211 1 1 1 1 1 1 1 1 1 1 1 1 1 1 1 1 1 1 1 1 1 1 1 1 1 1 1 1 1 1 1 1 1 1 1 1 1 1 0.0089150875595105043 1 1 1 0.011733159163355258 1 0.01082841387064188 1 1 1 0.010014008298173147 1 1 0.010120189922431662 1 0.0096619873832145473 0.010000459034755752 0.0094556113882552657 1 1 1 1 1 1 0.0095963857324468799 1 1 1 1 1 1 0.016867847006974041 1 1 1 1 1 1 1 1 1 1 1 1 1 1 1 1 1 1 1 1 0.021121081662708104 1 1 1 1 1 1 0.025609209018239081 1 1 1 1 1 1 1 0.010264346626987378 1 0.010093223249146934 1 1 1 1 0.011211850524489652 1 1 1 1 1 0.0087970451040941047 0.013921571072762304 1 1 0.012512982558305515 1 1 1 0.0097947410457773602 1 1 1 1 1 1 1 0.0099065183131331492 1 1 1 1 1 1 1 1 1 1 1 1 1 1 1 1 1 0.015236183718186254 0.010508417178456426 1 1 1 1 1 1 1 1 1 1 1 1 1 1 1 1 1 1 1 1 1 1 1 1 1 1 1 1 1 1 1 1 1 1 0.0093132743193113932 0.012351324335273701 1 1 1 1 1 0.010836949065686663 1 1 1 1 1 1 1 1 1 1 1 1 1 1 1 1 1 1 1 1 1 1 1 1 1 1 1 1 1 1 1 1 1 0.0099768394602750866 1 1 1 1 1 0.014522028919558609 1 1 1 1 1 1 0.015091256243461589 1 1 1 1 1 0.009644889919406107 1 1 1 1 1 1 0.013502025080211855 1 1 1 1 1 1 1 1 0.0074126444069409075 1 1 0.022140767813872479 1 1 1 0.010468822716012353 1 1 1 1 1 0.025613952424618981 1 1 1 1 1 1 1 1 1 1 1 1 1 1 1 1 1 0.012288779799582244 0.010876857730629153 1 1 1 1 1 1 1 1 1 1 1 1 1 1 1 1 0.027814428770796876 1 1 1 1 1 1 1 1 1 1 1 1 1 1 1 1 1 1 1 1 1 1 1 1 1 1 1 1 1 1 1 1 1 1 1 1 1 1 1 1 1 0.0061592811524207999 1 1 1 1 0.0036467590424649186 1 1 1 1 1 0.023274406352965522 1 1 1 0.013361931029880082 1 1 0.0025102933571999834 0.020432333597527417 0.012515925460205163 1 1 1 1 1 1 1 1 1 1 0.016620009514939381 1 1 1 1 1 1 1 1 1 1 1 1 1 1 1 1 1 1 1 0.018664503824268264 1 0.018211718082402205 1 1 1 1 1 1 0.018910885436365137 0.014281635491654201 1 1 1 1 1 1 1 1 1 1 1 1 1 1 1 1 0.0092353439361862553 1 1 1 1 1 1 1 1 0.0068006352027095663 1 1 1 0.0033926060638948918 1 1 1 1 1 1 1 1 1 1 1 0.025211936135288045 1 1 1 1 1 1 1 1 1 1 1 1 1 1 1 1 1 1 1 1 0.01025671986064804 1 1 1 1 0.010524301889762369 1 1 0.010782450755148757 1 1 1 1 1 1 1 0.012007213588778366 1 1 1 1 1 1 0.011096597907100181 0.024645575555508743 1 1 1 1 1 1 1 1 1 1 1 1 1 1 1 1 1 0.011462551043932538 1 0.011909964799401923 1 1 1 1 0.010263271047441763 1 1 1 0.010128799809850954 1 1 1 1 1 1 1 1 1 1 1 1 1 1 0.010605468083628115 1 1 1 1 1 0.01180615862867399 1 1 0.010117067308829976 1 1 1 1 0.0099980678788385846 1 1 1 0.010667645439676233 1 0.0098952152767458369 0.010824967865009265 1 1 1 1 0.011313955278885575 0.010520817795870836 1 1 1 1 1 1 1 1 1 1 1 1 1 1 0.010155920808559052 1 0.014418142486632528 1 1 1 0.012725363685799043 1 1 1 1 1 1 1 1 1 1 1 1 1 1 1 1 1 1 0.014418443243921275 1 1 0.014873488090978597 1 1 0.010016664286809302 0.015153574371733642 1 0.014305617059345015 0.015267828847798474 1 1 1 1 0.017359743307104856 1 0.014198440724400071 1 1 1 1 0.010171194440670453 1 1 1 0.010492173903291468 1 1 1 1 1 1 1 1 0.010786168045544844 1 1 1 1 1 0.010121239101900962 1 1 1 1 1 0.010011558397796411 0.020728947877247411 1 1 1 1 0.0099916254042057319 0.021156424438941696 1 1 0.010200885817868165 0.0064915615836474844 0.010304011362381947 0.014902550026543716 1 1 1 0.01363890294662788 1 1 1 0.0084332553610927223 1 0.0099904620550816392 1 1 1 1 1 1 1 1 1 1 1 1 1 1 1 1 0.020602617396708215 1 1 1 1 1 1 1 0.013612814498845126 1 1 1 1 1 1 1 1 1 1 1 1 1 1 1 1 1 1 1 1 1 1 1 1 1 0.010595016753271876 1 0.01178771452004757 1 1 1 0.010606701769727606 0.010964686708493775 1 1 1 1 1 1 1 1 1 1 1 1 1 1 1 1 1 1 1 1 1 1 1 1 1 1 1 1 0.0086831511356557107 1 1 1 1 0.0099052620316036222 1 1 0.0074216063615640086 1 1 1 1 1 1 1 1 1 0.010171639401267646 1 1 1 1 0.0098629689425927571 1 0.012517941871408847 1 1 1 0.012868593622059912 1 0.012980286611860948 1 1 1 1 1 1 1 1 1 1 1 1 0.012357931644526927 1 0.0088425811728101832 1 0.014386344789486031 0.010624914739060014 1 0.010887249639234098 0.010441759175837286 1 0.0084708119340645791 1 1 0.011430206677954982 1 0.012794739954945967 1 1 0.0085680069440018849 1 1 0.0099807818633239065 0.010000419024029209 1 1 0.012311853353758631 1 1 0.0092691753451165215 1 0.012068337788225681 0.00948101943307233 1 1 1 0.012261738132125263 0.009282668793937238 1 1 0.0097832656159753673 1 1 0.0099764074462001234 0.010063947944820451 1 1 1 1 0.010359543617179844 1 1 0.012480589455742033 1 1 1 1 1 1 1 0.011407449867297761 1 1 1 0.01044817602277423 1 1 1 1 0.011045121238685547 1 1 0.010560224575968689 1 0.009543627058112028 0.01220272384432328 1 0.010760697454984855 0.0099564370461443057 1 1 1 0.011250000549298717 0.010105683788017973 1 1 0.012493283153773155 1 0.011088047195588221 1 0.012137213989974128 1 1 0.010578052774887938 1 1 0.018768543055139454 0.010910526020978729 1 0.020140004530401434 1 0.010541309356489547 1 1 1 1 0.0098923135200551238 1 1 1 1 1 1 1 1 1 1 0.011652295346492442 1 1 1 0.0095743615872083219 1 0.0095246071541170499 1 1 1 0.012053313383358428 1 1 1 1 1 0.010451824068969643 1 1 1 1 1 1 0.016978490467357429 1 1 1 1 1 1 1 1 1 1 1 1 1 1 1 1 1 1 1 0.010495294632267031 1 1 1 1 1 0.010195242420640073 1 0.010228758464368475 1 1 1 1 1 0.014017611287026653 1 1 1 1 1 0.013190510241744334 1 1 1 1 1 0.010491411909784974 0.010031423217672872 1 1 1 1 1 1 1 1 1 1 1 1 1 1 1 1 1 1 1 1 0.010109831994536005 1 1 1 1 1 1 0.0095916860433619897 1 1 1 1 1 1 0.012497038667372491 0.010272040422134849 1 1 1 1 1 0.0099776074785339359 1 1 0.01407053957134187 0.010007756343450983 1 0.0099198845359651545 1 0.0090797413343675377 1 1 1 0.0132497891081953 1 1 1 1 0.0124049568001144 1 1 1 1 1 0.0087925541366089804 1 1 1 1 1 0.012177896429056805 0.0094276245926017514 1 0.011014066995156988 1 1 0.0099970698710087208 0.012120649603112061 1 0.0091306880196302433 0.0089725928657645483 1 1 0.010005397807950405 1 1 1 1 1 1 1 1 1 1 1 1 1 0.011222851806908244 0.0081783540691529807 1 1 1 1 1 1 0.01116120973442437 1 1 0.010149838274260739 1 1 1 1 1 0.0098242336535563739 0.013714090206217862 1 1 1 0.011382488874391463 1 1 1 1 1 1 0.0099284346628490845 1 1 1 1 1 1 1 1 1 1 1 1 0.0095005407778199213 0.010817068322980728 1 1 1 1 1 1 1 1 1 1 1 1 1 1 1 1 1 1 0.0096897455179041636 1 1 1 1 1 1 1 1 1 1 1 1 1 1 1 1 1 1 1 1 1 1 1 1 1 1 1 1 1 1 1 1 1 1 0.010371387431151693 1 1 1 1 1 1 1 1 0.010865453060034058 1 1 1 0.010270307483214117 1 1 1 1 1 0.010474137788913799 1 1 0.010790767582685663 1 1 1 0.010296701953803295 1 1 1 1 1 0.011296405050636817 1 1 1 1 1 0.0095166042287527525 1 1 1 1 0.010223681518393309 1 1 1 1 1 1 1 1 1 1 1 1 1 1 1 1 1 1 1 0.011957303086765141 1 1 1 1 1 1 1 1 1 0.010685458155441484 1 1 1 1 1 1 1 1 1 1 1 1 1 1 1 1 1 1 1 1 1 1 1 1 1 1 1 1 1 1 1 1 1 1 1 1 1 1 1 1 1 1 1 1 1 1 1 1 1 1 1 1 1 1 1 1 1 1 1 1 1 1 1 1 1 0.010093230317688398 1 1 1 0.010233074814784899 1 1 1 1 1 1 1 1 1 1 1 1 1 1 1 1 1 1 1 1 1 1 1 1 1 1 1 0.010073167600239928 1 1 1 1 1 1 1 1 0.010023808601945084 1 1 1 1 1 1 1 1 1 1 1 1 1 1 1 1 1 1 1 1 1 1 1 1 1 1 1 1 1 1 1 1 1 1 1 1 1 1 1 0.014028225749101892 1 1 1 1 1 1 1 0.012292560359075442 1 0.010707851622491254 1 1 1 1 1 1 1 1 1 1 1 1 1 1 1 1 1 1 1 1 1 1 1 1 1 1 1 0.010003274788488616 1 0.015270860621350487 1 0.0094030070443843761 0.0099551953940144079 1 1 1 0.014301419028672244 0.0099968716615615044 1 0.011443180937042521 1 1 1 1 0.0112384174393249 1 1 1 1 1 1 1 1 1 1 1 1 1 1 0.010861764190401323 1 1 0.012215795699293217 1 0.0093585950067808996 0.0092726354491333533 1 1 1 0.010288524534851386 1 1 1 1 1 1 1 1 1 1 1 1 1 1 1 1 1 1 1 1 1 1 1 1 1 1 1 1 1 1 1 1 1 1 1 1 1 1 1 1 1 1 1 1 1 1 1 1 1 1 1 1 1 1 1 1 1 1 1 1 1 1 1 0.0094201313214745917 1 1 1 1 1 1 1 1 1 0.013346452122827852 1 0.014802025472069763 1 1 0.010964925803490079 1 1 1 1 1 1 1 1 1 0.015145340350799601 1 1 1 0.0093414993051517316 1 1 1 1 1 1 1 1 1 0.014818199117482776 1 1 1 1 1 1 1 1 1 1 0.012860570902315602 1 1 1 1 1 1 1 1 1 1 1 1 1 1 1 1 1 1 1 1 1 1 1 0.010274369361892523 1 0.010772826629331994 1 1 1 1 1 1 1 1 1 1 0.014756631590460634 1 1 1 1 1 1 1 1 1 1 1 1 1 1 1 1 1 1 1 1 1 1 1 1 1 1 1 1 1 1 1 1 1 1 1 0.010054631918801597 1 1 1 1 0.010076947899547571 1 1 1 1 1 1 1 1 1 1 1 1 0.010101986666124642 1 1 1 1 1 1 1 1 1 0.010298140454967091 1 1 1 1 0.011698385267500581 1 1 1 1 1 1 1 0.014774726452886893 1 0.016955052696972797 1 1 1 1 1 1 0.011843852103403028 1 0.010665703579391263 0.01047856204090028 1 1 1 0.010235119863955502 1 1 0.011098555688359681 1 1 1 1 0.014084872967003434 1 1 1 1 1 1 1 1 1 0.0088194859836599176 1 1 1 1 0.0102211071078707 1 1 1 1 0.012509597990828724 1 1 0.01039292330538983 1 1 0.010798103010180193 1 0.0098696737284802057 1 1 1 1 1 1 1 1 0.013556017532379845 1 1 1 1 1 1 1 1 1 1 0.011027978477605215 1 0.010363353822578704 1 1 1 1 1 1 1 1 1 1 1 1 1 1 1 1 1 1 1 1 1 1 1 1 1 1 1 1 1 1 1 1 1 1 1 1 1 1 1 1 1 1 1 1 1 1 1 1 1 1 1 1 1 1 1 1 1 1 1 1 1 1 1 1 0.014691042253805856 1 1 1 1 1 1 1 1 1 0.01554810974755935 1 1 1 1 1 1 1 1 1 1 0.0099741661332007243 1 1 1 1 1 1 1 1 1 1 1 1 1 1 1 0.0079655470913235233 1 1 1 1 0.0099316612389474188 1 1 0.0092961726410562395 1 1 1 1 1 1 0.011307157412188658 1 0.0097982502809912855 1 1 1 0.010311536448272467 1 0.00989164278793132 0.011385965901596774 1 1 1 0.013549063282871615 1 1 1 1 1 1 1 1 1 1 0.010003238675908783 1 1 1 0.012231450007320149 1 1 0.0094353441217416099 1 0.011574600836641177 0.011299724895129341 0.011725050133197277 1 1 0.0098888277247310974 1 0.0095704436059931806 0.011362424120306981 1 1 1 0.013944839942497544 1 0.0083269346694428079 1 0.0094814205020067651 1 1 0.008993739593970056 1 1 1 0.011147027323727372 1 0.010080757588982704 1 0.010006133247531693 1 1 1 1 1 0.01328666884156126 1 1 1 1 0.011319896560359971 1 0.012817519281029203 1 1 0.013011264267085423 0.01003046372279401 1 0.0096476787942676272 1 1 1 1 1 0.0098705261221708994 1 1 1 1 1 1 0.011343012070900502 1 1 1 1 1 1 1 1 1 1 1 1 1 1 1 1 1 1 1 1 1 1 1 1 1 1 1 1 1 1 1 1 1 1 1 1 1 1 0.0098148416864328267 1 1 1 1 1 1 1 1 1 1 1 1 1 1 1 1 1 1 1 1 1 1 1 1 1 1 1 1 1 1 1 1 1 1 1 1 1 1 1 1 1 1 1 1 0.012859890364361998 1 1 0.017075977885657991 1 1 0.011122265156955463 1 1 1 1 1 1 1 1 1 1 1 1 1 1 1 1 1 1 1 0.011269291463956834 1 1 1 1 0.012356778237073847 1 0.0087396054901273806 1 0.015912677794675721 1 1 1 1 0.012478327507803052 1 1 1 1 1 1 1 1 1 0.0099751436603146906 1 1 1 1 0.0098587988806263516 1 0.010282533059689947 1 1 1 1 1 0.011154500390422246 1 1 1 1 1 1 1 1 1 1 0.0096051127137075781 1 1 1 1 1 1 1 1 1 1 1 0.010145676291434931 1 1 1 0.010224470294839069 1 1 1 1 1 1 1 1 1 1 0.010084307222619816 1 1 1 1 1 1 1 1 1 0.010210264824663954 1 1 1 1 1 1 0.016079695636179357 1 1 1 1 1 0.015990324414094554 1 1 1 1 1 1 1 1 1 1 1 1 1 1 1 1 1 0.00987060881705705 1 1 1 1 1 0.0097493162592417765 0.011247682930736263 0.0098807459995910295 1 0.009998825390389255 1 1 1 1 1 1 1 1 1 1 1 1 1 1 1 1 1 1 1 1 1 1 1 1 1 1 1 1 0.010557764141758444 1 1 1 1 1 1 1 0.010026413391659383 1 1 1 1 1 1 1 1 1 1 1 0.010283396986394513 1 1 1 1 1 1 1 0.0099316403862707674 1 0.010693831239790886 1 1 1 0.010625642707793126 1 1 0.0094981840705402765 1 1 1 1 1 1 1 1 1 1 1 1 1 1 0.010339784048374507 0.014395688417477947 1 1 1 1 1 0.0098079781146857125 1 1 1 1 0.0091406234562982809 1 1 0.011221923258346636 1 1 1 0.015915808199534247 1 1 1 1 0.009948221346947313 1 1 1 1 1 1 1 1 1 1 1 1 1 1 1 1 0.01063494517765873 1 1 1 1 1 1 0.011149930583879083 1 0.0098067571617297018 1 0.0098433526519367178 1 1 1 1 1 1 0.010350391767044019 0.019306058107414995 1 1 1 1 1 0.008802289915956581 1 1 1 1 1 1 1 1 1 1 1 1 1 1 1 0.0093251516807766645 1 1 1 1 0.011230607382245614 1 1 1 1 1 1 1 1 1 1 1 0.011935475977113086 1 1 1 1 1 1 1 1 1 1 1 1 1 1 1 1 1 1 1 1 1 1 1 1 0.011118562882710526 1 1 1 1 1 0.010075170736424518 0.0090514858719024528 1 1 1 1 1 0.012961252349318331 0.011160913867401491 1 0.013203094684776536 1 1 1 1 1 1 1 0.010449103779584339 0.01135761393679839 1 0.013346509579057548 1 0.010704862691600389 1 1 1 1 1 1 1 1 1 1 1 0.013105734864081755 1 1 1 1 1 1 1 1 1 1 1 1 1 1 1 1 1 1 1 1 1 1 1 1 1 1 1 1 0.0088197524731362872 1 1 0.015547447598827977 1 1 1 0.014983495964650715 1 1 1 0.0077692596557427602 0.010621754430253743 1 1 1 1 1 1 1 1 0.009811568747186401 0.013721557425968792 1 1 1 1 1 1 1 1 0.011497564800744086 1 1 1 1 1 1 1 1 1 1 1 1 1 1 1 1 1 1 1 1 1 1 1 1 1 1 1 1 1 1 1 1 1 1 1 1 0.0080475305202518423 1 0.0090892970801720804 1 1 1 1 1 1 1 1 1 1 0.003511132150737388 1 1 1 1 0.01365434209472406 1 1 1 1 0.019539116784858583 1 1 1 1 1 1 1 0.0069592012943196849 1 0.01148636116467712 1 0.0081828776952875062 1 1 1 1 1 0.0087300722634085504 1 1 1 1 0.0095258115967990845 1 1 1 1 1 1 1 1 1 1 1 1 1 1 1 1 1 1 1 1 1 1 1 1 1 1 1 1 1 1 1 1 1 1 1 1 1 1 1 1 1 1 1 1 1 1 1 1 1 1 1 1 1 1 1 1 1 1 1 1 1 1 1 1 0.011508427078922974 1 1 1 1 1 1 1 1 1 1 1 1 1 1 1 1 0.01354729873870859 1 1 0.0096165305972716573 1 1 1 1 1 1 1 1 1 1 1 1 1 1 1 1 1 1 1 1 1 1 1 1 1 0.0089544266849133063 1 1 1 0.0090525627631380026 1 1 0.011145418335623023 1 1 1 1 1 0.011464368041568685 1 1 1 1 1 1 1 1 1 1 1 1 1 0.01252141549672159 1 1 1 0.010466911414216103 1 0.010342877716429008 1 0.0097194507280104533 1 1 1 1 1 1 1 1 1 1 1 1 1 1 0.010049754579378165 1 1 1 0.011071813804656567 1 0.010005305608481018 1 1 1 0.012175057114631717 1 1 1 1 1 1 1 1 1 1 1 1 1 1 1 1 1 1 1 1 0.010113575803902066 1 1 1 1 1 1 1 1 1 1 1 1 1 1 1 1 1 1 1 1 1 1 1 1 1 1 1 1 1 1 1 1 1 1 1 1 1 1 1 1 0.010070649561689585 1 1 1 1 1 1 1 1 0.015343621208748548 1 1 1 0.010084776746593627 1 1 1 1 1 1 1 1 1 1 1 1 1 1 1 1 0.016149333892683207 1 1 1 1 1 1 1 1 1 1 1 1 1 1 1 1 1 1 0.016413254334462356 1 1 1 1 1 1 1 1 1 0.010141172848338579 1 1 1 1 1 1 1 1 1 0.010369934350571043 1 1 1 1 1 1 1 1 1 0.011162071049386345 1 1 1 1 1 1 0.010220389548496649 1 1 1 1 1 1 1 1 1 0.010079229547209113 1 0.010623403722415013 1 1 1 1 0.012008257783708065 0.01000059620572822 1 1 0.0099961584386078078 1 1 1 1 1 1 1 1 1 1 1 1 1 1 1 1 1 1 1 1 1 1 1 1 1 1 1 1 1 1 0.01388321164320281 1 1 1 1 1 1 1 1 1 1 1 0.01154590812707669 1 1 1 1 1 1 1 1 1 0.010843462127836254 1 1 0.011387406886122348 1 1 1 1 1 1 1 1 1 1 1 1 1 1 1 1 1 1 1 1 1 1 1 1 1 1 1 1 1 1 1 1 1 1 1 1 1 1 1 1 1 1 1 1 1 1 1 1 1 1 1 1 1 1 1 1 1 1 1 1 1 1 1 1 1 1 1 1 1 1 1 1 1 1 1 1 1 1 1 1 1 1 1 1 1 1 1 1 1 1 1 1 1 1 1 1 1 1 1 1 1 1 1 1 1 1 1 1 1 1 1 1 1 1 1 1 1 1 1 1 1 1 1 1 1 1 1 1 1 1 1 1 1 1 1 1 1 1 1 1 1 1 1 1 0.0088577226180483418 0.015944782405798684 0.010016014662453474 0.010235072333009207 1 1 1 1 1 1 1 1 1 0.0096002287563231956 1 1 0.0099440407292584656 1 1 1 1 1 1 1 1 1 1 1 1 0.01173615160379906 1 1 1 1 0.0095589783635751657 1 1 1 1 0.01444131921937733 1 1 1 1 1 1 0.0084245105189874429 0.008604136155073102 1 1 1 1 1 1 1 0.0074266666411466117 1 1 1 1 1 0.0057490959622990643 1 1 1 1 1 1 1 1 1 1 0.0094441866169935051 1 1 1 1 1 1 1 0.0098819529134369401 1 1 1 1 1 0.010015970084906331 1 1 1 1 1 1 1 1 1 1 1 1 1 1 1 1 1 1 1 1 1 1 1 1 1 1 1 1 1 1 1 1 1 1 1 0.013570159890049407 1 1 1 1 1 1 1 1 1 1 1 0.010138225490399201 0.010045914552996076 1 1 1 0.012878332732581672 1 0.0087987397553320953 1 1 1 1 0.010066348441020228 1 1 1 1 1 1 1 1 1 1 1 1 1 1 1 1 1 1 1 1 1 1 1 1 1 1 1 1 1 1 1 0.011042682853490773 1 1 1 1 1 1 0.0099215886710204513 1 1 1 1 1 1 1 1 1 0.009514035575257351 1 1 1 1 1 1 0.0098453981435641571 1 1 1 1 1 1 1 0.0093823760981048328 1 1 1 1 1 1 0.0096970737009370641 1 1 0.0090745674227887489 0.011610957576281913 0.012179251505612675 1 1 1 0.012240537497480202 1 1 0.0099648485581081536 0.012133857564413405 1 1 0.013471885731861144 1 1 1 0.009542534694316266 1 1 1 0.016510349011750667 1 1 1 0.010049846848166726 1 1 1 0.010292055719944607 1 1 1 1 1 1 0.0099329372854932707 1 1 1 1 1 1 1 1 1 1 1 1 1 1 1 1 1 0.010253581270208541 1 1 1 0.013374892568173868 1 1 0.011476247426470576 1 1 1 1 1 1 1 1 1 1 1 1 0.01049850388618323 1 1 1 1 1 1 1 1 1 1 1 1 1 0.015931568057395686 0.010154846854896258 1 1 1 1 1 1 0.017351704417447621 1 1 0.010155433475389443 1 1 1 1 1 1 1 1 1 1 1 1 0.01396770087939333 1 1 1 1 1 1 1 1 1 1 1 1 1 1 0.010897965930212883 1 1 1 1 1 1 1 0.012507408446972368 0.010192269454262015 1 1 1 1 1 1 1 1 1 1 1 1 1 1 1 1 1 1 1 1 1 1 1 1 0.010258686744365104 1 1 1 1 1 1 0.0099794763993245311 1 1 1 0.0098158869615028749 1 1 1 0.01229511256975346 1 1 0.011936067607048441 1 1 1 1 1 0.0099995391853597675 1 0.0095963558813359773 1 1 1 1 0.010283376745455318 1 1 1 1 1 0.010258042924919952 1 1 0.010257624830153099 0.0099491415679446374 1 1 1 1 0.0098132598220001671 1 1 1 1 1 1 1 0.0093658973025814527 1 1 1 1 1 1 1 1 1 0.012545495261753706 1 1 1 1 1 1 0.010337777352876396 1 1 0.0093886001583614164 1 0.0097953818475647603 1 1 1 1 0.010048774246300107 1 1 1 1 1 1 1 1 1 0.014644082321731767 1 1 1 1 0.010662548439024075 0.012555436963121624 1 1 1 1 1 1 1 1 1 1 1 1 1 1 1 1 1 1 1 1 1 1 1 0.0096070946712251276 1 1 1 0.010838420106466665 1 1 1 1 1 1 1 1 1 1 0.0087382021130209733 0.010968406114436904 1 0.013304780924320863 1 1 1 0.013213584698707433 1 1 1 1 1 1 1 1 1 1 1 1 1 1 1 1 1 1 1 1 1 0.0099809030194019446 1 1 1 1 0.012523908587572796 1 1 1 1 0.013237925194272034 1 1 0.0095434676855504635 1 1 1 0.013641337244267332 1 1 1 1 1 1 1 1 1 1 1 1 1 0.010132989512962372 1 1 1 1 0.010925175221109459 1 1 0.01103557939919296 1 0.0098731224890534798 1 1 1 1 1 1 1 1 1 1 1 1 1 1 1 1 1 0.010141079463601224 1 1 1 1 1 1 0.0085895111809225714 1 1 1 1 0.016001082249629386 1 1 0.0097644687239469511 1 1 1 1 1 1 1 1 1 0.010564497649327896 1 0.010081205411787988 0.010186479980815344 1 1 1 1 1 0.010358754078580735 1 1 1 1 1 1 1 1 1 1 1 1 0.015472163894558705 1 1 1 1 1 1 1 1 1 1 1 1 1 1 0.016307169186704863 1 1 1 1 1 1 1 1 1 1 1 1 1 1 1 1 0.0099200854518937346 1 1 1 1 1 1 1 0.0099250012238073174 1 1 1 1 1 1 0.0099763887121379954 1 0.010062802592704907 1 1 1 1 1 1 1 1 1 1 1 1 1 1 1 1 1 1 1 1 1 1 1 1 1 1 1 0.010666201793529721 1 1 1 1 1 1 0.010561072152083288 0.010260644746029349 1 1 1 1 1 0.0097726926708727475 1 1 1 0.010174484904578359 1 1 0.010174416792769453 1 1 1 1 0.0099776469836003259 1 1 1 1 1 1 1 0.011777698284010017 1 1 0.010313668234099651 0.01159264597877549 1 1 1 1 1 1 1 1 1 1 1 1 1 1 1 1 0.01096355675679031 1 1 1 0.010816680657456883 1 1 1 1 1 1 0.010404266369278249 1 1 0.010000030257182277 1 1 1 1 1 1 1 1 1 0.010136279189094433 1 1 1 1 1 1 1 1 0.0099834817125057582 1 1 1 1 0.010118823398957907 1 1 1 1 1 1 0.0099445063079535989 1 1 1 1 1 1 1 1 0.010002912360927376 1 1 1 1 1 1 1 1 0.0099676776301912892 0.0099005009123671953 1 1 1 1 1 1 1 1 0.01165887250549702 1 0.0097012051822950238 1 1 1 1 0.0101716952712919 1 0.011575479284795158 0.010499159175063812 1 1 1 1 1 1 1 1 1 1 1 1 0.011526922752551539 1 0.010674548117954971 0.014441971674275488 1 1 1 1 0.01246024437571636 1 1 0.010394522592712174 1 1 0.011365455880831127 1 0.012994055817497619 1 1 1 1 1 1 1 1 1 1 1 1 1 1 1 1 1 1 1 1 1 1 1 1 1 0.0097986702459180591 1 1 1 1 1 1 0.010220588588884805 0.009971509857195443 1 1 1 1 1 1 1 1 1 1 1 1 1 1 1 1 1 1 1 1 1 0.010093868877887199 1 0.010064591473737353 1 1 0.010060699745784718 1 0.010132973530154965 1 1 1 1 1 1 1 1 1 1 1 1 1 1 1 1 1 1 1 1 1 1 1 1 1 0.010029277404149856 1 1 1 1 1 1 1 1 1 1 1 1 1 1 1 1 1 1 1 1 1 1 1 1 1 0.010331297288074463 1 1 1 1 1 1 1 1 1 0.010000728907694691 1 0.0107076420516009 1 1 1 0.010273481431812066 1 1 1 1 1 1 1 1 1 1 1 0.010559197194109894 1 1 1 1 1 1 1 1 1 1 1 1 1 1 1 1 1 1 1 1 1 1 1 1 1 1 1 1 0.0099573399344980874 0.0098307866976849213 1 1 0.0099833487095665682 1 1 1 1 1 0.013289245445671342 1 1 1 1 1 0.0097242193315516517 1 1 1 1 1 1 0.0095910501591142186 1 1 1 1 0.010461440742506285 1 0.0099244762609407809 1 1 1 1 1 1 1 1 0.010368562838635385 1 1 1 1 1 1 1 1 1 1 1 0.010241536078997637 1 1 1 0.012334050668206545 0.01135570835316593 1 1 1 1 0.012551122051611621 1 0.010101588634373472 1 1 1 1 1 1 1 1 1 1 1 0.012114816100039552 1 1 1 1 1 1 0.011355753329599406 1 0.015654644753041298 1 0.010749841161535677 0.0083301893273016528 0.010008579183841876 1 1 1 1 1 0.013636062907518346 1 1 0.014404250050350981 1 1 1 1 1 1 1 1 1 1 1 1 1 0.0099994123510801711 0.014355017358098056 0.010271759735830896 1 1 1 0.010008512093321705 1 0.014077481137582322 0.0099993642014785181 1 1 1 1 0.017857333475660687 1 1 1 1 1 1 1 1 1 1 0.014094954141503906 1 0.013879077918118295 1 1 1 1 1 1 1 1 1 0.011457616005360908 1 0.011963086740733117 1 1 1 0.0096161543729164217 1 0.014181638017323266 1 0.013061648304017879 1 1 0.0088801363263200511 0.010008290114364922 1 1 1 1 0.010037970913244751 1 1 0.014546090790960895 0.013543182731223886 0.0099187582750418415 1 1 0.0096838561079814114 1 0.009158554652131265 1 1 1 1 0.011134139331522037 0.012964542560047553 0.0093990693162773805 1 1 0.013401933111088267 1 1 0.0089444443601629595 0.011825950652691998 1 1 1 1 0.0098406426030005385 1 0.013180210844525538 0.010578983726144306 1 1 1 0.010309097989759538 0.01120217094682123 0.0098989444927860843 1 1 1 1 1 1 0.00999757841317718 1 1 1 0.01373042861912447 1 0.012610864834732595 1 1 0.011294418610185491 1 1 1 1 1 1 0.0099845809914511363 0.015239718344409809 1 1 1 1 1 1 1 0.0096086409811004404 1 1 1 1 1 1 1 1 1 1 1 1 1 1 0.014020842690574813 1 1 0.011616460521582063 1 1 1 1 1 1 1 1 1 1 1 1 1 1 1 1 1 0.010251587971830333 1 1 0.010894247814668891 1 1 0.010794930148228446 0.010700162221883677 1 1 1 0.010035732470705673 1 1 1 1 1 1 0.01003371256029903 1 1 1 1 1 1 1 0.016352273952807639 1 1 1 0.013426996181223746 1 1 1 0.010175456725466979 1 0.0092788247023482331 1 0.01230960462713721 1 1 0.0099561177918224726 1 1 0.0099999243392752419 1 1 1 0.010587246428995809 1 0.010205894615580116 1 1 0.012643587025696127 1 0.011880734731095594 1 0.013521575386332075 0.0097115268472814723 1 1 1 0.010163867012823733 1 0.011504830650014343 0.011389205895185642 1 1 1 0.011709903485753423 0.010000858067374146 0.012790314119842452 1 1 1 1 1 1 1 1 1 1 0.010053157492235851 1 1 1 1 1 1 1 1 0.011097599549523827 1 1 1 1 0.011352566386864467 1 1 1 1 1 1 1 1 1 1 0.0099991661757866199 1 0.0099330743600640932 1 1 1 1 1 1 1 1 1 1 1 1 1 1 1 1 0.0094133159086979817 1 1 1 0.010015303581366777 0.012905067581396245 1 1 1 0.0092898983130304258 0.013830680859571023 1 1 1 1 0.01317169831986425 1 1 0.010691455610116786 1 1 1 0.012978464617154441 1 0.010286460417329725 0.012119804278598812 1 0.011594927480649249 1 1 1 1 1 1 1 1 1 1 1 0.010076938159496455 1 1 1 0.013943352840760037 1 1 1 1 1 1 0.012334364137856709 1 1 0.010004890384524219 1 1 0.0099621205947637848 1 1 1 1 1 1 1 1 1 1 1 1 1 1 1 1 1 1 1 1 1 1 1 1 1 1 1 1 1 0.011592134616312515 1 1 1 1 1 1 1 1 1 1 1 1 1 1 1 1 1 1 1 1 1 1 1 1 1 1 1 1 1 1 0.010602775390250429 1 1 1 0.011254469019880753 1 1 1 1 1 1 1 1 1 1 1 1 1 1 1 1 1 1 1 0.0081277106775869863 0.010001453576427267 0.0083462551200642124 1 1 0.011296818991366543 0.01004667908891034 1 1 1 1 0.0099661400841535869 0.012154090756385495 1 1 0.0097627270847245838 1 1 1 1 0.0088327968033657216 1 1 1 1 1 1 1 1 1 1 1 1 1 1 1 1 1 1 1 1 1 1 1 1 1 1 1 1 1 1 1 1 1 1 0.010025470398885759 0.0099990380373653487 1 1 1 0.010398001679441729 1 1 1 1 1 1 1 1 1 1 0.010408827619033088 1 1 1 0.011060521248663406 1 1 1 1 1 1 1 1 1 1 1 1 1 1 1 1 1 1 1 1 1 1 1 1 1 1 1 1 1 0.012469555918743637 1 1 1 1 1 1 0.016077288266634814 1 1 1 1 0.010418597307392724 1 0.011009007772674689 1 1 0.010943223016546991 1 1 1 1 0.01179768607329078 1 0.015572204135364962 1 1 1 1 1 0.01800845749763148 1 0.010002580891265777 1 1 1 1 1 1 1 1 0.015210488299703784 1 1 1 1 1 0.014998946098239031 1 1 1 1 1 0.0098986454957532815 1 1 1 1 1 0.011539904373756241 1 0.011123172835348284 0.012431759407370447 1 0.01162085783148944 1 0.010191294858294907 0.015339927141606206 1 0.0100442224135624 1 0.012617353416951676 1 1 0.01528626717164961 1 1 1 1 1 1 1 1 1 1 1 0.01003903234803916 1 1 1 1 1 1 0.0139125467490245 1 1 1 1 1 1 1 1 1 1 1 1 1 1 1 1 1 1 1 1 1 1 1 1 1 1 0.010248814126004362 1 1 0.01306937242671008 0.010024046344730399 1 0.010925494784074606 1 1 1 1 1 1 1 1 1 1 1 1 1 1 1 1 0.01354168336663893 1 0.010235749855052786 1 1 1 1 1 1 1 1 0.01421425020952452 1 0.01028704636484544 1 1 0.0099535040103342978 0.0099994865954059868 1 1 0.010126402298757775 1 1 1 1 1 1 1 0.01469542668621044 1 1 0.015183733331946076 1 1 1 1 1 1 1 1 1 1 1 1 1 1 1 1 1 0.014975502085332304 1 0.00998255552315069 1 1 1 1 1 1 1 1 1 1 1 1 1 0.012115186217965014 0.012464523341712479 1 1 1 1 1 1 0.011561715195479147 1 1 0.010067598213868517 1 1 1 1 1 1 1 1 1 1 0.010791970435997117 1 1 0.01101761167429403 1 1 1 0.012110987322549824 1 0.01199744679875657 1 0.010420794667064104 1 0.010626553572797116 0.01056043110238062 1 1 1 0.01002743097111139 1 1 1 1 1 1 1 1 1 1 1 1 1 1 1 1 1 1 1 0.0098292050549051765 1 1 1 1 1 1 1 0.011214622676931048 1 1 1 1 0.010442788421558175 1 1 1 1 1 1 1 1 1 1 1 1 1 1 1 1 1 1 1 1 1 1 1 1 0.010393782338234627 1 1 1 1 1 1 0.011838584942405212 1 1 1 1 1 1 1 1 1 1 1 1 1 1 0.013013594111985844 1 0.016681774422124589 1 1 1 1 0.012259364421246354 1 1 1 1 0.011405058029057251 1 1 0.014221604105453405 1 0.017780363014139176 1 1 0.012273309227825239 1 1 1 1 0.011049992284342083 1 1 1 1 1 0.013891486151279572 0.010413081637421821 1 0.0094715971245988035 1 1 1 1 1 1 1 1 1 1 1 1 0.010096583645563543 1 1 1 0.011607879322685959 1 0.021277937524638288 1 1 0.0099873488491603792 1 1 1 1 1 1 1 0.0099952705298513283 1 1 1 0.019662488984049868 1 1 0.010650492924778409 1 1 0.018743175651543466 1 0.0105014616945728 0.01017590201807481 1 1 1 0.0101358428341282 1 1 1 1 1 1 1 1 1 1 1 0.012387901227524766 1 1 1 1 1 1 1 1 1 1 1 1 1 1 1 1 1 1 1 1 0.013046444965995076 1 1 1 1 0.013841026947701469 1 1 1 1 1 1 1 1 1 1 1 0.010079007350687409 1 1 0.014520434586323308 1 0.009826853380918571 1 1 1 1 1 1 1 1 1 0.012974934460324907 1 1 1 1 1 1 1 1 1 1 0.010754102634282378 1 1 1 1 1 1 1 0.013976989948438665 1 1 1 0.013123291246322348 0.009927125201524261 1 1 1 1 1 1 1 1 0.014151478776877799 1 1 0.010031545463092546 1 1 1 1 1 1 1 1 1 1 1 1 1 1 0.010968864481708472 1 1 1 1 1 1 1 1 1 1 1 1 1 1 1 1 1 1 1 1 1 0.010589292214192884 1 1 0.010864561857266454 1 1 1 1 1 1 1 1 1 1 1 1 1 1 1 0.0098319457493817389 1 1 1 1 1 1 1 0.011231363416794145 1 1 0.013507201949747749 1 1 1 1 1 1 1 1 1 1 1 0.01110323232706254 1 1 1 0.011967794184328983 1 1 1 1 1 1 1 1 0.012364285007993367 1 1 1 1 1 1 0.015369076331304516 1 1 1 1 1 1 1 1 1 1 1 1 1 1 1 1 1 1 1 1 1 0.011877588213086886 1 1 1 1 0.010484329492103308 1 1 1 1 1 1 1 0.010417821015027747 1 1 1 0.011007113229220626 1 1 1 1 1 1 1 1 0.01108503351278532 1 0.0097390517295581486 1 1 1 1 1 1 1 0.01268283163323479 1 1 1 1 1 1 1 0.010241490545071822 0.009384519584449252 1 1 1 1 0.011471165801110648 0.0093020821012734858 1 1 1 0.012608078821995357 1 1 1 1 1 1 1 1 0.010270701491092087 1 1 0.013574711918027414 1 1 1 1 0.0095432489783650442 0.011629931344228005 1 1 1 1 1 1 1 1 1 0.009908360373697191 1 1 0.010536722944327184 1 1 1 1 1 1 1 1 0.011327462819206768 1 1 1 1 1 0.010703440884824906 1 1 1 1 1 1 1 1 1 1 0.011949572762653893 1 1 1 1 1 1 1 1 1 1 1 1 1 1 1 1 0.011125415669418399 1 1 1 1 1 1 0.012382646857734776 0.011766758549703528 1 0.012232726211656894 1 1 1 1 1 1 1 1 1 1 1 1 1 1 1 1 1 1 1 0.012286126513874094 1 1 0.010001823129679883 0.013535003001920896 1 1 1 1 1 1 1 1 1 1 1 1 0.014954364085965038 1 1 1 1 1 1 1 1 1 1 1 1 1 1 1 1 1 1 1 1 0.0097554551013393619 1 0.01482350683193661 1 1 1 1 1 1 1 1 1 1 1 1 1 1 1 1 1 1 1 1 1 0.011889398669952587 1 1 1 1 0.011418752308406971 1 1 1 1 1 1 1 1 1 0.011055268841182957 0.013164027353121374 1 1 1 1 0.011748254849955911 1 1 1 1 1 1 0.012277196506443197 1 0.011313937076815255 1 1 1 1 1 1 1 1 1 1 1 1 1 1 1 1 1 1 1 1 1 0.014937901795288202 1 0.010459149178111561 1 0.017019000992026839 1 1 0.016948446933922681 1 0.016565735626657987 1 1 1 1 1 0.0092075996299521862 0.014992761619169414 1 1 1 0.009746185082991958 1 1 0.0098023015393209692 1 1 1 1 1 1 1 0.0096484310503247711 0.019552581820710242 1 1 1 0.0098461295110038073 1 1 1 1 1 1 1 1 0.021186492871327227 1 1 1 1 1 1 1 0.01224112705211023 1 1 1 1 1 1 1 1 1 1 0.010124720145233107 1 0.011882702986787175 1 1 1 1 1 1 0.015161219954680633 1 1 1 1 0.010031754972278751 1 1 1 1 0.012923798855030727 1 1 1 1 1 0.010311599842473209 1 1 1 1 1 1 1 1 0.011712016097207822 1 1 1 1 1 1 1 0.011371183435625515 1 1 1 0.011104154542774764 1 1 1 1 1 1 1 1 1 1 1 1 1 1 1 1 1 1 1 1 1 1 1 1 1 1 1 1 1 1 1 1 1 1 1 1 1 1 1 0.011868555161188482 1 1 1 1 1 1 1 1 0.015002639182109406 1 0.015482396540983066 1 1 1 1 0.012092184855879909 1 1 1 1 1 1 1 1 1 1 1 1 1 1 1 1 1 1 1 1 0.012348312520062148 1 1 1 1 1 1 1 0.009598956781900184 1 1 1 1 1 1 0.017652761060702002 1 1 0.010165632875612353 1 0.01764357179272744 1 1 0.0093104985099374329 1 1 1 1 1 1 1 1 0.010713200995772672 1 1 0.011440108451352666 1 1 1 1 1 1 1 1 1 1 1 1 1 1 0.011196518569464827 1 1 1 1 0.010468551769709861 1 1 0.010213561442060424 1 0.011316715585322748 1 1 1 1 0.0098334719543780418 1 1 1 1 1 1 1 1 1 1 1 1 0.01006738430729536 1 1 1 1 1 1 0.010134004615459906 1 1 1 1 1 1 1 0.010435863565625612 1 1 1 1 1 1 1 1 1 1 1 1 1 1 1 1 1 1 1 1 1 1 1 0.0097257775177553366 1 1 1 1 0.020635114351373052 1 1 1 1 0.020400426129500826 1 1 1 1 1 1 1 1 1 1 1 1 1 1 1 1 1 1 1 1 1 1 1 1 1 1 1 1 1 1 1 1 1 1 1 1 1 1 1 1 1 0.010633476684640134 1 1 1 1 1 1 1 1 1 1 1 1 0.010263351500511071 1 1 1 1 1 1 1 1 1 1 1 1 1 0.010001743019932088 1 1 1 1 1 1 1 1 1 1 1 1 1 1 1 0.0097207915639575641 1 1 1 1 1 0.010639808340192871 1 1 1 1 1 1 1 1 1 1 1 1 1 1 1 1 1 1 1 1 1 1 1 1 1 0.010233107398196956 1 1 1 1 1 1 1 1 1 1 1 1 1 1 1 1 1 1 1 1 1 1 1 1 1 1 1 1 1 1 1 1 1 1 1 1 1 1 1 1 1 1 1 1 1 1 1 1 1 1 1 1 1 0.0099880366906450798 1 1 1 1 1 1 1 1 1 1 1 1 1 1 1 1 1 1 1 0.010013171527571802 1 1 1 1 1 1 1 1 0.010014398630869174 1 1 1 1 1 0.009989100476687468 0.0095830237920494585 1 1 1 1 1 0.0091694698247514819 1 1 0.010635986695859042 1 0.011103361484570863 1 1 0.011232806581904359 0.01118749857707344 0.0097063405331338174 1 0.010289067521685784 1 1 1 1 1 1 1 0.012332575938059552 0.012052126661772276 1 1 1 0.012697379281681171 1 1 1 1 1 1 1 0.0099983565334289606 0.012193317317128836 1 1 0.0099980187246598417 1 1 1 1 0.01197377453509855 1 0.012558430423335194 1 1 0.011576942094003877 1 1 0.0095794369472743477 1 1 1 1 1 1 1 1 1 1 1 1 1 1 1 1 1 1 1 1 1 0.0095425910710008749 1 0.0099341086757337698 1 0.0098519611946237054 1 1 1 1 1 0.011924403579227028 1 1 1 1 1 0.010035416687083366 1 0.0098919615824773228 1 1 1 1 0.010781513361488663 1 1 1 1 1 1 1 1 0.010617448815733729 1 1 1 1 1 1 1 1 0.0099905076194128657 1 1 1 1 1 1 1 1 1 1 0.010274093621165093 1 1 1 1 1 1 1 1 1 1 0.010659397466137494 1 1 1 1 1 1 1 1 1 1 1 1 1 0.010684080784016239 1 1 1 0.01096945750338843 1 1 0.0097483106268119579 1 1 0.0091955638341528374 1 1 1 1 1 1 1 1 0.0088891284172493805 1 1 0.0084164815053863924 1 1 1 0.0098605044764611301 1 1 1 1 1 1 0.0096995816054357108 0.0073560550778968663 1 0.01052059082553497 1 0.0079954854539641147 1 0.010196181479929772 0.010047690244045468 1 1 1 1 1 1 1 1 1 0.011704478510961402 0.011205654024816896 1 1 1 1 1 1 0.0099671209496359475 1 1 1 1 1 1 1 1 1 1 1 0.010306067014764069 1 1 1 1 1 1 1 0.010694203254959666 1 1 1 1 1 1 0.010218540462591715 1 0.010120148090383804 1 1 1 0.01056980704759077 1 1 1 1 1 1 1 1 1 1 1 1 1 1 1 1 1 1 1 1 1 1 1 1 1 1 1 1 1 1 1 1 1 1 1 1 1 1 1 1 1 1 1 1 1 1 0.011481356055248618 1 1 1 1 1 0.011304192931744433 1 1 1 0.010550803676250766 1 1 1 1 1 1 0.010388136240195595 1 1 1 1 1 
</DataArray>
</CellData>
</Piece>
</UnstructuredGrid>
</VTKFile>
